# vtk DataFile Version 3.0
Bimslope
ASCII
DATASET UNSTRUCTURED_GRID

POINTS  11732   float
0.000000 0.000000 0.000000 
60.000000 0.000000 0.000000 
60.000000 5.000000 0.000000 
40.000000 5.000000 0.000000 
20.000000 15.000000 0.000000 
0.000000 15.000000 0.000000 
9.153076 7.776821 0.000000 
8.884015 6.486847 0.000000 
9.171299 4.912369 0.000000 
7.438501 4.193805 0.000000 
5.560970 4.616748 0.000000 
4.633219 5.845511 0.000000 
3.426870 7.159787 0.000000 
4.423609 8.515601 0.000000 
6.258016 8.576586 0.000000 
7.639682 8.346188 0.000000 
24.281373 8.907180 0.000000 
24.603363 7.377617 0.000000 
23.916197 5.921989 0.000000 
21.952113 5.867431 0.000000 
20.680688 6.856035 0.000000 
19.545536 8.177940 0.000000 
20.663601 9.490464 0.000000 
22.506283 9.369639 0.000000 
31.700388 0.761545 0.000000 
30.728532 1.987549 0.000000 
29.528419 2.971129 0.000000 
30.798053 4.473895 0.000000 
31.685026 5.693558 0.000000 
33.254734 6.570728 0.000000 
34.071587 5.313588 0.000000 
34.504478 4.275387 0.000000 
34.956211 2.705292 0.000000 
33.396089 1.612998 0.000000 
16.968791 2.410905 0.000000 
15.541916 2.683109 0.000000 
13.971221 2.907866 0.000000 
14.308892 4.957667 0.000000 
13.932564 6.546300 0.000000 
14.874882 8.021664 0.000000 
16.306268 9.118269 0.000000 
17.549581 8.014735 0.000000 
18.912364 7.240554 0.000000 
18.366154 5.354936 0.000000 
17.914765 3.901859 0.000000 
16.087028 12.104920 0.000000 
15.944381 11.141694 0.000000 
15.727724 10.164452 0.000000 
14.569294 9.719064 0.000000 
13.324756 10.130579 0.000000 
12.610241 10.960039 0.000000 
12.253376 11.922221 0.000000 
12.554706 13.032185 0.000000 
13.991565 12.941481 0.000000 
15.183321 12.881375 0.000000 
4.376175 3.878457 0.000000 
3.281592 3.085406 0.000000 
2.045508 2.898063 0.000000 
0.714361 3.677007 0.000000 
0.357780 5.249167 0.000000 
0.553603 6.723238 0.000000 
1.780283 7.194453 0.000000 
3.199428 6.958186 0.000000 
3.990770 5.495420 0.000000 
26.385982 4.318847 0.000000 
25.484150 4.756044 0.000000 
24.771530 5.670450 0.000000 
25.713911 6.739977 0.000000 
26.330729 7.894822 0.000000 
27.666388 8.299115 0.000000 
28.990353 8.249076 0.000000 
29.730124 7.376182 0.000000 
29.371457 6.226038 0.000000 
29.369617 5.225417 0.000000 
28.315975 4.677700 0.000000 
27.366160 4.150628 0.000000 
20.286641 2.040965 0.000000 
19.593806 0.717833 0.000000 
18.366319 1.475120 0.000000 
17.417828 2.723985 0.000000 
18.206906 3.965005 0.000000 
19.003141 4.638637 0.000000 
20.163404 4.576169 0.000000 
20.523031 3.191781 0.000000 
7.409253 8.839205 0.000000 
6.545026 9.421535 0.000000 
6.608581 10.435012 0.000000 
7.046041 11.329950 0.000000 
7.976386 12.355122 0.000000 
9.128998 11.986382 0.000000 
9.901980 11.204035 0.000000 
9.249623 10.102739 0.000000 
8.775155 8.768502 0.000000 
23.272634 0.753330 0.000000 
22.448313 1.146240 0.000000 
21.164607 1.221964 0.000000 
21.484902 2.652533 0.000000 
22.065685 3.634310 0.000000 
22.822309 4.226432 0.000000 
23.640303 4.395917 0.000000 
24.351892 4.073531 0.000000 
25.402088 3.564312 0.000000 
24.797154 2.295500 0.000000 
24.351841 1.099128 0.000000 
13.457576 4.418690 0.000000 
13.210555 3.609764 0.000000 
12.354864 3.559477 0.000000 
11.399110 3.277574 0.000000 
10.939586 4.366378 0.000000 
10.367950 5.178375 0.000000 
10.487836 6.087918 0.000000 
11.151756 6.606885 0.000000 
12.046622 6.602135 0.000000 
12.791062 5.985168 0.000000 
13.506143 5.301716 0.000000 
55.890900 2.919179 0.000000 
55.387036 1.741672 0.000000 
54.267061 1.091404 0.000000 
52.830093 1.671154 0.000000 
51.953402 2.883639 0.000000 
52.032598 4.103365 0.000000 
52.813514 4.801884 0.000000 
53.934703 4.789991 0.000000 
55.211570 4.270117 0.000000 
39.532161 1.775564 0.000000 
38.649945 0.595611 0.000000 
37.162889 0.700910 0.000000 
35.603773 1.853464 0.000000 
35.216264 4.135376 0.000000 
36.732006 5.186986 0.000000 
38.501992 5.374544 0.000000 
39.757579 3.588619 0.000000 
2.546397 11.576274 0.000000 
2.591135 12.482841 0.000000 
2.841418 13.248051 0.000000 
3.556814 13.782465 0.000000 
4.488470 13.782655 0.000000 
5.282957 13.605707 0.000000 
5.973247 13.196599 0.000000 
6.162214 12.514942 0.000000 
6.213942 11.726980 0.000000 
5.303935 11.406877 0.000000 
4.510982 11.278248 0.000000 
3.518150 11.113412 0.000000 
19.985825 11.685714 0.000000 
21.281905 10.881677 0.000000 
20.339290 9.953248 0.000000 
19.162610 9.715371 0.000000 
18.154816 9.458777 0.000000 
17.341169 10.017962 0.000000 
16.084249 10.539883 0.000000 
16.268876 11.625237 0.000000 
16.889708 12.618758 0.000000 
18.246176 12.864305 0.000000 
19.388544 12.413410 0.000000 
42.961048 2.424369 0.000000 
42.702855 1.252653 0.000000 
41.504363 0.593551 0.000000 
40.525426 1.967101 0.000000 
39.946944 3.096138 0.000000 
40.506915 3.986221 0.000000 
41.495830 4.810758 0.000000 
42.737575 3.744173 0.000000 
49.915782 2.940780 0.000000 
49.346897 3.251482 0.000000 
49.182505 3.933637 0.000000 
49.726551 4.698267 0.000000 
50.670911 4.769124 0.000000 
51.034301 4.182939 0.000000 
51.365811 3.558051 0.000000 
50.626769 3.067454 0.000000 
45.025326 2.216307 0.000000 
44.236597 1.979867 0.000000 
43.912847 2.718209 0.000000 
44.308756 3.517283 0.000000 
44.971297 3.888190 0.000000 
45.694947 3.928656 0.000000 
45.900854 3.233502 0.000000 
45.592173 2.556855 0.000000 
55.915662 0.610109 0.000000 
55.589020 1.195813 0.000000 
55.759148 1.833485 0.000000 
56.397217 2.172141 0.000000 
56.959553 2.671537 0.000000 
57.537719 2.264548 0.000000 
58.156995 2.049014 0.000000 
58.205774 1.477832 0.000000 
57.819511 1.016331 0.000000 
57.365329 0.611646 0.000000 
56.761424 0.745822 0.000000 
8.771482 1.234844 0.000000 
8.190186 1.219781 0.000000 
7.734234 1.447755 0.000000 
7.538911 2.054515 0.000000 
7.833982 2.610411 0.000000 
8.336845 3.132798 0.000000 
8.848254 2.640568 0.000000 
8.994870 1.942895 0.000000 
12.338539 1.376687 0.000000 
12.256528 0.958882 0.000000 
12.034493 0.460711 0.000000 
11.432544 0.842152 0.000000 
10.795957 0.814473 0.000000 
10.354650 1.356529 0.000000 
10.571503 1.881858 0.000000 
10.942401 2.136805 0.000000 
11.353798 2.205332 0.000000 
11.834588 2.205078 0.000000 
12.129708 1.789701 0.000000 
3.301128 9.141880 0.000000 
3.582705 8.262759 0.000000 
2.923055 7.610779 0.000000 
1.916246 7.727217 0.000000 
0.839283 7.873070 0.000000 
0.368061 8.774977 0.000000 
0.721753 9.591104 0.000000 
1.683462 9.684829 0.000000 
2.638979 9.877513 0.000000 
25.548758 0.413892 0.000000 
25.112973 1.030692 0.000000 
25.299202 1.765997 0.000000 
25.972686 2.268508 0.000000 
26.801496 2.402568 0.000000 
27.687539 2.381079 0.000000 
27.864504 1.674463 0.000000 
28.134829 1.114488 0.000000 
27.646759 0.620112 0.000000 
27.030627 0.376941 0.000000 
26.332559 0.221443 0.000000 
10.341720 7.891226 0.000000 
9.949374 8.223279 0.000000 
9.696833 8.582650 0.000000 
9.512398 9.097063 0.000000 
9.946938 9.563229 0.000000 
10.338084 10.249846 0.000000 
11.039257 10.327096 0.000000 
11.260609 9.671690 0.000000 
11.727572 9.259855 0.000000 
11.181218 8.680246 0.000000 
10.846189 8.255787 0.000000 
7.210618 2.678574 0.000000 
7.122500 2.123486 0.000000 
6.670967 1.846423 0.000000 
6.116573 1.807914 0.000000 
5.322950 1.946476 0.000000 
5.130597 2.639579 0.000000 
5.480144 3.136341 0.000000 
6.007854 3.594450 0.000000 
6.764155 3.213638 0.000000 
11.892205 12.752032 0.000000 
11.427442 12.381081 0.000000 
11.055877 12.025029 0.000000 
10.439583 12.161314 0.000000 
9.765163 12.530673 0.000000 
9.592550 13.251277 0.000000 
9.816742 13.852636 0.000000 
10.399571 14.116977 0.000000 
11.112974 13.980684 0.000000 
11.590397 13.400494 0.000000 
31.319353 8.373436 0.000000 
31.279814 8.023088 0.000000 
31.294512 7.558967 0.000000 
30.773840 7.480690 0.000000 
30.258661 7.420609 0.000000 
30.021011 7.876333 0.000000 
29.539720 8.105334 0.000000 
29.767532 8.463135 0.000000 
29.836127 8.827408 0.000000 
30.168563 9.181120 0.000000 
30.683129 8.879348 0.000000 
30.986316 8.629383 0.000000 
11.490348 7.079634 0.000000 
11.230583 7.497025 0.000000 
10.988928 7.811484 0.000000 
11.163112 8.259055 0.000000 
11.486079 8.654077 0.000000 
12.021924 8.963866 0.000000 
12.377942 8.608065 0.000000 
12.470689 8.178513 0.000000 
12.497649 7.669985 0.000000 
12.105969 7.117799 0.000000 
1.878527 10.847461 0.000000 
1.318573 10.292174 0.000000 
0.873160 10.919586 0.000000 
0.872470 11.594261 0.000000 
0.976414 12.402605 0.000000 
1.638964 12.425132 0.000000 
2.190697 12.139541 0.000000 
2.301548 11.379600 0.000000 
27.547117 8.498864 0.000000 
27.092559 8.354702 0.000000 
26.560842 8.275747 0.000000 
26.478091 8.972414 0.000000 
26.231760 9.473224 0.000000 
26.393895 10.082121 0.000000 
26.892184 10.292870 0.000000 
27.393309 10.122539 0.000000 
27.716004 9.630818 0.000000 
27.797015 9.018415 0.000000 
50.944838 1.076709 0.000000 
50.534830 0.575407 0.000000 
49.914471 0.582165 0.000000 
49.341602 0.717797 0.000000 
48.897374 1.219318 0.000000 
48.911165 1.797171 0.000000 
49.152153 2.204312 0.000000 
49.554234 2.592476 0.000000 
50.199408 2.360750 0.000000 
50.643263 1.794059 0.000000 
24.599378 10.091983 0.000000 
23.980471 9.803062 0.000000 
23.384431 10.135418 0.000000 
22.791689 10.480316 0.000000 
22.752647 11.269820 0.000000 
22.757771 12.031793 0.000000 
23.346569 12.235167 0.000000 
23.841439 12.504439 0.000000 
24.204198 11.931955 0.000000 
24.853878 11.635248 0.000000 
24.905166 10.814190 0.000000 
47.455901 0.313185 0.000000 
46.892600 0.510617 0.000000 
46.251758 0.365417 0.000000 
46.098305 1.107467 0.000000 
45.998731 1.794384 0.000000 
46.456340 2.234194 0.000000 
46.850245 2.715470 0.000000 
47.319394 2.406236 0.000000 
47.757939 2.160959 0.000000 
47.786156 1.554881 0.000000 
47.808415 0.914473 0.000000 
3.711618 0.849049 0.000000 
3.185207 0.597240 0.000000 
2.685942 0.672883 0.000000 
2.271012 0.970961 0.000000 
1.968079 1.450347 0.000000 
1.892110 2.080734 0.000000 
2.290005 2.454178 0.000000 
2.831524 2.552630 0.000000 
3.428889 2.249828 0.000000 
3.416528 1.542326 0.000000 
22.176487 13.038788 0.000000 
22.309193 12.172276 0.000000 
21.916915 11.295785 0.000000 
20.742429 11.471053 0.000000 
19.978557 12.032217 0.000000 
19.854814 12.786669 0.000000 
20.051496 13.745702 0.000000 
21.236173 13.443466 0.000000 
14.012212 8.051544 0.000000 
13.646558 7.829394 0.000000 
13.277604 8.072127 0.000000 
12.819532 8.203563 0.000000 
12.659107 8.766780 0.000000 
12.929857 9.199301 0.000000 
13.201214 9.479799 0.000000 
13.566177 9.656836 0.000000 
14.059439 9.589817 0.000000 
14.076927 8.951291 0.000000 
14.281410 8.455124 0.000000 
59.197042 3.792571 0.000000 
59.245165 3.144957 0.000000 
58.688678 2.801850 0.000000 
57.953508 2.882494 0.000000 
57.421503 3.400309 0.000000 
57.136831 4.049618 0.000000 
57.726819 4.321616 0.000000 
58.196919 4.421662 0.000000 
58.685216 4.204972 0.000000 
34.804051 4.881116 0.000000 
34.676122 5.565139 0.000000 
34.650462 6.164591 0.000000 
35.336262 6.479737 0.000000 
36.152846 6.565069 0.000000 
36.386388 5.948887 0.000000 
36.439134 5.291684 0.000000 
35.653214 5.067163 0.000000 
4.290930 9.428731 0.000000 
4.254681 9.911878 0.000000 
3.987051 10.256884 0.000000 
4.202477 10.706386 0.000000 
4.630405 11.064695 0.000000 
5.173609 11.109796 0.000000 
5.536356 10.871225 0.000000 
5.916433 10.665749 0.000000 
5.687306 10.245329 0.000000 
5.655005 9.875170 0.000000 
5.261609 9.673336 0.000000 
4.844322 9.479008 0.000000 
8.232802 13.982496 0.000000 
8.445229 13.491574 0.000000 
8.357178 12.913443 0.000000 
7.657521 12.753740 0.000000 
6.782069 12.523665 0.000000 
6.275596 13.155292 0.000000 
6.505952 13.799080 0.000000 
7.026529 14.168539 0.000000 
7.672637 14.251333 0.000000 
16.948983 1.468099 0.000000 
17.123196 0.999040 0.000000 
16.845353 0.599401 0.000000 
16.395096 0.338234 0.000000 
15.795771 0.372058 0.000000 
15.256320 0.711849 0.000000 
15.110039 1.333289 0.000000 
15.792987 1.634725 0.000000 
16.423444 1.782826 0.000000 
30.324454 4.695808 0.000000 
29.726441 4.655231 0.000000 
29.847071 5.295974 0.000000 
29.893344 5.725324 0.000000 
30.109300 6.322256 0.000000 
30.641002 6.145942 0.000000 
31.220745 6.287094 0.000000 
31.156707 5.705207 0.000000 
31.116990 5.270838 0.000000 
30.803193 4.861909 0.000000 
14.458920 1.677734 0.000000 
14.258054 1.357730 0.000000 
13.978616 0.838602 0.000000 
13.395700 1.120197 0.000000 
12.820781 1.502666 0.000000 
12.900427 2.133651 0.000000 
12.837652 2.724046 0.000000 
13.216936 3.136634 0.000000 
13.806993 2.745843 0.000000 
14.308318 2.631811 0.000000 
14.664357 2.138690 0.000000 
10.505156 3.679705 0.000000 
10.039464 3.343627 0.000000 
9.599771 3.672903 0.000000 
9.562045 4.277686 0.000000 
9.965750 4.569646 0.000000 
10.601210 4.491354 0.000000 
32.722639 6.598204 0.000000 
32.197840 6.344659 0.000000 
31.692891 6.661715 0.000000 
31.792604 7.388837 0.000000 
32.289618 7.497766 0.000000 
32.769441 7.315413 0.000000 
35.190321 1.313169 0.000000 
34.558644 1.004906 0.000000 
34.421854 1.697617 0.000000 
34.807173 2.192584 0.000000 
35.317160 2.285427 0.000000 
35.448609 1.790646 0.000000 
1.950560 1.020421 0.000000 
1.845429 0.223662 0.000000 
1.010651 0.201972 0.000000 
0.713355 0.984357 0.000000 
0.707660 1.707119 0.000000 
1.476500 1.755190 0.000000 
48.178314 2.505965 0.000000 
47.647444 2.483873 0.000000 
47.440197 2.985524 0.000000 
47.823009 3.490368 0.000000 
48.320595 3.469337 0.000000 
48.621507 3.016072 0.000000 
17.726222 14.418467 0.000000 
17.465574 13.843537 0.000000 
16.939903 13.602744 0.000000 
16.420647 14.115603 0.000000 
16.462148 14.719565 0.000000 
17.045727 14.742493 0.000000 
47.728648 4.796163 0.000000 
47.919188 4.186587 0.000000 
47.667060 3.539259 0.000000 
46.787330 3.722070 0.000000 
46.232080 4.346460 0.000000 
46.922011 4.808950 0.000000 
19.323567 5.772065 0.000000 
18.811634 6.058380 0.000000 
19.108390 6.562920 0.000000 
19.682080 6.743231 0.000000 
20.104002 6.418136 0.000000 
19.885975 5.941583 0.000000 
5.762798 1.469652 0.000000 
5.853315 0.875092 0.000000 
5.461677 0.527243 0.000000 
4.732197 0.525764 0.000000 
4.433275 1.169092 0.000000 
4.977389 1.608846 0.000000 
43.881720 0.204376 0.000000 
43.268236 0.430510 0.000000 
43.462991 1.067539 0.000000 
44.120085 1.303949 0.000000 
44.774752 1.088259 0.000000 
44.546761 0.426694 0.000000 
12.971929 13.751114 0.000000 
12.418966 13.681240 0.000000 
12.311000 14.206825 0.000000 
12.519185 14.768862 0.000000 
12.998231 14.676493 0.000000 
13.389967 14.312940 0.000000 
14.630922 13.362696 0.000000 
14.153901 13.185329 0.000000 
13.822698 13.540120 0.000000 
13.913889 14.091742 0.000000 
14.355803 14.371686 0.000000 
14.716202 13.978987 0.000000 
29.548158 1.288948 0.000000 
29.228067 0.634342 0.000000 
28.492043 0.882103 0.000000 
28.168924 1.819982 0.000000 
28.817802 2.191557 0.000000 
29.377712 1.959463 0.000000 
21.373052 3.890350 0.000000 
20.768913 4.370763 0.000000 
20.921847 5.041607 0.000000 
21.618453 5.552121 0.000000 
22.232654 5.130049 0.000000 
22.234929 4.379318 0.000000 
59.066577 1.317261 0.000000 
59.378328 0.899126 0.000000 
59.056234 0.391038 0.000000 
58.457964 0.707333 0.000000 
58.161358 1.094503 0.000000 
58.554134 1.389490 0.000000 
40.818804 0.867769 0.000000 
40.552022 0.279064 0.000000 
39.945190 0.501661 0.000000 
39.679824 1.132550 0.000000 
39.999785 1.597270 0.000000 
40.590029 1.555917 0.000000 
29.207126 9.608234 0.000000 
29.334940 8.993991 0.000000 
28.692987 8.854093 0.000000 
28.181399 9.365372 0.000000 
28.256774 9.926671 0.000000 
28.803629 10.107565 0.000000 
12.413904 10.741304 0.000000 
12.776484 10.191680 0.000000 
12.276983 9.798398 0.000000 
11.700707 9.894739 0.000000 
11.496228 10.287837 0.000000 
11.759742 10.641724 0.000000 
52.410083 1.391401 0.000000 
52.611074 0.886548 0.000000 
52.285866 0.395240 0.000000 
51.620860 0.638133 0.000000 
51.208608 1.146930 0.000000 
51.713527 1.606044 0.000000 
28.012289 2.556127 0.000000 
27.609051 3.238884 0.000000 
27.991740 3.936064 0.000000 
28.856902 3.757770 0.000000 
29.423803 3.261526 0.000000 
29.025024 2.541308 0.000000 
20.660414 5.086900 0.000000 
20.374063 4.757700 0.000000 
19.879934 4.809567 0.000000 
19.663764 5.482973 0.000000 
20.103560 5.831095 0.000000 
20.677710 5.759039 0.000000 
10.027339 6.383117 0.000000 
9.586991 6.810252 0.000000 
9.858811 7.307965 0.000000 
10.480515 7.638643 0.000000 
11.105093 7.244721 0.000000 
10.623255 6.706153 0.000000 
16.409347 13.709718 0.000000 
16.598941 13.188472 0.000000 
16.313256 12.706379 0.000000 
15.629037 12.833388 0.000000 
15.481391 13.303275 0.000000 
15.662783 13.835203 0.000000 
0.784817 12.472648 0.000000 
0.331505 13.002125 0.000000 
0.490525 13.591552 0.000000 
1.158972 13.824287 0.000000 
1.942387 13.599434 0.000000 
1.616603 12.836629 0.000000 
19.368392 8.208138 0.000000 
18.722395 7.986131 0.000000 
18.504089 8.609247 0.000000 
18.614622 9.316845 0.000000 
19.241792 9.415326 0.000000 
19.778290 8.970900 0.000000 
18.496623 0.562160 0.000000 
18.155609 0.173256 0.000000 
17.660808 0.332376 0.000000 
17.549594 0.920359 0.000000 
17.842048 1.335431 0.000000 
18.297417 1.116189 0.000000 
58.181384 1.763423 0.000000 
58.012642 1.247081 0.000000 
57.592420 0.813988 0.000000 
57.063376 0.678734 0.000000 
8.480834 1.227313 0.000000 
7.962210 1.333768 0.000000 
7.636573 1.751135 0.000000 
7.686447 2.332463 0.000000 
12.297534 1.167784 0.000000 
12.234124 1.583194 0.000000 
12.145511 0.709796 0.000000 
11.114251 0.828312 0.000000 
10.463077 1.619193 0.000000 
10.756952 2.009331 0.000000 
11.148100 2.171068 0.000000 
11.594193 2.205205 0.000000 
11.982148 1.997390 0.000000 
27.999666 1.394476 0.000000 
10.145547 8.057253 0.000000 
10.593954 8.073507 0.000000 
9.823104 8.402965 0.000000 
9.604616 8.839857 0.000000 
9.729668 9.330146 0.000000 
11.494091 9.465772 0.000000 
11.013703 8.468017 0.000000 
7.166559 2.401030 0.000000 
6.896733 1.984955 0.000000 
6.393770 1.827168 0.000000 
5.305370 2.887960 0.000000 
11.659823 12.566557 0.000000 
11.241660 12.203055 0.000000 
10.747730 12.093172 0.000000 
9.704646 13.551957 0.000000 
10.108156 13.984807 0.000000 
31.299584 8.198262 0.000000 
31.152835 8.501409 0.000000 
31.287163 7.791027 0.000000 
31.034176 7.519828 0.000000 
30.516251 7.450649 0.000000 
30.139836 7.648471 0.000000 
29.780366 7.990833 0.000000 
29.653626 8.284235 0.000000 
29.801830 8.645272 0.000000 
30.002345 9.004264 0.000000 
30.425846 9.030234 0.000000 
30.834723 8.754365 0.000000 
11.360465 7.288329 0.000000 
11.798158 7.098716 0.000000 
11.109755 7.654254 0.000000 
11.076020 8.035269 0.000000 
11.324595 8.456566 0.000000 
11.754002 8.808971 0.000000 
12.199933 8.785965 0.000000 
12.424316 8.393289 0.000000 
12.484169 7.924249 0.000000 
1.914830 12.282336 0.000000 
27.319838 8.426783 0.000000 
27.670621 8.755636 0.000000 
26.829822 8.315688 0.000000 
26.354925 9.222819 0.000000 
26.312827 9.777672 0.000000 
26.643039 10.187495 0.000000 
27.142747 10.207705 0.000000 
27.554657 9.876679 0.000000 
27.756510 9.324617 0.000000 
50.224651 0.578786 0.000000 
49.628037 0.649981 0.000000 
48.904269 1.508245 0.000000 
49.031659 2.000741 0.000000 
49.353194 2.398394 0.000000 
23.052170 12.133480 0.000000 
23.594004 12.369803 0.000000 
47.174251 0.411901 0.000000 
46.227535 2.014289 0.000000 
46.653292 2.474832 0.000000 
47.084819 2.560853 0.000000 
47.538667 2.283598 0.000000 
47.772048 1.857920 0.000000 
47.797286 1.234677 0.000000 
3.448412 0.723144 0.000000 
2.935574 0.635061 0.000000 
2.478477 0.821922 0.000000 
2.119545 1.210654 0.000000 
1.930094 1.765540 0.000000 
2.091057 2.267456 0.000000 
2.560764 2.503404 0.000000 
13.829385 7.940469 0.000000 
14.146811 8.253334 0.000000 
13.462081 7.950760 0.000000 
13.048568 8.137845 0.000000 
12.739320 8.485171 0.000000 
12.794482 8.983040 0.000000 
13.065535 9.339550 0.000000 
13.383695 9.568318 0.000000 
13.812808 9.623327 0.000000 
14.068183 9.270554 0.000000 
14.179168 8.703207 0.000000 
57.961869 4.371639 0.000000 
58.441068 4.313317 0.000000 
34.663292 5.864865 0.000000 
4.272805 9.670305 0.000000 
4.567626 9.453869 0.000000 
4.120866 10.084381 0.000000 
4.094764 10.481635 0.000000 
4.416441 10.885540 0.000000 
4.902007 11.087245 0.000000 
5.354983 10.990511 0.000000 
5.726395 10.768487 0.000000 
5.801870 10.455539 0.000000 
5.671155 10.060250 0.000000 
5.458307 9.774253 0.000000 
5.052966 9.576172 0.000000 
8.339016 13.737035 0.000000 
7.952720 14.116915 0.000000 
8.401204 13.202509 0.000000 
6.766240 13.983810 0.000000 
17.036090 1.233570 0.000000 
16.686213 1.625462 0.000000 
16.984275 0.799221 0.000000 
16.620225 0.468818 0.000000 
16.095434 0.355146 0.000000 
15.526046 0.541953 0.000000 
15.183180 1.022569 0.000000 
30.025448 4.675519 0.000000 
30.563823 4.778859 0.000000 
29.870207 5.510649 0.000000 
30.001322 6.023790 0.000000 
30.375151 6.234099 0.000000 
30.930874 6.216518 0.000000 
31.188726 5.996151 0.000000 
31.136848 5.488022 0.000000 
30.960092 5.066374 0.000000 
14.358487 1.517732 0.000000 
14.561638 1.908212 0.000000 
14.118335 1.098166 0.000000 
12.860604 1.818159 0.000000 
12.869040 2.428849 0.000000 
13.027294 2.930340 0.000000 
14.057656 2.688827 0.000000 
14.486338 2.385250 0.000000 
10.272310 3.511666 0.000000 
9.819617 3.508265 0.000000 
9.580908 3.975294 0.000000 
9.763898 4.423666 0.000000 
10.283480 4.530500 0.000000 
32.460240 6.471431 0.000000 
31.945366 6.503187 0.000000 
32.041111 7.443302 0.000000 
32.529530 7.406589 0.000000 
35.319465 1.551907 0.000000 
34.614513 1.945100 0.000000 
35.062166 2.239005 0.000000 
35.382884 2.038036 0.000000 
47.912879 2.494919 0.000000 
47.543820 2.734698 0.000000 
47.631603 3.237946 0.000000 
48.071802 3.479853 0.000000 
48.471051 3.242704 0.000000 
17.595898 14.131002 0.000000 
17.202738 13.723141 0.000000 
16.441397 14.417584 0.000000 
16.753938 14.731029 0.000000 
47.823918 4.491375 0.000000 
19.067600 5.915222 0.000000 
19.604771 5.856824 0.000000 
18.960012 6.310650 0.000000 
19.395235 6.653075 0.000000 
19.893041 6.580683 0.000000 
19.994989 6.179859 0.000000 
5.808056 1.172372 0.000000 
5.657496 0.701167 0.000000 
12.695447 13.716177 0.000000 
12.364983 13.944033 0.000000 
12.415093 14.487843 0.000000 
12.758708 14.722677 0.000000 
13.194099 14.494716 0.000000 
14.392411 13.274012 0.000000 
14.673562 13.670841 0.000000 
13.988299 13.362724 0.000000 
13.868294 13.815931 0.000000 
14.134846 14.231714 0.000000 
14.536003 14.175336 0.000000 
29.097757 2.075510 0.000000 
59.222453 1.108193 0.000000 
58.810356 1.353375 0.000000 
59.217281 0.645082 0.000000 
58.309661 0.900918 0.000000 
58.357746 1.241996 0.000000 
39.839805 1.364910 0.000000 
40.294907 1.576594 0.000000 
29.271033 9.301112 0.000000 
29.005377 9.857900 0.000000 
28.219086 9.646022 0.000000 
28.530201 10.017118 0.000000 
12.526733 9.995039 0.000000 
11.988845 9.846569 0.000000 
11.598467 10.091288 0.000000 
11.627985 10.464780 0.000000 
52.510579 1.138974 0.000000 
52.448470 0.640894 0.000000 
20.517238 4.922300 0.000000 
20.126999 4.783633 0.000000 
19.883662 5.657034 0.000000 
20.390635 5.795067 0.000000 
9.807165 6.596684 0.000000 
9.722901 7.059108 0.000000 
16.504144 13.449095 0.000000 
16.456098 12.947426 0.000000 
15.555214 13.068332 0.000000 
15.572087 13.569239 0.000000 
0.411015 13.296838 0.000000 
18.928207 9.366086 0.000000 
18.326116 0.367708 0.000000 
18.397020 0.839175 0.000000 
17.908208 0.252816 0.000000 
17.605201 0.626367 0.000000 
17.695821 1.127895 0.000000 
18.069732 1.225810 0.000000 
0.245902 0.000000 0.000000 
0.000000 14.750000 0.000000 
60.000000 0.250000 0.000000 
59.750000 5.000000 0.000000 
39.776393 5.111803 0.000000 
19.750000 15.000000 0.000000 
9.102030 7.532088 0.000000 
7.873670 8.258157 0.000000 
8.928890 6.240907 0.000000 
8.940368 4.816605 0.000000 
7.194613 4.248745 0.000000 
5.410329 4.816265 0.000000 
4.464166 6.029688 0.000000 
3.574950 7.361213 0.000000 
4.673471 8.523908 0.000000 
6.504611 8.535465 0.000000 
24.332872 8.662542 0.000000 
22.748207 9.306611 0.000000 
24.496638 7.151542 0.000000 
23.666294 5.915047 0.000000 
21.754753 6.020889 0.000000 
20.517817 7.045700 0.000000 
19.707651 8.368251 0.000000 
20.913065 9.474107 0.000000 
31.545088 0.957457 0.000000 
33.172673 1.500815 0.000000 
30.535175 2.146019 0.000000 
29.689761 3.162097 0.000000 
30.945090 4.676083 0.000000 
31.903263 5.815511 0.000000 
33.390947 6.361095 0.000000 
34.167799 5.082843 0.000000 
34.573602 4.035133 0.000000 
34.751416 2.561908 0.000000 
16.723219 2.457752 0.000000 
17.780830 3.690763 0.000000 
15.294437 2.718522 0.000000 
14.011856 3.154541 0.000000 
14.251265 5.200935 0.000000 
14.067133 6.756992 0.000000 
15.073337 8.173703 0.000000 
16.493242 8.952315 0.000000 
17.766954 7.891248 0.000000 
18.842806 7.000425 0.000000 
18.291989 5.116190 0.000000 
16.050404 11.857617 0.000000 
15.372943 12.718453 0.000000 
15.890269 10.897620 0.000000 
15.494376 10.074736 0.000000 
14.331933 9.797549 0.000000 
13.161591 10.319992 0.000000 
12.523305 11.194437 0.000000 
12.318875 12.163488 0.000000 
12.804210 13.016435 0.000000 
14.241248 12.928888 0.000000 
4.173726 3.731778 0.000000 
4.048734 5.252232 0.000000 
3.034415 3.047943 0.000000 
1.829736 3.024326 0.000000 
0.659063 3.920815 0.000000 
0.390702 5.496990 0.000000 
0.786976 6.812886 0.000000 
2.026889 7.153396 0.000000 
3.318384 6.738300 0.000000 
26.161023 4.427905 0.000000 
27.119763 4.192915 0.000000 
25.330475 4.953234 0.000000 
24.936805 5.858024 0.000000 
25.831692 6.960494 0.000000 
26.570007 7.967249 0.000000 
27.916209 8.289673 0.000000 
29.151987 8.058355 0.000000 
29.655697 7.137517 0.000000 
29.370997 5.976039 0.000000 
29.147798 5.110108 0.000000 
28.097377 4.556395 0.000000 
20.170670 1.819491 0.000000 
20.472729 2.946894 0.000000 
19.381040 0.849097 0.000000 
18.215113 1.674211 0.000000 
17.551967 2.934951 0.000000 
18.397765 4.126476 0.000000 
19.252779 4.625196 0.000000 
20.226261 4.334200 0.000000 
7.201927 8.978905 0.000000 
8.525489 8.781425 0.000000 
6.560672 9.671045 0.000000 
6.718370 10.659614 0.000000 
7.214048 11.515081 0.000000 
8.214498 12.278946 0.000000 
9.304707 11.808544 0.000000 
9.774568 10.988940 0.000000 
9.165859 9.867190 0.000000 
23.046959 0.860897 0.000000 
24.113764 1.022844 0.000000 
22.198747 1.160961 0.000000 
21.219228 1.465924 0.000000 
21.612189 2.867703 0.000000 
22.262563 3.788384 0.000000 
23.067110 4.277153 0.000000 
23.868022 4.292749 0.000000 
24.576843 3.964457 0.000000 
25.294498 3.338647 0.000000 
24.709944 2.061204 0.000000 
13.384562 4.179589 0.000000 
13.492414 5.052093 0.000000 
12.960986 3.595098 0.000000 
12.115077 3.488751 0.000000 
11.301902 3.507901 0.000000 
10.796677 4.569377 0.000000 
10.400620 5.426231 0.000000 
10.684802 6.241880 0.000000 
11.401753 6.605558 0.000000 
12.239109 6.442609 0.000000 
12.971791 5.812433 0.000000 
55.792549 2.689338 0.000000 
55.323884 4.046766 0.000000 
55.170835 1.616144 0.000000 
54.035219 1.184941 0.000000 
52.683610 1.873744 0.000000 
51.969600 3.133113 0.000000 
52.218932 4.270038 0.000000 
53.063500 4.799233 0.000000 
54.166247 4.695718 0.000000 
39.382460 1.575341 0.000000 
39.726734 3.340529 0.000000 
38.400570 0.613270 0.000000 
36.961855 0.849521 0.000000 
35.561918 2.099935 0.000000 
35.421669 4.277885 0.000000 
36.980614 5.213330 0.000000 
38.645775 5.170029 0.000000 
2.558719 11.825970 0.000000 
3.292446 11.220918 0.000000 
2.668853 12.720454 0.000000 
3.041705 13.397669 0.000000 
3.806814 13.782516 0.000000 
4.732491 13.728306 0.000000 
5.498023 13.478246 0.000000 
6.040033 12.955685 0.000000 
6.178591 12.265479 0.000000 
5.978107 11.644023 0.000000 
5.057160 11.366847 0.000000 
4.264358 11.237302 0.000000 
20.189739 11.559214 0.000000 
19.544725 12.223127 0.000000 
21.103793 10.706246 0.000000 
20.094247 9.903710 0.000000 
18.920340 9.653687 0.000000 
17.948782 9.600376 0.000000 
17.110283 10.113835 0.000000 
16.126174 10.786343 0.000000 
16.401358 11.837248 0.000000 
17.135710 12.663289 0.000000 
18.478718 12.772520 0.000000 
42.907250 2.180226 0.000000 
42.779312 3.497682 0.000000 
42.483795 1.132183 0.000000 
41.359267 0.797137 0.000000 
40.411426 2.189596 0.000000 
40.080070 3.307744 0.000000 
40.698928 4.146317 0.000000 
41.685476 4.647863 0.000000 
49.696373 3.060612 0.000000 
50.380645 3.023603 0.000000 
49.288326 3.494524 0.000000 
49.327441 4.137337 0.000000 
49.975850 4.716972 0.000000 
50.802634 4.556641 0.000000 
51.151462 3.962092 0.000000 
51.157526 3.419785 0.000000 
44.785854 2.144520 0.000000 
45.377873 2.428109 0.000000 
44.136203 2.208824 0.000000 
44.023836 2.942221 0.000000 
44.526899 3.639405 0.000000 
45.220907 3.902148 0.000000 
45.765949 3.688950 0.000000 
45.797093 3.006052 0.000000 
55.793896 0.828450 0.000000 
56.514582 0.706213 0.000000 
55.653465 1.437364 0.000000 
55.979973 1.950688 0.000000 
56.584145 2.338147 0.000000 
57.163983 2.527633 0.000000 
57.773828 2.182372 0.000000 
8.919651 1.704480 0.000000 
8.007361 2.790522 0.000000 
8.516966 2.959431 0.000000 
8.899669 2.395912 0.000000 
11.823321 0.594526 0.000000 
10.638118 1.008346 0.000000 
3.377385 8.903794 0.000000 
2.806231 9.691699 0.000000 
3.404898 8.087019 0.000000 
2.674711 7.639501 0.000000 
1.668508 7.760768 0.000000 
0.723514 8.094649 0.000000 
0.467472 9.004362 0.000000 
0.970574 9.615353 0.000000 
1.928529 9.734248 0.000000 
25.404500 0.618072 0.000000 
26.089771 0.281055 0.000000 
25.174352 1.273040 0.000000 
25.499573 1.915501 0.000000 
26.219479 2.308426 0.000000 
27.051423 2.396507 0.000000 
27.748273 2.138569 0.000000 
27.959191 0.936581 0.000000 
27.414215 0.528334 0.000000 
26.786608 0.322585 0.000000 
10.070685 9.780454 0.000000 
10.586581 10.277223 0.000000 
11.119251 10.090240 0.000000 
11.556091 9.077936 0.000000 
6.924323 3.021685 0.000000 
5.870299 1.850912 0.000000 
5.256096 2.187372 0.000000 
5.668931 3.300229 0.000000 
6.231146 3.482018 0.000000 
11.695887 13.173840 0.000000 
10.220313 12.281401 0.000000 
9.706926 12.773795 0.000000 
10.645130 14.070064 0.000000 
11.271825 13.787640 0.000000 
12.353010 7.466074 0.000000 
1.701012 10.671426 0.000000 
2.145978 11.183901 0.000000 
1.173853 10.496028 0.000000 
0.872904 11.169586 0.000000 
0.904355 11.842219 0.000000 
1.226270 12.411100 0.000000 
2.226782 11.892159 0.000000 
26.531354 8.524002 0.000000 
50.786563 0.883192 0.000000 
50.740150 1.563597 0.000000 
49.175839 0.904940 0.000000 
49.789518 2.507969 0.000000 
50.353562 2.163934 0.000000 
24.372845 9.986232 0.000000 
24.807691 10.583976 0.000000 
23.762122 9.924815 0.000000 
23.168348 10.261149 0.000000 
22.779341 10.730011 0.000000 
22.754328 11.519814 0.000000 
23.975251 12.293265 0.000000 
24.431605 11.828099 0.000000 
24.869464 11.385734 0.000000 
47.681976 0.698804 0.000000 
46.648781 0.455373 0.000000 
46.201130 0.610237 0.000000 
46.062440 1.354881 0.000000 
3.514439 1.312296 0.000000 
3.054512 2.439598 0.000000 
3.424522 1.999866 0.000000 
22.214333 12.791669 0.000000 
21.465810 13.344638 0.000000 
22.207066 11.944087 0.000000 
21.669653 11.332684 0.000000 
20.540952 11.619064 0.000000 
19.938094 12.278921 0.000000 
19.905039 13.031572 0.000000 
20.293737 13.683902 0.000000 
59.215568 3.543258 0.000000 
58.879886 4.048117 0.000000 
59.032362 3.013751 0.000000 
58.440169 2.829110 0.000000 
57.774359 3.056865 0.000000 
57.321121 3.629270 0.000000 
57.363865 4.154286 0.000000 
34.758092 5.126856 0.000000 
35.409007 5.013659 0.000000 
34.877625 6.268979 0.000000 
35.584908 6.505720 0.000000 
36.241449 6.331297 0.000000 
36.406388 5.699688 0.000000 
36.198751 5.223012 0.000000 
8.113447 12.857809 0.000000 
7.415731 12.690196 0.000000 
6.625675 12.718705 0.000000 
6.359820 13.390677 0.000000 
7.274501 14.200315 0.000000 
15.338752 1.434237 0.000000 
16.036362 1.691896 0.000000 
29.772695 4.900915 0.000000 
13.753506 0.947348 0.000000 
13.187552 1.258669 0.000000 
13.425368 2.998591 0.000000 
10.571829 4.243086 0.000000 
32.753162 7.065943 0.000000 
31.726857 6.909396 0.000000 
34.965647 1.203526 0.000000 
34.510211 1.250170 0.000000 
1.917856 0.772569 0.000000 
1.612035 1.545118 0.000000 
1.595513 0.217168 0.000000 
0.921850 0.435669 0.000000 
0.711385 1.234350 0.000000 
0.957173 1.722720 0.000000 
48.457542 2.827351 0.000000 
17.271445 14.635015 0.000000 
16.762034 13.778422 0.000000 
47.171979 4.804987 0.000000 
47.828454 3.953633 0.000000 
47.422289 3.590123 0.000000 
46.621200 3.908887 0.000000 
46.439740 4.485663 0.000000 
5.223553 1.565219 0.000000 
5.211677 0.526736 0.000000 
4.626852 0.752485 0.000000 
4.627712 1.326236 0.000000 
43.647148 0.290841 0.000000 
44.309659 0.347433 0.000000 
43.341327 0.669586 0.000000 
43.698229 1.152173 0.000000 
44.357530 1.225719 0.000000 
44.693298 0.851901 0.000000 
13.240729 14.112370 0.000000 
29.438338 1.064360 0.000000 
29.439304 1.717169 0.000000 
28.991131 0.714099 0.000000 
28.410610 1.118468 0.000000 
28.385871 1.944215 0.000000 
21.177378 4.045950 0.000000 
22.017485 4.255956 0.000000 
20.824481 4.614510 0.000000 
21.123494 5.189386 0.000000 
21.824493 5.410533 0.000000 
22.233411 4.880051 0.000000 
58.835220 0.507884 0.000000 
40.715613 0.640059 0.000000 
40.668897 1.318684 0.000000 
40.317315 0.365159 0.000000 
39.848260 0.732106 0.000000 
29.090673 8.940759 0.000000 
28.516157 9.030816 0.000000 
12.551569 10.532622 0.000000 
12.006895 10.679347 0.000000 
51.952441 1.532423 0.000000 
52.051039 0.481010 0.000000 
51.463476 0.832375 0.000000 
51.393576 1.315118 0.000000 
27.885156 2.771387 0.000000 
28.775051 2.544966 0.000000 
27.729347 3.458039 0.000000 
28.236594 3.885604 0.000000 
29.045012 3.593105 0.000000 
29.302704 3.042814 0.000000 
20.671279 5.509122 0.000000 
19.803835 5.046629 0.000000 
10.403470 6.587012 0.000000 
10.079531 7.425364 0.000000 
10.691971 7.505278 0.000000 
10.938402 7.058404 0.000000 
15.909324 13.793764 0.000000 
16.067455 12.752006 0.000000 
0.632155 12.650959 0.000000 
1.393234 12.738885 0.000000 
0.726624 13.673755 0.000000 
1.399270 13.755317 0.000000 
1.844196 13.369524 0.000000 
19.131965 8.126886 0.000000 
19.659949 8.750684 0.000000 
18.639735 8.222070 0.000000 
18.542673 8.856251 0.000000 
19.434315 9.255843 0.000000 
59.750000 0.000000 0.000000 
0.000000 0.250000 0.000000 
60.000000 4.750000 0.000000 
40.250000 5.000000 0.000000 
20.223607 14.888197 0.000000 
0.250000 15.000000 0.000000 
8.935061 6.731580 0.000000 
8.919087 7.864852 0.000000 
9.126424 5.158308 0.000000 
7.669433 4.289569 0.000000 
5.804859 4.561808 0.000000 
4.783860 5.645994 0.000000 
3.595923 6.975610 0.000000 
4.275529 8.314175 0.000000 
6.008154 8.568279 0.000000 
7.393087 8.387309 0.000000 
24.551864 7.622255 0.000000 
24.039448 8.970208 0.000000 
24.022922 6.148064 0.000000 
22.202016 5.874373 0.000000 
20.878047 6.702577 0.000000 
19.708406 7.988274 0.000000 
20.501485 9.300152 0.000000 
22.256819 9.385997 0.000000 
30.883833 1.791636 0.000000 
31.923805 0.873728 0.000000 
29.721777 2.812659 0.000000 
30.636711 4.282927 0.000000 
31.537989 5.491369 0.000000 
33.036497 6.448774 0.000000 
33.935374 5.523221 0.000000 
34.408266 4.506132 0.000000 
34.887088 2.945545 0.000000 
33.600884 1.756381 0.000000 
15.787488 2.636262 0.000000 
17.102726 2.622000 0.000000 
14.218700 2.872453 0.000000 
14.268256 4.710992 0.000000 
13.990191 6.303033 0.000000 
14.740313 7.810972 0.000000 
16.107814 8.966230 0.000000 
17.362607 8.180688 0.000000 
18.694991 7.364041 0.000000 
18.435387 5.593942 0.000000 
17.988930 4.140605 0.000000 
15.981005 11.388997 0.000000 
15.897406 12.267841 0.000000 
15.781835 10.408525 0.000000 
14.802641 9.808780 0.000000 
13.562117 10.052094 0.000000 
12.773406 10.770626 0.000000 
12.340312 11.687823 0.000000 
12.489208 12.790918 0.000000 
13.742062 12.957231 0.000000 
14.933638 12.893967 0.000000 
3.484041 3.232085 0.000000 
4.318211 4.121645 0.000000 
2.292685 2.935525 0.000000 
0.930133 3.550744 0.000000 
0.413078 5.005359 0.000000 
0.520681 6.475415 0.000000 
1.546910 7.104805 0.000000 
2.952823 6.999242 0.000000 
3.871814 5.715305 0.000000 
25.709109 4.646987 0.000000 
26.632380 4.276560 0.000000 
24.925205 5.473260 0.000000 
25.548636 6.552403 0.000000 
26.212948 7.674305 0.000000 
27.427109 8.226687 0.000000 
28.740531 8.258518 0.000000 
29.568490 7.566903 0.000000 
29.445883 6.464703 0.000000 
29.370077 5.475416 0.000000 
28.537794 4.793009 0.000000 
27.584758 4.271933 0.000000 
19.709777 0.939307 0.000000 
20.336944 2.285852 0.000000 
18.579085 1.343856 0.000000 
17.569034 2.524895 0.000000 
18.072768 3.754038 0.000000 
18.812282 4.477166 0.000000 
19.913766 4.589609 0.000000 
20.460174 3.433750 0.000000 
6.752351 9.281836 0.000000 
7.658919 8.826282 0.000000 
6.592934 10.185502 0.000000 
6.936251 11.105347 0.000000 
7.808379 12.169990 0.000000 
8.890886 12.062558 0.000000 
9.726271 11.381873 0.000000 
9.377036 10.317835 0.000000 
8.858918 9.004052 0.000000 
22.673988 1.038673 0.000000 
23.510711 0.829614 0.000000 
21.414173 1.207242 0.000000 
21.430281 2.408573 0.000000 
21.938398 3.419140 0.000000 
22.625430 4.072358 0.000000 
23.395502 4.345195 0.000000 
24.124172 4.176700 0.000000 
25.177137 3.673386 0.000000 
24.904744 2.521164 0.000000 
24.439050 1.333424 0.000000 
13.283569 3.848865 0.000000 
13.471305 4.668312 0.000000 
12.604433 3.574143 0.000000 
11.638897 3.348300 0.000000 
11.036259 4.137319 0.000000 
10.511610 4.974309 0.000000 
10.455166 5.840062 0.000000 
10.954790 6.452922 0.000000 
11.796625 6.603462 0.000000 
12.598576 6.144694 0.000000 
13.325414 5.474451 0.000000 
55.485387 1.971514 0.000000 
55.778586 3.142530 0.000000 
54.483261 1.216932 0.000000 
53.061935 1.577617 0.000000 
52.099885 2.681049 0.000000 
52.016400 3.853890 0.000000 
52.627180 4.635211 0.000000 
53.684717 4.792643 0.000000 
54.980026 4.364389 0.000000 
38.799647 0.795835 0.000000 
39.563006 2.023654 0.000000 
37.412264 0.683252 0.000000 
35.804807 1.704853 0.000000 
35.258119 3.888905 0.000000 
36.526601 5.044478 0.000000 
38.253384 5.348200 0.000000 
39.613796 3.793134 0.000000 
2.578813 12.233145 0.000000 
2.772102 11.468767 0.000000 
2.763700 13.010438 0.000000 
3.356528 13.632847 0.000000 
4.238470 13.782604 0.000000 
5.038936 13.660055 0.000000 
5.758181 13.324060 0.000000 
6.095429 12.755856 0.000000 
6.197566 11.976443 0.000000 
5.539770 11.489834 0.000000 
4.757757 11.318278 0.000000 
3.764774 11.154358 0.000000 
21.069463 11.013468 0.000000 
19.836505 11.867638 0.000000 
20.517402 10.128679 0.000000 
19.407653 9.764909 0.000000 
18.397086 9.520462 0.000000 
17.547203 9.876364 0.000000 
16.315135 10.444011 0.000000 
16.226951 11.378777 0.000000 
16.757226 12.406747 0.000000 
18.000174 12.819774 0.000000 
19.156003 12.505195 0.000000 
42.756653 1.496796 0.000000 
42.919311 2.670860 0.000000 
41.723423 0.714022 0.000000 
40.670522 1.763516 0.000000 
40.060943 2.873642 0.000000 
40.373788 3.774614 0.000000 
41.303817 4.650661 0.000000 
42.547929 3.907068 0.000000 
49.566306 3.131650 0.000000 
50.161906 2.984631 0.000000 
49.241075 3.690595 0.000000 
49.581615 4.494567 0.000000 
50.421612 4.750419 0.000000 
50.902578 4.395422 0.000000 
51.248649 3.778897 0.000000 
50.835054 3.205720 0.000000 
44.476068 2.051654 0.000000 
45.239626 2.345053 0.000000 
44.013240 2.489252 0.000000 
44.197767 3.293271 0.000000 
44.753154 3.766068 0.000000 
45.445337 3.914698 0.000000 
45.829852 3.473208 0.000000 
45.695934 2.784306 0.000000 
55.710787 0.977472 0.000000 
56.162505 0.649718 0.000000 
55.694704 1.591934 0.000000 
56.176393 2.054938 0.000000 
56.772625 2.505531 0.000000 
57.333289 2.408453 0.000000 
57.920887 2.131189 0.000000 
8.846702 1.473260 0.000000 
8.163466 2.952688 0.000000 
8.668132 2.813935 0.000000 
8.943456 2.187551 0.000000 
11.643716 0.708337 0.000000 
10.512489 1.162656 0.000000 
3.506448 8.500845 0.000000 
3.133876 9.327694 0.000000 
3.100863 7.786519 0.000000 
2.164591 7.698496 0.000000 
1.087022 7.839519 0.000000 
0.483830 8.553398 0.000000 
0.622343 9.361719 0.000000 
1.434641 9.660580 0.000000 
2.393912 9.828094 0.000000 
25.257231 0.826512 0.000000 
25.791547 0.354279 0.000000 
25.237823 1.523649 0.000000 
25.772315 2.119004 0.000000 
26.554704 2.362649 0.000000 
27.437612 2.387141 0.000000 
27.803769 1.916973 0.000000 
27.822397 0.798020 0.000000 
27.263170 0.468720 0.000000 
26.576579 0.275799 0.000000 
10.214337 10.032620 0.000000 
10.790761 10.299718 0.000000 
11.180615 9.908546 0.000000 
11.352699 8.862165 0.000000 
7.050450 2.870528 0.000000 
5.569225 1.903478 0.000000 
5.197451 2.398684 0.000000 
5.819066 3.430562 0.000000 
6.540863 3.326070 0.000000 
11.786716 12.978686 0.000000 
9.984432 12.410586 0.000000 
9.650787 13.008155 0.000000 
10.867415 14.027597 0.000000 
11.431546 13.593539 0.000000 
12.250608 7.321710 0.000000 
1.496088 10.468210 0.000000 
2.034097 11.043160 0.000000 
1.017879 10.715733 0.000000 
0.872726 11.344261 0.000000 
0.944530 12.154646 0.000000 
1.389108 12.416637 0.000000 
2.265463 11.626982 0.000000 
26.507579 8.724159 0.000000 
50.693105 0.768924 0.000000 
50.847951 1.307172 0.000000 
49.063138 1.032176 0.000000 
49.964124 2.445256 0.000000 
50.489109 1.990875 0.000000 
24.207003 9.908813 0.000000 
24.696852 10.322197 0.000000 
23.602780 10.013665 0.000000 
23.007771 10.354584 0.000000 
22.764995 11.020125 0.000000 
22.756090 11.781798 0.000000 
24.070386 12.143128 0.000000 
24.626471 11.739104 0.000000 
24.889580 11.063704 0.000000 
47.582340 0.528854 0.000000 
46.495577 0.420660 0.000000 
46.148932 0.862647 0.000000 
46.034595 1.546970 0.000000 
3.613707 1.079079 0.000000 
3.205901 2.362860 0.000000 
3.420895 1.792288 0.000000 
22.271347 12.419395 0.000000 
21.946850 13.137615 0.000000 
22.019042 11.523974 0.000000 
20.989691 11.434154 0.000000 
20.180034 11.884206 0.000000 
19.895278 12.539965 0.000000 
20.001270 13.500800 0.000000 
20.993932 13.505267 0.000000 
59.226639 3.394270 0.000000 
59.002372 3.949426 0.000000 
58.901481 2.933056 0.000000 
58.202018 2.855234 0.000000 
57.600653 3.225937 0.000000 
57.237213 3.820656 0.000000 
57.499784 4.216948 0.000000 
34.722081 5.319400 0.000000 
35.048258 4.934621 0.000000 
35.109099 6.375349 0.000000 
35.904200 6.539086 0.000000 
36.297785 6.182659 0.000000 
36.419134 5.540883 0.000000 
35.893598 5.135836 0.000000 
7.901252 12.809374 0.000000 
7.023859 12.587209 0.000000 
6.431991 12.960251 0.000000 
6.421728 13.563695 0.000000 
7.424664 14.219557 0.000000 
15.564274 1.533777 0.000000 
16.180069 1.725655 0.000000 
29.800817 5.050290 0.000000 
13.620810 1.011451 0.000000 
13.028929 1.364194 0.000000 
13.598560 2.883887 0.000000 
10.534537 3.927972 0.000000 
32.738919 6.847673 0.000000 
31.758639 7.141155 0.000000 
34.783318 1.114549 0.000000 
34.470286 1.452353 0.000000 
1.878133 0.471514 0.000000 
1.815025 1.230493 0.000000 
1.260567 0.208465 0.000000 
0.802157 0.750660 0.000000 
0.709630 1.457127 0.000000 
1.226988 1.739590 0.000000 
48.342279 2.694685 0.000000 
17.500505 14.525945 0.000000 
16.598515 13.939926 0.000000 
47.478680 4.800125 0.000000 
47.757793 3.772213 0.000000 
47.032101 3.671205 0.000000 
46.398211 4.159643 0.000000 
46.714351 4.669747 0.000000 
5.516634 1.513279 0.000000 
4.982197 0.526271 0.000000 
4.538621 0.942371 0.000000 
4.782952 1.451701 0.000000 
43.502807 0.344045 0.000000 
44.118822 0.283638 0.000000 
43.389899 0.828462 0.000000 
43.884847 1.219315 0.000000 
44.537307 1.166489 0.000000 
44.628216 0.663052 0.000000 
13.121167 13.951684 0.000000 
29.337886 0.858929 0.000000 
29.486566 1.531242 0.000000 
28.728979 0.802345 0.000000 
28.250357 1.583616 0.000000 
28.600855 2.067324 0.000000 
20.964587 4.215162 0.000000 
21.590495 4.013712 0.000000 
20.866280 4.797861 0.000000 
21.416806 5.404342 0.000000 
22.026613 5.271638 0.000000 
22.234171 4.629317 0.000000 
58.678978 0.590487 0.000000 
40.655213 0.506774 0.000000 
40.739935 1.105003 0.000000 
40.179897 0.415566 0.000000 
39.776754 0.902106 0.000000 
28.937254 8.907325 0.000000 
28.358229 9.188649 0.000000 
12.638818 10.400363 0.000000 
12.166751 10.703681 0.000000 
52.171169 1.465022 0.000000 
51.855687 0.552363 0.000000 
51.365993 0.952688 0.000000 
51.528560 1.437857 0.000000 
27.736184 3.023623 0.000000 
28.262262 2.552469 0.000000 
27.871443 3.716909 0.000000 
28.612047 3.808230 0.000000 
29.235693 3.426191 0.000000 
29.146123 2.760020 0.000000 
20.666845 5.336817 0.000000 
19.740176 5.244936 0.000000 
10.247124 6.502259 0.000000 
10.259794 7.521244 0.000000 
10.893637 7.378087 0.000000 
10.789946 6.892470 0.000000 
16.162805 13.751158 0.000000 
15.874838 12.787761 0.000000 
0.494094 12.812217 0.000000 
0.992763 12.563643 0.000000 
0.922873 13.742084 0.000000 
1.702089 13.668403 0.000000 
1.714795 13.066539 0.000000 
18.958823 8.067383 0.000000 
19.486734 8.428355 0.000000 
18.586750 8.373308 0.000000 
18.576038 9.069841 0.000000 
19.585767 9.130383 0.000000 
34.288033 4.794488 0.000000 
16.015705 11.623307 0.000000 
15.836052 10.653073 0.000000 
12.967499 10.545309 0.000000 
12.431809 11.441130 0.000000 
25.935066 4.537446 0.000000 
26.876071 4.234738 0.000000 
29.360238 7.812629 0.000000 
29.370537 5.725728 0.000000 
27.841068 4.414164 0.000000 
18.605024 4.301821 0.000000 
6.977139 9.130370 0.000000 
6.576803 9.928274 0.000000 
6.827311 10.882481 0.000000 
9.515489 11.595209 0.000000 
22.860473 0.949785 0.000000 
23.812237 0.926229 0.000000 
21.775293 3.143422 0.000000 
22.443997 3.930371 0.000000 
23.231306 4.311174 0.000000 
13.334066 4.014227 0.000000 
13.481859 4.860203 0.000000 
12.782710 3.584620 0.000000 
11.876987 3.418525 0.000000 
10.654144 4.771843 0.000000 
10.427893 5.633146 0.000000 
10.819796 6.347401 0.000000 
11.599189 6.604510 0.000000 
12.418842 6.293651 0.000000 
13.148603 5.643442 0.000000 
52.423056 4.452625 0.000000 
53.374108 4.795938 0.000000 
2.568766 12.029557 0.000000 
3.032274 11.344843 0.000000 
3.199116 13.515258 0.000000 
4.022642 13.782560 0.000000 
5.758938 11.566929 0.000000 
4.014566 11.195830 0.000000 
19.690615 12.045383 0.000000 
18.658713 9.587074 0.000000 
17.747992 9.738370 0.000000 
16.176562 11.082560 0.000000 
40.226929 3.541179 0.000000 
49.454528 4.315952 0.000000 
50.198731 4.733696 0.000000 
50.996290 3.312753 0.000000 
44.110802 3.117746 0.000000 
56.338543 0.677966 0.000000 
3.441916 8.702319 0.000000 
2.970054 9.509696 0.000000 
3.252880 7.936769 0.000000 
2.419651 7.668998 0.000000 
1.377765 7.800143 0.000000 
0.603672 8.324023 0.000000 
0.544907 9.183040 0.000000 
1.202608 9.637966 0.000000 
2.161221 9.781171 0.000000 
25.635944 2.017253 0.000000 
26.387091 2.335538 0.000000 
27.244517 2.391824 0.000000 
6.386005 3.404044 0.000000 
22.242840 12.605532 0.000000 
21.706330 13.241127 0.000000 
22.113054 11.734031 0.000000 
20.360493 11.751635 0.000000 
19.953155 13.266186 0.000000 
35.228632 4.974140 0.000000 
7.219795 12.638702 0.000000 
1.713530 1.387805 0.000000 
1.428040 0.212817 0.000000 
0.862003 0.593165 0.000000 
47.227195 3.630664 0.000000 
46.509705 4.034265 0.000000 
28.330483 1.351042 0.000000 
21.803990 4.134834 0.000000 
21.270150 5.296864 0.000000 
28.518657 2.548717 0.000000 
28.424321 3.846917 0.000000 
1.192999 12.651264 0.000000 
19.573341 8.589519 0.000000 
0.483991 0.000000 0.000000 
0.000000 14.500000 0.000000 
60.000000 0.500000 0.000000 
59.500000 5.000000 0.000000 
39.552786 5.223607 0.000000 
19.500000 15.000000 0.000000 
9.050984 7.287355 0.000000 
8.107658 8.170127 0.000000 
8.973765 5.994968 0.000000 
8.709436 4.720842 0.000000 
6.950724 4.303684 0.000000 
5.259688 5.015782 0.000000 
4.295114 6.213865 0.000000 
3.723030 7.562639 0.000000 
4.923333 8.532214 0.000000 
6.751206 8.494345 0.000000 
24.384371 8.417904 0.000000 
22.990132 9.243583 0.000000 
24.389914 6.925467 0.000000 
23.416390 5.908105 0.000000 
21.557394 6.174347 0.000000 
20.354946 7.235366 0.000000 
19.869767 8.558563 0.000000 
21.162529 9.457749 0.000000 
31.389787 1.153370 0.000000 
32.949256 1.388632 0.000000 
30.341818 2.304490 0.000000 
29.851103 3.353065 0.000000 
31.092127 4.878271 0.000000 
32.121500 5.937464 0.000000 
33.527160 6.151462 0.000000 
34.642726 3.794879 0.000000 
34.546621 2.418524 0.000000 
16.477648 2.504600 0.000000 
17.646895 3.479667 0.000000 
15.046958 2.753935 0.000000 
14.052492 3.401217 0.000000 
14.193638 5.444203 0.000000 
14.201703 6.967684 0.000000 
15.271791 8.325741 0.000000 
16.680217 8.786361 0.000000 
17.984327 7.767761 0.000000 
18.773259 6.760338 0.000000 
18.217824 4.877444 0.000000 
15.562566 12.555532 0.000000 
15.261029 9.985019 0.000000 
14.094572 9.876034 0.000000 
12.384373 12.404755 0.000000 
13.053713 13.000684 0.000000 
14.490931 12.916295 0.000000 
3.971278 3.585100 0.000000 
4.106698 5.009044 0.000000 
2.787238 3.010481 0.000000 
1.613964 3.150589 0.000000 
0.603765 4.164622 0.000000 
0.423624 5.744813 0.000000 
1.020350 6.902533 0.000000 
2.273495 7.112340 0.000000 
3.437340 6.518415 0.000000 
25.176800 5.150424 0.000000 
25.102081 6.045598 0.000000 
25.949473 7.181011 0.000000 
26.809286 8.039677 0.000000 
28.166031 8.280231 0.000000 
29.581271 6.898853 0.000000 
28.925978 4.994799 0.000000 
20.054699 1.598017 0.000000 
20.422426 2.702007 0.000000 
19.168273 0.980362 0.000000 
18.063908 1.873301 0.000000 
17.686106 3.145918 0.000000 
19.502418 4.611756 0.000000 
20.289118 4.092231 0.000000 
8.275823 8.794349 0.000000 
7.382055 11.700213 0.000000 
8.452610 12.202770 0.000000 
9.647155 10.773845 0.000000 
9.082096 9.631640 0.000000 
21.949181 1.175683 0.000000 
21.273849 1.709884 0.000000 
24.801794 3.855383 0.000000 
25.186907 3.112983 0.000000 
24.622735 1.826909 0.000000 
11.204694 3.738228 0.000000 
55.694198 2.459496 0.000000 
55.436198 3.823415 0.000000 
54.954635 1.490616 0.000000 
53.803377 1.278479 0.000000 
52.537126 2.076334 0.000000 
51.985799 3.382588 0.000000 
54.397791 4.601446 0.000000 
39.232759 1.375117 0.000000 
39.695889 3.092440 0.000000 
38.151194 0.630928 0.000000 
36.760821 0.998133 0.000000 
35.520063 2.346407 0.000000 
35.627074 4.420393 0.000000 
37.229222 5.239674 0.000000 
38.789559 4.965514 0.000000 
20.399874 11.428855 0.000000 
20.925681 10.530815 0.000000 
19.849204 9.854173 0.000000 
16.879397 10.209708 0.000000 
16.533839 12.049259 0.000000 
17.381712 12.707820 0.000000 
18.711260 12.680736 0.000000 
42.853452 1.936083 0.000000 
42.821048 3.251190 0.000000 
42.264736 1.011713 0.000000 
41.214170 1.000722 0.000000 
40.297427 2.412092 0.000000 
40.890941 4.306414 0.000000 
41.875122 4.484969 0.000000 
21.422391 11.369583 0.000000 
20.535978 13.622101 0.000000 
59.500000 0.000000 0.000000 
0.000000 0.500000 0.000000 
60.000000 4.500000 0.000000 
40.500000 5.000000 0.000000 
20.447214 14.776393 0.000000 
0.500000 15.000000 0.000000 
8.986107 6.976313 0.000000 
8.685099 7.952883 0.000000 
9.081550 5.404248 0.000000 
7.900364 4.385332 0.000000 
6.048747 4.506868 0.000000 
4.934502 5.446476 0.000000 
3.764975 6.791433 0.000000 
4.127449 8.112750 0.000000 
5.758292 8.559972 0.000000 
7.146492 8.428429 0.000000 
24.500365 7.866893 0.000000 
23.797524 9.033236 0.000000 
24.129646 6.374139 0.000000 
22.451920 5.881314 0.000000 
21.075406 6.549119 0.000000 
19.871277 7.798608 0.000000 
20.339369 9.109841 0.000000 
22.007354 9.402354 0.000000 
31.039133 1.595723 0.000000 
32.147221 0.985910 0.000000 
29.915134 2.654188 0.000000 
30.475369 4.091959 0.000000 
31.390952 5.289181 0.000000 
32.818260 6.326821 0.000000 
33.799160 5.732854 0.000000 
34.817964 3.185799 0.000000 
33.805679 1.899765 0.000000 
16.033059 2.589414 0.000000 
17.236661 2.833096 0.000000 
14.466179 2.837041 0.000000 
14.227621 4.464317 0.000000 
14.047818 6.059765 0.000000 
14.605743 7.600280 0.000000 
15.909359 8.814191 0.000000 
17.175633 8.346642 0.000000 
18.477618 7.487528 0.000000 
18.503980 5.830735 0.000000 
18.063095 4.379350 0.000000 
15.707783 12.430763 0.000000 
15.035988 9.898497 0.000000 
13.799477 9.973609 0.000000 
12.423709 12.549651 0.000000 
13.492559 12.972981 0.000000 
14.683955 12.906560 0.000000 
3.686489 3.378763 0.000000 
4.260247 4.364832 0.000000 
2.539863 2.972988 0.000000 
1.145905 3.424481 0.000000 
0.468376 4.761552 0.000000 
0.487759 6.227592 0.000000 
1.313536 7.015157 0.000000 
2.706217 7.040298 0.000000 
3.752859 5.935190 0.000000 
25.078881 5.276070 0.000000 
25.383361 6.364829 0.000000 
26.095167 7.453788 0.000000 
27.187831 8.154259 0.000000 
28.490710 8.267960 0.000000 
29.520310 6.703367 0.000000 
28.759614 4.908318 0.000000 
19.825748 1.160781 0.000000 
20.387246 2.530739 0.000000 
18.791852 1.212591 0.000000 
17.720239 2.325805 0.000000 
17.938629 3.543072 0.000000 
19.664127 4.603050 0.000000 
20.397317 3.675719 0.000000 
7.908584 8.813358 0.000000 
7.640372 11.984859 0.000000 
8.652775 12.138734 0.000000 
9.504449 10.532930 0.000000 
8.942682 9.239601 0.000000 
21.663739 1.192521 0.000000 
21.375660 2.164613 0.000000 
24.952187 3.782460 0.000000 
25.012335 2.746829 0.000000 
24.526260 1.567720 0.000000 
11.133218 3.907583 0.000000 
55.583738 2.201355 0.000000 
55.666272 3.365881 0.000000 
54.699462 1.342460 0.000000 
53.293777 1.484079 0.000000 
52.246368 2.478459 0.000000 
52.000202 3.604416 0.000000 
54.748482 4.458662 0.000000 
38.949348 0.996059 0.000000 
39.593851 2.271744 0.000000 
37.661640 0.665593 0.000000 
36.005841 1.556241 0.000000 
35.299974 3.642433 0.000000 
36.321196 4.901969 0.000000 
38.004775 5.321856 0.000000 
39.470013 3.997649 0.000000 
20.857022 11.145258 0.000000 
20.695513 10.304111 0.000000 
19.652696 9.814447 0.000000 
16.546021 10.348138 0.000000 
16.624745 12.194736 0.000000 
17.754172 12.775243 0.000000 
18.923461 12.596980 0.000000 
42.810451 1.740939 0.000000 
42.877575 2.917352 0.000000 
41.942482 0.834492 0.000000 
40.815619 1.559931 0.000000 
40.174943 2.651147 0.000000 
41.111804 4.490564 0.000000 
42.358284 4.069962 0.000000 
21.236953 11.397256 0.000000 
20.751691 13.567067 0.000000 
8.396379 8.061505 0.000000 
9.027657 5.699608 0.000000 
5.097095 5.231129 0.000000 
6.948849 8.461387 0.000000 
24.442368 8.142398 0.000000 
24.259780 6.649803 0.000000 
21.316400 6.361733 0.000000 
31.214460 1.374547 0.000000 
30.128476 2.479339 0.000000 
31.241540 5.083726 0.000000 
33.663160 5.942158 0.000000 
34.730345 3.490339 0.000000 
16.255354 2.547007 0.000000 
14.756569 2.795488 0.000000 
14.120728 5.751984 0.000000 
18.230973 7.627644 0.000000 
18.140459 4.628397 0.000000 
13.273136 12.986833 0.000000 
3.828884 3.481932 0.000000 
1.379935 3.287535 0.000000 
0.536070 4.463087 0.000000 
0.455691 5.986202 0.000000 
2.489856 7.076319 0.000000 
25.242721 6.205214 0.000000 
26.998558 8.096968 0.000000 
19.940224 1.379399 0.000000 
18.980062 1.096477 0.000000 
17.892073 2.099553 0.000000 
17.812367 3.344495 0.000000 
20.343218 3.883975 0.000000 
8.092204 8.803854 0.000000 
7.511214 11.842536 0.000000 
9.012389 9.435621 0.000000 
21.324755 1.937248 0.000000 
25.099621 2.929906 0.000000 
55.551235 3.594648 0.000000 
53.548577 1.381279 0.000000 
52.391747 2.277396 0.000000 
54.573136 4.530054 0.000000 
39.091053 1.185588 0.000000 
37.906417 0.648261 0.000000 
20.628448 11.287056 0.000000 
16.712709 10.278923 0.000000 
17.567942 12.741531 0.000000 
42.849312 3.084271 0.000000 
42.103609 0.923102 0.000000 
42.116703 4.277466 0.000000 
0.718366 0.000000 0.000000 
0.000000 14.250000 0.000000 
60.000000 0.750000 0.000000 
59.250000 5.000000 0.000000 
39.329180 5.335410 0.000000 
19.250000 15.000000 0.000000 
8.478505 4.625078 0.000000 
6.706836 4.358624 0.000000 
4.126061 6.398042 0.000000 
3.871110 7.764064 0.000000 
5.173195 8.540521 0.000000 
23.232057 9.180555 0.000000 
23.166486 5.901163 0.000000 
20.192076 7.425032 0.000000 
20.031883 8.748875 0.000000 
21.411993 9.441392 0.000000 
32.725839 1.276449 0.000000 
30.012445 3.544033 0.000000 
32.339737 6.059418 0.000000 
34.341826 2.275140 0.000000 
17.512960 3.268572 0.000000 
14.093128 3.647892 0.000000 
14.336272 7.178376 0.000000 
15.470246 8.477780 0.000000 
16.867191 8.620408 0.000000 
18.704050 6.521414 0.000000 
4.164662 4.765857 0.000000 
3.556296 6.298530 0.000000 
39.665044 2.844350 0.000000 
36.559787 1.146744 0.000000 
35.478208 2.592878 0.000000 
35.832479 4.562902 0.000000 
37.477831 5.266018 0.000000 
38.933342 4.760999 0.000000 
41.069074 1.204307 0.000000 
59.250000 0.000000 0.000000 
0.000000 0.750000 0.000000 
60.000000 4.250000 0.000000 
40.750000 5.000000 0.000000 
20.670820 14.664590 0.000000 
0.750000 15.000000 0.000000 
8.131296 4.481096 0.000000 
6.292636 4.451929 0.000000 
3.934028 6.607256 0.000000 
3.979369 7.911324 0.000000 
5.508430 8.551666 0.000000 
23.555599 9.096264 0.000000 
22.701823 5.888256 0.000000 
20.034148 7.608942 0.000000 
20.177254 8.919529 0.000000 
21.757890 9.418711 0.000000 
32.370638 1.098093 0.000000 
30.314027 3.900991 0.000000 
32.600023 6.204868 0.000000 
34.010475 2.043149 0.000000 
17.370596 3.044192 0.000000 
14.186985 4.217641 0.000000 
14.471174 7.389588 0.000000 
15.710905 8.662153 0.000000 
16.988659 8.512596 0.000000 
18.572256 6.066438 0.000000 
4.202283 4.608020 0.000000 
3.633903 6.155075 0.000000 
39.624697 2.519834 0.000000 
36.206875 1.407630 0.000000 
35.341829 3.395962 0.000000 
36.115790 4.759460 0.000000 
37.756167 5.295512 0.000000 
39.326229 4.202164 0.000000 
40.960715 1.356345 0.000000 
8.304900 4.553087 0.000000 
6.499736 4.405276 0.000000 
5.340813 8.546093 0.000000 
23.393828 9.138410 0.000000 
22.934155 5.894710 0.000000 
21.584942 9.430052 0.000000 
32.548239 1.187271 0.000000 
30.163236 3.722512 0.000000 
34.176150 2.159145 0.000000 
14.140056 3.932767 0.000000 
18.638153 6.293926 0.000000 
36.383331 1.277187 0.000000 
35.974135 4.661181 0.000000 
0.952999 0.000000 0.000000 
0.000000 14.000000 0.000000 
60.000000 1.000000 0.000000 
59.000000 5.000000 0.000000 
39.105573 5.447214 0.000000 
19.000000 15.000000 0.000000 
35.436352 2.839350 0.000000 
39.077125 4.556484 0.000000 
59.000000 0.000000 0.000000 
0.000000 1.000000 0.000000 
60.000000 4.000000 0.000000 
41.000000 5.000000 0.000000 
20.894427 14.552786 0.000000 
1.000000 15.000000 0.000000 
35.383685 3.149491 0.000000 
39.182446 4.406679 0.000000 
1.191872 0.000000 0.000000 
0.000000 13.750000 0.000000 
60.000000 1.250000 0.000000 
58.750000 5.000000 0.000000 
38.881966 5.559017 0.000000 
18.750000 15.000000 0.000000 
58.750000 0.000000 0.000000 
0.000000 1.250000 0.000000 
60.000000 3.750000 0.000000 
41.250000 5.000000 0.000000 
21.118034 14.440983 0.000000 
1.250000 15.000000 0.000000 
1.438299 0.000000 0.000000 
0.000000 13.500000 0.000000 
60.000000 1.500000 0.000000 
58.500000 5.000000 0.000000 
38.658359 5.670820 0.000000 
18.500000 15.000000 0.000000 
58.500000 0.000000 0.000000 
0.000000 1.500000 0.000000 
60.000000 3.500000 0.000000 
41.500000 5.000000 0.000000 
21.341641 14.329180 0.000000 
1.500000 15.000000 0.000000 
1.688299 0.000000 0.000000 
0.000000 13.250000 0.000000 
60.000000 1.750000 0.000000 
58.250000 5.000000 0.000000 
38.434752 5.782624 0.000000 
18.250000 15.000000 0.000000 
58.250000 0.000000 0.000000 
0.000000 1.750000 0.000000 
60.000000 3.250000 0.000000 
41.750000 5.000000 0.000000 
21.565248 14.217376 0.000000 
1.750000 15.000000 0.000000 
1.938299 0.000000 0.000000 
0.000000 13.000000 0.000000 
60.000000 2.000000 0.000000 
58.000000 5.000000 0.000000 
38.211146 5.894427 0.000000 
18.000000 15.000000 0.000000 
58.000000 0.000000 0.000000 
0.000000 2.000000 0.000000 
60.000000 3.000000 0.000000 
42.000000 5.000000 0.000000 
21.788854 14.105573 0.000000 
2.000000 15.000000 0.000000 
2.188299 0.000000 0.000000 
0.000000 12.750000 0.000000 
60.000000 2.250000 0.000000 
57.750000 5.000000 0.000000 
37.987539 6.006231 0.000000 
17.750000 15.000000 0.000000 
57.750000 0.000000 0.000000 
0.000000 2.250000 0.000000 
60.000000 2.750000 0.000000 
42.250000 5.000000 0.000000 
22.012461 13.993769 0.000000 
2.250000 15.000000 0.000000 
60.000000 2.500000 0.000000 
2.438299 0.000000 0.000000 
0.000000 12.500000 0.000000 
57.500000 5.000000 0.000000 
37.763932 6.118034 0.000000 
17.500000 15.000000 0.000000 
57.500000 0.000000 0.000000 
0.000000 2.500000 0.000000 
42.500000 5.000000 0.000000 
22.236068 13.881966 0.000000 
2.500000 15.000000 0.000000 
2.688299 0.000000 0.000000 
0.000000 12.250000 0.000000 
57.250000 5.000000 0.000000 
37.540325 6.229837 0.000000 
17.250000 15.000000 0.000000 
57.250000 0.000000 0.000000 
0.000000 2.750000 0.000000 
42.750000 5.000000 0.000000 
22.459675 13.770163 0.000000 
2.750000 15.000000 0.000000 
2.938299 0.000000 0.000000 
0.000000 12.000000 0.000000 
57.000000 5.000000 0.000000 
37.316718 6.341641 0.000000 
17.000000 15.000000 0.000000 
57.000000 0.000000 0.000000 
0.000000 3.000000 0.000000 
43.000000 5.000000 0.000000 
22.683282 13.658359 0.000000 
3.000000 15.000000 0.000000 
3.188299 0.000000 0.000000 
0.000000 11.750000 0.000000 
56.750000 5.000000 0.000000 
37.093112 6.453444 0.000000 
16.750000 15.000000 0.000000 
56.750000 0.000000 0.000000 
0.000000 3.250000 0.000000 
43.250000 5.000000 0.000000 
22.906888 13.546556 0.000000 
3.250000 15.000000 0.000000 
3.438299 0.000000 0.000000 
0.000000 11.500000 0.000000 
56.500000 5.000000 0.000000 
36.869505 6.565248 0.000000 
16.500000 15.000000 0.000000 
56.500000 0.000000 0.000000 
0.000000 3.500000 0.000000 
43.500000 5.000000 0.000000 
23.130495 13.434752 0.000000 
3.500000 15.000000 0.000000 
3.688299 0.000000 0.000000 
0.000000 11.250000 0.000000 
56.250000 5.000000 0.000000 
36.645898 6.677051 0.000000 
16.250000 15.000000 0.000000 
56.250000 0.000000 0.000000 
0.000000 3.750000 0.000000 
43.750000 5.000000 0.000000 
23.354102 13.322949 0.000000 
3.750000 15.000000 0.000000 
3.938299 0.000000 0.000000 
0.000000 11.000000 0.000000 
56.000000 5.000000 0.000000 
36.422291 6.788854 0.000000 
16.000000 15.000000 0.000000 
56.000000 0.000000 0.000000 
0.000000 4.000000 0.000000 
44.000000 5.000000 0.000000 
23.577709 13.211146 0.000000 
4.000000 15.000000 0.000000 
4.188299 0.000000 0.000000 
0.000000 10.750000 0.000000 
55.750000 5.000000 0.000000 
36.198684 6.900658 0.000000 
15.750000 15.000000 0.000000 
55.750000 0.000000 0.000000 
0.000000 4.250000 0.000000 
44.250000 5.000000 0.000000 
23.801316 13.099342 0.000000 
4.250000 15.000000 0.000000 
4.438299 0.000000 0.000000 
0.000000 10.500000 0.000000 
55.500000 5.000000 0.000000 
35.975078 7.012461 0.000000 
15.500000 15.000000 0.000000 
55.500000 0.000000 0.000000 
0.000000 4.500000 0.000000 
44.500000 5.000000 0.000000 
24.024922 12.987539 0.000000 
4.500000 15.000000 0.000000 
4.688299 0.000000 0.000000 
0.000000 10.250000 0.000000 
55.250000 5.000000 0.000000 
35.751471 7.124265 0.000000 
15.250000 15.000000 0.000000 
55.250000 0.000000 0.000000 
0.000000 4.750000 0.000000 
44.750000 5.000000 0.000000 
24.248529 12.875735 0.000000 
4.750000 15.000000 0.000000 
4.938299 0.000000 0.000000 
0.000000 10.000000 0.000000 
55.000000 5.000000 0.000000 
35.527864 7.236068 0.000000 
15.000000 15.000000 0.000000 
55.000000 0.000000 0.000000 
0.000000 5.000000 0.000000 
45.000000 5.000000 0.000000 
24.472136 12.763932 0.000000 
5.000000 15.000000 0.000000 
5.188299 0.000000 0.000000 
0.000000 9.750000 0.000000 
54.750000 5.000000 0.000000 
35.304257 7.347871 0.000000 
14.750000 15.000000 0.000000 
54.750000 0.000000 0.000000 
0.000000 5.250000 0.000000 
45.250000 5.000000 0.000000 
24.695743 12.652129 0.000000 
5.250000 15.000000 0.000000 
5.438299 0.000000 0.000000 
0.000000 9.500000 0.000000 
54.500000 5.000000 0.000000 
35.080650 7.459675 0.000000 
14.500000 15.000000 0.000000 
54.500000 0.000000 0.000000 
0.000000 5.500000 0.000000 
45.500000 5.000000 0.000000 
24.919350 12.540325 0.000000 
5.500000 15.000000 0.000000 
5.688299 0.000000 0.000000 
0.000000 9.250000 0.000000 
54.250000 5.000000 0.000000 
34.857044 7.571478 0.000000 
14.250000 15.000000 0.000000 
54.250000 0.000000 0.000000 
0.000000 5.750000 0.000000 
45.750000 5.000000 0.000000 
25.142956 12.428522 0.000000 
5.750000 15.000000 0.000000 
5.938299 0.000000 0.000000 
0.000000 9.000000 0.000000 
54.000000 5.000000 0.000000 
34.633437 7.683282 0.000000 
14.000000 15.000000 0.000000 
54.000000 0.000000 0.000000 
0.000000 6.000000 0.000000 
46.000000 5.000000 0.000000 
25.366563 12.316718 0.000000 
6.000000 15.000000 0.000000 
6.188299 0.000000 0.000000 
0.000000 8.750000 0.000000 
53.750000 5.000000 0.000000 
34.409830 7.795085 0.000000 
13.750000 15.000000 0.000000 
53.750000 0.000000 0.000000 
0.000000 6.250000 0.000000 
46.250000 5.000000 0.000000 
25.590170 12.204915 0.000000 
6.250000 15.000000 0.000000 
6.438299 0.000000 0.000000 
0.000000 8.500000 0.000000 
53.500000 5.000000 0.000000 
34.186223 7.906888 0.000000 
13.500000 15.000000 0.000000 
53.500000 0.000000 0.000000 
0.000000 6.500000 0.000000 
46.500000 5.000000 0.000000 
25.813777 12.093112 0.000000 
6.500000 15.000000 0.000000 
6.688299 0.000000 0.000000 
0.000000 8.250000 0.000000 
53.250000 5.000000 0.000000 
33.962616 8.018692 0.000000 
13.250000 15.000000 0.000000 
53.250000 0.000000 0.000000 
0.000000 6.750000 0.000000 
46.750000 5.000000 0.000000 
26.037384 11.981308 0.000000 
6.750000 15.000000 0.000000 
6.938299 0.000000 0.000000 
0.000000 8.000000 0.000000 
53.000000 5.000000 0.000000 
33.739010 8.130495 0.000000 
13.000000 15.000000 0.000000 
53.000000 0.000000 0.000000 
0.000000 7.000000 0.000000 
47.000000 5.000000 0.000000 
26.260990 11.869505 0.000000 
7.000000 15.000000 0.000000 
7.188299 0.000000 0.000000 
0.000000 7.750000 0.000000 
52.750000 5.000000 0.000000 
33.515403 8.242299 0.000000 
12.750000 15.000000 0.000000 
52.750000 0.000000 0.000000 
0.000000 7.250000 0.000000 
47.250000 5.000000 0.000000 
26.484597 11.757701 0.000000 
7.250000 15.000000 0.000000 
0.000000 7.500000 0.000000 
7.438299 0.000000 0.000000 
52.500000 5.000000 0.000000 
33.291796 8.354102 0.000000 
12.500000 15.000000 0.000000 
52.500000 0.000000 0.000000 
47.500000 5.000000 0.000000 
26.708204 11.645898 0.000000 
7.500000 15.000000 0.000000 
7.688299 0.000000 0.000000 
52.250000 5.000000 0.000000 
33.068189 8.465905 0.000000 
12.250000 15.000000 0.000000 
52.250000 0.000000 0.000000 
47.750000 5.000000 0.000000 
26.931811 11.534095 0.000000 
7.750000 15.000000 0.000000 
7.938299 0.000000 0.000000 
52.000000 5.000000 0.000000 
32.844582 8.577709 0.000000 
12.000000 15.000000 0.000000 
52.000000 0.000000 0.000000 
48.000000 5.000000 0.000000 
27.155418 11.422291 0.000000 
8.000000 15.000000 0.000000 
8.188299 0.000000 0.000000 
51.750000 5.000000 0.000000 
32.620976 8.689512 0.000000 
11.750000 15.000000 0.000000 
51.750000 0.000000 0.000000 
48.250000 5.000000 0.000000 
27.379024 11.310488 0.000000 
8.250000 15.000000 0.000000 
8.438299 0.000000 0.000000 
51.500000 5.000000 0.000000 
32.397369 8.801316 0.000000 
11.500000 15.000000 0.000000 
51.500000 0.000000 0.000000 
48.500000 5.000000 0.000000 
27.602631 11.198684 0.000000 
8.500000 15.000000 0.000000 
8.688299 0.000000 0.000000 
51.250000 5.000000 0.000000 
32.173762 8.913119 0.000000 
11.250000 15.000000 0.000000 
51.250000 0.000000 0.000000 
48.750000 5.000000 0.000000 
27.826238 11.086881 0.000000 
8.750000 15.000000 0.000000 
8.938299 0.000000 0.000000 
51.000000 5.000000 0.000000 
31.950155 9.024922 0.000000 
11.000000 15.000000 0.000000 
51.000000 0.000000 0.000000 
49.000000 5.000000 0.000000 
28.049845 10.975078 0.000000 
9.000000 15.000000 0.000000 
9.188299 0.000000 0.000000 
50.750000 5.000000 0.000000 
31.726548 9.136726 0.000000 
10.750000 15.000000 0.000000 
50.750000 0.000000 0.000000 
49.250000 5.000000 0.000000 
28.273452 10.863274 0.000000 
9.250000 15.000000 0.000000 
9.438299 0.000000 0.000000 
50.500000 5.000000 0.000000 
31.502942 9.248529 0.000000 
10.500000 15.000000 0.000000 
50.500000 0.000000 0.000000 
49.500000 5.000000 0.000000 
28.497058 10.751471 0.000000 
9.500000 15.000000 0.000000 
9.688299 0.000000 0.000000 
50.250000 5.000000 0.000000 
31.279335 9.360333 0.000000 
10.250000 15.000000 0.000000 
50.250000 0.000000 0.000000 
49.750000 5.000000 0.000000 
28.720665 10.639667 0.000000 
9.750000 15.000000 0.000000 
50.000000 5.000000 0.000000 
10.000000 15.000000 0.000000 
9.938299 0.000000 0.000000 
31.055728 9.472136 0.000000 
50.000000 0.000000 0.000000 
28.944272 10.527864 0.000000 
10.188299 0.000000 0.000000 
30.832121 9.583939 0.000000 
49.750000 0.000000 0.000000 
29.167879 10.416061 0.000000 
10.438299 0.000000 0.000000 
30.608514 9.695743 0.000000 
49.500000 0.000000 0.000000 
29.391486 10.304257 0.000000 
10.688299 0.000000 0.000000 
30.384908 9.807546 0.000000 
49.250000 0.000000 0.000000 
29.615092 10.192454 0.000000 
10.938299 0.000000 0.000000 
30.161301 9.919350 0.000000 
49.000000 0.000000 0.000000 
29.838699 10.080650 0.000000 
30.000000 10.000000 0.000000 
11.188299 0.000000 0.000000 
48.750000 0.000000 0.000000 
11.438299 0.000000 0.000000 
48.500000 0.000000 0.000000 
11.688299 0.000000 0.000000 
48.250000 0.000000 0.000000 
11.938299 0.000000 0.000000 
48.000000 0.000000 0.000000 
12.188299 0.000000 0.000000 
47.750000 0.000000 0.000000 
12.438299 0.000000 0.000000 
47.500000 0.000000 0.000000 
12.688299 0.000000 0.000000 
47.250000 0.000000 0.000000 
12.938299 0.000000 0.000000 
47.000000 0.000000 0.000000 
13.188299 0.000000 0.000000 
46.750000 0.000000 0.000000 
13.438299 0.000000 0.000000 
46.500000 0.000000 0.000000 
13.688299 0.000000 0.000000 
46.250000 0.000000 0.000000 
13.938299 0.000000 0.000000 
46.000000 0.000000 0.000000 
14.188299 0.000000 0.000000 
45.750000 0.000000 0.000000 
14.438299 0.000000 0.000000 
45.500000 0.000000 0.000000 
14.688299 0.000000 0.000000 
45.250000 0.000000 0.000000 
14.938299 0.000000 0.000000 
45.000000 0.000000 0.000000 
15.188299 0.000000 0.000000 
44.750000 0.000000 0.000000 
15.438299 0.000000 0.000000 
44.500512 0.000000 0.000000 
15.688299 0.000000 0.000000 
44.255618 0.000000 0.000000 
15.938299 0.000000 0.000000 
44.018025 0.000000 0.000000 
16.188299 0.000000 0.000000 
43.783650 0.000000 0.000000 
16.438299 0.000000 0.000000 
43.548521 0.000000 0.000000 
16.688299 0.000000 0.000000 
43.308640 0.000000 0.000000 
16.938299 0.000000 0.000000 
43.061701 0.000000 0.000000 
17.188299 0.000000 0.000000 
42.811701 0.000000 0.000000 
17.436749 0.000000 0.000000 
42.561701 0.000000 0.000000 
17.679601 0.000000 0.000000 
42.311701 0.000000 0.000000 
17.916191 0.000000 0.000000 
42.061701 0.000000 0.000000 
18.150566 0.000000 0.000000 
41.811701 0.000000 0.000000 
18.386699 0.000000 0.000000 
41.561701 0.000000 0.000000 
18.628621 0.000000 0.000000 
41.311701 0.000000 0.000000 
18.876598 0.000000 0.000000 
41.061701 0.000000 0.000000 
19.126598 0.000000 0.000000 
40.811701 0.000000 0.000000 
19.376598 0.000000 0.000000 
40.561701 0.000000 0.000000 
19.626598 0.000000 0.000000 
40.311701 0.000000 0.000000 
19.876598 0.000000 0.000000 
40.061701 0.000000 0.000000 
20.126598 0.000000 0.000000 
39.811701 0.000000 0.000000 
20.376598 0.000000 0.000000 
39.561701 0.000000 0.000000 
20.626598 0.000000 0.000000 
39.311701 0.000000 0.000000 
20.876598 0.000000 0.000000 
39.061701 0.000000 0.000000 
21.126598 0.000000 0.000000 
38.811701 0.000000 0.000000 
21.376598 0.000000 0.000000 
38.561701 0.000000 0.000000 
21.626598 0.000000 0.000000 
38.311701 0.000000 0.000000 
21.876598 0.000000 0.000000 
38.061701 0.000000 0.000000 
22.126598 0.000000 0.000000 
37.811701 0.000000 0.000000 
22.376598 0.000000 0.000000 
37.561701 0.000000 0.000000 
22.626598 0.000000 0.000000 
37.311701 0.000000 0.000000 
22.876598 0.000000 0.000000 
37.061701 0.000000 0.000000 
23.126598 0.000000 0.000000 
36.811701 0.000000 0.000000 
23.376598 0.000000 0.000000 
36.561701 0.000000 0.000000 
23.626598 0.000000 0.000000 
36.311701 0.000000 0.000000 
23.876598 0.000000 0.000000 
36.061701 0.000000 0.000000 
24.126598 0.000000 0.000000 
35.811701 0.000000 0.000000 
24.376598 0.000000 0.000000 
35.561701 0.000000 0.000000 
24.626598 0.000000 0.000000 
35.311701 0.000000 0.000000 
24.876598 0.000000 0.000000 
35.061701 0.000000 0.000000 
25.126598 0.000000 0.000000 
34.811701 0.000000 0.000000 
25.376598 0.000000 0.000000 
34.561701 0.000000 0.000000 
25.626598 0.000000 0.000000 
34.311701 0.000000 0.000000 
25.876598 0.000000 0.000000 
34.061701 0.000000 0.000000 
26.126598 0.000000 0.000000 
33.811701 0.000000 0.000000 
26.376598 0.000000 0.000000 
33.561701 0.000000 0.000000 
26.626598 0.000000 0.000000 
33.311701 0.000000 0.000000 
26.876598 0.000000 0.000000 
33.061701 0.000000 0.000000 
27.126598 0.000000 0.000000 
32.811701 0.000000 0.000000 
27.376598 0.000000 0.000000 
32.561701 0.000000 0.000000 
27.626598 0.000000 0.000000 
32.311701 0.000000 0.000000 
27.876598 0.000000 0.000000 
32.061701 0.000000 0.000000 
28.126598 0.000000 0.000000 
31.811701 0.000000 0.000000 
28.376598 0.000000 0.000000 
31.561701 0.000000 0.000000 
28.626598 0.000000 0.000000 
31.311701 0.000000 0.000000 
28.876598 0.000000 0.000000 
31.061701 0.000000 0.000000 
29.126598 0.000000 0.000000 
30.811701 0.000000 0.000000 
29.376598 0.000000 0.000000 
30.561701 0.000000 0.000000 
29.626598 0.000000 0.000000 
30.311701 0.000000 0.000000 
29.876598 0.000000 0.000000 
30.061701 0.000000 0.000000 
11.620040 8.731524 0.000000 
3.580015 0.786097 0.000000 
14.063811 9.430186 0.000000 
17.661060 14.274735 0.000000 
18.885823 6.184515 0.000000 
12.651608 10.093360 0.000000 
23.717721 12.437121 0.000000 
15.146609 1.177929 0.000000 
30.055311 6.173023 0.000000 
14.048475 0.968384 0.000000 
18.939617 5.986801 0.000000 
12.467139 14.628352 0.000000 
59.136758 0.518060 0.000000 
29.302986 9.147551 0.000000 
20.534173 5.777053 0.000000 
19.084999 9.390706 0.000000 
2.246123 11.759570 0.000000 
7.018990 8.241229 0.000000 
36.416111 1.514635 0.000000 
6.432552 4.643257 0.000000 
18.189478 5.533121 0.000000 
6.803080 8.276924 0.000000 
38.946801 4.352281 0.000000 
36.602859 1.375582 0.000000 
14.432400 5.370595 0.000000 
35.668047 2.777008 0.000000 
3.398118 6.124454 0.000000 
39.089469 4.170552 0.000000 
18.042638 5.055270 0.000000 
14.724407 7.371435 0.000000 
14.587434 7.161103 0.000000 
14.479308 5.108612 0.000000 
6.658786 4.592603 0.000000 
33.590623 2.001728 0.000000 
27.176615 7.918103 0.000000 
34.320882 4.074306 0.000000 
31.039995 4.444890 0.000000 
31.191796 4.643940 0.000000 
23.255056 8.960871 0.000000 
37.369699 5.037087 0.000000 
17.968057 4.814698 0.000000 
14.362116 5.642304 0.000000 
7.240731 8.207482 0.000000 
36.340943 4.685433 0.000000 
17.821637 4.333246 0.000000 
17.892607 4.570281 0.000000 
5.187715 5.472004 0.000000 
39.388169 2.433095 0.000000 
54.388542 4.371827 0.000000 
32.966897 1.636389 0.000000 
17.525742 3.693659 0.000000 
6.581359 8.313437 0.000000 
14.495001 4.841658 0.000000 
36.790352 1.232764 0.000000 
14.866633 7.577967 0.000000 
17.339536 7.925672 0.000000 
30.883871 4.244373 0.000000 
31.343161 4.843758 0.000000 
17.551892 7.774491 0.000000 
54.592183 4.282646 0.000000 
2.341028 6.881517 0.000000 
39.430665 2.703853 0.000000 
33.789588 2.128981 0.000000 
5.428939 8.340070 0.000000 
3.627454 5.724761 0.000000 
26.073773 6.967119 0.000000 
30.966683 2.030152 0.000000 
34.390060 3.822046 0.000000 
4.871996 5.880907 0.000000 
8.693499 6.356291 0.000000 
15.690413 2.873053 0.000000 
28.310766 4.921895 0.000000 
3.875971 5.079835 0.000000 
3.520073 5.934060 0.000000 
23.183920 4.094562 0.000000 
0.656421 4.918914 0.000000 
22.805549 6.113663 0.000000 
28.079941 4.803258 0.000000 
6.891771 4.542788 0.000000 
15.311721 8.083115 0.000000 
2.608159 3.216216 0.000000 
33.182118 1.747851 0.000000 
21.648884 9.214734 0.000000 
22.561188 6.103009 0.000000 
0.634037 5.587803 0.000000 
6.200097 4.696409 0.000000 
25.948407 6.740811 0.000000 
22.821155 9.080859 0.000000 
31.493347 5.038381 0.000000 
23.048351 9.021501 0.000000 
1.616218 3.396818 0.000000 
17.392415 3.488273 0.000000 
5.887017 8.355094 0.000000 
14.466206 4.582196 0.000000 
5.343951 5.258822 0.000000 
14.581236 12.697986 0.000000 
17.705212 12.550389 0.000000 
27.392215 7.992522 0.000000 
55.314034 3.609820 0.000000 
34.133152 4.574857 0.000000 
26.959574 7.846181 0.000000 
39.228150 3.975448 0.000000 
42.631069 3.131158 0.000000 
35.609409 3.033189 0.000000 
52.637453 2.304076 0.000000 
38.977089 1.404797 0.000000 
0.718679 4.655556 0.000000 
37.808357 0.870711 0.000000 
26.791944 4.460729 0.000000 
16.768911 12.013330 0.000000 
22.492143 3.702443 0.000000 
20.189430 2.659775 0.000000 
18.745116 12.441299 0.000000 
22.109523 9.185248 0.000000 
15.935093 2.821648 0.000000 
54.195918 4.470043 0.000000 
53.519698 1.630912 0.000000 
30.723986 4.047495 0.000000 
4.707066 6.076210 0.000000 
32.754315 1.524704 0.000000 
5.648768 8.350648 0.000000 
17.148571 8.091661 0.000000 
35.719936 2.514310 0.000000 
36.221337 1.649705 0.000000 
21.121766 6.783740 0.000000 
7.938773 4.629361 0.000000 
21.540920 6.446963 0.000000 
22.616540 1.298820 0.000000 
17.492720 12.512027 0.000000 
24.460547 2.025403 0.000000 
3.971280 4.632817 0.000000 
27.843921 4.668879 0.000000 
52.491057 2.510005 0.000000 
22.663127 3.848562 0.000000 
3.936763 4.853529 0.000000 
17.557499 10.147322 0.000000 
8.725269 6.088889 0.000000 
14.348148 12.717272 0.000000 
24.554707 2.257731 0.000000 
32.083005 5.675528 0.000000 
15.691994 11.056709 0.000000 
17.772010 7.633266 0.000000 
21.869793 9.201621 0.000000 
29.200379 6.385197 0.000000 
28.044895 8.055651 0.000000 
38.822406 4.548066 0.000000 
19.614377 11.805488 0.000000 
21.323502 6.611012 0.000000 
52.200380 3.469906 0.000000 
34.028068 4.842378 0.000000 
37.129942 5.012714 0.000000 
36.533762 4.803570 0.000000 
31.129917 1.827944 0.000000 
3.437966 3.444399 0.000000 
23.045962 6.123159 0.000000 
19.470438 11.985110 0.000000 
7.927201 8.004180 0.000000 
4.535863 6.265293 0.000000 
29.164221 6.125917 0.000000 
14.101162 12.721682 0.000000 
18.959423 12.353291 0.000000 
15.442517 2.917946 0.000000 
37.628105 5.066496 0.000000 
15.516062 8.235849 0.000000 
14.427222 4.318659 0.000000 
39.123594 1.593279 0.000000 
39.367872 2.186791 0.000000 
1.382778 3.531432 0.000000 
18.985849 9.894363 0.000000 
30.785064 2.219915 0.000000 
26.194990 7.208284 0.000000 
24.141773 6.871650 0.000000 
17.319413 10.260531 0.000000 
24.255649 7.971664 0.000000 
25.803367 6.526989 0.000000 
8.696838 6.630205 0.000000 
20.584093 7.273916 0.000000 
18.730301 9.836457 0.000000 
7.614187 11.620265 0.000000 
1.489090 6.847815 0.000000 
2.113864 6.932005 0.000000 
14.035427 10.136735 0.000000 
26.130584 4.678858 0.000000 
4.121033 13.592616 0.000000 
14.298730 5.925475 0.000000 
0.784151 4.376666 0.000000 
22.033956 3.154970 0.000000 
53.506238 4.580639 0.000000 
55.423097 3.376078 0.000000 
28.530377 5.029394 0.000000 
2.572552 6.839716 0.000000 
4.364411 6.457335 0.000000 
40.544016 2.413214 0.000000 
13.853856 12.731918 0.000000 
13.259787 4.756197 0.000000 
18.183915 3.528324 0.000000 
34.144359 2.390248 0.000000 
30.564219 3.859513 0.000000 
18.529610 12.537012 0.000000 
17.918816 12.596445 0.000000 
22.352947 9.170527 0.000000 
19.775083 11.618957 0.000000 
29.273144 6.629119 0.000000 
52.775444 2.106908 0.000000 
13.214551 10.580700 0.000000 
55.414805 2.429286 0.000000 
20.156934 2.438940 0.000000 
20.244674 2.875918 0.000000 
37.570297 0.883361 0.000000 
36.980892 1.091521 0.000000 
6.964135 10.673923 0.000000 
40.656487 2.194424 0.000000 
24.654688 2.489644 0.000000 
5.047626 8.327571 0.000000 
8.932369 9.829177 0.000000 
20.430303 7.460477 0.000000 
7.700259 8.090557 0.000000 
4.235169 7.905459 0.000000 
12.916144 5.550861 0.000000 
7.066918 10.890239 0.000000 
3.298789 6.329447 0.000000 
9.018947 10.065237 0.000000 
42.700185 2.761381 0.000000 
4.351745 11.475237 0.000000 
24.140965 3.929098 0.000000 
13.044727 10.787509 0.000000 
4.101536 11.434872 0.000000 
6.120219 8.372357 0.000000 
7.791096 9.008700 0.000000 
17.259758 3.275812 0.000000 
32.323484 5.807142 0.000000 
16.966428 8.258374 0.000000 
26.355279 2.113928 0.000000 
12.740468 5.735518 0.000000 
21.269134 9.251324 0.000000 
20.445891 8.873341 0.000000 
53.768828 1.533511 0.000000 
20.920225 6.933621 0.000000 
18.146581 2.141708 0.000000 
3.239142 13.276647 0.000000 
4.599779 11.520284 0.000000 
15.491278 12.329102 0.000000 
16.645407 11.830286 0.000000 
12.364058 6.043529 0.000000 
7.451402 11.461648 0.000000 
24.366873 1.786056 0.000000 
9.122988 10.298734 0.000000 
11.037819 4.586021 0.000000 
20.229049 3.506552 0.000000 
54.725874 1.625078 0.000000 
25.820323 1.903638 0.000000 
42.624078 1.889128 0.000000 
19.234764 9.938315 0.000000 
34.473620 3.550606 0.000000 
25.639069 6.335613 0.000000 
8.305502 4.789621 0.000000 
33.682157 5.511148 0.000000 
40.922487 1.789421 0.000000 
17.085763 10.344304 0.000000 
12.673306 11.409222 0.000000 
15.192288 2.960919 0.000000 
7.147156 4.501208 0.000000 
7.706048 4.528437 0.000000 
3.428140 13.411082 0.000000 
11.162198 4.360974 0.000000 
25.912531 4.781272 0.000000 
42.678842 2.119741 0.000000 
15.066059 10.142402 0.000000 
8.700075 11.896569 0.000000 
32.346384 1.326712 0.000000 
10.999388 6.246732 0.000000 
38.835500 1.211939 0.000000 
13.611276 12.750766 0.000000 
15.635653 10.812552 0.000000 
26.449408 2.548883 0.000000 
30.587025 2.388014 0.000000 
3.899283 13.588717 0.000000 
38.050744 0.854734 0.000000 
18.874019 14.786896 0.000000 
19.818853 13.678706 0.000000 
27.230257 0.693285 0.000000 
4.577446 13.538342 0.000000 
18.644105 4.058629 0.000000 
9.242287 10.524984 0.000000 
26.309575 8.581045 0.000000 
18.399261 13.024032 0.000000 
18.469607 6.469565 0.000000 
11.473891 6.392025 0.000000 
2.932417 12.819794 0.000000 
28.316181 8.059238 0.000000 
3.837228 11.399820 0.000000 
21.893535 2.903994 0.000000 
5.119702 11.606581 0.000000 
26.627898 0.508560 0.000000 
40.480007 3.534389 0.000000 
8.751617 6.891854 0.000000 
7.203855 9.239907 0.000000 
11.701552 6.399831 0.000000 
15.310936 12.487481 0.000000 
14.817550 12.694663 0.000000 
23.911134 4.040625 0.000000 
19.707886 10.032482 0.000000 
18.003947 7.503609 0.000000 
22.036663 12.454739 0.000000 
6.811027 10.031593 0.000000 
41.202136 1.410526 0.000000 
41.062300 1.595436 0.000000 
4.861878 11.557616 0.000000 
40.934400 4.071626 0.000000 
14.376814 4.049611 0.000000 
4.832197 13.487994 0.000000 
19.479710 9.982587 0.000000 
40.431197 2.637351 0.000000 
27.043473 4.423406 0.000000 
2.076543 9.557271 0.000000 
8.772681 5.815011 0.000000 
38.679721 4.744380 0.000000 
0.697497 6.075786 0.000000 
31.287382 1.615706 0.000000 
24.572034 8.582589 0.000000 
7.754256 11.787837 0.000000 
14.827405 10.049653 0.000000 
12.175582 6.203263 0.000000 
12.446431 3.759430 0.000000 
22.304200 6.091427 0.000000 
52.341039 2.724172 0.000000 
52.176549 3.228684 0.000000 
2.881950 9.281957 0.000000 
19.921806 1.795918 0.000000 
42.600143 3.352111 0.000000 
42.305679 3.811799 0.000000 
24.760984 2.712938 0.000000 
18.640844 12.931604 0.000000 
13.217295 4.354667 0.000000 
3.880234 3.254644 0.000000 
24.516686 8.834319 0.000000 
20.568446 11.879820 0.000000 
27.593355 4.531672 0.000000 
5.949352 4.756342 0.000000 
2.068170 7.936740 0.000000 
29.158495 5.875258 0.000000 
26.853325 0.553922 0.000000 
12.578112 11.654695 0.000000 
23.287784 6.130067 0.000000 
42.093051 4.005093 0.000000 
49.253375 1.137197 0.000000 
23.615816 8.859375 0.000000 
4.182894 6.649505 0.000000 
42.093505 1.154240 0.000000 
8.180776 7.911062 0.000000 
26.730334 2.187071 0.000000 
1.837142 9.514946 0.000000 
54.811140 4.199090 0.000000 
24.624897 8.323142 0.000000 
19.968336 11.455885 0.000000 
10.609475 5.504338 0.000000 
18.788122 1.465563 0.000000 
26.115927 9.258965 0.000000 
12.478474 7.272631 0.000000 
19.583929 4.377511 0.000000 
35.833399 4.310074 0.000000 
35.527499 3.545297 0.000000 
15.723905 8.409591 0.000000 
22.348821 1.364645 0.000000 
23.398628 10.374994 0.000000 
23.062337 1.107746 0.000000 
1.242047 6.761648 0.000000 
39.376858 3.779392 0.000000 
39.476938 3.248551 0.000000 
18.626080 14.793253 0.000000 
10.716188 13.842319 0.000000 
24.209063 8.235335 0.000000 
26.080579 7.880948 0.000000 
12.193041 3.723062 0.000000 
26.281969 11.619019 0.000000 
21.155918 11.626622 0.000000 
2.328428 7.900250 0.000000 
9.131816 2.337580 0.000000 
24.207223 11.699440 0.000000 
23.261692 4.533080 0.000000 
21.285688 13.195741 0.000000 
5.873243 12.797042 0.000000 
19.123649 14.783838 0.000000 
2.965313 13.611561 0.000000 
26.452359 4.085234 0.000000 
25.121604 10.927882 0.000000 
1.595242 9.480252 0.000000 
21.518173 13.102237 0.000000 
24.014108 6.623875 0.000000 
7.383655 14.002650 0.000000 
52.675180 4.376421 0.000000 
26.668908 2.589069 0.000000 
3.201053 8.731228 0.000000 
3.827601 5.306096 0.000000 
10.748947 5.010583 0.000000 
16.405536 2.748652 0.000000 
49.736836 3.271993 0.000000 
19.357361 4.383589 0.000000 
21.671821 9.649889 0.000000 
12.557994 12.206614 0.000000 
17.757073 4.104977 0.000000 
5.926257 12.576868 0.000000 
12.653131 6.390490 0.000000 
3.261782 11.475804 0.000000 
25.421447 5.180790 0.000000 
20.379040 12.019884 0.000000 
10.647106 5.727897 0.000000 
36.016395 1.789714 0.000000 
35.759911 2.253143 0.000000 
53.215773 4.584794 0.000000 
18.839108 4.232661 0.000000 
4.023893 4.412731 0.000000 
6.821203 0.224023 0.000000 
8.172959 9.041435 0.000000 
17.827870 14.176988 0.000000 
21.606104 2.236374 0.000000 
8.492232 4.397883 0.000000 
52.226489 3.717523 0.000000 
11.235617 13.522039 0.000000 
17.934067 3.127883 0.000000 
45.216317 2.569020 0.000000 
2.779282 12.144713 0.000000 
34.428877 7.549597 0.000000 
22.985267 11.142965 0.000000 
12.590018 7.463459 0.000000 
6.377233 3.188857 0.000000 
26.729777 7.777692 0.000000 
30.443606 0.217210 0.000000 
24.954124 5.079429 0.000000 
24.683838 8.061133 0.000000 
50.233658 1.973784 0.000000 
11.263063 4.139077 0.000000 
20.149212 12.416104 0.000000 
52.463112 4.201702 0.000000 
33.498784 6.595153 0.000000 
43.633097 4.778316 0.000000 
2.269477 10.966622 0.000000 
19.929239 10.064779 0.000000 
10.419403 12.422927 0.000000 
3.151972 13.728499 0.000000 
20.112040 2.215700 0.000000 
17.072639 8.729626 0.000000 
20.114871 3.947649 0.000000 
14.318273 6.727290 0.000000 
23.600587 1.059796 0.000000 
8.783144 9.395327 0.000000 
26.562618 4.499794 0.000000 
4.740334 1.684200 0.000000 
20.179908 11.321077 0.000000 
5.532111 13.201082 0.000000 
7.163239 11.106056 0.000000 
4.950840 2.462075 0.000000 
1.537888 7.997784 0.000000 
30.249498 3.485498 0.000000 
16.165026 1.500543 0.000000 
25.955476 7.659824 0.000000 
32.561592 5.947218 0.000000 
57.082880 3.603771 0.000000 
34.329458 2.520044 0.000000 
7.070303 0.227416 0.000000 
10.912700 10.518457 0.000000 
21.904076 9.624020 0.000000 
26.061329 11.724351 0.000000 
9.555982 0.227367 0.000000 
24.849820 10.150855 0.000000 
59.092667 2.784701 0.000000 
30.964889 1.344004 0.000000 
14.103856 1.521928 0.000000 
17.970667 2.332532 0.000000 
49.485419 3.609108 0.000000 
13.271806 4.980861 0.000000 
26.505581 11.516452 0.000000 
55.686576 3.791644 0.000000 
14.222115 1.704169 0.000000 
30.382888 2.555564 0.000000 
7.138194 3.087005 0.000000 
9.889736 12.964332 0.000000 
50.746224 2.007405 0.000000 
2.629484 14.788205 0.000000 
25.974853 0.520308 0.000000 
16.890748 12.208436 0.000000 
17.268489 12.466717 0.000000 
14.923250 2.998407 0.000000 
9.174896 2.077060 0.000000 
0.232606 2.625571 0.000000 
34.204605 7.662348 0.000000 
31.529486 8.272621 0.000000 
5.581106 3.514057 0.000000 
26.430120 10.344354 0.000000 
8.288918 4.310689 0.000000 
3.634028 2.128602 0.000000 
23.862834 4.509622 0.000000 
49.576477 4.112393 0.000000 
46.290382 1.256951 0.000000 
17.963498 9.856123 0.000000 
50.808894 4.175477 0.000000 
10.198273 12.523899 0.000000 
33.698628 0.222955 0.000000 
24.684424 5.459109 0.000000 
42.567536 1.641920 0.000000 
42.292331 1.272725 0.000000 
58.825457 3.806725 0.000000 
23.050831 5.676183 0.000000 
50.832700 2.941528 0.000000 
55.891191 1.459109 0.000000 
25.063006 10.649359 0.000000 
0.707188 8.977412 0.000000 
18.305104 3.726382 0.000000 
9.262772 11.562752 0.000000 
33.389274 1.379240 0.000000 
49.715360 4.293679 0.000000 
10.523929 2.102511 0.000000 
29.681597 1.075456 0.000000 
43.971890 3.315431 0.000000 
50.090630 4.491297 0.000000 
21.970168 11.940263 0.000000 
25.518388 0.824759 0.000000 
34.579078 3.288284 0.000000 
14.338705 3.773657 0.000000 
18.478894 9.758736 0.000000 
25.425867 1.369378 0.000000 
59.771185 2.133411 0.000000 
55.907238 3.346071 0.000000 
57.002023 3.821197 0.000000 
55.796507 3.567929 0.000000 
8.998220 1.286150 0.000000 
9.940320 8.614963 0.000000 
33.980848 7.776212 0.000000 
1.155432 3.157904 0.000000 
6.020338 2.051520 0.000000 
19.372493 14.781826 0.000000 
29.101907 7.789033 0.000000 
3.011636 8.016408 0.000000 
13.826493 6.782256 0.000000 
13.094656 5.380227 0.000000 
25.521726 3.333096 0.000000 
13.457909 7.710991 0.000000 
20.816210 13.324400 0.000000 
1.927724 11.280926 0.000000 
50.391038 1.789159 0.000000 
43.885418 4.782036 0.000000 
56.010215 3.135498 0.000000 
21.331691 10.640352 0.000000 
7.287842 12.881245 0.000000 
44.091665 3.522345 0.000000 
44.351323 3.131431 0.000000 
24.953482 10.394989 0.000000 
18.542007 6.692762 0.000000 
42.971378 3.640650 0.000000 
24.593432 3.710285 0.000000 
5.714406 3.037848 0.000000 
24.598791 10.548329 0.000000 
21.657239 2.460330 0.000000 
34.651896 7.433481 0.000000 
10.741668 2.249775 0.000000 
40.754482 3.921741 0.000000 
36.158976 1.181371 0.000000 
16.416227 11.179423 0.000000 
30.199567 0.215475 0.000000 
13.145145 12.784499 0.000000 
56.416823 0.909932 0.000000 
56.632415 2.087968 0.000000 
58.896741 2.687782 0.000000 
25.330375 5.991104 0.000000 
43.380674 4.775039 0.000000 
56.113048 4.787233 0.000000 
30.691041 0.218870 0.000000 
8.496717 13.933488 0.000000 
27.618218 1.712076 0.000000 
9.810713 0.230986 0.000000 
7.319713 0.230933 0.000000 
1.074504 1.953350 0.000000 
5.503629 13.756620 0.000000 
24.218369 10.146583 0.000000 
51.864529 2.669153 0.000000 
23.296754 5.681662 0.000000 
43.046345 3.193416 0.000000 
9.116009 14.774142 0.000000 
9.374063 10.745922 0.000000 
26.295659 8.808335 0.000000 
8.521420 4.872769 0.000000 
41.910597 1.044779 0.000000 
23.471447 4.575011 0.000000 
4.806459 8.300266 0.000000 
4.397232 8.101140 0.000000 
9.060212 2.592543 0.000000 
56.366046 4.784431 0.000000 
22.436986 12.764444 0.000000 
24.784010 7.567894 0.000000 
49.289189 1.997164 0.000000 
20.494943 0.209115 0.000000 
15.246881 8.575747 0.000000 
10.258916 1.145293 0.000000 
26.073361 9.686762 0.000000 
33.445197 0.217663 0.000000 
32.143512 1.220524 0.000000 
22.073905 1.403945 0.000000 
26.956121 3.993565 0.000000 
34.663425 6.418332 0.000000 
2.811449 6.803131 0.000000 
3.182704 6.544904 0.000000 
24.831488 5.267547 0.000000 
23.805868 5.700239 0.000000 
2.591315 7.867601 0.000000 
43.714796 1.387852 0.000000 
0.731526 8.544415 0.000000 
1.383284 3.029317 0.000000 
2.881022 14.785638 0.000000 
58.949890 1.549200 0.000000 
2.379708 14.792627 0.000000 
14.755982 9.543083 0.000000 
33.163504 1.270106 0.000000 
19.715300 13.175040 0.000000 
3.967705 7.548180 0.000000 
5.873792 14.792453 0.000000 
18.236718 7.367978 0.000000 
56.927494 0.914631 0.000000 
16.636213 8.550968 0.000000 
6.833104 2.809420 0.000000 
23.547200 5.688393 0.000000 
44.265999 3.735528 0.000000 
12.834080 6.229155 0.000000 
46.520029 1.997444 0.000000 
45.826381 1.435770 0.000000 
26.148322 9.956013 0.000000 
3.350336 10.923761 0.000000 
7.507294 12.930641 0.000000 
7.906936 3.018196 0.000000 
20.609569 9.072323 0.000000 
21.021532 9.257209 0.000000 
27.799784 8.069199 0.000000 
47.588469 1.384857 0.000000 
10.206258 5.542908 0.000000 
35.680017 0.225104 0.000000 
33.756384 7.890202 0.000000 
33.639217 6.389081 0.000000 
24.084610 4.413712 0.000000 
26.045653 2.495813 0.000000 
20.457244 10.404966 0.000000 
57.567203 1.049410 0.000000 
17.406659 8.418918 0.000000 
26.727814 11.407942 0.000000 
34.330465 1.059914 0.000000 
10.338329 1.880787 0.000000 
4.182587 3.498340 0.000000 
21.301211 5.035826 0.000000 
43.887809 3.110564 0.000000 
31.466927 1.408957 0.000000 
11.268481 1.986587 0.000000 
28.935386 4.754635 0.000000 
28.501658 3.636070 0.000000 
13.862371 2.518339 0.000000 
3.689641 3.122264 0.000000 
44.139061 4.784897 0.000000 
5.622252 14.790137 0.000000 
31.127988 1.134164 0.000000 
9.175501 1.791039 0.000000 
17.941209 9.334307 0.000000 
23.873461 1.157673 0.000000 
20.110230 7.830598 0.000000 
20.110153 8.500843 0.000000 
9.305522 0.220785 0.000000 
22.567834 10.610869 0.000000 
8.814129 5.525442 0.000000 
32.740334 1.054908 0.000000 
12.142245 7.524401 0.000000 
49.805962 0.809710 0.000000 
56.170499 1.805568 0.000000 
3.189406 1.663623 0.000000 
16.534881 10.135788 0.000000 
22.455412 5.014611 0.000000 
14.989502 9.636202 0.000000 
55.559912 0.804200 0.000000 
56.407969 1.929725 0.000000 
44.973336 0.924237 0.000000 
17.225240 8.570658 0.000000 
57.290509 2.148731 0.000000 
10.819173 11.848433 0.000000 
10.923854 8.693162 0.000000 
7.772403 1.184668 0.000000 
12.078670 11.696617 0.000000 
5.402129 3.350756 0.000000 
25.842604 11.833601 0.000000 
0.871365 8.314294 0.000000 
7.569614 0.228444 0.000000 
2.894344 9.913491 0.000000 
44.749393 3.510639 0.000000 
5.079088 9.845926 0.000000 
6.571728 0.220274 0.000000 
26.668811 10.434338 0.000000 
57.851587 3.266507 0.000000 
10.980542 2.356733 0.000000 
58.656345 3.958938 0.000000 
35.508123 6.286137 0.000000 
17.522014 9.602838 0.000000 
9.362634 3.822271 0.000000 
10.190987 9.526190 0.000000 
22.012670 12.682489 0.000000 
3.325276 13.856876 0.000000 
6.561169 1.641973 0.000000 
8.086015 3.173588 0.000000 
7.736322 12.997254 0.000000 
41.114734 4.243525 0.000000 
13.157919 9.144796 0.000000 
35.929429 0.220290 0.000000 
36.350985 1.057335 0.000000 
6.592459 13.421077 0.000000 
35.719186 5.328540 0.000000 
19.954294 0.973526 0.000000 
58.343789 3.045996 0.000000 
15.006950 7.781918 0.000000 
5.643796 9.641423 0.000000 
22.157465 9.607030 0.000000 
30.648418 1.732527 0.000000 
33.192704 0.218814 0.000000 
56.660552 0.925487 0.000000 
43.003983 3.407369 0.000000 
8.697149 4.492345 0.000000 
2.130017 14.792196 0.000000 
16.899955 8.870660 0.000000 
8.864290 14.778454 0.000000 
59.070328 4.175430 0.000000 
10.277339 3.210242 0.000000 
48.950877 0.833277 0.000000 
8.593791 13.709014 0.000000 
32.942172 1.160034 0.000000 
13.421704 1.375726 0.000000 
44.258354 2.924748 0.000000 
45.797359 1.669484 0.000000 
4.383712 3.643001 0.000000 
17.730097 13.920338 0.000000 
1.259363 8.041580 0.000000 
25.845416 7.418136 0.000000 
32.167086 7.697755 0.000000 
15.301076 10.231251 0.000000 
15.582404 10.568528 0.000000 
8.747870 3.027625 0.000000 
0.233462 2.877102 0.000000 
45.912558 0.965408 0.000000 
0.608835 5.344207 0.000000 
3.071673 11.069510 0.000000 
24.576953 9.867289 0.000000 
53.391747 0.220296 0.000000 
50.563025 0.960460 0.000000 
45.025879 2.460644 0.000000 
5.368404 14.785131 0.000000 
4.550599 4.042852 0.000000 
10.227824 1.609377 0.000000 
25.092367 11.214069 0.000000 
1.065828 11.272748 0.000000 
19.618921 14.780013 0.000000 
41.314549 1.213240 0.000000 
15.664772 8.904861 0.000000 
8.569155 3.201219 0.000000 
45.546443 2.976485 0.000000 
1.862900 13.851562 0.000000 
5.401312 8.773822 0.000000 
11.181628 12.453327 0.000000 
8.444293 7.805468 0.000000 
7.603483 4.037908 0.000000 
45.381019 0.221850 0.000000 
17.312335 9.738138 0.000000 
16.716864 9.044241 0.000000 
41.866361 4.193551 0.000000 
5.223217 13.869971 0.000000 
33.947054 0.224175 0.000000 
38.693481 1.015806 0.000000 
38.296460 0.836312 0.000000 
59.025369 3.473509 0.000000 
9.456351 12.846453 0.000000 
15.809639 11.779372 0.000000 
1.113118 11.714716 0.000000 
59.769690 2.386435 0.000000 
29.668866 1.686522 0.000000 
8.833491 7.154464 0.000000 
21.155769 10.463296 0.000000 
4.394883 4.744917 0.000000 
8.702879 2.267838 0.000000 
29.400784 7.093537 0.000000 
54.725408 1.098868 0.000000 
43.134251 4.780952 0.000000 
1.040510 0.745563 0.000000 
12.474660 6.544601 0.000000 
24.970206 4.019809 0.000000 
36.154383 5.978794 0.000000 
30.788611 8.548947 0.000000 
58.843583 3.147870 0.000000 
18.304066 8.726690 0.000000 
43.044127 1.809126 0.000000 
20.398504 11.188463 0.000000 
3.131661 14.785385 0.000000 
20.091223 12.897341 0.000000 
11.307011 11.951036 0.000000 
15.674304 12.185946 0.000000 
55.462699 1.000265 0.000000 
44.504168 3.870772 0.000000 
26.921131 2.595281 0.000000 
4.386663 1.384311 0.000000 
20.748195 0.209885 0.000000 
10.006481 9.290933 0.000000 
35.435185 0.224045 0.000000 
34.969073 0.938635 0.000000 
32.545008 0.952403 0.000000 
0.786982 13.916064 0.000000 
50.792848 3.450924 0.000000 
48.637531 4.775892 0.000000 
8.075425 4.225665 0.000000 
11.422022 8.235293 0.000000 
1.879107 14.789931 0.000000 
18.458593 1.722224 0.000000 
48.825385 1.005193 0.000000 
43.974191 2.022285 0.000000 
25.419899 3.130660 0.000000 
34.871753 7.316829 0.000000 
29.715218 1.466996 0.000000 
44.393144 4.786402 0.000000 
33.429556 5.916220 0.000000 
25.103495 4.908511 0.000000 
30.625437 8.670174 0.000000 
5.123788 14.790379 0.000000 
32.179915 8.658667 0.000000 
5.883408 8.781218 0.000000 
0.799118 9.184271 0.000000 
54.887584 0.224685 0.000000 
24.955271 3.138188 0.000000 
15.464515 8.730963 0.000000 
8.024139 1.056868 0.000000 
42.777137 3.987375 0.000000 
43.075858 2.031451 0.000000 
2.112087 10.793974 0.000000 
3.900967 10.041605 0.000000 
13.595242 0.773630 0.000000 
22.314536 3.561968 0.000000 
2.315997 9.602488 0.000000 
7.819054 0.226647 0.000000 
57.541070 2.045189 0.000000 
9.803538 3.238163 0.000000 
10.070437 0.232476 0.000000 
24.543118 4.218354 0.000000 
5.295085 4.601221 0.000000 
13.138873 1.960478 0.000000 
30.941514 0.223934 0.000000 
9.559731 13.752776 0.000000 
12.164738 11.459921 0.000000 
0.230933 2.375894 0.000000 
15.870442 9.052928 0.000000 
35.150077 1.061575 0.000000 
29.257032 1.552549 0.000000 
2.047313 11.729237 0.000000 
15.946520 1.455190 0.000000 
2.720854 9.465416 0.000000 
7.850468 4.126931 0.000000 
15.454698 9.816155 0.000000 
47.321781 2.170643 0.000000 
55.138305 0.217861 0.000000 
11.860853 1.769628 0.000000 
12.049745 3.249488 0.000000 
23.124476 13.180596 0.000000 
53.598455 1.125572 0.000000 
4.144017 13.987620 0.000000 
32.401441 8.557589 0.000000 
6.122070 14.794538 0.000000 
5.450977 9.539386 0.000000 
26.584083 9.183082 0.000000 
21.754432 13.007747 0.000000 
22.992423 10.882902 0.000000 
6.975316 3.269946 0.000000 
9.370953 14.767856 0.000000 
6.794938 9.781167 0.000000 
3.913940 13.987808 0.000000 
45.863899 1.203607 0.000000 
10.747824 8.494591 0.000000 
32.944306 0.219367 0.000000 
2.515268 1.068360 0.000000 
11.836525 10.844959 0.000000 
47.164428 3.868786 0.000000 
30.101169 5.599526 0.000000 
12.309690 8.085355 0.000000 
9.329434 5.304029 0.000000 
5.058445 2.905395 0.000000 
16.522053 9.229560 0.000000 
2.767641 13.450145 0.000000 
10.179413 5.323909 0.000000 
10.071408 8.440703 0.000000 
9.057291 0.216493 0.000000 
53.636074 0.213406 0.000000 
3.010225 2.194137 0.000000 
18.128514 13.054250 0.000000 
6.990842 9.386108 0.000000 
29.284336 7.556742 0.000000 
40.343345 3.310698 0.000000 
13.167516 0.990470 0.000000 
10.738923 1.205480 0.000000 
42.722965 2.532401 0.000000 
4.495054 4.282081 0.000000 
29.931321 3.779451 0.000000 
18.378369 14.798684 0.000000 
33.605911 1.514196 0.000000 
11.089769 8.905342 0.000000 
34.905361 6.532611 0.000000 
4.876327 14.797260 0.000000 
10.237248 5.759377 0.000000 
38.143437 5.118945 0.000000 
38.538544 4.944297 0.000000 
21.796732 4.382845 0.000000 
25.596779 6.977400 0.000000 
11.517850 10.661517 0.000000 
1.626589 14.783243 0.000000 
33.530664 8.003520 0.000000 
1.581720 1.179201 0.000000 
29.985709 8.471963 0.000000 
6.039549 1.060044 0.000000 
14.330484 1.899197 0.000000 
57.912015 4.142458 0.000000 
1.117952 9.424241 0.000000 
12.812202 0.199263 0.000000 
16.529356 11.639038 0.000000 
51.174253 3.178798 0.000000 
28.384801 2.787718 0.000000 
9.425865 13.081036 0.000000 
22.801291 5.665146 0.000000 
13.019674 6.062169 0.000000 
0.731016 6.319631 0.000000 
14.405052 8.687005 0.000000 
26.202274 4.173483 0.000000 
11.635589 14.777357 0.000000 
8.843055 12.328699 0.000000 
19.099057 12.752036 0.000000 
16.887847 9.984726 0.000000 
2.195012 1.483613 0.000000 
5.339398 10.769892 0.000000 
14.327886 8.921437 0.000000 
3.231644 9.543649 0.000000 
3.278517 8.530148 0.000000 
55.860486 4.789102 0.000000 
21.063595 4.682174 0.000000 
9.298354 5.593834 0.000000 
8.939887 2.842402 0.000000 
36.177720 0.215924 0.000000 
2.474789 10.071710 0.000000 
30.681347 7.257571 0.000000 
11.364388 14.026075 0.000000 
21.983890 4.779222 0.000000 
3.181748 8.164202 0.000000 
35.956196 1.326190 0.000000 
26.949669 11.294078 0.000000 
49.831513 2.278874 0.000000 
17.643606 12.970989 0.000000 
0.230324 14.380268 0.000000 
0.621352 14.769414 0.000000 
59.773079 1.883167 0.000000 
48.385930 0.208233 0.000000 
4.657650 13.966048 0.000000 
5.779892 3.667179 0.000000 
17.581438 8.261652 0.000000 
1.020352 13.986145 0.000000 
11.216821 2.403590 0.000000 
6.543033 3.556187 0.000000 
16.077569 9.193563 0.000000 
13.957823 6.987166 0.000000 
15.684490 9.915612 0.000000 
50.325873 4.513136 0.000000 
29.057513 3.851215 0.000000 
28.937622 5.251262 0.000000 
29.151562 5.625646 0.000000 
22.971535 10.113452 0.000000 
20.242922 0.206413 0.000000 
20.606356 2.568663 0.000000 
29.260024 3.684990 0.000000 
24.750632 7.152074 0.000000 
20.190900 1.405402 0.000000 
3.382098 14.785755 0.000000 
30.088699 3.277066 0.000000 
35.186641 0.218340 0.000000 
0.876026 14.788442 0.000000 
21.001172 0.207460 0.000000 
13.212169 8.300531 0.000000 
54.500549 0.930314 0.000000 
14.579593 0.217666 0.000000 
39.594575 0.744313 0.000000 
8.807792 0.217458 0.000000 
1.308249 14.024099 0.000000 
30.046793 5.383399 0.000000 
27.471470 9.663829 0.000000 
15.385815 14.793485 0.000000 
19.334322 8.617014 0.000000 
23.531967 6.139267 0.000000 
8.068595 0.234811 0.000000 
8.560756 0.229648 0.000000 
4.629011 14.799092 0.000000 
25.255499 4.694447 0.000000 
8.315910 0.234149 0.000000 
9.591966 3.399088 0.000000 
21.284255 9.650388 0.000000 
3.603972 8.885275 0.000000 
30.941301 7.297366 0.000000 
21.252700 0.203829 0.000000 
21.292891 1.006188 0.000000 
4.389887 13.985970 0.000000 
4.381930 14.796664 0.000000 
5.627114 8.783893 0.000000 
10.502041 3.402880 0.000000 
22.411947 9.585019 0.000000 
4.133451 14.794483 0.000000 
5.149518 4.795307 0.000000 
51.989437 2.458633 0.000000 
0.870924 13.498891 0.000000 
13.742122 6.366030 0.000000 
5.437793 2.377067 0.000000 
23.840743 8.790911 0.000000 
32.626848 8.453881 0.000000 
25.140912 6.430107 0.000000 
56.620163 4.782342 0.000000 
57.190447 3.386891 0.000000 
3.633767 14.789187 0.000000 
3.687269 13.984825 0.000000 
3.884163 14.792246 0.000000 
19.193264 1.228360 0.000000 
5.225906 3.133661 0.000000 
22.466375 12.558739 0.000000 
9.368528 5.028120 0.000000 
44.646127 4.786251 0.000000 
6.555561 3.082322 0.000000 
15.388903 2.481097 0.000000 
49.071365 4.158281 0.000000 
13.062017 0.226529 0.000000 
30.286773 2.058158 0.000000 
42.290408 0.775861 0.000000 
50.616388 3.319233 0.000000 
48.630099 0.204009 0.000000 
1.382476 14.786485 0.000000 
24.762883 4.108258 0.000000 
50.884199 0.659095 0.000000 
1.783756 11.093389 0.000000 
11.799623 3.163876 0.000000 
13.283248 7.831488 0.000000 
5.642478 4.377480 0.000000 
21.501754 0.199584 0.000000 
21.536964 0.990149 0.000000 
57.683862 3.428942 0.000000 
6.847176 1.700569 0.000000 
3.400167 9.347682 0.000000 
7.073675 12.836264 0.000000 
11.029726 9.729385 0.000000 
54.635883 0.229540 0.000000 
45.922684 0.688262 0.000000 
53.887011 0.210294 0.000000 
30.181228 2.723723 0.000000 
34.885542 5.738149 0.000000 
9.352179 4.105721 0.000000 
10.453418 10.458219 0.000000 
32.849021 8.328484 0.000000 
21.748333 0.195979 0.000000 
12.347866 7.074494 0.000000 
27.428215 0.771678 0.000000 
25.297456 6.605667 0.000000 
45.005121 1.975315 0.000000 
58.709203 1.599365 0.000000 
7.322339 3.979307 0.000000 
51.467617 1.695202 0.000000 
11.282994 1.019296 0.000000 
1.460935 1.360246 0.000000 
35.482474 3.789307 0.000000 
35.641720 4.172554 0.000000 
25.227822 2.732463 0.000000 
30.949897 8.426593 0.000000 
32.459324 7.655198 0.000000 
17.430349 12.928124 0.000000 
4.445821 4.528068 0.000000 
42.886492 4.788783 0.000000 
30.420379 7.227357 0.000000 
1.207678 12.909701 0.000000 
11.472640 7.525232 0.000000 
32.689635 0.227047 0.000000 
19.780339 7.546214 0.000000 
36.537972 0.906649 0.000000 
45.419735 2.214148 0.000000 
3.662931 1.483169 0.000000 
8.584743 13.041560 0.000000 
14.220307 0.876499 0.000000 
54.054054 0.939285 0.000000 
37.093639 5.450735 0.000000 
25.597352 2.253286 0.000000 
11.171531 3.304182 0.000000 
4.927585 13.902214 0.000000 
15.133812 14.798175 0.000000 
25.023759 0.811607 0.000000 
43.128556 2.281581 0.000000 
59.384384 4.747906 0.000000 
56.756512 2.779591 0.000000 
5.248524 9.436205 0.000000 
53.146190 0.220063 0.000000 
24.675809 11.219702 0.000000 
9.623442 14.768975 0.000000 
7.884760 11.962494 0.000000 
8.266484 12.048124 0.000000 
22.892455 4.437921 0.000000 
2.765827 11.928030 0.000000 
21.997954 0.202422 0.000000 
11.559026 8.412547 0.000000 
3.037538 9.097099 0.000000 
15.032925 8.421611 0.000000 
6.168399 11.494440 0.000000 
59.782850 4.387810 0.000000 
1.130758 14.792016 0.000000 
33.301902 8.114356 0.000000 
43.787337 2.910370 0.000000 
22.053760 0.945068 0.000000 
33.064354 8.217968 0.000000 
24.654168 6.925250 0.000000 
28.645027 2.801131 0.000000 
19.689813 1.362931 0.000000 
1.590242 13.916747 0.000000 
14.646112 3.046866 0.000000 
11.714340 2.416470 0.000000 
42.676206 0.209524 0.000000 
24.001359 11.869194 0.000000 
25.625048 11.945043 0.000000 
28.616879 1.288789 0.000000 
8.614534 14.783636 0.000000 
18.623592 5.417070 0.000000 
32.715380 7.549282 0.000000 
27.194257 3.946730 0.000000 
15.641448 14.784433 0.000000 
27.991786 3.010761 0.000000 
50.615474 1.359860 0.000000 
6.372481 14.786401 0.000000 
55.975317 1.023934 0.000000 
22.251076 0.226621 0.000000 
0.932334 10.469855 0.000000 
32.972289 7.170770 0.000000 
16.769885 0.837905 0.000000 
23.293047 11.994434 0.000000 
24.997899 6.249202 0.000000 
13.894619 8.748780 0.000000 
22.289773 0.937594 0.000000 
31.026727 6.435015 0.000000 
7.129812 13.986696 0.000000 
20.321703 1.626774 0.000000 
28.731128 4.660865 0.000000 
36.580329 5.853443 0.000000 
39.588697 4.212685 0.000000 
28.063304 10.717773 0.000000 
55.466472 4.218184 0.000000 
16.036805 1.927863 0.000000 
40.088590 4.776858 0.000000 
43.511548 1.307808 0.000000 
27.725008 1.434010 0.000000 
15.584783 1.772045 0.000000 
1.297637 0.387797 0.000000 
22.664587 0.818383 0.000000 
42.603960 4.144588 0.000000 
45.310955 4.129325 0.000000 
20.978079 1.388587 0.000000 
23.086894 12.392117 0.000000 
31.826464 5.559488 0.000000 
29.838187 9.833468 0.000000 
22.910071 13.305672 0.000000 
42.488328 0.894755 0.000000 
20.242087 14.662943 0.000000 
19.153926 4.851854 0.000000 
27.172763 11.161145 0.000000 
31.494036 6.814504 0.000000 
6.416692 11.854745 0.000000 
8.606351 1.045353 0.000000 
17.870875 13.010477 0.000000 
5.443356 10.191364 0.000000 
8.094459 2.547674 0.000000 
8.323050 1.010994 0.000000 
45.636529 0.221373 0.000000 
27.133449 8.613987 0.000000 
34.194121 0.219724 0.000000 
45.224330 2.100000 0.000000 
19.138593 7.907454 0.000000 
59.279268 2.918004 0.000000 
11.550273 3.093436 0.000000 
4.090422 4.193264 0.000000 
3.975334 3.816698 0.000000 
34.940124 0.214357 0.000000 
6.263591 13.755141 0.000000 
22.789422 10.244186 0.000000 
25.967359 4.282874 0.000000 
4.088831 9.455540 0.000000 
19.464176 5.322814 0.000000 
1.945431 10.607344 0.000000 
3.260153 1.384087 0.000000 
12.385334 0.731312 0.000000 
5.757813 2.085014 0.000000 
40.034208 0.871426 0.000000 
30.297152 6.475386 0.000000 
24.725908 0.208222 0.000000 
0.215097 10.362225 0.000000 
0.216560 7.361797 0.000000 
37.127633 6.209421 0.000000 
9.083374 12.252304 0.000000 
21.596672 4.241786 0.000000 
19.848726 0.774916 0.000000 
10.531409 11.923926 0.000000 
22.381694 12.967801 0.000000 
13.399091 0.886756 0.000000 
34.762239 0.857313 0.000000 
10.544739 0.766395 0.000000 
21.357145 2.887607 0.000000 
0.234034 3.130363 0.000000 
30.624621 7.676556 0.000000 
3.679009 8.656711 0.000000 
15.877683 14.803150 0.000000 
44.894140 4.783613 0.000000 
15.827655 14.034134 0.000000 
24.477524 0.210591 0.000000 
53.351127 1.221075 0.000000 
21.792932 0.980985 0.000000 
27.450378 3.474983 0.000000 
10.049650 11.007897 0.000000 
16.995213 2.855034 0.000000 
16.628023 2.692483 0.000000 
4.351569 10.107639 0.000000 
30.266578 7.860601 0.000000 
7.279879 2.903766 0.000000 
48.569130 2.610978 0.000000 
15.958433 0.542313 0.000000 
16.325676 10.226291 0.000000 
27.395328 11.045098 0.000000 
7.274656 11.899642 0.000000 
6.328061 0.216431 0.000000 
28.815926 3.963769 0.000000 
25.383869 3.812081 0.000000 
25.463114 4.497544 0.000000 
25.166026 3.911421 0.000000 
39.731881 4.016754 0.000000 
9.481293 13.488550 0.000000 
20.700386 3.352162 0.000000 
25.728206 4.395616 0.000000 
13.441205 8.201438 0.000000 
35.091723 7.202863 0.000000 
54.136316 0.216657 0.000000 
45.072668 4.125058 0.000000 
50.896228 1.774476 0.000000 
0.217660 10.119198 0.000000 
7.050176 4.041983 0.000000 
26.699540 8.920834 0.000000 
43.871485 2.269287 0.000000 
9.238821 5.872651 0.000000 
10.321992 9.785887 0.000000 
11.511284 13.838313 0.000000 
39.068710 0.785697 0.000000 
59.764187 2.642711 0.000000 
7.126634 11.721889 0.000000 
45.143285 4.783273 0.000000 
59.222988 4.020675 0.000000 
37.342392 6.102905 0.000000 
58.392766 1.947274 0.000000 
13.301479 0.226451 0.000000 
32.338049 0.851243 0.000000 
54.382364 0.223398 0.000000 
36.419617 0.211530 0.000000 
0.703140 3.405607 0.000000 
23.370240 9.375129 0.000000 
8.190898 1.462524 0.000000 
15.020538 0.840927 0.000000 
21.191536 4.288922 0.000000 
13.797845 8.195120 0.000000 
21.500117 1.799849 0.000000 
11.472317 2.414718 0.000000 
0.960860 0.939429 0.000000 
57.346044 4.359520 0.000000 
20.194379 13.940860 0.000000 
19.628184 7.747256 0.000000 
48.901132 4.775411 0.000000 
23.355846 13.055874 0.000000 
10.333944 0.240976 0.000000 
20.430519 1.848922 0.000000 
16.008287 12.948920 0.000000 
6.672965 12.982484 0.000000 
6.773607 3.455658 0.000000 
20.453794 14.547714 0.000000 
1.563994 12.205314 0.000000 
42.101464 0.680199 0.000000 
6.685032 2.109784 0.000000 
18.414484 8.242097 0.000000 
27.726608 1.006010 0.000000 
17.802189 2.932924 0.000000 
20.729361 3.068717 0.000000 
35.075288 6.132282 0.000000 
22.663411 9.542482 0.000000 
12.171572 10.450292 0.000000 
20.274627 3.104846 0.000000 
8.617787 13.294461 0.000000 
45.391679 4.780620 0.000000 
31.197922 0.232211 0.000000 
27.090773 10.440762 0.000000 
31.092985 8.110593 0.000000 
46.392410 3.830974 0.000000 
25.572776 5.005324 0.000000 
21.042990 1.630860 0.000000 
24.304361 0.847933 0.000000 
11.378862 14.766699 0.000000 
9.958163 11.450995 0.000000 
6.545066 14.061842 0.000000 
19.666752 12.924615 0.000000 
27.630025 10.953075 0.000000 
22.989118 4.051304 0.000000 
9.501184 12.603102 0.000000 
3.005399 11.587980 0.000000 
25.792732 2.376872 0.000000 
43.155857 0.821950 0.000000 
2.821286 11.214476 0.000000 
45.541678 4.129120 0.000000 
11.025291 1.937799 0.000000 
3.471140 2.969761 0.000000 
51.638349 4.792021 0.000000 
28.307463 3.667676 0.000000 
5.033874 9.346998 0.000000 
4.999032 4.999093 0.000000 
13.789355 6.116615 0.000000 
21.142965 2.095781 0.000000 
45.642214 4.773052 0.000000 
43.845749 0.990764 0.000000 
30.082854 3.968468 0.000000 
13.590981 2.596454 0.000000 
19.857581 14.776082 0.000000 
5.106524 0.725492 0.000000 
9.111442 8.002966 0.000000 
46.725806 4.125288 0.000000 
6.578106 4.176780 0.000000 
44.143794 0.528913 0.000000 
32.451138 0.209996 0.000000 
47.935150 0.669437 0.000000 
17.644452 2.057789 0.000000 
31.451088 0.710048 0.000000 
21.506183 3.138473 0.000000 
11.517417 12.131623 0.000000 
6.692752 11.099076 0.000000 
9.876096 14.768355 0.000000 
12.296953 3.309452 0.000000 
29.613070 1.916485 0.000000 
22.488268 0.216043 0.000000 
7.496293 1.551598 0.000000 
30.941408 5.580701 0.000000 
14.797535 14.206499 0.000000 
34.520563 2.652180 0.000000 
2.871005 0.854034 0.000000 
5.933565 10.926330 0.000000 
29.826438 6.945998 0.000000 
0.830921 7.073050 0.000000 
5.909085 10.185066 0.000000 
39.326223 4.608328 0.000000 
48.387627 4.781138 0.000000 
5.739292 13.585827 0.000000 
6.143887 8.791705 0.000000 
46.018509 3.032381 0.000000 
27.856157 10.832803 0.000000 
22.858152 0.702657 0.000000 
26.339369 8.351948 0.000000 
8.918797 4.591427 0.000000 
43.094471 0.611613 0.000000 
5.883530 9.934142 0.000000 
27.320657 10.375838 0.000000 
48.680368 1.686201 0.000000 
49.179096 1.799050 0.000000 
29.734393 0.215178 0.000000 
40.463114 4.207952 0.000000 
6.959957 11.546520 0.000000 
0.831582 9.840813 0.000000 
20.652562 2.804114 0.000000 
22.480030 4.752130 0.000000 
40.849853 0.459742 0.000000 
29.469996 0.647710 0.000000 
21.239252 2.618612 0.000000 
40.253350 4.028549 0.000000 
12.091943 2.202051 0.000000 
20.704513 13.796471 0.000000 
6.798589 4.120133 0.000000 
43.096032 2.816186 0.000000 
31.950007 7.000185 0.000000 
31.890046 7.619564 0.000000 
21.786698 5.184490 0.000000 
48.691409 1.400313 0.000000 
4.397880 0.790919 0.000000 
32.552026 6.977548 0.000000 
21.198949 2.345766 0.000000 
31.958541 8.768563 0.000000 
3.224302 3.281725 0.000000 
27.350396 2.192378 0.000000 
44.743875 1.337654 0.000000 
20.451258 13.850106 0.000000 
51.294662 4.161021 0.000000 
0.626296 0.582609 0.000000 
20.555939 2.347658 0.000000 
10.266705 12.019072 0.000000 
24.226321 0.215623 0.000000 
20.669647 14.431743 0.000000 
23.565208 9.768552 0.000000 
8.674173 1.634994 0.000000 
19.797863 4.402713 0.000000 
20.083947 4.170301 0.000000 
42.434880 0.245241 0.000000 
3.853517 10.458345 0.000000 
0.669444 11.266783 0.000000 
3.525976 9.115574 0.000000 
2.430339 12.650352 0.000000 
37.330029 5.484138 0.000000 
20.507535 2.100938 0.000000 
2.398423 11.154615 0.000000 
12.472377 0.976115 0.000000 
8.364286 14.789877 0.000000 
55.392210 0.209943 0.000000 
26.143982 2.079654 0.000000 
48.012556 1.708849 0.000000 
18.359743 8.466607 0.000000 
59.778615 1.635766 0.000000 
48.760903 1.959150 0.000000 
8.920968 11.809042 0.000000 
12.132707 14.023095 0.000000 
9.572409 8.385409 0.000000 
18.773929 8.923675 0.000000 
22.904927 9.479837 0.000000 
46.711068 0.696311 0.000000 
39.447790 4.416487 0.000000 
40.516322 1.135514 0.000000 
48.217526 2.871292 0.000000 
11.890837 14.789771 0.000000 
14.092792 7.200457 0.000000 
22.997670 11.640549 0.000000 
12.634292 2.555526 0.000000 
6.583080 10.864537 0.000000 
4.330102 4.963860 0.000000 
45.131906 0.221849 0.000000 
21.793909 1.409103 0.000000 
20.768175 11.754292 0.000000 
21.158340 3.835221 0.000000 
16.851997 14.011152 0.000000 
23.181662 10.029444 0.000000 
39.819288 4.833812 0.000000 
24.843303 6.065038 0.000000 
36.715838 0.755398 0.000000 
6.623056 14.760721 0.000000 
8.402732 8.981766 0.000000 
8.728498 9.183403 0.000000 
56.877148 4.774698 0.000000 
12.079738 1.139699 0.000000 
34.696183 0.215136 0.000000 
1.874632 12.858565 0.000000 
34.445127 0.213667 0.000000 
11.135211 14.785503 0.000000 
6.354804 4.210189 0.000000 
14.524519 1.310407 0.000000 
11.380304 12.661160 0.000000 
7.333871 14.413379 0.000000 
10.814056 14.261394 0.000000 
47.069693 3.452860 0.000000 
17.409460 13.585363 0.000000 
21.889195 11.728655 0.000000 
51.995342 1.269096 0.000000 
5.785678 11.798398 0.000000 
9.774552 6.330001 0.000000 
4.874740 9.734606 0.000000 
59.122299 4.792414 0.000000 
1.999978 9.952973 0.000000 
42.730348 0.991537 0.000000 
13.108113 2.276651 0.000000 
4.835828 1.217022 0.000000 
6.957634 12.322270 0.000000 
11.019392 14.187714 0.000000 
18.754716 8.516305 0.000000 
13.861876 7.676007 0.000000 
0.749865 12.884713 0.000000 
58.222904 0.632742 0.000000 
22.571195 10.870131 0.000000 
47.532530 0.897771 0.000000 
42.637210 4.787275 0.000000 
19.991763 5.201897 0.000000 
9.876799 14.114500 0.000000 
19.025833 0.207295 0.000000 
51.238979 0.792846 0.000000 
21.031864 9.666160 0.000000 
48.874167 0.215401 0.000000 
33.901919 5.963731 0.000000 
59.417266 3.463366 0.000000 
0.211454 14.133306 0.000000 
7.715492 2.833511 0.000000 
12.834630 9.412238 0.000000 
19.172049 0.715071 0.000000 
10.227512 6.755250 0.000000 
13.493015 3.864710 0.000000 
30.078691 2.222023 0.000000 
4.796377 0.966391 0.000000 
46.535303 3.677229 0.000000 
54.934422 1.247229 0.000000 
6.308493 9.564337 0.000000 
24.512948 6.690499 0.000000 
24.159446 9.653770 0.000000 
46.074209 3.421277 0.000000 
48.044023 1.401881 0.000000 
21.573916 11.529566 0.000000 
13.414758 5.731777 0.000000 
50.413754 2.406872 0.000000 
46.869710 3.492083 0.000000 
36.733821 4.915755 0.000000 
4.062157 0.229611 0.000000 
19.062800 5.666691 0.000000 
2.598842 13.209780 0.000000 
28.588514 9.239584 0.000000 
48.866495 2.180809 0.000000 
2.046488 13.373767 0.000000 
58.889110 4.329639 0.000000 
11.946364 13.163927 0.000000 
5.880454 4.316876 0.000000 
20.961492 10.282311 0.000000 
43.181647 2.556086 0.000000 
15.823009 1.855186 0.000000 
49.099088 0.667600 0.000000 
7.413614 12.061662 0.000000 
13.571230 0.256699 0.000000 
11.658547 0.956015 0.000000 
32.116053 0.724319 0.000000 
18.561283 5.174522 0.000000 
48.021670 1.104800 0.000000 
10.271777 7.278293 0.000000 
21.173400 5.539713 0.000000 
28.517223 4.532076 0.000000 
17.212884 12.877043 0.000000 
19.445318 8.797269 0.000000 
20.888815 14.297878 0.000000 
47.301331 4.572027 0.000000 
24.218897 9.148744 0.000000 
14.835958 0.213010 0.000000 
51.763474 3.047973 0.000000 
20.611365 11.056072 0.000000 
0.571010 6.982609 0.000000 
39.187089 0.195168 0.000000 
19.312178 12.150256 0.000000 
5.021745 8.735236 0.000000 
27.310232 2.589025 0.000000 
15.884079 2.375512 0.000000 
45.327756 3.680595 0.000000 
45.549831 3.494440 0.000000 
48.421377 2.463727 0.000000 
4.163109 8.549084 0.000000 
49.056394 3.554514 0.000000 
14.373703 1.107702 0.000000 
31.196176 7.355341 0.000000 
1.854689 2.334837 0.000000 
27.489707 3.012369 0.000000 
0.995762 12.805963 0.000000 
42.974008 1.580325 0.000000 
30.537994 6.396526 0.000000 
40.346801 4.787334 0.000000 
4.825476 5.195021 0.000000 
48.145713 0.216428 0.000000 
7.626255 14.041950 0.000000 
0.928255 7.599459 0.000000 
10.871812 14.783289 0.000000 
47.145870 0.657997 0.000000 
10.717478 10.035782 0.000000 
33.807789 1.663608 0.000000 
0.208998 10.612283 0.000000 
27.973387 3.476165 0.000000 
8.741568 1.859287 0.000000 
14.328302 0.218796 0.000000 
17.999009 8.020069 0.000000 
29.949469 9.282371 0.000000 
51.114096 0.218676 0.000000 
9.726421 8.180839 0.000000 
20.844817 6.464880 0.000000 
10.126460 14.772286 0.000000 
55.673632 0.616609 0.000000 
18.615073 6.909995 0.000000 
52.003518 0.724475 0.000000 
28.053211 0.710904 0.000000 
51.928051 1.786211 0.000000 
56.516301 2.617939 0.000000 
23.975321 0.216166 0.000000 
8.177736 13.561059 0.000000 
28.691771 3.578566 0.000000 
23.152784 9.423985 0.000000 
9.809425 13.219888 0.000000 
48.997992 3.776553 0.000000 
14.830054 1.943661 0.000000 
19.390743 9.015377 0.000000 
6.002171 12.108122 0.000000 
14.882569 14.798407 0.000000 
22.746567 0.204770 0.000000 
39.256556 1.788466 0.000000 
37.557453 5.947705 0.000000 
55.606200 4.788252 0.000000 
46.578509 2.720682 0.000000 
39.439419 0.191965 0.000000 
16.497199 10.543192 0.000000 
51.390138 4.790636 0.000000 
27.556590 9.005767 0.000000 
12.685909 9.213643 0.000000 
25.145692 2.523023 0.000000 
4.780208 8.748657 0.000000 
1.810559 2.802394 0.000000 
23.385060 9.897457 0.000000 
48.714275 2.779776 0.000000 
17.061409 14.479777 0.000000 
32.198179 0.207094 0.000000 
15.143847 1.574707 0.000000 
9.861626 7.554940 0.000000 
13.008844 9.570177 0.000000 
12.571911 0.183094 0.000000 
0.227011 2.131104 0.000000 
3.760781 1.264899 0.000000 
6.199285 3.717807 0.000000 
24.674362 5.871760 0.000000 
43.919787 1.451178 0.000000 
28.252689 0.222688 0.000000 
9.446647 11.365706 0.000000 
8.747402 4.966278 0.000000 
28.370044 4.098113 0.000000 
29.012303 3.383583 0.000000 
9.907260 8.002045 0.000000 
6.283318 1.629558 0.000000 
19.991845 0.205283 0.000000 
57.134517 4.308365 0.000000 
24.315697 6.169409 0.000000 
20.632087 3.600380 0.000000 
51.156900 4.379828 0.000000 
17.173546 13.482207 0.000000 
56.846981 2.265078 0.000000 
16.438364 0.611995 0.000000 
47.584595 3.959317 0.000000 
20.540541 5.944942 0.000000 
57.938439 2.393343 0.000000 
13.815380 0.682057 0.000000 
31.928833 1.117271 0.000000 
29.133156 4.858922 0.000000 
59.787359 4.144841 0.000000 
20.939954 13.751093 0.000000 
36.685729 0.247480 0.000000 
6.814764 11.326476 0.000000 
12.657314 12.644952 0.000000 
12.890031 12.775175 0.000000 
4.535840 8.754893 0.000000 
0.217638 12.116602 0.000000 
28.298974 10.621383 0.000000 
51.959189 4.380328 0.000000 
13.693244 4.938769 0.000000 
1.712908 6.935735 0.000000 
2.527513 12.921283 0.000000 
47.378601 3.821555 0.000000 
10.024332 12.142107 0.000000 
58.525023 2.616838 0.000000 
6.655086 13.658751 0.000000 
10.629384 14.765417 0.000000 
31.340198 8.610628 0.000000 
25.406670 12.057380 0.000000 
21.111594 14.175874 0.000000 
3.857229 7.311769 0.000000 
3.846993 7.037299 0.000000 
59.342350 1.359527 0.000000 
46.686615 2.186966 0.000000 
24.386263 6.444983 0.000000 
30.446969 8.803416 0.000000 
8.867998 8.122271 0.000000 
10.593041 14.317132 0.000000 
10.830250 1.792332 0.000000 
10.505461 13.901267 0.000000 
16.146729 8.714916 0.000000 
16.415734 8.684526 0.000000 
5.283941 1.316151 0.000000 
20.669587 10.587241 0.000000 
28.541101 1.558947 0.000000 
6.081446 0.213827 0.000000 
29.730713 3.601889 0.000000 
45.829968 2.609778 0.000000 
28.596422 1.831162 0.000000 
25.144601 5.519872 0.000000 
25.182440 5.783509 0.000000 
12.230905 1.986840 0.000000 
51.744278 0.853408 0.000000 
19.830509 9.186879 0.000000 
9.765464 11.654700 0.000000 
22.562345 5.669180 0.000000 
13.552368 10.308952 0.000000 
4.281611 5.197699 0.000000 
9.911650 10.770365 0.000000 
15.143153 2.509631 0.000000 
24.581697 11.997521 0.000000 
27.628773 10.095067 0.000000 
52.893807 0.213623 0.000000 
16.378739 10.908791 0.000000 
8.113289 14.788077 0.000000 
35.428736 1.299623 0.000000 
29.463690 9.480781 0.000000 
6.764304 14.223029 0.000000 
30.367272 4.932272 0.000000 
9.460362 8.625997 0.000000 
13.411165 13.212405 0.000000 
40.494967 0.660586 0.000000 
40.305402 0.580852 0.000000 
0.579236 13.840784 0.000000 
25.168992 0.611022 0.000000 
57.128310 4.773860 0.000000 
0.219800 7.607269 0.000000 
35.760006 6.295341 0.000000 
57.890332 0.220284 0.000000 
17.186597 1.446646 0.000000 
2.310721 2.155598 0.000000 
52.692148 0.641735 0.000000 
1.765297 10.416277 0.000000 
51.370057 3.312392 0.000000 
14.226642 7.402625 0.000000 
48.081681 4.387505 0.000000 
0.211235 11.884225 0.000000 
16.235973 14.319549 0.000000 
49.139132 2.465924 0.000000 
42.177708 0.241309 0.000000 
4.498045 0.621224 0.000000 
6.326001 9.822709 0.000000 
4.775564 9.231005 0.000000 
12.172488 13.789982 0.000000 
29.667433 2.560716 0.000000 
8.147154 14.213851 0.000000 
51.366728 0.623201 0.000000 
6.360432 10.083893 0.000000 
34.235666 1.513391 0.000000 
13.675144 4.724919 0.000000 
6.125015 4.247011 0.000000 
12.268885 11.201807 0.000000 
30.917436 5.338372 0.000000 
14.067183 7.841690 0.000000 
23.728795 0.216927 0.000000 
1.958810 13.143172 0.000000 
50.573962 2.852869 0.000000 
5.891731 0.640631 0.000000 
12.073769 12.106406 0.000000 
18.142530 12.623108 0.000000 
22.698617 13.428541 0.000000 
19.969619 8.051971 0.000000 
19.947163 8.316397 0.000000 
29.043421 2.997418 0.000000 
29.916216 4.452539 0.000000 
0.637465 11.755243 0.000000 
10.073835 7.220693 0.000000 
21.396975 5.689847 0.000000 
44.726406 1.893235 0.000000 
15.390318 13.724685 0.000000 
48.609215 3.464502 0.000000 
24.060193 0.814395 0.000000 
10.416854 6.856525 0.000000 
3.447715 2.480656 0.000000 
31.740430 8.880867 0.000000 
13.866478 9.065932 0.000000 
39.697631 0.555740 0.000000 
12.687761 2.283686 0.000000 
51.874752 4.805021 0.000000 
56.052642 2.727411 0.000000 
12.197345 14.423245 0.000000 
29.249204 2.559093 0.000000 
39.587835 4.948326 0.000000 
46.373401 2.511686 0.000000 
43.561005 0.527159 0.000000 
53.062629 1.817305 0.000000 
51.504893 1.075787 0.000000 
10.134071 14.273907 0.000000 
50.073623 2.187585 0.000000 
21.187417 13.676171 0.000000 
49.271956 2.649477 0.000000 
49.370225 0.965594 0.000000 
4.481007 9.217779 0.000000 
10.376285 14.770938 0.000000 
19.468703 6.891793 0.000000 
14.933133 1.104283 0.000000 
31.166850 8.726651 0.000000 
19.805013 9.619862 0.000000 
24.170922 5.946089 0.000000 
47.081638 2.297223 0.000000 
9.116717 6.370292 0.000000 
12.418992 10.394952 0.000000 
17.626285 1.363892 0.000000 
10.587887 0.226266 0.000000 
50.975024 3.552015 0.000000 
20.434775 5.424289 0.000000 
21.764869 11.125403 0.000000 
9.736021 4.670673 0.000000 
20.040551 9.685585 0.000000 
37.338522 0.908704 0.000000 
48.079876 3.961204 0.000000 
21.351901 14.073079 0.000000 
24.232942 12.333396 0.000000 
0.210615 10.861108 0.000000 
28.562203 0.624568 0.000000 
0.659485 11.052542 0.000000 
3.673288 10.876372 0.000000 
0.220964 11.105046 0.000000 
14.629570 1.515220 0.000000 
6.528698 9.169871 0.000000 
0.251366 11.371447 0.000000 
13.881237 14.358643 0.000000 
0.673688 11.488863 0.000000 
0.211432 11.632545 0.000000 
40.647778 4.403778 0.000000 
24.974832 0.206462 0.000000 
9.796545 9.823617 0.000000 
21.284722 6.126203 0.000000 
16.002458 13.554257 0.000000 
29.566131 8.537648 0.000000 
29.078080 8.710266 0.000000 
12.214557 8.513953 0.000000 
35.316186 7.101981 0.000000 
13.172979 13.230377 0.000000 
9.493158 10.127972 0.000000 
11.848564 13.392047 0.000000 
13.839363 0.220186 0.000000 
45.590873 2.334169 0.000000 
57.360021 2.643714 0.000000 
13.001260 14.153107 0.000000 
32.261841 7.296929 0.000000 
30.042321 8.728721 0.000000 
9.631344 10.320484 0.000000 
19.255187 0.200494 0.000000 
36.910040 6.320700 0.000000 
13.848832 3.551334 0.000000 
59.789540 1.392300 0.000000 
22.070483 12.202922 0.000000 
31.884507 0.618641 0.000000 
13.427704 3.643616 0.000000 
10.108609 10.267424 0.000000 
30.571081 5.027158 0.000000 
38.922069 0.592396 0.000000 
28.504611 0.204476 0.000000 
43.556441 0.735120 0.000000 
34.033557 5.745031 0.000000 
22.796278 12.295517 0.000000 
13.207857 13.696920 0.000000 
35.199256 4.742509 0.000000 
3.821663 0.215440 0.000000 
41.725968 0.939629 0.000000 
41.482248 1.025922 0.000000 
19.380391 0.594606 0.000000 
58.146190 0.207439 0.000000 
23.076669 0.606764 0.000000 
24.343710 12.087347 0.000000 
11.393203 0.625753 0.000000 
11.320540 0.211313 0.000000 
20.295467 10.221309 0.000000 
6.866593 14.760417 0.000000 
11.704225 3.579956 0.000000 
34.415033 5.996038 0.000000 
29.248380 8.803140 0.000000 
35.995378 5.433182 0.000000 
14.831201 8.254456 0.000000 
36.914808 0.622311 0.000000 
11.480686 3.719251 0.000000 
52.289148 2.064760 0.000000 
5.737917 11.020730 0.000000 
24.717730 12.395129 0.000000 
12.796572 14.494177 0.000000 
2.342603 0.212574 0.000000 
13.857960 14.792216 0.000000 
6.404229 8.764105 0.000000 
58.837149 0.738840 0.000000 
29.889022 2.391597 0.000000 
31.458715 0.243156 0.000000 
11.705912 12.318372 0.000000 
44.305499 2.457396 0.000000 
16.903237 1.747047 0.000000 
19.327125 12.668716 0.000000 
13.590717 9.436172 0.000000 
59.756203 2.900805 0.000000 
24.955001 12.283490 0.000000 
22.977926 0.207084 0.000000 
4.324695 0.221453 0.000000 
47.986463 1.998626 0.000000 
57.337603 3.147786 0.000000 
14.080860 0.220274 0.000000 
18.131696 14.801778 0.000000 
7.393146 12.453968 0.000000 
39.784554 2.133808 0.000000 
24.808891 11.886490 0.000000 
21.588397 13.965512 0.000000 
28.279801 8.972172 0.000000 
20.235940 9.328663 0.000000 
21.428796 13.583260 0.000000 
12.291277 9.009889 0.000000 
45.884243 4.767666 0.000000 
27.858395 0.562462 0.000000 
47.728991 4.158972 0.000000 
28.925333 0.952840 0.000000 
51.611911 1.255837 0.000000 
9.567568 11.842365 0.000000 
51.800292 3.979431 0.000000 
9.572043 6.532284 0.000000 
12.780494 2.994052 0.000000 
25.184541 12.168037 0.000000 
44.557935 2.301785 0.000000 
58.886927 4.787528 0.000000 
11.044896 3.526410 0.000000 
0.237708 3.383717 0.000000 
49.177884 4.772779 0.000000 
15.317285 13.495189 0.000000 
18.463511 4.946221 0.000000 
23.588398 12.924415 0.000000 
31.527979 8.995448 0.000000 
14.634570 14.393718 0.000000 
13.537526 5.520605 0.000000 
37.582248 5.487462 0.000000 
4.063896 9.847945 0.000000 
42.411280 4.318198 0.000000 
23.773128 9.705932 0.000000 
0.183764 7.129188 0.000000 
30.887835 9.012519 0.000000 
40.179367 2.206944 0.000000 
20.135384 7.178174 0.000000 
15.714216 13.180228 0.000000 
0.725889 12.015484 0.000000 
35.041521 1.495997 0.000000 
20.656562 6.637541 0.000000 
18.777962 4.705430 0.000000 
1.781803 9.902576 0.000000 
34.982647 4.703607 0.000000 
31.965505 0.211849 0.000000 
14.923510 13.793996 0.000000 
41.227730 0.553456 0.000000 
0.534003 12.411868 0.000000 
21.818507 13.857357 0.000000 
11.087717 0.203664 0.000000 
9.336646 7.621597 0.000000 
25.051546 2.325221 0.000000 
23.564885 12.105128 0.000000 
13.991324 1.294950 0.000000 
1.664303 0.666005 0.000000 
8.643195 2.529913 0.000000 
0.201013 9.870549 0.000000 
7.132997 14.374884 0.000000 
0.590679 7.908337 0.000000 
57.173703 2.753877 0.000000 
35.773010 1.478888 0.000000 
1.153277 11.988334 0.000000 
7.110406 14.788549 0.000000 
50.724988 0.482310 0.000000 
30.246270 4.154945 0.000000 
2.494486 0.579771 0.000000 
23.471994 0.618351 0.000000 
41.901311 0.621086 0.000000 
45.424013 2.710615 0.000000 
16.822200 2.238282 0.000000 
1.094493 7.151804 0.000000 
28.893330 9.577637 0.000000 
0.207753 0.609522 0.000000 
23.468657 0.227665 0.000000 
39.502894 0.950093 0.000000 
33.014179 6.202776 0.000000 
33.259788 6.113616 0.000000 
16.758832 1.311176 0.000000 
31.637051 5.911702 0.000000 
22.130122 11.303216 0.000000 
9.032958 8.785269 0.000000 
58.178082 4.202512 0.000000 
56.481236 0.472678 0.000000 
18.950225 7.502647 0.000000 
6.057305 10.421821 0.000000 
9.774546 10.542181 0.000000 
28.954494 9.124744 0.000000 
28.017046 0.202583 0.000000 
20.960747 3.980810 0.000000 
30.000347 5.155900 0.000000 
12.510220 14.175157 0.000000 
27.185605 9.952350 0.000000 
23.981667 9.232989 0.000000 
4.204687 5.438988 0.000000 
10.839530 0.200726 0.000000 
22.044320 13.750268 0.000000 
44.772319 0.443473 0.000000 
9.129700 4.698010 0.000000 
14.086023 4.856448 0.000000 
17.816049 1.848413 0.000000 
4.308547 0.984789 0.000000 
30.461001 5.971634 0.000000 
37.812030 5.844998 0.000000 
42.395681 4.776611 0.000000 
28.327063 10.156358 0.000000 
13.877640 5.847783 0.000000 
59.796291 3.890702 0.000000 
23.694613 0.666285 0.000000 
21.661937 13.478908 0.000000 
9.969903 10.045000 0.000000 
28.442190 8.789831 0.000000 
11.276255 9.403160 0.000000 
16.321231 2.273268 0.000000 
12.778902 1.256993 0.000000 
52.737581 1.075699 0.000000 
42.925183 1.354991 0.000000 
1.078155 13.570711 0.000000 
7.427359 4.445460 0.000000 
16.252860 1.989434 0.000000 
23.745263 9.275732 0.000000 
31.079096 7.903381 0.000000 
1.047530 11.082008 0.000000 
2.798827 2.332066 0.000000 
49.128588 3.337708 0.000000 
57.384762 4.752264 0.000000 
7.859785 14.764764 0.000000 
12.288019 6.656362 0.000000 
48.745340 3.210174 0.000000 
35.177211 4.355853 0.000000 
39.179123 4.796928 0.000000 
49.329039 4.553211 0.000000 
22.266866 13.646358 0.000000 
59.401324 3.670156 0.000000 
13.816135 3.282833 0.000000 
17.098597 0.627592 0.000000 
7.119555 1.813485 0.000000 
4.554321 5.611417 0.000000 
19.396166 4.849853 0.000000 
22.121748 13.279151 0.000000 
3.756004 8.414764 0.000000 
21.894985 13.378068 0.000000 
59.799760 3.645313 0.000000 
40.597092 4.806472 0.000000 
28.746603 0.185737 0.000000 
24.469343 12.495139 0.000000 
44.320788 1.024241 0.000000 
21.057726 6.290963 0.000000 
12.273599 0.463846 0.000000 
15.054642 13.100232 0.000000 
31.316472 9.104411 0.000000 
6.458548 10.630437 0.000000 
43.241356 1.020102 0.000000 
8.663290 8.590266 0.000000 
19.915850 6.829023 0.000000 
0.197035 7.866164 0.000000 
8.466622 2.724242 0.000000 
58.108346 2.256907 0.000000 
18.894257 7.797602 0.000000 
23.529014 4.158384 0.000000 
5.109097 10.880524 0.000000 
36.449209 6.308803 0.000000 
5.696195 11.290254 0.000000 
25.303909 2.028787 0.000000 
27.916835 8.772275 0.000000 
22.484876 13.542252 0.000000 
1.105057 1.543503 0.000000 
36.548825 6.119040 0.000000 
13.582142 4.232901 0.000000 
7.347369 14.795886 0.000000 
20.300260 6.973207 0.000000 
0.607017 0.789665 0.000000 
17.284528 13.965743 0.000000 
14.053042 4.634696 0.000000 
12.562789 9.751214 0.000000 
49.119070 0.225256 0.000000 
35.395270 4.795339 0.000000 
26.448021 9.430192 0.000000 
39.869029 3.789663 0.000000 
57.803525 0.734400 0.000000 
8.072232 13.768783 0.000000 
3.937539 10.712165 0.000000 
20.777856 9.674973 0.000000 
36.831206 5.453258 0.000000 
14.876685 13.533855 0.000000 
29.638883 9.933113 0.000000 
41.906658 0.226069 0.000000 
46.904444 3.933181 0.000000 
48.183350 3.699545 0.000000 
25.073705 3.323507 0.000000 
55.217457 1.886011 0.000000 
59.796750 3.401491 0.000000 
7.920168 14.343526 0.000000 
3.632284 13.566208 0.000000 
3.341932 1.122076 0.000000 
57.735061 2.852945 0.000000 
14.721353 1.728401 0.000000 
3.682739 0.602201 0.000000 
28.063151 8.528171 0.000000 
36.951137 0.214064 0.000000 
19.068311 7.033482 0.000000 
59.618580 0.212935 0.000000 
0.384394 14.786027 0.000000 
59.801839 4.621452 0.000000 
1.222594 7.589256 0.000000 
20.900903 5.623171 0.000000 
50.860100 0.235583 0.000000 
35.014140 2.020815 0.000000 
6.424546 12.136337 0.000000 
45.915752 3.831503 0.000000 
13.673155 4.477728 0.000000 
59.398779 3.271518 0.000000 
7.543746 14.450982 0.000000 
57.520934 4.493776 0.000000 
5.994320 1.326280 0.000000 
23.615727 12.639864 0.000000 
9.264626 7.369674 0.000000 
55.344148 4.777536 0.000000 
13.899654 3.829246 0.000000 
13.623208 14.782967 0.000000 
24.347560 7.397282 0.000000 
16.955826 12.871447 0.000000 
13.426805 3.219503 0.000000 
14.082332 2.479488 0.000000 
0.480313 1.322858 0.000000 
0.200846 0.380287 0.000000 
15.094903 0.207070 0.000000 
22.254971 5.383832 0.000000 
47.268236 3.415165 0.000000 
31.706170 0.220894 0.000000 
9.350910 9.657253 0.000000 
13.199090 9.699948 0.000000 
12.200873 12.525089 0.000000 
22.296071 5.646572 0.000000 
57.553643 2.523956 0.000000 
39.316570 5.048729 0.000000 
10.028438 4.354742 0.000000 
35.440322 6.698181 0.000000 
59.477407 1.125025 0.000000 
14.291375 8.018848 0.000000 
41.202959 0.252324 0.000000 
58.051518 2.638868 0.000000 
49.379040 3.029338 0.000000 
28.816256 0.567690 0.000000 
22.529701 11.395179 0.000000 
14.404678 8.257952 0.000000 
59.773474 3.149537 0.000000 
13.720592 5.169142 0.000000 
13.955395 4.392050 0.000000 
55.970692 2.462440 0.000000 
23.230764 0.213248 0.000000 
58.599470 0.859324 0.000000 
12.146793 12.323477 0.000000 
51.495019 3.725850 0.000000 
7.607225 14.733697 0.000000 
19.737931 0.213843 0.000000 
44.300511 1.463306 0.000000 
15.092280 12.656201 0.000000 
58.638939 4.454263 0.000000 
6.682510 8.749397 0.000000 
9.548736 4.534959 0.000000 
45.949413 2.083945 0.000000 
12.060401 12.924481 0.000000 
0.245963 12.389544 0.000000 
58.633225 3.034848 0.000000 
29.484257 0.218071 0.000000 
14.489800 7.824561 0.000000 
13.629437 13.714660 0.000000 
31.428451 6.095763 0.000000 
58.059406 3.093908 0.000000 
12.301184 7.717152 0.000000 
44.111723 1.074348 0.000000 
0.224245 1.888561 0.000000 
17.281127 14.401170 0.000000 
14.597920 8.066754 0.000000 
24.635472 1.149074 0.000000 
55.644117 0.209267 0.000000 
12.367540 1.769203 0.000000 
12.930224 13.244757 0.000000 
10.244902 5.993596 0.000000 
19.207640 6.273729 0.000000 
14.119580 14.479987 0.000000 
57.603393 0.601240 0.000000 
3.561926 0.208673 0.000000 
31.083856 9.201234 0.000000 
11.216094 6.389208 0.000000 
14.631936 14.795607 0.000000 
20.177060 13.338316 0.000000 
12.324911 12.977349 0.000000 
59.784610 0.609474 0.000000 
21.680963 3.382717 0.000000 
12.781689 9.930788 0.000000 
16.668769 1.872095 0.000000 
6.751614 9.017176 0.000000 
29.433929 8.315603 0.000000 
11.385529 10.487783 0.000000 
20.188450 6.690268 0.000000 
10.965146 0.599699 0.000000 
13.956254 4.104492 0.000000 
5.830119 0.221741 0.000000 
8.201219 8.583717 0.000000 
56.730074 0.519601 0.000000 
58.621732 4.742129 0.000000 
17.438167 0.429756 0.000000 
51.779590 3.287709 0.000000 
34.219357 5.542003 0.000000 
43.857981 0.457227 0.000000 
19.336559 8.015706 0.000000 
45.884759 0.214214 0.000000 
49.945232 3.149137 0.000000 
18.473695 8.011883 0.000000 
7.565829 12.249234 0.000000 
27.323487 4.406465 0.000000 
20.457390 6.806535 0.000000 
13.978152 5.271760 0.000000 
12.686530 7.835264 0.000000 
18.230646 7.880113 0.000000 
51.365448 0.213180 0.000000 
5.529409 10.403638 0.000000 
0.225150 0.858704 0.000000 
56.861870 0.254011 0.000000 
19.504871 0.202627 0.000000 
38.933946 0.197099 0.000000 
2.079905 3.115661 0.000000 
9.621369 7.257332 0.000000 
0.531664 1.117219 0.000000 
0.267167 1.128938 0.000000 
24.910075 1.220903 0.000000 
8.420387 8.590194 0.000000 
25.513276 1.641853 0.000000 
35.546309 6.954559 0.000000 
16.247104 14.593655 0.000000 
12.522261 1.189680 0.000000 
29.770606 9.094707 0.000000 
9.314669 8.875840 0.000000 
28.525884 10.511284 0.000000 
15.483952 0.813757 0.000000 
8.602033 8.204442 0.000000 
0.232438 9.605319 0.000000 
30.190760 9.673863 0.000000 
56.618183 0.252457 0.000000 
4.010482 8.351867 0.000000 
16.577390 2.275231 0.000000 
29.541395 4.799839 0.000000 
14.564505 9.967453 0.000000 
11.964847 6.373209 0.000000 
19.375772 1.097345 0.000000 
46.146532 4.125016 0.000000 
49.365814 0.228851 0.000000 
20.438964 5.181647 0.000000 
16.395119 1.567326 0.000000 
0.493494 9.583641 0.000000 
12.124760 1.354345 0.000000 
0.245957 1.397109 0.000000 
22.040339 6.072486 0.000000 
57.632664 0.219494 0.000000 
0.231442 3.633995 0.000000 
24.713541 1.393659 0.000000 
0.480154 1.555661 0.000000 
46.358592 0.818936 0.000000 
0.231354 1.645115 0.000000 
58.407972 0.228571 0.000000 
52.185970 2.953669 0.000000 
10.015903 13.754578 0.000000 
58.636213 0.371084 0.000000 
49.096931 1.303281 0.000000 
10.393726 4.106322 0.000000 
21.569683 3.783697 0.000000 
42.519346 3.618047 0.000000 
10.980802 13.812763 0.000000 
27.597774 3.729448 0.000000 
12.107414 9.557257 0.000000 
28.990305 0.199918 0.000000 
31.691188 6.421411 0.000000 
34.460045 5.703633 0.000000 
7.903663 1.598587 0.000000 
28.115275 2.329351 0.000000 
5.092945 2.013576 0.000000 
14.121517 14.756566 0.000000 
34.749124 4.238704 0.000000 
55.205187 4.535837 0.000000 
26.978948 10.027344 0.000000 
10.289001 4.941137 0.000000 
52.191230 4.537820 0.000000 
20.317393 9.738248 0.000000 
40.278140 1.989419 0.000000 
5.687887 4.811964 0.000000 
11.587143 0.231796 0.000000 
59.411074 0.657562 0.000000 
16.342797 12.226993 0.000000 
29.325425 1.315627 0.000000 
7.779438 2.095877 0.000000 
28.200310 2.084420 0.000000 
37.189609 0.227373 0.000000 
29.326920 2.181168 0.000000 
20.535445 4.005063 0.000000 
30.855340 9.298819 0.000000 
59.755205 1.126512 0.000000 
34.659293 4.461288 0.000000 
35.374093 4.540641 0.000000 
5.374005 0.773033 0.000000 
5.726329 0.459328 0.000000 
58.448787 0.488619 0.000000 
51.761012 3.715104 0.000000 
8.383254 12.426054 0.000000 
57.968118 1.564761 0.000000 
41.735949 0.448822 0.000000 
29.912451 7.174211 0.000000 
18.049992 1.010947 0.000000 
37.303343 0.464812 0.000000 
0.457307 3.770351 0.000000 
39.823054 2.384257 0.000000 
29.439134 10.047430 0.000000 
29.507128 9.195461 0.000000 
0.480845 8.135653 0.000000 
2.598083 0.204181 0.000000 
31.473401 7.671542 0.000000 
57.633718 4.756235 0.000000 
21.098856 4.927683 0.000000 
12.676183 13.251786 0.000000 
51.020555 1.526686 0.000000 
3.299150 7.693732 0.000000 
28.361203 8.518970 0.000000 
12.822550 13.498491 0.000000 
4.140882 5.704100 0.000000 
45.668289 3.238544 0.000000 
12.552714 9.000375 0.000000 
52.857254 1.444041 0.000000 
52.436754 1.872135 0.000000 
24.977337 1.461044 0.000000 
55.056796 4.101166 0.000000 
20.247028 6.203768 0.000000 
29.629568 6.295262 0.000000 
11.937815 12.488963 0.000000 
57.105856 0.229936 0.000000 
47.905497 0.228027 0.000000 
37.432226 0.231313 0.000000 
35.225879 1.904564 0.000000 
17.824559 0.950672 0.000000 
29.680959 6.513026 0.000000 
31.877325 6.040121 0.000000 
18.378190 4.690732 0.000000 
56.372785 0.232673 0.000000 
48.150031 4.789720 0.000000 
37.546034 0.453988 0.000000 
3.305019 7.420914 0.000000 
18.770303 1.000321 0.000000 
30.627521 9.425089 0.000000 
1.482252 13.522966 0.000000 
17.044483 0.234340 0.000000 
12.212572 10.031041 0.000000 
39.046948 4.984059 0.000000 
24.438769 10.222486 0.000000 
57.783136 4.554559 0.000000 
16.075159 10.323156 0.000000 
42.924080 0.192337 0.000000 
36.656065 6.387060 0.000000 
20.194072 5.596661 0.000000 
30.000754 8.086035 0.000000 
39.498807 3.533911 0.000000 
46.113078 4.781918 0.000000 
19.314983 6.002129 0.000000 
13.496596 14.123899 0.000000 
52.647495 0.209838 0.000000 
12.134939 14.805078 0.000000 
22.513599 12.350115 0.000000 
40.955466 0.635818 0.000000 
19.204622 9.160449 0.000000 
55.091506 4.776527 0.000000 
20.079851 9.162409 0.000000 
44.885600 0.219941 0.000000 
51.141702 4.789721 0.000000 
38.026499 5.748358 0.000000 
3.213475 2.846607 0.000000 
10.598749 5.239797 0.000000 
13.449486 14.576038 0.000000 
2.724217 0.443219 0.000000 
0.219850 3.878923 0.000000 
40.570149 0.872471 0.000000 
28.136379 4.126576 0.000000 
7.986958 8.619200 0.000000 
19.221121 8.377641 0.000000 
34.526686 5.197350 0.000000 
24.254560 12.607695 0.000000 
40.117222 3.779078 0.000000 
3.836897 6.340659 0.000000 
9.497259 7.056847 0.000000 
30.214192 4.441494 0.000000 
24.868370 1.874953 0.000000 
29.639671 8.741290 0.000000 
30.402076 9.551608 0.000000 
2.111354 12.375628 0.000000 
24.789165 1.637335 0.000000 
28.867231 8.678075 0.000000 
1.292323 10.687363 0.000000 
40.926627 0.227304 0.000000 
34.652721 1.674155 0.000000 
1.454399 13.002359 0.000000 
22.328243 11.749342 0.000000 
49.479969 0.458713 0.000000 
13.939350 5.562119 0.000000 
19.082597 4.382716 0.000000 
1.613106 7.360074 0.000000 
3.785202 7.938608 0.000000 
4.218749 5.965682 0.000000 
56.134855 0.221630 0.000000 
12.849211 13.956964 0.000000 
38.035403 0.425095 0.000000 
49.614385 0.218773 0.000000 
17.260587 1.202890 0.000000 
34.811561 3.994117 0.000000 
8.336449 8.340369 0.000000 
33.998998 1.812045 0.000000 
0.196480 13.893952 0.000000 
10.724542 3.803060 0.000000 
3.444090 0.458070 0.000000 
35.820489 1.981546 0.000000 
14.876603 2.530865 0.000000 
58.421798 4.555822 0.000000 
3.453653 7.851655 0.000000 
12.898323 8.819875 0.000000 
27.599108 4.024155 0.000000 
55.817208 1.227584 0.000000 
18.638999 0.814639 0.000000 
34.475390 5.434795 0.000000 
9.160282 9.285471 0.000000 
35.094829 3.714715 0.000000 
20.594504 9.869050 0.000000 
27.405888 0.282013 0.000000 
12.566098 13.468590 0.000000 
58.940070 1.122572 0.000000 
16.680803 14.129586 0.000000 
9.088921 9.041347 0.000000 
30.649030 9.147169 0.000000 
51.609993 0.209343 0.000000 
40.882138 4.550957 0.000000 
20.173545 12.161706 0.000000 
27.770797 0.186991 0.000000 
13.134185 2.727633 0.000000 
16.070639 13.957234 0.000000 
12.978332 3.164691 0.000000 
52.274650 3.986065 0.000000 
10.697185 5.976344 0.000000 
59.385195 0.239399 0.000000 
29.223537 0.222058 0.000000 
27.638653 2.793581 0.000000 
11.900685 10.418747 0.000000 
19.730703 6.143671 0.000000 
13.639403 13.173192 0.000000 
9.167126 6.835279 0.000000 
38.172548 0.208603 0.000000 
14.449626 13.873893 0.000000 
9.807494 3.778206 0.000000 
42.159020 4.776086 0.000000 
12.225730 10.931784 0.000000 
1.902395 12.553043 0.000000 
14.382599 14.800720 0.000000 
39.693242 0.191558 0.000000 
17.187002 2.353847 0.000000 
26.483063 7.703339 0.000000 
7.598345 12.513124 0.000000 
48.074116 2.702832 0.000000 
8.305232 12.672624 0.000000 
27.757680 9.888223 0.000000 
2.986083 0.407020 0.000000 
6.953653 8.854417 0.000000 
11.998634 7.317323 0.000000 
2.636253 7.256807 0.000000 
5.371389 2.620055 0.000000 
59.801035 0.864413 0.000000 
50.429651 0.776710 0.000000 
14.137024 13.923747 0.000000 
15.320326 0.186616 0.000000 
2.095994 0.559375 0.000000 
12.324293 0.204083 0.000000 
35.792064 4.840039 0.000000 
3.147593 7.190749 0.000000 
16.104808 12.347222 0.000000 
17.885572 14.799330 0.000000 
17.184312 0.810121 0.000000 
6.996233 2.633661 0.000000 
30.407599 9.288067 0.000000 
50.366181 0.184709 0.000000 
14.177132 6.503150 0.000000 
38.426078 0.200193 0.000000 
26.561215 9.915232 0.000000 
2.403464 7.286432 0.000000 
9.424794 9.371129 0.000000 
35.603561 4.659475 0.000000 
55.895792 0.214727 0.000000 
57.361241 0.217640 0.000000 
31.591676 7.285992 0.000000 
35.783898 6.915775 0.000000 
3.941414 10.971842 0.000000 
10.903105 1.017948 0.000000 
6.919717 2.237305 0.000000 
51.007578 0.832957 0.000000 
30.884101 5.987421 0.000000 
12.513238 1.560317 0.000000 
39.764056 1.908398 0.000000 
0.935872 3.838495 0.000000 
59.014257 3.690614 0.000000 
28.823819 1.958403 0.000000 
13.405226 9.843431 0.000000 
41.436934 0.167031 0.000000 
40.096897 0.653561 0.000000 
2.104891 1.980683 0.000000 
55.935912 1.691575 0.000000 
50.199370 2.582706 0.000000 
2.041083 2.496354 0.000000 
2.880667 7.220523 0.000000 
18.692427 7.604044 0.000000 
46.223364 1.717059 0.000000 
50.122961 0.180495 0.000000 
35.146690 3.486989 0.000000 
28.874618 7.997234 0.000000 
16.356367 13.231720 0.000000 
46.624416 0.214797 0.000000 
29.206235 1.802834 0.000000 
17.024567 12.422827 0.000000 
49.517750 3.373024 0.000000 
9.980668 12.696824 0.000000 
47.088377 2.790940 0.000000 
50.615816 0.228206 0.000000 
39.378699 1.155465 0.000000 
19.218713 6.826968 0.000000 
11.900146 10.108389 0.000000 
47.926771 3.212696 0.000000 
11.823173 0.368575 0.000000 
49.875697 0.201059 0.000000 
57.400338 0.878606 0.000000 
16.712806 12.974361 0.000000 
19.583729 9.620613 0.000000 
42.515652 1.396520 0.000000 
18.202023 9.720238 0.000000 
4.591501 0.252435 0.000000 
52.244568 1.195692 0.000000 
49.445864 3.876976 0.000000 
5.029746 1.375089 0.000000 
11.832948 9.659335 0.000000 
28.433944 9.457807 0.000000 
12.273487 12.753054 0.000000 
14.042106 13.635145 0.000000 
10.455908 6.344968 0.000000 
21.498396 11.098132 0.000000 
10.989700 12.260698 0.000000 
0.367036 8.361932 0.000000 
11.694561 6.857152 0.000000 
16.479172 12.445208 0.000000 
19.606909 12.635387 0.000000 
23.812792 12.790149 0.000000 
2.177974 7.308295 0.000000 
13.292887 5.215452 0.000000 
13.025277 10.085597 0.000000 
16.805112 0.355513 0.000000 
0.545271 13.052675 0.000000 
0.652467 13.433558 0.000000 
19.625482 6.441623 0.000000 
55.649156 2.916168 0.000000 
44.154425 2.708102 0.000000 
11.295384 6.844255 0.000000 
0.270671 6.625021 0.000000 
5.080447 0.263918 0.000000 
32.975665 6.681978 0.000000 
29.624720 5.645450 0.000000 
49.846473 4.487959 0.000000 
28.141049 9.147409 0.000000 
52.358936 0.933449 0.000000 
40.189133 0.193193 0.000000 
16.604262 12.618223 0.000000 
35.181285 3.267503 0.000000 
18.368956 9.261194 0.000000 
29.547361 5.859912 0.000000 
0.241619 4.378243 0.000000 
2.850024 7.830055 0.000000 
5.595590 0.970265 0.000000 
34.554480 4.941635 0.000000 
48.212224 3.259591 0.000000 
5.577897 0.254289 0.000000 
9.791781 4.193261 0.000000 
10.639295 6.480357 0.000000 
4.541883 8.301955 0.000000 
18.445588 7.733307 0.000000 
47.554105 2.048258 0.000000 
54.254860 1.342731 0.000000 
3.065736 6.764900 0.000000 
47.716698 2.977088 0.000000 
3.843280 8.149923 0.000000 
14.791938 13.119351 0.000000 
44.380959 0.606310 0.000000 
20.500428 4.278107 0.000000 
7.596585 2.567011 0.000000 
32.217878 6.642241 0.000000 
18.339551 4.411581 0.000000 
12.970605 8.380862 0.000000 
0.254161 6.366926 0.000000 
35.167057 2.902614 0.000000 
43.618811 0.923148 0.000000 
29.610374 5.403421 0.000000 
20.762133 9.273670 0.000000 
14.413039 2.129223 0.000000 
52.380949 4.746108 0.000000 
11.943488 6.859901 0.000000 
20.578259 4.561477 0.000000 
39.940789 1.115945 0.000000 
11.431926 9.884081 0.000000 
14.047666 8.502101 0.000000 
54.574368 4.784593 0.000000 
11.732100 1.995182 0.000000 
23.996004 10.032823 0.000000 
10.715611 7.787868 0.000000 
40.134447 1.333427 0.000000 
14.442406 13.556918 0.000000 
10.243933 6.232867 0.000000 
28.231111 0.896442 0.000000 
11.597890 7.307607 0.000000 
9.796900 9.068655 0.000000 
35.179786 2.493998 0.000000 
34.370156 1.989545 0.000000 
46.887495 0.269893 0.000000 
20.292555 4.964579 0.000000 
13.052546 1.652726 0.000000 
16.888100 1.047272 0.000000 
31.368040 5.834446 0.000000 
39.525874 1.341059 0.000000 
22.002550 5.031198 0.000000 
32.497451 6.728114 0.000000 
6.349080 12.705676 0.000000 
15.562662 0.255726 0.000000 
17.836759 0.523834 0.000000 
0.260662 4.618225 0.000000 
18.251205 0.632652 0.000000 
36.416997 6.523830 0.000000 
18.536444 1.094148 0.000000 
39.962365 0.242031 0.000000 
29.996468 7.425898 0.000000 
35.578428 1.633109 0.000000 
39.613496 1.539414 0.000000 
27.802205 8.526182 0.000000 
0.219351 13.652773 0.000000 
10.577194 1.397987 0.000000 
58.438481 1.659201 0.000000 
38.546921 0.817092 0.000000 
28.753221 9.069668 0.000000 
4.204758 11.005438 0.000000 
15.855379 12.025805 0.000000 
49.702586 2.784033 0.000000 
2.682063 2.758492 0.000000 
27.953050 9.520531 0.000000 
16.761143 13.384064 0.000000 
12.752512 10.554602 0.000000 
31.941172 6.751298 0.000000 
28.456591 9.751310 0.000000 
10.840947 7.995765 0.000000 
51.775659 1.380528 0.000000 
2.558935 9.648889 0.000000 
27.207682 0.218145 0.000000 
11.198819 7.854453 0.000000 
49.602681 2.350652 0.000000 
28.735050 9.834579 0.000000 
10.453752 7.401850 0.000000 
12.070925 0.240048 0.000000 
21.681232 5.783431 0.000000 
57.955114 1.859638 0.000000 
38.398931 5.149443 0.000000 
0.872049 9.401477 0.000000 
40.419322 1.368907 0.000000 
0.765092 6.564163 0.000000 
5.463985 9.976195 0.000000 
27.874126 1.184090 0.000000 
59.079786 0.868747 0.000000 
15.784044 12.987203 0.000000 
36.137519 5.005631 0.000000 
18.800708 9.145858 0.000000 
8.196109 13.089059 0.000000 
29.148357 5.368031 0.000000 
50.560302 4.546880 0.000000 
59.052686 3.249405 0.000000 
34.560215 2.188052 0.000000 
3.357698 8.316058 0.000000 
23.776496 6.146286 0.000000 
4.226563 10.307476 0.000000 
44.644129 0.213905 0.000000 
5.695327 1.693160 0.000000 
24.091940 8.729036 0.000000 
17.027737 13.865504 0.000000 
5.416623 1.727804 0.000000 
10.034284 6.648449 0.000000 
3.217560 2.106278 0.000000 
1.703911 1.905133 0.000000 
8.609409 1.413487 0.000000 
19.945921 5.429018 0.000000 
35.444156 4.034156 0.000000 
40.423680 1.768037 0.000000 
18.078009 0.455662 0.000000 
4.862865 0.730260 0.000000 
12.335844 10.557310 0.000000 
14.596638 2.603915 0.000000 
16.213982 12.885273 0.000000 
8.042111 12.136659 0.000000 
0.229433 13.422954 0.000000 
26.393635 8.116543 0.000000 
11.951141 8.764816 0.000000 
11.768261 9.017600 0.000000 
9.844568 6.833821 0.000000 
20.045054 4.987440 0.000000 
25.474200 0.203777 0.000000 
10.365352 8.108718 0.000000 
16.279724 12.010725 0.000000 
14.213085 13.448069 0.000000 
39.971756 3.533735 0.000000 
47.800889 2.705960 0.000000 
10.029857 3.623074 0.000000 
4.161793 3.958542 0.000000 
30.378805 7.640784 0.000000 
6.048642 3.352251 0.000000 
16.863374 2.641134 0.000000 
29.581983 7.861154 0.000000 
46.125902 0.190864 0.000000 
11.624509 12.803942 0.000000 
11.720792 10.271406 0.000000 
43.531686 0.148358 0.000000 
30.220612 8.918983 0.000000 
32.001177 7.224251 0.000000 
52.219439 0.591576 0.000000 
13.625441 8.079411 0.000000 
54.362300 4.810787 0.000000 
40.983949 1.007536 0.000000 
13.087929 3.758368 0.000000 
17.678839 2.734650 0.000000 
56.002444 0.797201 0.000000 
12.614142 8.320282 0.000000 
47.363927 0.516144 0.000000 
12.649688 8.075522 0.000000 
28.975271 2.335709 0.000000 
1.118516 0.357187 0.000000 
21.626924 5.337207 0.000000 
48.359754 3.041159 0.000000 
1.538728 12.601387 0.000000 
34.705105 2.794544 0.000000 
52.610685 4.840203 0.000000 
32.606544 7.198791 0.000000 
20.020624 4.393769 0.000000 
18.894642 6.549840 0.000000 
8.640926 8.966009 0.000000 
46.892375 2.488229 0.000000 
13.660196 9.825417 0.000000 
19.484032 5.603521 0.000000 
19.857377 6.349983 0.000000 
0.189219 13.135552 0.000000 
21.801447 11.508279 0.000000 
27.552770 2.218001 0.000000 
16.612754 14.555059 0.000000 
15.787709 13.617318 0.000000 
13.241223 2.915269 0.000000 
12.553626 8.563236 0.000000 
12.810493 10.391090 0.000000 
17.499016 0.194013 0.000000 
0.831752 12.678621 0.000000 
4.640810 1.121260 0.000000 
18.670756 7.139781 0.000000 
45.556092 3.733191 0.000000 
56.974261 2.465054 0.000000 
14.321496 14.098021 0.000000 
16.069073 0.148890 0.000000 
16.299214 0.167277 0.000000 
28.060008 1.656846 0.000000 
10.922874 10.142556 0.000000 
8.961462 5.020899 0.000000 
31.753369 0.995305 0.000000 
12.682542 12.848891 0.000000 
19.586059 8.932835 0.000000 
32.418299 6.272285 0.000000 
3.671790 7.169565 0.000000 
16.295149 8.877869 0.000000 
28.392967 1.742634 0.000000 
24.996032 5.662889 0.000000 
55.568755 1.725532 0.000000 
17.891515 1.138421 0.000000 
13.159106 14.293367 0.000000 
47.562300 3.731059 0.000000 
41.493358 4.543245 0.000000 
19.783015 8.177251 0.000000 
8.930831 7.651260 0.000000 
13.907062 9.796243 0.000000 
41.561147 0.825715 0.000000 
35.200029 2.098204 0.000000 
47.779594 2.349760 0.000000 
6.532369 1.836796 0.000000 
9.648598 13.401617 0.000000 
1.776897 12.353734 0.000000 
1.949087 1.607944 0.000000 
6.636096 13.891445 0.000000 
15.219750 0.867209 0.000000 
16.608043 14.725297 0.000000 
12.363047 14.347334 0.000000 
9.760694 13.702296 0.000000 
27.776762 9.171516 0.000000 
6.896384 14.076174 0.000000 
17.530736 13.987270 0.000000 
47.871553 4.338981 0.000000 
20.674495 5.634080 0.000000 
29.224414 2.901417 0.000000 
14.845023 7.143306 0.000000 
6.870891 8.050269 0.000000 
36.638511 1.613233 0.000000 
38.843781 4.133785 0.000000 
7.094451 8.013339 0.000000 
6.590065 4.829888 0.000000 
6.355192 4.882685 0.000000 
14.663994 5.270610 0.000000 
14.611149 5.541657 0.000000 
17.794468 4.994387 0.000000 
31.288454 4.412483 0.000000 
6.644775 8.087207 0.000000 
17.332978 7.669724 0.000000 
36.830978 1.467162 0.000000 
33.573391 2.244959 0.000000 
36.555763 4.577326 0.000000 
37.244635 4.810376 0.000000 
38.982118 3.942376 0.000000 
5.435894 5.512319 0.000000 
32.973053 1.884155 0.000000 
17.719127 4.752172 0.000000 
34.136200 3.867610 0.000000 
35.852537 2.948943 0.000000 
31.446574 4.615761 0.000000 
31.131112 4.209901 0.000000 
36.445168 1.754978 0.000000 
3.272554 5.928286 0.000000 
6.824912 4.781322 0.000000 
54.400907 4.138130 0.000000 
27.142305 7.675917 0.000000 
39.187715 2.588976 0.000000 
17.274783 3.710437 0.000000 
23.122046 8.787502 0.000000 
38.872539 1.623828 0.000000 
27.374854 7.757819 0.000000 
3.642055 5.142477 0.000000 
14.701474 4.717210 0.000000 
38.705092 4.326495 0.000000 
15.842032 3.058620 0.000000 
3.385369 5.722086 0.000000 
28.082132 5.049542 0.000000 
31.606219 4.823689 0.000000 
17.552210 7.517093 0.000000 
26.187654 6.739285 0.000000 
6.013195 8.151052 0.000000 
26.314943 6.963860 0.000000 
37.708645 1.090251 0.000000 
14.551236 5.808006 0.000000 
14.697676 4.995851 0.000000 
37.026408 1.313631 0.000000 
22.678897 6.329039 0.000000 
30.972596 4.007057 0.000000 
32.762746 1.776289 0.000000 
1.612918 3.644352 0.000000 
17.124603 7.831523 0.000000 
22.884908 8.848338 0.000000 
54.181272 4.243994 0.000000 
8.488951 6.494962 0.000000 
37.506901 4.836547 0.000000 
0.894046 4.853543 0.000000 
8.491134 6.208699 0.000000 
0.962469 4.578673 0.000000 
52.893696 2.318525 0.000000 
3.700563 4.920044 0.000000 
2.169926 6.705619 0.000000 
27.847904 4.927743 0.000000 
5.516073 8.139243 0.000000 
22.206238 8.968844 0.000000 
3.155888 6.134870 0.000000 
5.771095 8.142469 0.000000 
14.448202 12.491446 0.000000 
31.212800 2.071330 0.000000 
7.747816 7.840147 0.000000 
4.951255 6.114929 0.000000 
17.636099 12.321228 0.000000 
31.031876 2.271096 0.000000 
55.181622 3.383497 0.000000 
21.710293 9.004433 0.000000 
28.971748 6.291968 0.000000 
7.067518 4.742551 0.000000 
7.771602 4.799286 0.000000 
15.530805 7.977170 0.000000 
17.851990 12.365403 0.000000 
33.870864 4.616170 0.000000 
15.595551 3.112901 0.000000 
18.789927 12.191568 0.000000 
22.709889 3.637246 0.000000 
24.303453 2.224822 0.000000 
14.672062 4.440241 0.000000 
21.962401 8.984061 0.000000 
19.390892 11.747243 0.000000 
28.305696 5.162841 0.000000 
18.553080 12.305219 0.000000 
21.553923 6.687077 0.000000 
26.715020 4.699811 0.000000 
53.734622 1.785349 0.000000 
4.781711 6.311853 0.000000 
27.901122 7.848077 0.000000 
14.208051 12.502709 0.000000 
34.211348 3.594613 0.000000 
26.047380 6.519829 0.000000 
18.803162 10.075046 0.000000 
17.143460 3.501349 0.000000 
14.682947 12.480552 0.000000 
30.816393 3.804796 0.000000 
19.962792 2.590875 0.000000 
42.415502 3.170859 0.000000 
16.879157 11.810984 0.000000 
27.612818 4.805737 0.000000 
15.273682 12.238965 0.000000 
15.137012 7.572738 0.000000 
3.462519 13.160579 0.000000 
24.404144 2.454345 0.000000 
22.430825 6.316176 0.000000 
52.400609 3.337077 0.000000 
20.006050 2.817245 0.000000 
16.932054 7.999211 0.000000 
29.021664 6.553640 0.000000 
32.050661 5.437078 0.000000 
32.301058 5.558844 0.000000 
15.443550 10.968426 0.000000 
14.881814 10.299256 0.000000 
0.847726 5.419488 0.000000 
4.605239 6.501974 0.000000 
17.529775 10.396706 0.000000 
24.206696 1.995296 0.000000 
52.598546 2.728757 0.000000 
54.629789 4.034816 0.000000 
13.961570 12.509023 0.000000 
22.549050 3.472062 0.000000 
6.107467 4.942672 0.000000 
4.029094 13.381792 0.000000 
23.918344 3.798795 0.000000 
13.308457 10.816901 0.000000 
20.661469 7.497153 0.000000 
17.779090 7.366988 0.000000 
40.683264 2.636378 0.000000 
15.348136 3.158696 0.000000 
28.164131 7.837623 0.000000 
8.503691 5.921590 0.000000 
17.288853 10.501820 0.000000 
39.127430 3.762234 0.000000 
25.895475 6.308438 0.000000 
18.427144 3.510345 0.000000 
1.439600 6.604988 0.000000 
7.694180 11.399536 0.000000 
19.060834 10.126458 0.000000 
31.376539 1.864313 0.000000 
7.195535 10.670380 0.000000 
12.688849 5.500514 0.000000 
38.568572 4.522792 0.000000 
30.838823 2.461740 0.000000 
8.783102 10.026622 0.000000 
4.194869 11.678922 0.000000 
26.092053 4.930537 0.000000 
11.584668 6.193844 0.000000 
3.209278 3.535788 0.000000 
7.304273 10.896752 0.000000 
22.152306 2.912530 0.000000 
19.917484 2.367472 0.000000 
26.907727 7.599687 0.000000 
14.626096 4.164902 0.000000 
42.054900 3.742473 0.000000 
13.715026 12.519561 0.000000 
8.491924 6.787289 0.000000 
53.368394 4.369370 0.000000 
36.248814 1.878586 0.000000 
35.954350 2.437004 0.000000 
42.496987 2.633208 0.000000 
28.944209 6.029161 0.000000 
52.412046 3.559745 0.000000 
7.974028 7.751718 0.000000 
23.163390 6.349758 0.000000 
12.133396 5.940231 0.000000 
52.711775 4.107525 0.000000 
40.987289 3.832768 0.000000 
3.796374 4.463452 0.000000 
8.985120 10.501344 0.000000 
24.025223 8.085799 0.000000 
4.425938 6.692415 0.000000 
15.749791 8.150647 0.000000 
23.892159 6.838439 0.000000 
3.946880 11.640133 0.000000 
10.837898 5.600449 0.000000 
8.879603 10.263742 0.000000 
42.445399 2.074573 0.000000 
11.285076 4.596798 0.000000 
12.280541 3.948350 0.000000 
4.657663 13.296867 0.000000 
16.992199 12.003539 0.000000 
4.693152 11.758211 0.000000 
24.505771 2.683250 0.000000 
19.310320 10.160419 0.000000 
17.411837 12.276378 0.000000 
41.174789 1.815109 0.000000 
18.566335 13.188952 0.000000 
16.768123 11.624892 0.000000 
4.940532 11.795597 0.000000 
18.548061 10.022627 0.000000 
18.748757 14.574468 0.000000 
26.095356 8.667464 0.000000 
22.518510 1.554737 0.000000 
5.705459 12.624125 0.000000 
12.830656 11.609354 0.000000 
23.134941 3.880984 0.000000 
18.234842 2.421598 0.000000 
20.056837 3.040287 0.000000 
25.660034 5.216621 0.000000 
18.866009 3.968859 0.000000 
42.398948 1.812861 0.000000 
34.111908 2.627070 0.000000 
18.997578 14.569555 0.000000 
32.544143 5.691886 0.000000 
26.687736 0.731118 0.000000 
13.047982 4.855697 0.000000 
24.809500 8.501071 0.000000 
23.671568 1.303084 0.000000 
42.094562 1.388942 0.000000 
8.752271 11.658331 0.000000 
26.508165 2.797234 0.000000 
11.404045 4.371424 0.000000 
2.662658 6.592123 0.000000 
4.497906 7.883140 0.000000 
4.965445 8.066706 0.000000 
1.991075 9.339556 0.000000 
21.836870 2.289420 0.000000 
34.290092 3.304142 0.000000 
19.744529 11.377349 0.000000 
2.229787 8.143005 0.000000 
30.630050 2.636875 0.000000 
3.040465 6.347776 0.000000 
15.089451 3.192017 0.000000 
3.937911 3.024301 0.000000 
20.793224 11.990101 0.000000 
26.309463 1.894542 0.000000 
19.241094 11.930801 0.000000 
19.497631 4.145652 0.000000 
21.163680 9.037333 0.000000 
20.727935 8.823569 0.000000 
2.798507 9.040508 0.000000 
12.716207 7.281427 0.000000 
19.798209 10.248972 0.000000 
36.747446 4.693265 0.000000 
29.014186 7.506001 0.000000 
21.328553 12.960501 0.000000 
9.099922 10.739032 0.000000 
6.955826 0.448323 0.000000 
24.868047 8.238675 0.000000 
18.299552 6.648184 0.000000 
14.572867 3.893480 0.000000 
1.752104 9.299752 0.000000 
8.302216 5.022613 0.000000 
9.379717 2.251000 0.000000 
39.017381 1.811358 0.000000 
19.953930 11.214480 0.000000 
18.006164 7.245662 0.000000 
32.131846 1.461684 0.000000 
26.080208 11.467811 0.000000 
15.110253 10.388420 0.000000 
15.391393 10.725194 0.000000 
23.222857 11.024536 0.000000 
15.451579 12.088953 0.000000 
25.820266 7.868286 0.000000 
38.583625 1.237634 0.000000 
2.717324 13.701434 0.000000 
38.190819 1.065077 0.000000 
0.989149 8.537703 0.000000 
8.556191 5.659703 0.000000 
26.302058 11.377808 0.000000 
19.248850 14.566199 0.000000 
26.117030 8.413349 0.000000 
31.522200 1.663727 0.000000 
9.295144 2.518450 0.000000 
8.483984 4.145811 0.000000 
10.421562 12.651148 0.000000 
22.176280 6.301911 0.000000 
43.510890 4.551526 0.000000 
2.498209 8.102839 0.000000 
8.582875 7.056714 0.000000 
33.747813 6.627375 0.000000 
41.149747 3.990223 0.000000 
27.213579 0.908277 0.000000 
21.556659 12.873319 0.000000 
21.773732 9.859318 0.000000 
40.598548 3.306955 0.000000 
1.426366 8.223691 0.000000 
2.507470 14.578800 0.000000 
13.976814 1.731111 0.000000 
12.876563 6.479392 0.000000 
18.066704 12.411177 0.000000 
7.225340 9.493019 0.000000 
26.814563 2.822678 0.000000 
41.853576 3.914574 0.000000 
34.225505 7.417963 0.000000 
6.700798 0.440182 0.000000 
22.235122 1.613775 0.000000 
10.055738 13.148215 0.000000 
7.029161 9.891553 0.000000 
43.771862 4.559503 0.000000 
49.839196 4.086817 0.000000 
8.210388 7.661029 0.000000 
10.499155 13.664686 0.000000 
55.929137 3.764886 0.000000 
5.842773 5.006389 0.000000 
30.324642 0.438943 0.000000 
50.146349 1.745334 0.000000 
34.446958 7.301713 0.000000 
7.202248 0.458223 0.000000 
21.804470 12.552472 0.000000 
37.475684 1.094482 0.000000 
56.228320 4.574591 0.000000 
41.433870 1.430537 0.000000 
49.502653 1.161554 0.000000 
0.936402 6.167442 0.000000 
17.995174 13.965454 0.000000 
21.807876 12.316542 0.000000 
20.618008 0.419228 0.000000 
38.425689 4.719184 0.000000 
18.506595 14.589308 0.000000 
34.000221 7.529112 0.000000 
49.398429 1.809839 0.000000 
9.671818 0.458930 0.000000 
6.365465 2.975752 0.000000 
30.569814 0.433159 0.000000 
20.906037 1.164087 0.000000 
14.666709 10.212610 0.000000 
20.184891 10.464925 0.000000 
25.094251 10.185321 0.000000 
6.748782 1.457024 0.000000 
5.325058 3.575111 0.000000 
23.305665 4.770244 0.000000 
56.841796 3.620696 0.000000 
8.700302 4.247804 0.000000 
22.047000 9.834365 0.000000 
9.419279 0.452983 0.000000 
33.776440 7.645597 0.000000 
18.328495 6.006788 0.000000 
25.313879 10.743429 0.000000 
25.355779 11.067820 0.000000 
28.934666 5.776398 0.000000 
10.512021 2.373280 0.000000 
23.404285 6.361835 0.000000 
8.262192 4.052981 0.000000 
0.463481 2.499167 0.000000 
0.965706 8.980393 0.000000 
25.203254 10.454986 0.000000 
23.632048 8.613220 0.000000 
19.500471 14.563610 0.000000 
24.721661 5.052516 0.000000 
10.305118 2.170929 0.000000 
1.157906 2.890378 0.000000 
27.453681 1.522012 0.000000 
30.879094 1.106018 0.000000 
7.307292 13.790497 0.000000 
50.227635 4.269138 0.000000 
2.759275 14.573725 0.000000 
56.484552 4.567541 0.000000 
20.180201 11.090721 0.000000 
25.716661 7.641220 0.000000 
24.060183 4.645211 0.000000 
45.602711 1.550831 0.000000 
26.524584 11.283233 0.000000 
33.576755 0.435142 0.000000 
56.934200 3.393634 0.000000 
7.555428 13.821190 0.000000 
2.944732 8.278953 0.000000 
3.022491 8.553020 0.000000 
24.581448 5.231268 0.000000 
23.177218 5.456136 0.000000 
35.926524 1.090748 0.000000 
33.834145 0.450830 0.000000 
25.863949 11.573211 0.000000 
54.876156 3.938450 0.000000 
33.375971 1.140601 0.000000 
43.829009 3.525337 0.000000 
23.688403 5.480180 0.000000 
7.324445 4.718945 0.000000 
8.004126 11.746765 0.000000 
11.865959 11.489755 0.000000 
35.713704 3.698912 0.000000 
35.859655 4.068470 0.000000 
59.092883 2.538961 0.000000 
17.285597 8.801183 0.000000 
25.905859 9.863063 0.000000 
8.977878 14.548587 0.000000 
26.485568 10.592492 0.000000 
7.352867 13.121762 0.000000 
7.209649 3.306810 0.000000 
3.136284 13.936591 0.000000 
29.129997 4.614664 0.000000 
23.993234 11.608442 0.000000 
45.020473 2.690737 0.000000 
50.010743 1.931890 0.000000 
44.004188 3.719347 0.000000 
7.867433 3.261099 0.000000 
11.098170 12.678344 0.000000 
0.470210 2.750464 0.000000 
24.036197 10.283907 0.000000 
19.753322 14.562270 0.000000 
3.070228 10.820657 0.000000 
2.363749 10.740480 0.000000 
26.259883 3.928208 0.000000 
5.750140 14.585851 0.000000 
44.026484 4.569563 0.000000 
23.422879 5.457555 0.000000 
45.620557 1.298371 0.000000 
9.174517 0.437420 0.000000 
56.654960 1.802591 0.000000 
9.232648 14.544650 0.000000 
57.326861 1.902089 0.000000 
17.123457 8.961221 0.000000 
51.748488 2.476652 0.000000 
2.772925 2.079035 0.000000 
8.750759 13.884234 0.000000 
58.885084 1.780116 0.000000 
10.590125 11.667472 0.000000 
50.573038 3.566081 0.000000 
16.369150 9.977851 0.000000 
10.088066 1.808716 0.000000 
59.538165 2.266741 0.000000 
2.264421 14.584135 0.000000 
13.712170 6.992135 0.000000 
35.795587 0.440149 0.000000 
49.317874 1.374074 0.000000 
26.657934 7.518417 0.000000 
43.181350 3.553774 0.000000 
7.453123 0.464403 0.000000 
24.872440 4.856506 0.000000 
3.820370 4.215077 0.000000 
12.584868 7.066702 0.000000 
3.653709 13.289667 0.000000 
6.000177 14.586720 0.000000 
10.550271 3.148786 0.000000 
3.206964 11.720726 0.000000 
16.083639 1.268818 0.000000 
21.386431 10.398081 0.000000 
14.938118 9.374048 0.000000 
55.975405 4.581363 0.000000 
43.253328 4.543434 0.000000 
14.437910 6.478074 0.000000 
29.514374 4.568105 0.000000 
18.289129 13.280824 0.000000 
30.332475 3.252021 0.000000 
16.574877 2.956061 0.000000 
59.539596 2.014066 0.000000 
50.347375 1.014283 0.000000 
33.324992 0.430507 0.000000 
10.011695 5.667689 0.000000 
6.809674 13.463484 0.000000 
10.670589 8.721697 0.000000 
10.833783 8.899178 0.000000 
14.551701 8.892976 0.000000 
25.671698 3.126938 0.000000 
58.639507 3.716365 0.000000 
12.064155 7.735826 0.000000 
2.109153 13.767804 0.000000 
30.416305 2.811604 0.000000 
19.905390 13.924518 0.000000 
17.453912 8.648530 0.000000 
7.578877 13.173433 0.000000 
15.081816 12.379313 0.000000 
33.552213 7.764299 0.000000 
25.684851 1.438098 0.000000 
33.155215 1.043622 0.000000 
44.505792 2.936866 0.000000 
14.818030 3.243844 0.000000 
8.035535 3.954422 0.000000 
34.667084 7.181171 0.000000 
18.051153 2.915612 0.000000 
56.528307 1.132528 0.000000 
8.788502 3.275759 0.000000 
33.604364 1.270090 0.000000 
27.167258 4.617527 0.000000 
45.300332 2.968973 0.000000 
58.262739 3.268997 0.000000 
11.047832 2.621423 0.000000 
15.238273 8.813726 0.000000 
5.495103 14.578789 0.000000 
5.095381 10.626737 0.000000 
30.815408 0.441586 0.000000 
53.288148 0.446509 0.000000 
9.937156 0.458774 0.000000 
35.553444 0.460655 0.000000 
6.451678 0.446388 0.000000 
10.777902 2.500711 0.000000 
5.529202 3.743040 0.000000 
3.013922 14.569252 0.000000 
4.379061 3.389179 0.000000 
13.281301 7.589975 0.000000 
16.323006 1.343464 0.000000 
5.924643 2.281733 0.000000 
10.177742 8.648594 0.000000 
44.308782 3.991690 0.000000 
49.955627 3.378604 0.000000 
9.136317 3.958316 0.000000 
3.703471 2.869099 0.000000 
2.975800 12.050582 0.000000 
34.295092 2.762994 0.000000 
2.804194 10.932774 0.000000 
22.310853 9.804783 0.000000 
11.231409 1.762570 0.000000 
10.849317 5.810364 0.000000 
45.729819 0.847666 0.000000 
5.612338 2.582926 0.000000 
29.284056 3.953981 0.000000 
34.670487 6.668875 0.000000 
17.286138 9.450977 0.000000 
20.873206 0.420690 0.000000 
56.806305 1.125150 0.000000 
44.282577 4.575437 0.000000 
55.332619 0.805732 0.000000 
11.366605 6.173098 0.000000 
32.189207 8.400833 0.000000 
55.025274 0.447406 0.000000 
44.967426 1.206177 0.000000 
16.957276 9.117808 0.000000 
13.062824 6.311334 0.000000 
58.668645 3.316731 0.000000 
19.719444 4.176515 0.000000 
7.749673 0.930353 0.000000 
52.464846 2.935448 0.000000 
10.783161 13.629888 0.000000 
58.092196 3.972281 0.000000 
9.378371 1.967975 0.000000 
17.633359 8.501141 0.000000 
11.990946 3.014705 0.000000 
1.688517 11.349112 0.000000 
0.460156 2.251237 0.000000 
20.363261 0.411121 0.000000 
43.292815 1.883283 0.000000 
53.418990 0.963890 0.000000 
10.292323 9.264387 0.000000 
7.701995 0.454260 0.000000 
7.801602 3.870674 0.000000 
15.428246 8.993594 0.000000 
33.326933 7.880118 0.000000 
2.010550 14.585194 0.000000 
30.585228 8.471150 0.000000 
22.353022 10.732066 0.000000 
26.742074 11.174783 0.000000 
16.787070 9.273465 0.000000 
23.588652 4.806706 0.000000 
5.759673 13.806173 0.000000 
11.959364 6.098107 0.000000 
8.419137 3.379640 0.000000 
8.954646 3.095966 0.000000 
9.982596 5.437493 0.000000 
25.652748 11.685049 0.000000 
34.079131 0.451747 0.000000 
8.083096 1.696515 0.000000 
27.053710 3.740634 0.000000 
19.898283 4.034057 0.000000 
26.011458 4.026866 0.000000 
45.665633 1.063164 0.000000 
5.237072 14.562704 0.000000 
8.345549 9.221847 0.000000 
33.071706 0.444280 0.000000 
25.612194 3.727639 0.000000 
47.333277 1.940165 0.000000 
7.373973 3.121653 0.000000 
9.578373 3.136213 0.000000 
15.269223 14.589885 0.000000 
22.661587 12.701264 0.000000 
2.519285 10.925510 0.000000 
6.007295 9.003022 0.000000 
5.432552 13.979144 0.000000 
8.554124 9.340007 0.000000 
16.602630 11.012627 0.000000 
5.135105 3.373487 0.000000 
50.995527 2.007022 0.000000 
53.529403 0.442409 0.000000 
24.249644 10.397526 0.000000 
8.725483 14.558908 0.000000 
57.925331 3.501302 0.000000 
5.661319 9.413112 0.000000 
59.307354 2.657853 0.000000 
56.963068 4.174259 0.000000 
36.055621 0.431599 0.000000 
4.737573 4.209420 0.000000 
9.538530 5.789956 0.000000 
8.927363 0.426360 0.000000 
26.691492 9.398559 0.000000 
45.511940 0.437589 0.000000 
30.749629 8.350547 0.000000 
32.413217 8.324121 0.000000 
3.260691 14.567518 0.000000 
35.644362 6.070154 0.000000 
0.852855 14.150412 0.000000 
7.929591 13.616065 0.000000 
28.928489 4.529480 0.000000 
9.175674 11.346839 0.000000 
29.892620 1.601333 0.000000 
45.256441 1.832690 0.000000 
28.563308 3.419144 0.000000 
17.995863 13.255684 0.000000 
21.942337 1.661819 0.000000 
48.717492 0.796854 0.000000 
9.225328 12.929675 0.000000 
46.745993 1.945879 0.000000 
12.243100 3.086888 0.000000 
48.515935 0.400356 0.000000 
43.545541 1.550793 0.000000 
44.539170 4.575133 0.000000 
11.444021 13.178638 0.000000 
30.292326 5.437712 0.000000 
13.361038 9.090299 0.000000 
15.514911 14.584925 0.000000 
21.277561 4.779096 0.000000 
8.501051 1.803308 0.000000 
3.757927 9.085539 0.000000 
35.169713 0.817325 0.000000 
1.757455 14.578254 0.000000 
30.714349 5.469804 0.000000 
7.549834 3.814844 0.000000 
27.024582 9.773648 0.000000 
5.002019 14.585279 0.000000 
39.265698 3.375324 0.000000 
54.970866 0.981559 0.000000 
4.195289 9.193172 0.000000 
4.846358 9.985456 0.000000 
26.957760 11.056722 0.000000 
4.967216 3.152917 0.000000 
21.703401 11.904374 0.000000 
2.326403 1.892892 0.000000 
9.499618 14.531405 0.000000 
5.066038 14.090605 0.000000 
3.820259 9.828099 0.000000 
35.313410 0.434088 0.000000 
25.439591 11.798383 0.000000 
7.948209 0.451727 0.000000 
1.802051 14.114288 0.000000 
34.376224 0.838356 0.000000 
45.414832 3.226427 0.000000 
15.847535 9.290028 0.000000 
34.326859 0.424566 0.000000 
18.373943 6.867257 0.000000 
19.519696 7.523382 0.000000 
43.676870 3.080161 0.000000 
19.462152 13.093969 0.000000 
15.648458 9.662413 0.000000 
39.857579 4.259592 0.000000 
25.012947 4.670160 0.000000 
12.923699 0.412840 0.000000 
53.769150 0.409717 0.000000 
22.637296 12.937299 0.000000 
57.492606 3.973518 0.000000 
19.252510 4.144666 0.000000 
36.329488 0.844609 0.000000 
11.666043 8.212279 0.000000 
4.029255 14.189167 0.000000 
5.749803 8.999852 0.000000 
0.752477 14.561252 0.000000 
35.763388 5.578998 0.000000 
43.015220 4.573108 0.000000 
0.467074 3.007782 0.000000 
18.260994 14.601343 0.000000 
13.853012 7.207808 0.000000 
13.972124 2.263175 0.000000 
5.057250 4.574889 0.000000 
20.094369 0.792572 0.000000 
10.056377 5.880415 0.000000 
22.887316 13.050319 0.000000 
54.775172 0.464078 0.000000 
24.731767 4.361057 0.000000 
10.862560 5.214426 0.000000 
59.296899 4.249397 0.000000 
9.321284 13.680764 0.000000 
21.595726 4.458557 0.000000 
8.562953 5.126737 0.000000 
31.924632 7.848983 0.000000 
15.244473 2.273194 0.000000 
9.036791 12.514742 0.000000 
43.719604 2.058675 0.000000 
33.365424 6.814271 0.000000 
44.787119 4.567203 0.000000 
4.280795 14.191007 0.000000 
30.583428 7.039394 0.000000 
28.497940 3.022688 0.000000 
56.857074 1.999786 0.000000 
4.755247 14.601546 0.000000 
35.996288 2.197996 0.000000 
43.266508 2.118296 0.000000 
48.512624 4.549215 0.000000 
3.513484 14.578781 0.000000 
31.912058 1.348506 0.000000 
20.385186 12.283083 0.000000 
52.460443 3.780978 0.000000 
22.680388 4.903338 0.000000 
13.718567 2.352779 0.000000 
45.256234 0.449817 0.000000 
13.340316 2.191013 0.000000 
3.497504 9.566039 0.000000 
8.200854 0.471215 0.000000 
32.824249 0.434250 0.000000 
3.783108 14.188009 0.000000 
56.742998 4.564629 0.000000 
1.501933 14.555147 0.000000 
26.821608 9.158807 0.000000 
11.571695 11.876917 0.000000 
30.844483 7.050121 0.000000 
13.036368 12.600524 0.000000 
59.536505 2.523404 0.000000 
42.849350 4.201215 0.000000 
11.290978 10.722917 0.000000 
21.127291 0.412887 0.000000 
4.670431 4.442084 0.000000 
4.832644 14.179785 0.000000 
8.914276 4.356538 0.000000 
59.551950 1.766850 0.000000 
6.239129 14.591768 0.000000 
4.513570 14.596106 0.000000 
9.202779 2.772340 0.000000 
11.783873 14.569814 0.000000 
4.092058 7.360840 0.000000 
8.439752 0.468795 0.000000 
8.682457 0.434699 0.000000 
24.578627 0.418831 0.000000 
4.264729 14.593687 0.000000 
11.590752 14.098873 0.000000 
34.881739 7.058107 0.000000 
16.438666 8.456916 0.000000 
31.068987 0.453780 0.000000 
7.645977 3.126864 0.000000 
25.415292 5.793928 0.000000 
1.008328 14.592276 0.000000 
15.563191 14.128813 0.000000 
1.264051 14.579656 0.000000 
9.249663 12.685068 0.000000 
27.128835 8.852122 0.000000 
1.530839 14.145046 0.000000 
21.379146 0.402389 0.000000 
21.397753 0.800203 0.000000 
4.015526 14.591098 0.000000 
29.039871 4.114367 0.000000 
48.782328 4.555371 0.000000 
3.765754 14.586847 0.000000 
13.873744 1.531759 0.000000 
30.490300 6.639141 0.000000 
20.379451 10.677935 0.000000 
11.513500 14.541606 0.000000 
29.841189 4.025838 0.000000 
20.446565 1.421403 0.000000 
3.034767 1.439330 0.000000 
5.447857 9.294742 0.000000 
10.208020 0.468561 0.000000 
23.123116 12.921509 0.000000 
56.085051 1.289224 0.000000 
34.949286 0.672686 0.000000 
22.671345 5.426456 0.000000 
6.455241 1.394768 0.000000 
31.964195 8.510075 0.000000 
32.640026 8.228315 0.000000 
21.625197 0.393857 0.000000 
1.352109 11.795735 0.000000 
11.269869 3.052462 0.000000 
57.523807 3.767667 0.000000 
11.334675 2.614215 0.000000 
24.945918 6.944329 0.000000 
16.136115 10.079396 0.000000 
6.734634 2.609371 0.000000 
0.450433 10.240148 0.000000 
25.161493 4.165228 0.000000 
13.518345 6.206102 0.000000 
33.097533 7.988365 0.000000 
12.642808 0.797558 0.000000 
43.743242 1.621512 0.000000 
56.539279 2.851399 0.000000 
13.393102 8.455546 0.000000 
18.836167 5.242949 0.000000 
29.078558 1.360537 0.000000 
14.727570 0.430202 0.000000 
21.206645 3.148082 0.000000 
2.200582 10.545058 0.000000 
32.527070 0.715809 0.000000 
33.821058 1.416950 0.000000 
54.255878 0.450731 0.000000 
21.211472 10.239982 0.000000 
15.784590 14.555422 0.000000 
9.066591 8.264557 0.000000 
1.274863 11.147974 0.000000 
29.837590 1.847460 0.000000 
21.866391 0.386384 0.000000 
25.039080 6.671404 0.000000 
35.057802 0.427575 0.000000 
46.731498 2.914673 0.000000 
20.207715 8.026614 0.000000 
32.838787 8.062116 0.000000 
1.330607 1.165865 0.000000 
20.405694 10.953997 0.000000 
23.536624 11.846054 0.000000 
32.684783 7.812799 0.000000 
43.680627 2.729623 0.000000 
8.471567 2.313678 0.000000 
21.649624 0.786961 0.000000 
54.511550 0.450288 0.000000 
36.291033 0.443279 0.000000 
0.978211 13.058576 0.000000 
7.118777 3.765184 0.000000 
1.223244 0.930622 0.000000 
6.680579 2.361433 0.000000 
4.546102 14.181181 0.000000 
31.104257 7.115472 0.000000 
8.496632 0.858680 0.000000 
37.143420 5.966327 0.000000 
11.741203 2.887216 0.000000 
8.806006 13.151790 0.000000 
0.462889 7.463353 0.000000 
28.814604 1.452475 0.000000 
55.282977 0.417732 0.000000 
22.117452 0.423101 0.000000 
29.712559 3.842718 0.000000 
0.437560 14.252374 0.000000 
0.969541 6.410723 0.000000 
24.854689 3.369596 0.000000 
32.393353 7.895551 0.000000 
22.170235 0.691103 0.000000 
29.028555 1.604563 0.000000 
13.178397 0.745487 0.000000 
45.252211 3.439121 0.000000 
6.440685 11.084062 0.000000 
46.922920 3.256139 0.000000 
25.813477 2.614693 0.000000 
21.902639 0.770598 0.000000 
19.196487 8.862117 0.000000 
13.178946 0.471123 0.000000 
56.146053 1.545334 0.000000 
0.631311 10.826489 0.000000 
10.128077 12.926637 0.000000 
27.838988 10.556624 0.000000 
54.019040 0.422333 0.000000 
9.545948 12.353024 0.000000 
22.379860 0.476835 0.000000 
4.901843 4.777154 0.000000 
3.909353 1.470351 0.000000 
6.863516 11.790588 0.000000 
40.248867 4.293039 0.000000 
57.332401 1.097581 0.000000 
18.142824 8.513286 0.000000 
22.878656 12.559043 0.000000 
47.340597 4.077360 0.000000 
25.776482 4.128887 0.000000 
22.742999 9.981761 0.000000 
17.161709 12.208283 0.000000 
10.978562 1.285933 0.000000 
17.588359 1.788496 0.000000 
15.558496 1.307102 0.000000 
0.638406 7.242989 0.000000 
41.703751 1.152498 0.000000 
1.050949 13.320308 0.000000 
4.536519 4.903706 0.000000 
42.471988 0.665497 0.000000 
8.474590 14.576732 0.000000 
11.921590 7.547139 0.000000 
34.574861 0.420182 0.000000 
45.946783 4.306321 0.000000 
4.178633 0.798162 0.000000 
12.128736 13.362649 0.000000 
14.468351 0.438931 0.000000 
11.619514 1.790153 0.000000 
48.247210 1.878388 0.000000 
1.248675 13.153636 0.000000 
12.003387 11.267057 0.000000 
35.099451 6.942254 0.000000 
18.156161 9.966194 0.000000 
13.691571 8.898081 0.000000 
0.419510 10.479253 0.000000 
20.935365 3.279118 0.000000 
11.889447 1.316822 0.000000 
43.188098 1.644969 0.000000 
6.658150 11.984257 0.000000 
44.405930 2.715626 0.000000 
48.857649 0.625414 0.000000 
45.789246 4.544042 0.000000 
50.737834 2.684463 0.000000 
27.173052 10.881127 0.000000 
8.155258 0.865543 0.000000 
20.607538 1.635147 0.000000 
5.245421 9.189434 0.000000 
49.719370 3.494354 0.000000 
10.015541 3.091156 0.000000 
32.552689 0.456126 0.000000 
24.503349 5.655096 0.000000 
11.595179 2.645804 0.000000 
23.645268 6.373348 0.000000 
6.685728 3.713382 0.000000 
20.244664 14.447298 0.000000 
5.690287 4.143250 0.000000 
3.923239 0.758514 0.000000 
42.302941 1.551473 0.000000 
16.278146 9.340291 0.000000 
12.347273 13.456085 0.000000 
30.046574 1.977116 0.000000 
9.745189 14.541509 0.000000 
59.136270 4.392703 0.000000 
1.488764 2.023134 0.000000 
28.101746 10.488230 0.000000 
14.496005 0.882558 0.000000 
45.176073 4.347246 0.000000 
43.314587 2.778046 0.000000 
9.323325 12.194753 0.000000 
19.358640 7.755610 0.000000 
42.680852 0.730516 0.000000 
25.366593 4.057769 0.000000 
45.037864 4.567230 0.000000 
20.873759 2.850539 0.000000 
48.278612 0.425204 0.000000 
12.688862 0.388629 0.000000 
21.173001 9.846467 0.000000 
51.529918 4.581498 0.000000 
55.724469 4.586838 0.000000 
13.061202 5.122832 0.000000 
9.384620 7.896871 0.000000 
37.181005 5.707623 0.000000 
25.042058 11.765866 0.000000 
23.898591 8.560973 0.000000 
42.595666 0.469593 0.000000 
39.686718 4.424404 0.000000 
14.250426 3.261035 0.000000 
22.574444 9.772048 0.000000 
45.418241 4.345510 0.000000 
39.310729 0.385531 0.000000 
36.457207 0.655245 0.000000 
7.041882 3.497796 0.000000 
27.439509 10.788956 0.000000 
24.786203 6.706477 0.000000 
42.765437 4.590834 0.000000 
43.361026 2.337151 0.000000 
1.311882 9.854743 0.000000 
21.394031 3.378886 0.000000 
5.949670 4.068524 0.000000 
45.282327 4.564215 0.000000 
3.487632 10.669158 0.000000 
30.079839 6.965459 0.000000 
22.986357 9.885761 0.000000 
27.662844 10.726822 0.000000 
6.487160 14.560588 0.000000 
1.107403 14.199394 0.000000 
59.211687 4.601124 0.000000 
48.876660 2.952896 0.000000 
20.113093 0.403663 0.000000 
49.686848 3.932899 0.000000 
0.427141 9.993922 0.000000 
33.212280 5.881784 0.000000 
20.780523 2.403753 0.000000 
45.660364 2.104804 0.000000 
31.745404 8.622318 0.000000 
48.522719 1.913149 0.000000 
0.441927 2.019312 0.000000 
30.076014 6.529737 0.000000 
20.882957 5.830259 0.000000 
48.479847 1.511110 0.000000 
56.999180 2.883976 0.000000 
36.192813 5.607875 0.000000 
14.217078 0.439109 0.000000 
34.824121 0.435251 0.000000 
19.143745 7.286447 0.000000 
4.301786 0.611337 0.000000 
12.674573 3.373904 0.000000 
14.910191 2.129206 0.000000 
39.901102 4.557582 0.000000 
19.025125 8.279753 0.000000 
11.238381 14.533444 0.000000 
24.334346 0.426505 0.000000 
5.056460 1.111941 0.000000 
20.425447 14.083544 0.000000 
22.648597 4.344637 0.000000 
24.757764 6.275649 0.000000 
4.216197 1.197732 0.000000 
15.601746 2.021915 0.000000 
12.472524 6.822399 0.000000 
8.891311 1.030977 0.000000 
21.108546 5.758439 0.000000 
28.726463 4.419834 0.000000 
2.767836 8.069686 0.000000 
49.978111 4.272776 0.000000 
6.568077 11.324296 0.000000 
30.357495 5.174258 0.000000 
14.784933 8.534805 0.000000 
22.632982 0.598510 0.000000 
15.015717 14.601245 0.000000 
18.740847 5.881024 0.000000 
36.974781 5.631999 0.000000 
5.272779 10.396957 0.000000 
57.052607 3.147596 0.000000 
9.492200 8.160968 0.000000 
14.158052 2.095490 0.000000 
44.831426 4.136997 0.000000 
4.461472 9.930833 0.000000 
9.530854 6.292596 0.000000 
44.973648 1.727180 0.000000 
10.184698 11.268405 0.000000 
55.348532 1.210594 0.000000 
49.053039 4.556549 0.000000 
6.338499 10.850654 0.000000 
10.926990 3.316154 0.000000 
40.205349 4.553928 0.000000 
10.158670 10.787701 0.000000 
25.168921 4.439351 0.000000 
59.553778 4.277544 0.000000 
19.127117 8.612801 0.000000 
3.014202 1.911174 0.000000 
17.927323 14.405884 0.000000 
12.137223 9.243026 0.000000 
19.262383 12.921578 0.000000 
11.407561 12.927626 0.000000 
13.780042 1.165366 0.000000 
4.672700 8.085654 0.000000 
50.455727 4.322172 0.000000 
9.655458 7.945032 0.000000 
9.315066 8.387620 0.000000 
11.936881 13.839940 0.000000 
21.994381 11.092045 0.000000 
6.432120 11.565493 0.000000 
20.962549 2.249384 0.000000 
5.251299 10.032378 0.000000 
24.931300 0.606743 0.000000 
18.749519 0.583647 0.000000 
2.954468 1.043071 0.000000 
48.241457 1.194699 0.000000 
17.087332 13.042996 0.000000 
10.072095 9.034232 0.000000 
51.354377 3.038959 0.000000 
10.297964 11.746984 0.000000 
2.923667 6.568108 0.000000 
0.599877 0.157929 0.000000 
9.132038 4.475571 0.000000 
13.585980 0.537669 0.000000 
32.324681 0.601721 0.000000 
53.032320 0.429492 0.000000 
2.018962 10.367808 0.000000 
34.430231 6.287844 0.000000 
32.951272 7.426037 0.000000 
43.769255 0.727959 0.000000 
20.664909 1.912914 0.000000 
48.269316 2.297932 0.000000 
8.556611 12.787825 0.000000 
13.143138 8.539635 0.000000 
14.989228 0.407417 0.000000 
35.696262 1.235172 0.000000 
8.873991 8.593606 0.000000 
21.672803 10.942093 0.000000 
10.730125 7.132819 0.000000 
28.080440 10.083628 0.000000 
6.219487 0.425120 0.000000 
20.604451 6.408107 0.000000 
29.886789 6.356764 0.000000 
13.270428 1.745676 0.000000 
0.258235 9.144516 0.000000 
22.701765 13.190666 0.000000 
0.472477 14.528214 0.000000 
59.582079 4.550923 0.000000 
20.879309 3.564344 0.000000 
3.671674 9.346254 0.000000 
9.978266 6.110499 0.000000 
42.811057 0.368245 0.000000 
20.885418 9.042919 0.000000 
2.522522 13.489541 0.000000 
36.948262 6.080869 0.000000 
58.120574 4.811140 0.000000 
9.931103 4.797705 0.000000 
2.285018 12.828528 0.000000 
6.061271 9.715501 0.000000 
34.479297 2.890340 0.000000 
10.008879 14.538067 0.000000 
48.780113 2.565171 0.000000 
40.294604 0.812111 0.000000 
17.922163 2.732099 0.000000 
31.475939 6.578507 0.000000 
39.335781 0.767539 0.000000 
16.025799 14.427488 0.000000 
10.230640 3.746600 0.000000 
10.492504 0.487721 0.000000 
11.805620 8.639435 0.000000 
56.233424 2.571962 0.000000 
47.964293 2.920386 0.000000 
6.716492 11.547641 0.000000 
8.849375 7.431937 0.000000 
8.699191 7.678580 0.000000 
11.000680 14.404402 0.000000 
20.893214 9.866637 0.000000 
10.018193 4.117032 0.000000 
41.632445 4.355410 0.000000 
41.345301 4.373806 0.000000 
13.820948 9.337947 0.000000 
35.156500 6.661441 0.000000 
40.170913 1.049871 0.000000 
44.069122 1.800696 0.000000 
10.762860 0.413282 0.000000 
23.068236 9.646154 0.000000 
28.293158 4.375712 0.000000 
24.586899 6.088834 0.000000 
29.293787 8.552253 0.000000 
51.120771 0.623985 0.000000 
58.362795 2.231699 0.000000 
59.523385 2.788541 0.000000 
10.461546 7.131477 0.000000 
46.272903 3.605591 0.000000 
45.775813 0.446047 0.000000 
6.689005 12.255380 0.000000 
4.901422 8.960340 0.000000 
13.305125 13.442762 0.000000 
12.455772 2.387399 0.000000 
46.149699 2.304219 0.000000 
2.356057 13.072364 0.000000 
16.072086 2.175628 0.000000 
23.365911 12.777999 0.000000 
13.571930 13.436347 0.000000 
31.668544 1.211509 0.000000 
6.110249 9.985865 0.000000 
48.983246 2.683640 0.000000 
44.203884 0.801959 0.000000 
43.135179 1.415277 0.000000 
22.021046 3.849443 0.000000 
8.840913 5.229986 0.000000 
0.469143 3.265572 0.000000 
19.275620 5.094165 0.000000 
59.337010 0.478349 0.000000 
29.670848 2.330218 0.000000 
20.341487 6.413974 0.000000 
46.026722 4.537883 0.000000 
57.762794 1.428729 0.000000 
46.326297 2.771413 0.000000 
9.516764 4.794161 0.000000 
44.475414 1.816852 0.000000 
5.922248 11.160373 0.000000 
20.890662 10.774816 0.000000 
25.076290 11.498858 0.000000 
24.686747 10.961614 0.000000 
51.774448 4.582973 0.000000 
59.511110 3.062030 0.000000 
59.603941 4.017025 0.000000 
22.504720 13.322995 0.000000 
21.741717 4.947529 0.000000 
18.454897 7.258796 0.000000 
58.045083 0.418781 0.000000 
10.246761 14.542412 0.000000 
26.165666 8.136954 0.000000 
18.618200 0.312769 0.000000 
51.186644 1.780794 0.000000 
19.076640 6.110333 0.000000 
25.316396 0.406983 0.000000 
42.998903 0.989993 0.000000 
17.033772 2.160626 0.000000 
8.234129 14.594859 0.000000 
31.338101 0.471273 0.000000 
39.886628 2.652844 0.000000 
16.659150 1.053111 0.000000 
28.112990 0.457536 0.000000 
10.526244 8.316427 0.000000 
55.985035 2.183965 0.000000 
24.136730 1.298199 0.000000 
17.105870 14.284319 0.000000 
11.712492 13.648546 0.000000 
5.081579 13.424525 0.000000 
6.351777 10.367560 0.000000 
31.624665 0.489509 0.000000 
51.876732 0.263473 0.000000 
33.920917 5.083808 0.000000 
29.813540 2.115645 0.000000 
58.647676 1.142549 0.000000 
50.204465 0.852222 0.000000 
53.784417 4.550488 0.000000 
52.913339 4.548899 0.000000 
13.976670 7.430883 0.000000 
4.591286 3.794697 0.000000 
23.800511 12.228604 0.000000 
10.770214 14.526523 0.000000 
57.005753 4.544675 0.000000 
19.427881 1.346562 0.000000 
28.614526 8.437898 0.000000 
15.930590 12.537602 0.000000 
31.789129 5.338668 0.000000 
26.224016 0.465077 0.000000 
25.695995 0.601523 0.000000 
6.740598 14.501351 0.000000 
14.294967 9.333035 0.000000 
15.631330 11.939443 0.000000 
55.472318 4.587446 0.000000 
23.810419 10.157592 0.000000 
21.718892 6.300670 0.000000 
3.035214 13.103206 0.000000 
2.847557 12.551782 0.000000 
32.338630 6.906971 0.000000 
0.883884 7.317270 0.000000 
14.908091 1.533629 0.000000 
1.697828 0.956930 0.000000 
13.618973 5.929880 0.000000 
23.304837 1.010692 0.000000 
28.672761 9.428994 0.000000 
5.961082 13.463511 0.000000 
30.238064 6.025531 0.000000 
46.734238 4.405072 0.000000 
5.768691 13.039073 0.000000 
3.007367 3.349326 0.000000 
27.308577 3.696586 0.000000 
10.050200 10.534164 0.000000 
12.876313 10.987904 0.000000 
29.674562 9.660504 0.000000 
1.851433 7.455215 0.000000 
10.114959 1.368997 0.000000 
4.648064 8.987546 0.000000 
17.767595 1.582771 0.000000 
17.287272 0.214697 0.000000 
54.485295 1.497625 0.000000 
11.261016 9.128162 0.000000 
19.153017 0.440517 0.000000 
57.370561 2.880595 0.000000 
59.562188 1.521886 0.000000 
12.577550 14.489463 0.000000 
37.676744 0.224488 0.000000 
10.699844 4.036851 0.000000 
52.196506 1.851113 0.000000 
55.285606 2.158584 0.000000 
19.865133 0.400435 0.000000 
27.508202 1.983117 0.000000 
38.440727 1.038971 0.000000 
24.267690 7.686859 0.000000 
11.090599 11.771602 0.000000 
8.435890 1.575816 0.000000 
48.823569 3.634124 0.000000 
25.330186 2.308557 0.000000 
28.312265 0.664006 0.000000 
7.067585 8.625284 0.000000 
1.581286 10.244002 0.000000 
23.606728 9.510119 0.000000 
3.546919 11.374147 0.000000 
29.445547 9.772949 0.000000 
30.016379 4.225970 0.000000 
11.193712 0.440376 0.000000 
38.870319 5.332502 0.000000 
6.082279 0.806451 0.000000 
21.509461 1.410950 0.000000 
27.850396 4.151774 0.000000 
12.270739 14.625123 0.000000 
12.786277 9.655733 0.000000 
3.650368 2.368328 0.000000 
3.912494 8.597174 0.000000 
12.461772 1.966505 0.000000 
18.925349 0.824506 0.000000 
23.356800 12.507451 0.000000 
9.639689 9.575905 0.000000 
59.010388 4.568187 0.000000 
17.452277 2.262773 0.000000 
23.827895 0.435436 0.000000 
55.523463 2.676756 0.000000 
9.498645 10.963173 0.000000 
40.013015 2.010030 0.000000 
5.553339 5.063618 0.000000 
34.136848 5.978452 0.000000 
13.609495 14.364679 0.000000 
5.544542 2.851078 0.000000 
24.463537 9.078972 0.000000 
18.740149 4.971852 0.000000 
4.436112 5.387425 0.000000 
28.677813 1.044561 0.000000 
28.188165 8.749670 0.000000 
24.259428 1.547031 0.000000 
0.990531 8.085804 0.000000 
11.041615 6.833714 0.000000 
0.457795 11.984504 0.000000 
35.023835 1.776628 0.000000 
22.551638 11.132400 0.000000 
37.843031 5.558353 0.000000 
10.215724 7.022414 0.000000 
24.061054 5.712269 0.000000 
19.702999 6.996279 0.000000 
12.576491 9.463042 0.000000 
6.291391 9.022671 0.000000 
3.435542 0.932044 0.000000 
22.999462 10.616512 0.000000 
52.833979 0.853910 0.000000 
2.332483 3.193576 0.000000 
0.237854 6.116500 0.000000 
45.784915 1.898160 0.000000 
30.515968 4.514576 0.000000 
49.557492 2.944310 0.000000 
34.924106 4.446146 0.000000 
1.151837 3.659244 0.000000 
41.073534 4.755096 0.000000 
12.617834 12.429805 0.000000 
7.413139 9.114533 0.000000 
48.048625 0.455594 0.000000 
24.166047 9.404241 0.000000 
29.049880 8.489657 0.000000 
51.592523 3.474747 0.000000 
28.831809 9.301195 0.000000 
0.825742 1.905362 0.000000 
39.449402 2.980951 0.000000 
29.554805 5.018869 0.000000 
29.991575 4.940221 0.000000 
19.959031 9.413435 0.000000 
28.591938 8.037138 0.000000 
1.081452 10.269464 0.000000 
54.803988 4.739728 0.000000 
19.270331 5.522240 0.000000 
26.203774 10.228721 0.000000 
40.319594 2.863338 0.000000 
2.084305 11.455759 0.000000 
1.999086 12.007788 0.000000 
46.483614 0.651182 0.000000 
14.285180 6.226982 0.000000 
0.946890 1.340623 0.000000 
3.652729 1.882125 0.000000 
35.572722 3.296038 0.000000 
7.527890 8.600262 0.000000 
1.341350 7.310519 0.000000 
36.108767 6.164170 0.000000 
25.290595 5.358363 0.000000 
36.617256 5.611792 0.000000 
18.820677 8.260697 0.000000 
7.937106 2.338167 0.000000 
13.781857 10.216507 0.000000 
14.286725 10.045246 0.000000 
26.382809 7.433088 0.000000 
25.705034 7.191143 0.000000 
19.640934 4.837402 0.000000 
57.107884 2.322199 0.000000 
16.794373 8.396093 0.000000 
1.317664 12.201575 0.000000 
23.909241 9.515013 0.000000 
21.491990 5.943984 0.000000 
29.598415 0.436984 0.000000 
0.851156 4.109035 0.000000 
24.258929 7.119413 0.000000 
8.076323 8.402181 0.000000 
15.947792 8.567812 0.000000 
24.320431 4.323645 0.000000 
27.863212 3.240300 0.000000 
24.797185 3.611792 0.000000 
12.501186 11.932901 0.000000 
9.163739 6.126692 0.000000 
29.061962 10.138667 0.000000 
28.387425 0.427790 0.000000 
7.398850 1.762529 0.000000 
19.108559 7.691081 0.000000 
32.794653 6.076416 0.000000 
42.291549 4.530165 0.000000 
3.254904 2.589720 0.000000 
10.101997 7.846744 0.000000 
51.023314 3.766024 0.000000 
54.974119 1.758495 0.000000 
24.642172 11.483132 0.000000 
20.837234 5.425969 0.000000 
36.013256 4.430040 0.000000 
36.174730 4.557211 0.000000 
13.389610 2.751094 0.000000 
13.157408 4.144728 0.000000 
30.173268 9.431732 0.000000 
16.257384 13.496932 0.000000 
3.798032 3.707243 0.000000 
3.626492 3.585666 0.000000 
13.109543 3.945274 0.000000 
13.592349 3.430821 0.000000 
12.667529 3.775132 0.000000 
29.466071 7.333521 0.000000 
44.481727 3.362883 0.000000 
21.808102 3.652801 0.000000 
0.598006 8.771440 0.000000 
18.308957 1.927607 0.000000 
16.882172 10.429851 0.000000 
16.688697 10.506281 0.000000 
34.573308 4.711080 0.000000 
4.013593 6.860227 0.000000 
13.235095 14.731173 0.000000 
28.132611 2.784053 0.000000 
25.387299 1.078526 0.000000 
12.897205 3.810390 0.000000 
2.152734 1.729395 0.000000 
30.803413 1.544218 0.000000 
31.286130 0.919841 0.000000 
51.295759 1.542496 0.000000 
24.744869 7.805885 0.000000 
4.103157 7.725066 0.000000 
24.381866 9.763649 0.000000 
10.949198 3.741259 0.000000 
46.021548 0.425715 0.000000 
6.831440 10.277259 0.000000 
2.084218 0.265546 0.000000 
0.476495 3.523868 0.000000 
37.889731 5.088913 0.000000 
29.967324 0.227535 0.000000 
7.455575 2.328779 0.000000 
49.941228 2.677390 0.000000 
11.363749 3.935600 0.000000 
1.805891 7.971276 0.000000 
21.369759 11.586410 0.000000 
21.273921 11.154675 0.000000 
28.729283 5.147683 0.000000 
0.443572 11.177874 0.000000 
44.523396 1.405449 0.000000 
28.340658 2.330293 0.000000 
53.827067 1.032140 0.000000 
54.019325 1.442924 0.000000 
53.085952 1.299760 0.000000 
53.282582 1.725346 0.000000 
51.034491 4.582563 0.000000 
12.965503 1.116081 0.000000 
52.611885 1.517595 0.000000 
10.955146 9.939004 0.000000 
30.869057 7.743104 0.000000 
14.569797 13.119252 0.000000 
1.602890 2.907591 0.000000 
1.848873 3.260149 0.000000 
0.928803 3.281908 0.000000 
46.265753 1.484327 0.000000 
0.495492 11.372476 0.000000 
47.962925 3.724993 0.000000 
0.389221 9.381857 0.000000 
29.065388 0.451296 0.000000 
9.634139 14.001539 0.000000 
5.029994 5.679679 0.000000 
20.648700 4.792665 0.000000 
25.046152 1.698678 0.000000 
19.650129 9.397360 0.000000 
47.415849 0.713239 0.000000 
5.898851 3.189025 0.000000 
10.397048 0.950791 0.000000 
4.555523 1.543302 0.000000 
44.872702 0.670672 0.000000 
13.398590 13.890817 0.000000 
17.110672 3.061970 0.000000 
26.716748 8.675252 0.000000 
48.990926 0.437313 0.000000 
34.755828 1.400557 0.000000 
56.973824 0.470367 0.000000 
3.846089 1.020427 0.000000 
29.459827 3.531982 0.000000 
6.778339 9.531232 0.000000 
10.885007 7.623327 0.000000 
29.744294 6.734167 0.000000 
29.333031 6.861038 0.000000 
10.681978 10.494350 0.000000 
34.274348 1.285086 0.000000 
51.389289 3.949125 0.000000 
12.866328 7.971486 0.000000 
13.619975 3.149313 0.000000 
19.544032 5.070407 0.000000 
52.129386 0.226512 0.000000 
8.470916 11.956418 0.000000 
8.614819 12.379675 0.000000 
11.876611 0.815535 0.000000 
11.609299 0.486595 0.000000 
17.458850 14.291506 0.000000 
58.868197 0.242385 0.000000 
18.340657 8.997883 0.000000 
8.043521 12.616765 0.000000 
55.146766 3.833915 0.000000 
55.531361 3.143372 0.000000 
55.576871 4.013270 0.000000 
56.195777 0.871391 0.000000 
32.962626 6.937046 0.000000 
5.019969 2.236629 0.000000 
50.588973 2.213536 0.000000 
7.959466 13.032973 0.000000 
10.464200 10.033441 0.000000 
50.326622 2.805142 0.000000 
20.582169 13.373379 0.000000 
20.283542 8.677703 0.000000 
46.012981 3.640668 0.000000 
18.870854 12.843610 0.000000 
29.585703 0.862618 0.000000 
0.170438 12.623277 0.000000 
3.746231 10.242060 0.000000 
15.536949 10.319955 0.000000 
1.077941 9.843403 0.000000 
2.426448 2.715653 0.000000 
31.529957 7.045657 0.000000 
14.453291 6.946640 0.000000 
14.368561 7.595858 0.000000 
58.298955 2.644196 0.000000 
15.222680 9.728702 0.000000 
20.274955 7.648717 0.000000 
19.951396 7.358431 0.000000 
9.067858 1.537372 0.000000 
45.918529 2.811013 0.000000 
22.065045 5.500103 0.000000 
15.371758 1.661661 0.000000 
38.245803 5.630156 0.000000 
24.029294 12.699208 0.000000 
28.742540 10.386896 0.000000 
2.928916 2.814078 0.000000 
17.636421 14.774105 0.000000 
52.124151 4.790842 0.000000 
3.331667 0.205460 0.000000 
0.202909 4.121086 0.000000 
4.835038 0.266989 0.000000 
0.227555 8.132665 0.000000 
38.680306 0.197482 0.000000 
46.338697 4.771056 0.000000 
4.056697 6.167402 0.000000 
13.899198 5.016955 0.000000 
2.569457 11.331858 0.000000 
33.554848 5.714793 0.000000 
33.770196 6.176603 0.000000 
41.659973 0.210394 0.000000 
10.430244 4.721295 0.000000 
14.992443 14.028562 0.000000 
18.260446 5.770590 0.000000 
18.651650 5.657202 0.000000 
47.575595 4.565668 0.000000 
11.945374 3.655433 0.000000 
52.128347 2.257161 0.000000 
10.895135 4.793025 0.000000 
12.780821 14.204968 0.000000 
26.696752 4.035374 0.000000 
6.322676 9.301657 0.000000 
34.867359 6.009145 0.000000 
13.095820 3.381204 0.000000 
19.811402 1.579220 0.000000 
20.069857 1.186539 0.000000 
21.991261 4.522975 0.000000 
15.311475 13.098225 0.000000 
21.383787 13.824962 0.000000 
2.732034 10.093310 0.000000 
51.666537 1.840036 0.000000 
18.139244 9.181528 0.000000 
18.116096 5.294330 0.000000 
27.335621 3.237002 0.000000 
3.062207 9.731366 0.000000 
15.125350 13.659187 0.000000 
13.195336 5.891281 0.000000 
28.904564 2.792694 0.000000 
24.370232 3.819929 0.000000 
7.762828 14.504796 0.000000 
58.049634 0.849360 0.000000 
17.741088 9.476127 0.000000 
17.771623 10.013193 0.000000 
0.664939 5.832344 0.000000 
23.015505 11.888191 0.000000 
6.877177 8.650544 0.000000 
0.227584 8.605999 0.000000 
23.609728 10.262372 0.000000 
5.983129 1.603370 0.000000 
58.401138 4.058478 0.000000 
9.378409 3.545287 0.000000 
18.001720 0.742389 0.000000 
20.469758 5.616282 0.000000 
0.396464 11.771924 0.000000 
29.338785 0.429982 0.000000 
22.488115 11.928034 0.000000 
22.980806 11.391460 0.000000 
20.210001 5.345004 0.000000 
9.235961 7.098468 0.000000 
20.410449 9.500789 0.000000 
47.294233 2.653429 0.000000 
35.963268 6.775222 0.000000 
15.635487 2.457638 0.000000 
12.428613 9.217771 0.000000 
34.234672 4.316599 0.000000 
19.775133 13.425707 0.000000 
20.132073 13.130651 0.000000 
3.677353 6.536862 0.000000 
46.335046 1.031505 0.000000 
15.745287 0.663787 0.000000 
1.476683 7.564355 0.000000 
34.944867 5.466170 0.000000 
29.341675 4.957303 0.000000 
57.882352 4.786889 0.000000 
21.513294 5.144258 0.000000 
2.244092 10.011811 0.000000 
15.774009 11.539551 0.000000 
39.222994 0.973134 0.000000 
5.430811 11.233226 0.000000 
7.827046 12.569760 0.000000 
5.328521 0.263474 0.000000 
12.098729 10.241531 0.000000 
0.219584 4.870686 0.000000 
18.060066 3.327160 0.000000 
48.265276 4.561370 0.000000 
29.714827 9.379563 0.000000 
2.414503 11.721452 0.000000 
43.355162 0.220920 0.000000 
41.912352 4.760606 0.000000 
30.405372 3.676991 0.000000 
14.515160 8.496709 0.000000 
1.356434 9.450426 0.000000 
21.556046 2.013246 0.000000 
21.089711 1.858798 0.000000 
14.980201 1.774061 0.000000 
12.593096 2.838530 0.000000 
4.885682 2.696197 0.000000 
5.927844 11.409968 0.000000 
5.572451 11.742740 0.000000 
1.521566 13.255668 0.000000 
31.496882 7.900526 0.000000 
13.067611 13.484192 0.000000 
16.837620 14.518364 0.000000 
59.006632 0.620277 0.000000 
11.347347 10.094724 0.000000 
12.554243 5.892405 0.000000 
22.281703 11.514327 0.000000 
24.935684 2.105759 0.000000 
1.125155 0.550807 0.000000 
38.284660 4.919216 0.000000 
34.303283 5.281010 0.000000 
4.389784 5.801955 0.000000 
16.124279 14.816276 0.000000 
22.579468 10.376542 0.000000 
13.639752 7.619043 0.000000 
18.578699 4.547565 0.000000 
2.833290 0.211159 0.000000 
16.112730 2.387696 0.000000 
16.167644 2.777692 0.000000 
48.425703 3.668908 0.000000 
21.989635 12.907376 0.000000 
5.498627 2.138256 0.000000 
0.214315 14.615959 0.000000 
59.623309 4.788713 0.000000 
59.794332 0.380731 0.000000 
13.891666 13.151136 0.000000 
0.760896 12.274072 0.000000 
24.997535 3.546993 0.000000 
23.584829 0.432096 0.000000 
35.464620 5.244376 0.000000 
19.683516 12.396205 0.000000 
3.132706 7.577808 0.000000 
0.382490 0.216363 0.000000 
9.741787 10.100481 0.000000 
16.575910 0.209773 0.000000 
18.987418 1.343159 0.000000 
6.513745 13.193142 0.000000 
50.904300 3.960073 0.000000 
24.508718 12.253103 0.000000 
37.921551 0.215925 0.000000 
20.741467 4.110511 0.000000 
13.374689 12.762687 0.000000 
4.625750 10.629108 0.000000 
2.354338 12.376123 0.000000 
15.737323 11.297264 0.000000 
7.806665 13.831875 0.000000 
11.912976 9.401495 0.000000 
11.550518 9.677902 0.000000 
31.336948 5.567408 0.000000 
35.240543 2.706971 0.000000 
1.034291 9.209924 0.000000 
0.408723 0.467285 0.000000 
49.753216 0.412858 0.000000 
21.388828 4.138174 0.000000 
33.389651 1.868364 0.000000 
40.783157 1.987444 0.000000 
19.487592 6.164519 0.000000 
31.538990 8.744316 0.000000 
20.546601 3.799202 0.000000 
20.164860 3.728346 0.000000 
5.158932 1.787985 0.000000 
22.458297 5.262879 0.000000 
52.789017 0.425569 0.000000 
7.550122 1.323697 0.000000 
21.053731 13.268471 0.000000 
24.760017 12.146081 0.000000 
1.359031 1.551520 0.000000 
6.855305 12.787125 0.000000 
25.486031 6.156390 0.000000 
12.548454 10.234117 0.000000 
11.255126 10.294187 0.000000 
12.190586 6.854387 0.000000 
11.986829 1.560511 0.000000 
5.957855 12.349129 0.000000 
0.653769 7.678939 0.000000 
2.767749 11.704510 0.000000 
13.706622 3.998110 0.000000 
57.213498 0.443214 0.000000 
51.474087 0.424676 0.000000 
12.040214 14.598559 0.000000 
9.219278 9.478086 0.000000 
8.849958 9.607543 0.000000 
9.881037 10.309645 0.000000 
44.808286 2.380509 0.000000 
7.213309 14.592013 0.000000 
27.892899 2.347815 0.000000 
22.840312 1.212784 0.000000 
11.965568 2.411028 0.000000 
2.782028 7.431413 0.000000 
1.543921 9.858298 0.000000 
26.232091 9.036646 0.000000 
0.398470 12.226767 0.000000 
56.034316 0.431168 0.000000 
34.166811 1.951310 0.000000 
51.199945 1.364608 0.000000 
27.537089 2.582266 0.000000 
22.586393 9.136223 0.000000 
22.529703 11.646361 0.000000 
12.974399 14.400860 0.000000 
9.385954 9.916501 0.000000 
13.192518 9.924775 0.000000 
7.470659 8.155554 0.000000 
30.099119 5.828280 0.000000 
10.227314 8.277696 0.000000 
25.325949 2.925327 0.000000 
24.845593 2.939198 0.000000 
7.179115 12.395021 0.000000 
6.354857 8.356540 0.000000 
35.997254 6.323363 0.000000 
13.668532 13.959967 0.000000 
33.969881 2.259639 0.000000 
27.664319 1.192500 0.000000 
20.746037 7.094233 0.000000 
2.353055 1.246041 0.000000 
38.286883 0.411567 0.000000 
31.667547 6.177668 0.000000 
50.901768 4.785312 0.000000 
21.007659 4.452508 0.000000 
3.497892 7.606058 0.000000 
17.654601 13.663416 0.000000 
17.104096 9.875367 0.000000 
18.988354 6.786715 0.000000 
58.628368 1.838052 0.000000 
17.784220 8.130928 0.000000 
14.260450 13.705309 0.000000 
47.104631 0.189899 0.000000 
32.544555 1.429483 0.000000 
47.594183 1.115453 0.000000 
1.635497 10.910282 0.000000 
27.975753 9.814615 0.000000 
30.477956 1.900126 0.000000 
24.840868 0.993791 0.000000 
0.417839 7.733142 0.000000 
11.495540 6.806591 0.000000 
31.003845 8.825038 0.000000 
30.174014 4.854480 0.000000 
16.193105 13.079793 0.000000 
28.935600 5.513445 0.000000 
55.784438 0.416511 0.000000 
52.394959 0.202526 0.000000 
5.971152 0.419194 0.000000 
26.017041 9.464437 0.000000 
34.935276 2.431482 0.000000 
50.993744 3.089770 0.000000 
16.323330 13.922393 0.000000 
27.159112 2.230549 0.000000 
27.123981 2.561319 0.000000 
25.461449 6.776373 0.000000 
11.571763 8.880294 0.000000 
8.222322 13.339712 0.000000 
15.936019 13.149552 0.000000 
10.761071 3.539715 0.000000 
41.092164 0.805477 0.000000 
28.587646 4.025879 0.000000 
11.339237 7.696939 0.000000 
47.664271 0.255349 0.000000 
5.565779 10.623704 0.000000 
14.237691 9.121949 0.000000 
50.510871 1.585385 0.000000 
9.362332 6.685013 0.000000 
58.257953 0.398234 0.000000 
19.596076 1.155761 0.000000 
49.121220 1.580025 0.000000 
13.599775 1.249889 0.000000 
54.263466 0.862079 0.000000 
20.368655 13.451932 0.000000 
1.068612 11.482372 0.000000 
10.054487 6.870796 0.000000 
6.237161 12.907310 0.000000 
29.637646 5.197706 0.000000 
4.352120 13.583542 0.000000 
8.139974 4.679639 0.000000 
28.637731 0.397490 0.000000 
37.071075 0.447256 0.000000 
15.784318 13.380915 0.000000 
21.755829 2.676669 0.000000 
11.297753 8.056433 0.000000 
12.992670 9.816114 0.000000 
16.477828 2.046928 0.000000 
4.297280 8.746998 0.000000 
12.259135 8.280108 0.000000 
45.835274 2.368066 0.000000 
7.866869 1.865026 0.000000 
40.474068 0.464634 0.000000 
15.857857 0.183735 0.000000 
30.775383 6.388447 0.000000 
3.743209 5.523048 0.000000 
7.983373 8.981852 0.000000 
36.612568 5.407576 0.000000 
17.657797 3.890473 0.000000 
6.002026 11.865457 0.000000 
50.711405 1.121705 0.000000 
9.233057 8.643442 0.000000 
35.577234 4.872312 0.000000 
10.289384 13.833307 0.000000 
29.142011 9.130920 0.000000 
29.889634 8.257044 0.000000 
45.010781 0.447548 0.000000 
28.098580 3.697617 0.000000 
23.092846 0.388988 0.000000 
16.722135 10.092166 0.000000 
30.024651 9.786249 0.000000 
46.379362 0.192808 0.000000 
8.406754 14.163547 0.000000 
59.126944 0.191863 0.000000 
20.035788 2.000426 0.000000 
26.341139 4.570207 0.000000 
27.967230 9.295049 0.000000 
7.293577 11.295467 0.000000 
26.552083 9.652112 0.000000 
20.365706 4.503072 0.000000 
18.458827 3.902499 0.000000 
6.275590 2.030595 0.000000 
31.113419 8.306045 0.000000 
27.060310 0.575855 0.000000 
27.641193 0.397954 0.000000 
14.514370 14.589495 0.000000 
4.010435 3.399036 0.000000 
13.291793 4.552063 0.000000 
28.335022 10.392478 0.000000 
57.800648 2.639126 0.000000 
16.551534 1.420634 0.000000 
40.605755 3.745683 0.000000 
2.534279 2.259456 0.000000 
6.361900 3.604641 0.000000 
6.233891 3.299443 0.000000 
21.467267 9.264296 0.000000 
21.481118 9.620341 0.000000 
2.299946 0.694017 0.000000 
35.981639 4.893897 0.000000 
7.453784 2.743125 0.000000 
14.690915 2.396505 0.000000 
10.841014 6.135518 0.000000 
16.331421 10.667804 0.000000 
40.163864 1.790955 0.000000 
29.578487 6.075744 0.000000 
25.655678 1.809771 0.000000 
25.471961 2.112506 0.000000 
17.330286 0.960762 0.000000 
26.266189 2.483864 0.000000 
26.529433 2.178631 0.000000 
43.041186 3.006384 0.000000 
42.696989 2.956646 0.000000 
13.021401 8.981847 0.000000 
56.107870 2.941846 0.000000 
5.351541 11.661300 0.000000 
29.052590 9.355783 0.000000 
18.198343 4.206625 0.000000 
14.923498 13.306040 0.000000 
29.167280 3.211717 0.000000 
46.298974 3.995435 0.000000 
5.218342 8.719502 0.000000 
5.244393 8.368440 0.000000 
23.090691 4.457624 0.000000 
23.343540 4.164501 0.000000 
1.473559 0.372047 0.000000 
23.439165 8.946173 0.000000 
23.541955 9.287918 0.000000 
11.503159 2.012331 0.000000 
22.168239 3.386161 0.000000 
13.739090 5.411811 0.000000 
26.964393 2.195826 0.000000 
15.739457 1.423738 0.000000 
16.213143 0.565370 0.000000 
41.040970 0.417992 0.000000 
9.291708 9.129845 0.000000 
20.321004 5.989569 0.000000 
35.288528 6.236290 0.000000 
48.960899 3.980919 0.000000 
10.975995 0.379330 0.000000 
59.603586 3.547415 0.000000 
27.587244 8.082926 0.000000 
40.730405 0.333868 0.000000 
29.218281 8.288316 0.000000 
47.466566 3.392436 0.000000 
27.569792 9.464869 0.000000 
34.870532 3.742462 0.000000 
12.439828 8.793120 0.000000 
7.342309 12.255293 0.000000 
48.659860 1.168657 0.000000 
48.145680 4.177397 0.000000 
3.462914 2.729811 0.000000 
16.452534 11.429536 0.000000 
15.120818 7.966701 0.000000 
12.083451 12.682388 0.000000 
20.117571 12.663515 0.000000 
30.991230 5.811150 0.000000 
19.969869 8.974372 0.000000 
0.579064 5.132043 0.000000 
44.347760 2.222415 0.000000 
1.813449 2.564946 0.000000 
49.199758 3.124982 0.000000 
12.957739 10.298457 0.000000 
18.805122 6.374179 0.000000 
10.403500 4.345296 0.000000 
1.719519 12.655991 0.000000 
59.166808 1.516586 0.000000 
59.604028 0.949298 0.000000 
34.020583 1.587125 0.000000 
31.141289 8.962464 0.000000 
3.148607 8.370775 0.000000 
9.951495 7.059429 0.000000 
31.640718 7.538002 0.000000 
7.413507 14.603546 0.000000 
18.589934 1.554283 0.000000 
19.138721 9.548621 0.000000 
16.665591 13.590523 0.000000 
27.380172 2.790866 0.000000 
26.996492 0.178243 0.000000 
5.826492 9.733262 0.000000 
12.485405 3.393518 0.000000 
42.753922 2.323294 0.000000 
17.105692 1.654578 0.000000 
9.125766 6.595732 0.000000 
20.089692 6.955813 0.000000 
57.678520 4.108393 0.000000 
3.685179 0.391339 0.000000 
35.698522 6.718669 0.000000 
4.408500 11.081128 0.000000 
35.659975 3.938271 0.000000 
9.479766 7.446531 0.000000 
26.874108 10.509191 0.000000 
49.567542 0.890048 0.000000 
16.649836 0.670507 0.000000 
34.966762 3.349066 0.000000 
13.715915 6.593894 0.000000 
27.522440 10.298065 0.000000 
29.131901 0.863270 0.000000 
49.232992 0.461933 0.000000 
30.751922 5.167661 0.000000 
11.505185 3.498752 0.000000 
41.456149 0.377275 0.000000 
22.498252 0.936225 0.000000 
31.529905 8.496786 0.000000 
29.591435 8.941307 0.000000 
10.369891 14.353992 0.000000 
16.976701 13.375253 0.000000 
35.313127 6.876135 0.000000 
25.726245 0.195855 0.000000 
27.363499 9.868782 0.000000 
6.359551 13.951321 0.000000 
44.400885 0.193158 0.000000 
50.435035 3.218908 0.000000 
11.479934 1.066804 0.000000 
8.094035 11.935373 0.000000 
51.813775 4.197213 0.000000 
17.359193 0.689434 0.000000 
10.686985 1.629173 0.000000 
19.296222 7.075468 0.000000 
50.238006 0.350068 0.000000 
2.666757 0.892433 0.000000 
9.113043 11.728887 0.000000 
6.727900 2.984916 0.000000 
9.391426 13.294795 0.000000 
4.431447 10.298588 0.000000 
36.236856 5.800032 0.000000 
3.173934 8.939367 0.000000 
50.450996 0.393420 0.000000 
27.616893 0.843780 0.000000 
1.499489 10.733806 0.000000 
25.709528 4.854109 0.000000 
20.304049 3.305601 0.000000 
58.628505 0.169470 0.000000 
33.194063 6.320386 0.000000 
18.931653 4.840454 0.000000 
19.513959 7.933619 0.000000 
16.634737 14.321945 0.000000 
12.594792 1.374641 0.000000 
20.062697 14.769442 0.000000 
19.385034 9.533856 0.000000 
40.394132 0.175480 0.000000 
22.806202 3.993731 0.000000 
10.173049 5.121795 0.000000 
8.559496 8.418768 0.000000 
2.492169 0.377701 0.000000 
48.043109 0.865555 0.000000 
17.341091 2.506251 0.000000 
0.398824 4.229015 0.000000 
29.760492 5.904047 0.000000 
35.032149 3.118370 0.000000 
19.713812 5.705084 0.000000 
20.944320 11.641692 0.000000 
24.760280 9.958852 0.000000 
30.676176 5.915480 0.000000 
11.644460 10.811862 0.000000 
36.914374 5.013323 0.000000 
13.357043 10.399311 0.000000 
46.115650 3.211085 0.000000 
12.102246 14.235660 0.000000 
28.868043 3.522776 0.000000 
18.706755 8.722298 0.000000 
19.165262 12.296453 0.000000 
39.363619 1.967841 0.000000 
29.766938 1.267182 0.000000 
11.820348 0.168327 0.000000 
5.428708 4.433368 0.000000 
30.468889 7.840692 0.000000 
30.194218 8.047976 0.000000 
25.950589 2.045370 0.000000 
8.667391 13.508246 0.000000 
16.754100 12.773700 0.000000 
9.842954 3.987748 0.000000 
1.911319 6.991772 0.000000 
11.213290 14.153776 0.000000 
42.938472 3.848609 0.000000 
0.887749 1.131930 0.000000 
0.379611 13.793444 0.000000 
51.752198 2.843383 0.000000 
8.779640 2.062848 0.000000 
3.966683 4.027156 0.000000 
32.629929 6.389942 0.000000 
14.527641 9.434094 0.000000 
12.405233 11.007251 0.000000 
46.927436 0.730394 0.000000 
12.705917 7.633542 0.000000 
10.510702 7.831064 0.000000 
11.101806 9.527856 0.000000 
36.340215 5.093280 0.000000 
13.957997 8.299659 0.000000 
27.415276 3.902794 0.000000 
35.331555 1.129181 0.000000 
30.261899 8.713617 0.000000 
18.338370 12.634988 0.000000 
4.458778 0.435247 0.000000 
6.927696 14.360676 0.000000 
52.881646 1.918598 0.000000 
51.600480 3.908129 0.000000 
59.594938 3.312086 0.000000 
44.109136 1.557034 0.000000 
37.139387 0.950232 0.000000 
1.270420 13.602432 0.000000 
58.720230 2.577493 0.000000 
57.539136 3.567523 0.000000 
3.611581 8.025259 0.000000 
18.637830 7.808716 0.000000 
20.139032 10.093226 0.000000 
27.566670 0.179806 0.000000 
16.777161 2.849763 0.000000 
24.825226 7.359154 0.000000 
13.057663 2.532907 0.000000 
4.102801 10.848610 0.000000 
12.898218 8.625571 0.000000 
57.193372 0.858323 0.000000 
3.478400 13.982329 0.000000 
46.677518 3.537780 0.000000 
51.151512 0.960990 0.000000 
28.991010 1.825329 0.000000 
1.151486 10.907708 0.000000 
35.560217 1.441572 0.000000 
26.781723 10.045829 0.000000 
23.723022 4.154096 0.000000 
16.996334 0.448136 0.000000 
11.095419 1.067071 0.000000 
6.898576 2.449692 0.000000 
29.442716 8.763918 0.000000 
46.406554 1.820155 0.000000 
0.629026 13.236459 0.000000 
46.855749 2.299093 0.000000 
39.781383 1.659169 0.000000 
29.191573 2.345766 0.000000 
11.273397 0.835232 0.000000 
26.272294 9.625448 0.000000 
4.309459 10.795963 0.000000 
7.812678 14.184124 0.000000 
30.242226 6.278177 0.000000 
12.638946 14.745769 0.000000 
56.912400 0.712278 0.000000 
8.335510 1.223547 0.000000 
7.587742 1.902825 0.000000 
11.610831 9.362814 0.000000 
25.940659 0.317667 0.000000 
35.410018 2.994420 0.000000 
36.662857 1.860473 0.000000 
38.742642 3.905521 0.000000 
6.947490 7.817531 0.000000 
6.516225 5.065190 0.000000 
14.787172 5.724623 0.000000 
6.714359 7.859175 0.000000 
36.863462 1.712750 0.000000 
17.324939 7.411385 0.000000 
6.752025 5.016393 0.000000 
17.546702 4.932510 0.000000 
31.538418 4.379476 0.000000 
31.381111 4.176822 0.000000 
37.395961 4.615552 0.000000 
27.327625 7.506486 0.000000 
32.768222 2.027439 0.000000 
37.055625 1.563445 0.000000 
31.222756 3.972067 0.000000 
31.695346 4.581350 0.000000 
17.106468 7.567735 0.000000 
3.025436 5.930250 0.000000 
3.143068 5.717541 0.000000 
14.903950 5.163746 0.000000 
28.082424 5.292966 0.000000 
31.291987 2.317850 0.000000 
54.189131 4.006659 0.000000 
38.889389 3.701556 0.000000 
18.014005 5.710612 0.000000 
6.988912 4.973580 0.000000 
3.458836 4.996750 0.000000 
22.935032 8.618814 0.000000 
26.436410 6.748660 0.000000 
6.277942 5.121402 0.000000 
14.930375 4.870796 0.000000 
22.554362 6.542242 0.000000 
33.956456 3.665154 0.000000 
54.422958 3.895463 0.000000 
15.754724 3.301762 0.000000 
8.267157 6.329577 0.000000 
27.853882 5.178132 0.000000 
1.143384 4.751174 0.000000 
5.924866 7.931910 0.000000 
17.031558 3.728668 0.000000 
38.764134 1.845755 0.000000 
21.821468 8.785707 0.000000 
22.073237 8.760942 0.000000 
27.616847 5.062179 0.000000 
14.319880 12.274264 0.000000 
26.297664 6.516662 0.000000 
22.764080 3.385721 0.000000 
36.457113 2.008845 0.000000 
17.787869 12.133756 0.000000 
27.097750 7.428769 0.000000 
32.278823 5.309118 0.000000 
18.591028 12.044930 0.000000 
24.050077 2.189616 0.000000 
5.031134 6.353888 0.000000 
18.604544 10.256974 0.000000 
38.455839 4.296836 0.000000 
19.162135 11.691781 0.000000 
28.732972 6.195065 0.000000 
14.689001 10.454959 0.000000 
28.782476 6.464815 0.000000 
36.763039 4.455061 0.000000 
24.151667 2.421157 0.000000 
28.032928 7.626460 0.000000 
14.070475 12.282997 0.000000 
15.506011 3.360402 0.000000 
7.775142 7.591389 0.000000 
17.575835 12.096206 0.000000 
8.277292 6.605362 0.000000 
19.770660 2.745276 0.000000 
52.607435 3.427023 0.000000 
17.097217 11.780243 0.000000 
14.880992 4.285445 0.000000 
31.097215 2.520581 0.000000 
15.776044 7.896739 0.000000 
26.149227 6.293380 0.000000 
32.525945 5.437731 0.000000 
18.879298 10.312047 0.000000 
19.728380 2.501868 0.000000 
17.481953 10.656698 0.000000 
13.820162 12.294571 0.000000 
15.234450 11.999381 0.000000 
4.679604 6.734046 0.000000 
17.994266 12.181947 0.000000 
19.816495 2.976111 0.000000 
34.015027 3.397917 0.000000 
2.907066 6.143995 0.000000 
37.609646 1.301439 0.000000 
24.251119 2.650458 0.000000 
54.765757 1.892456 0.000000 
7.450297 10.711807 0.000000 
4.041864 11.878551 0.000000 
16.981278 11.598372 0.000000 
22.306310 6.532738 0.000000 
2.487257 3.419694 0.000000 
18.566724 1.958292 0.000000 
13.990404 10.395579 0.000000 
25.858535 9.301501 0.000000 
19.146027 10.360339 0.000000 
21.156756 7.020471 0.000000 
11.547597 4.607526 0.000000 
8.635018 10.223488 0.000000 
54.659882 3.785804 0.000000 
6.031166 5.178817 0.000000 
7.238671 4.943778 0.000000 
8.735181 10.467105 0.000000 
38.313766 4.493134 0.000000 
55.168619 2.410266 0.000000 
15.259279 3.398153 0.000000 
15.196828 10.879020 0.000000 
4.782864 11.999068 0.000000 
17.773359 7.090116 0.000000 
8.270116 5.737249 0.000000 
18.870965 14.352185 0.000000 
19.120706 14.352613 0.000000 
26.863055 7.356493 0.000000 
24.799732 9.748897 0.000000 
24.067213 10.558331 0.000000 
31.629736 1.904173 0.000000 
42.205987 1.987111 0.000000 
11.486117 5.971702 0.000000 
14.825864 4.008030 0.000000 
17.576326 4.283644 0.000000 
25.894867 8.549508 0.000000 
3.840399 2.255385 0.000000 
24.697687 9.015854 0.000000 
3.569792 4.336431 0.000000 
15.408598 11.847704 0.000000 
15.059992 12.149550 0.000000 
3.670483 13.057540 0.000000 
4.696691 2.506645 0.000000 
29.937559 1.124782 0.000000 
33.440320 5.497410 0.000000 
19.676078 1.779958 0.000000 
41.827595 3.654388 0.000000 
19.621801 13.874995 0.000000 
3.093659 12.583050 0.000000 
4.506441 1.773643 0.000000 
7.999001 7.506135 0.000000 
18.616837 14.360654 0.000000 
41.207042 3.753530 0.000000 
18.744286 1.737126 0.000000 
26.107983 11.216659 0.000000 
25.049846 8.417844 0.000000 
52.701888 2.943208 0.000000 
23.284724 6.574556 0.000000 
23.028328 1.353450 0.000000 
9.526527 0.687337 0.000000 
10.778555 10.723208 0.000000 
11.078185 5.719042 0.000000 
11.888489 5.840458 0.000000 
12.961748 4.303532 0.000000 
1.902716 9.117592 0.000000 
26.882607 1.973824 0.000000 
47.378117 1.272702 0.000000 
21.592888 12.415149 0.000000 
36.206585 4.335156 0.000000 
19.584906 13.598613 0.000000 
26.628009 3.032447 0.000000 
24.479191 11.088128 0.000000 
4.781249 2.291710 0.000000 
9.161653 1.107489 0.000000 
22.416696 1.810855 0.000000 
9.540822 2.483350 0.000000 
21.356027 12.733324 0.000000 
24.395833 3.561780 0.000000 
7.082649 0.681161 0.000000 
3.610761 3.816895 0.000000 
19.718285 11.121188 0.000000 
46.810304 0.905854 0.000000 
25.011282 7.473944 0.000000 
2.397581 8.347534 0.000000 
21.955632 10.075066 0.000000 
9.218679 1.362038 0.000000 
20.312155 12.794956 0.000000 
23.618492 10.492103 0.000000 
12.844563 5.006021 0.000000 
19.394673 3.926702 0.000000 
47.048342 0.902329 0.000000 
46.515867 1.160720 0.000000 
15.542403 11.449074 0.000000 
6.829256 0.648943 0.000000 
3.952597 2.741717 0.000000 
40.908840 2.207871 0.000000 
43.378994 4.319700 0.000000 
56.346047 4.361181 0.000000 
10.632298 13.441211 0.000000 
52.619836 3.634298 0.000000 
18.527497 13.430427 0.000000 
19.374092 14.348546 0.000000 
36.201211 2.357596 0.000000 
25.545766 10.894203 0.000000 
12.744973 3.965810 0.000000 
56.665163 3.420652 0.000000 
25.585488 7.867509 0.000000 
43.651178 4.337845 0.000000 
10.895832 9.530189 0.000000 
38.170416 4.690192 0.000000 
10.019477 1.143009 0.000000 
20.642046 13.133250 0.000000 
9.793230 0.680527 0.000000 
2.984753 10.131948 0.000000 
8.694415 3.982829 0.000000 
5.270050 3.814021 0.000000 
34.244497 7.173207 0.000000 
56.153558 3.320192 0.000000 
6.575978 0.654524 0.000000 
34.070194 2.872000 0.000000 
1.195565 9.024451 0.000000 
30.450518 0.639231 0.000000 
0.902222 2.079478 0.000000 
5.786490 12.187735 0.000000 
33.162218 7.292360 0.000000 
26.160420 0.679577 0.000000 
33.574286 7.512542 0.000000 
29.151159 7.042495 0.000000 
18.981405 1.595849 0.000000 
20.873955 13.094901 0.000000 
5.620427 11.998546 0.000000 
30.680827 2.885659 0.000000 
33.794888 7.391212 0.000000 
30.573261 1.486998 0.000000 
24.980545 7.719932 0.000000 
34.024736 7.286932 0.000000 
12.800697 7.092755 0.000000 
24.183788 11.421487 0.000000 
49.553924 1.431239 0.000000 
25.933006 0.742202 0.000000 
13.106545 6.558497 0.000000 
15.015538 3.421880 0.000000 
7.327688 0.695165 0.000000 
29.842733 0.897636 0.000000 
3.149104 9.956279 0.000000 
13.742962 10.473121 0.000000 
34.162061 0.873632 0.000000 
19.999447 3.553308 0.000000 
16.840312 10.667590 0.000000 
11.668915 11.009984 0.000000 
9.093886 14.313637 0.000000 
11.746284 11.223393 0.000000 
0.677080 2.372773 0.000000 
25.875958 11.309704 0.000000 
2.389267 14.358364 0.000000 
8.466611 3.882242 0.000000 
24.655167 4.847793 0.000000 
35.119214 5.650488 0.000000 
26.325421 11.148776 0.000000 
25.437935 10.476304 0.000000 
2.628788 14.368021 0.000000 
17.503516 8.880542 0.000000 
10.302397 13.094638 0.000000 
25.438377 7.201709 0.000000 
33.960090 0.697137 0.000000 
18.387368 14.395137 0.000000 
49.912727 1.696341 0.000000 
17.922095 9.073999 0.000000 
27.352208 9.447974 0.000000 
10.240910 2.398207 0.000000 
59.298107 2.141287 0.000000 
0.707176 2.614757 0.000000 
6.662643 1.226987 0.000000 
19.209878 13.142273 0.000000 
9.277943 0.677022 0.000000 
17.686523 8.722742 0.000000 
24.594275 9.650054 0.000000 
17.367393 12.044214 0.000000 
2.417799 1.453965 0.000000 
1.631151 2.421241 0.000000 
53.267656 1.960828 0.000000 
33.700956 0.646971 0.000000 
22.212228 10.046368 0.000000 
50.404169 4.061700 0.000000 
56.092816 4.373504 0.000000 
20.485292 0.621934 0.000000 
32.023969 5.190033 0.000000 
20.366633 8.412841 0.000000 
28.716801 5.661866 0.000000 
17.734751 9.221110 0.000000 
43.918400 4.343929 0.000000 
56.928670 1.779638 0.000000 
11.375418 1.250391 0.000000 
21.288633 11.811019 0.000000 
43.795513 3.743656 0.000000 
42.037996 1.612130 0.000000 
5.399686 11.897369 0.000000 
7.313811 1.412094 0.000000 
35.728416 0.966837 0.000000 
11.583748 3.943383 0.000000 
25.987966 9.066742 0.000000 
48.651150 4.339619 0.000000 
2.863109 10.686313 0.000000 
50.145072 1.054643 0.000000 
10.156956 0.921445 0.000000 
16.266733 1.117720 0.000000 
24.457494 4.992281 0.000000 
34.463323 7.053974 0.000000 
33.583937 1.030215 0.000000 
50.946043 2.753254 0.000000 
6.267631 0.946944 0.000000 
46.609892 1.763614 0.000000 
18.141521 6.843126 0.000000 
25.772312 3.345956 0.000000 
58.802570 1.986043 0.000000 
16.272648 0.841876 0.000000 
19.783447 1.988115 0.000000 
6.482321 2.548697 0.000000 
20.746253 0.644469 0.000000 
45.502999 0.879143 0.000000 
5.884137 14.379787 0.000000 
8.046994 3.416644 0.000000 
8.332397 5.272087 0.000000 
35.258933 6.012449 0.000000 
10.052983 0.689056 0.000000 
7.993066 3.676487 0.000000 
1.172634 6.263955 0.000000 
2.623853 10.716807 0.000000 
49.917467 3.617952 0.000000 
12.173507 2.839569 0.000000 
26.030892 2.745144 0.000000 
44.740820 3.265017 0.000000 
19.622373 14.346956 0.000000 
45.160051 3.176954 0.000000 
5.782782 2.778508 0.000000 
35.691565 0.695265 0.000000 
13.717005 1.759791 0.000000 
17.507240 13.157253 0.000000 
11.825541 7.754142 0.000000 
0.701309 2.877870 0.000000 
11.050619 9.321809 0.000000 
58.616645 2.367227 0.000000 
23.203829 11.512810 0.000000 
33.836183 1.145723 0.000000 
56.761390 3.856399 0.000000 
30.686010 0.653617 0.000000 
9.556585 2.085816 0.000000 
31.926013 1.602460 0.000000 
25.918679 8.279755 0.000000 
16.860992 9.759030 0.000000 
23.553786 5.250916 0.000000 
2.810757 8.458185 0.000000 
16.140845 9.827505 0.000000 
6.128490 14.375177 0.000000 
6.136613 13.957240 0.000000 
48.816361 4.141879 0.000000 
43.261032 3.034468 0.000000 
59.310768 1.888410 0.000000 
18.220259 6.423585 0.000000 
48.330685 4.064490 0.000000 
2.571763 10.293650 0.000000 
9.550929 5.216099 0.000000 
3.777651 3.950056 0.000000 
50.112169 4.029173 0.000000 
3.183492 12.849154 0.000000 
4.766850 7.852626 0.000000 
56.249560 3.101086 0.000000 
10.658649 12.547227 0.000000 
7.474236 13.595925 0.000000 
5.956430 2.948033 0.000000 
11.575235 7.771045 0.000000 
23.662042 3.920546 0.000000 
10.581433 2.644882 0.000000 
5.063441 3.619834 0.000000 
55.845118 4.385875 0.000000 
20.997730 0.635416 0.000000 
23.526453 6.591230 0.000000 
13.052152 4.574479 0.000000 
30.418218 8.093689 0.000000 
7.936512 9.180036 0.000000 
2.775821 6.365850 0.000000 
7.451977 3.335248 0.000000 
25.672585 11.423193 0.000000 
33.449139 0.637212 0.000000 
8.838506 14.319691 0.000000 
13.620090 7.232535 0.000000 
30.167890 8.263067 0.000000 
14.542761 3.613921 0.000000 
1.097199 4.073429 0.000000 
2.141323 14.388067 0.000000 
2.745173 1.797950 0.000000 
48.414223 0.589185 0.000000 
12.814137 12.279418 0.000000 
30.930200 0.669834 0.000000 
57.783219 3.903343 0.000000 
50.665786 3.973462 0.000000 
51.427970 1.946750 0.000000 
16.631243 9.900174 0.000000 
12.765530 12.035648 0.000000 
50.369126 1.407592 0.000000 
8.625082 7.458541 0.000000 
2.890733 14.360559 0.000000 
24.085503 7.471523 0.000000 
10.396680 2.998164 0.000000 
1.809667 11.818659 0.000000 
1.915948 6.767085 0.000000 
23.253547 1.287293 0.000000 
8.265266 11.783147 0.000000 
30.657169 7.927840 0.000000 
26.043304 3.788191 0.000000 
12.109943 8.123595 0.000000 
2.077906 3.351246 0.000000 
26.950814 9.348516 0.000000 
2.356193 1.654121 0.000000 
15.878199 9.762160 0.000000 
46.277330 3.053616 0.000000 
15.816781 1.207299 0.000000 
23.760873 8.387337 0.000000 
55.017563 2.014908 0.000000 
55.391948 2.911881 0.000000 
10.427648 9.542366 0.000000 
30.888887 6.617509 0.000000 
49.669213 2.129911 0.000000 
10.804853 9.772540 0.000000 
16.835009 3.075906 0.000000 
13.813755 8.466369 0.000000 
21.011686 8.803544 0.000000 
21.451057 10.151086 0.000000 
26.545489 11.061356 0.000000 
50.849423 2.241177 0.000000 
9.359905 14.330550 0.000000 
53.675355 0.635042 0.000000 
7.409059 13.358565 0.000000 
16.647327 9.432455 0.000000 
13.780552 2.155243 0.000000 
19.514723 7.113334 0.000000 
13.305962 2.493445 0.000000 
9.042472 0.631651 0.000000 
32.948933 0.674512 0.000000 
10.208041 13.574572 0.000000 
5.628961 14.380279 0.000000 
41.475231 4.188382 0.000000 
26.732380 10.944265 0.000000 
25.437369 2.722378 0.000000 
8.995405 3.303350 0.000000 
26.517345 3.818659 0.000000 
31.967154 8.257163 0.000000 
10.585641 8.927294 0.000000 
28.664489 7.803299 0.000000 
5.779965 5.248934 0.000000 
11.217845 13.064635 0.000000 
18.072350 8.709061 0.000000 
35.932465 0.615327 0.000000 
23.381394 8.737841 0.000000 
3.388889 14.356693 0.000000 
17.136395 1.901232 0.000000 
12.913849 11.386095 0.000000 
6.888980 13.664343 0.000000 
7.050424 1.497002 0.000000 
8.803496 0.624794 0.000000 
6.438334 3.794792 0.000000 
21.476302 9.860855 0.000000 
21.444043 9.051860 0.000000 
23.385240 3.946360 0.000000 
23.037958 4.657083 0.000000 
5.247550 8.155253 0.000000 
26.582105 1.966961 0.000000 
48.246760 0.948725 0.000000 
42.487026 2.913497 0.000000 
24.001125 1.552680 0.000000 
44.071324 4.124527 0.000000 
44.652687 2.767914 0.000000 
33.352633 7.642576 0.000000 
27.111950 2.766153 0.000000 
4.151617 3.224310 0.000000 
45.158401 1.091686 0.000000 
51.824248 1.996402 0.000000 
56.662330 3.014313 0.000000 
57.530067 1.791204 0.000000 
14.480278 9.151593 0.000000 
4.848247 3.410214 0.000000 
0.683922 10.092018 0.000000 
12.909165 7.722502 0.000000 
9.773697 5.603030 0.000000 
9.222490 13.438838 0.000000 
4.609521 10.123780 0.000000 
5.042319 10.358214 0.000000 
56.604830 4.347582 0.000000 
56.674861 1.338563 0.000000 
18.089440 13.498778 0.000000 
21.550453 10.579154 0.000000 
8.828100 13.388997 0.000000 
17.581608 13.402024 0.000000 
31.272987 6.733268 0.000000 
20.083781 10.689112 0.000000 
23.455934 5.005274 0.000000 
47.184727 4.310951 0.000000 
10.313309 11.015471 0.000000 
30.576164 5.721654 0.000000 
8.786538 12.889620 0.000000 
9.828530 5.856495 0.000000 
9.439017 2.727121 0.000000 
56.386326 1.674833 0.000000 
17.790871 10.296565 0.000000 
31.020563 6.849280 0.000000 
5.499179 12.957469 0.000000 
7.594731 0.694089 0.000000 
8.047213 4.887715 0.000000 
35.988181 5.753759 0.000000 
7.070839 10.424915 0.000000 
10.022064 13.372093 0.000000 
24.990376 7.217491 0.000000 
15.194731 9.050262 0.000000 
17.174392 9.201070 0.000000 
20.082071 3.296458 0.000000 
54.246393 1.610670 0.000000 
5.366687 14.360932 0.000000 
25.467765 11.542129 0.000000 
11.154943 4.821117 0.000000 
24.978934 9.937438 0.000000 
21.726402 1.837952 0.000000 
53.991091 4.376880 0.000000 
53.162501 0.641881 0.000000 
8.841894 13.638659 0.000000 
8.063224 2.089774 0.000000 
2.992112 12.312214 0.000000 
3.137188 14.336700 0.000000 
28.108694 3.247998 0.000000 
18.003745 8.290624 0.000000 
27.551930 9.256806 0.000000 
45.559593 1.821084 0.000000 
19.044378 5.422304 0.000000 
17.351423 13.331472 0.000000 
29.934050 9.572563 0.000000 
53.888811 0.588980 0.000000 
8.988780 11.539497 0.000000 
11.873396 14.117703 0.000000 
1.774154 12.098117 0.000000 
15.149485 14.395984 0.000000 
8.917213 4.095332 0.000000 
14.720323 9.276636 0.000000 
15.387229 14.356073 0.000000 
43.098822 4.310523 0.000000 
11.961122 2.798119 0.000000 
45.120160 0.682288 0.000000 
11.403900 14.297261 0.000000 
51.616565 2.687445 0.000000 
33.216579 0.647372 0.000000 
43.025571 4.048810 0.000000 
43.168890 3.819882 0.000000 
51.568873 4.135229 0.000000 
12.920935 0.846587 0.000000 
14.583967 6.252971 0.000000 
1.305264 11.562240 0.000000 
54.640167 0.679601 0.000000 
25.560383 2.493054 0.000000 
25.809586 1.663742 0.000000 
5.437540 4.215051 0.000000 
5.190774 4.343594 0.000000 
48.474682 2.272300 0.000000 
10.928524 1.543185 0.000000 
15.364621 1.895671 0.000000 
50.383718 3.424371 0.000000 
32.551983 1.671814 0.000000 
17.336070 1.683304 0.000000 
35.405458 0.684937 0.000000 
59.309719 2.401009 0.000000 
0.821595 5.139502 0.000000 
25.651717 1.022901 0.000000 
10.074493 11.913795 0.000000 
43.568519 1.819671 0.000000 
2.292577 10.282450 0.000000 
44.675145 4.349545 0.000000 
33.763423 2.358811 0.000000 
46.292592 3.328254 0.000000 
24.606837 2.906117 0.000000 
29.216187 7.301306 0.000000 
44.425717 4.372378 0.000000 
33.770495 4.856410 0.000000 
33.202665 7.032997 0.000000 
21.034803 11.872248 0.000000 
22.285291 3.148975 0.000000 
36.977077 4.801987 0.000000 
1.514958 9.270855 0.000000 
46.695810 3.338755 0.000000 
20.869506 14.019825 0.000000 
53.602393 4.359195 0.000000 
53.119087 4.358801 0.000000 
27.249509 9.695900 0.000000 
30.882296 8.002805 0.000000 
20.011149 14.558554 0.000000 
16.633429 11.262849 0.000000 
8.577298 14.353881 0.000000 
19.005280 5.033332 0.000000 
25.841437 5.030694 0.000000 
29.305660 4.203652 0.000000 
3.592364 10.442072 0.000000 
6.445298 2.255552 0.000000 
14.530748 3.317852 0.000000 
0.699547 3.142118 0.000000 
12.528247 3.137136 0.000000 
10.927392 12.517282 0.000000 
46.915301 2.095057 0.000000 
26.625187 7.265755 0.000000 
53.423118 0.689128 0.000000 
19.045211 12.103966 0.000000 
22.470017 9.986116 0.000000 
17.023639 9.369058 0.000000 
27.247376 2.989004 0.000000 
11.810543 11.768217 0.000000 
6.174380 2.241445 0.000000 
54.922885 0.700951 0.000000 
26.422434 0.648991 0.000000 
5.186600 8.936906 0.000000 
8.695152 9.790221 0.000000 
24.742083 4.628418 0.000000 
21.354627 6.858220 0.000000 
21.793970 6.536728 0.000000 
11.450401 10.900224 0.000000 
35.348671 0.931158 0.000000 
47.572803 1.647780 0.000000 
39.143973 2.042422 0.000000 
25.817027 9.589963 0.000000 
27.148380 3.464262 0.000000 
22.027883 2.660245 0.000000 
3.697138 11.609015 0.000000 
20.658417 14.198911 0.000000 
9.214881 13.178597 0.000000 
49.751538 1.046925 0.000000 
27.016810 10.661809 0.000000 
47.423467 4.341591 0.000000 
25.526416 5.414235 0.000000 
9.543711 5.483750 0.000000 
57.519671 1.286531 0.000000 
45.185247 1.565544 0.000000 
38.331097 1.267636 0.000000 
9.636742 14.282655 0.000000 
6.576691 2.819457 0.000000 
25.735390 6.116122 0.000000 
13.519829 6.491584 0.000000 
13.562655 6.766997 0.000000 
42.301390 0.499669 0.000000 
16.591072 8.308096 0.000000 
10.871562 11.598094 0.000000 
9.606399 7.682900 0.000000 
13.133593 11.026576 0.000000 
27.732397 10.320647 0.000000 
7.725548 3.645045 0.000000 
33.133479 7.758854 0.000000 
26.966690 0.787717 0.000000 
22.907291 3.803966 0.000000 
20.708862 1.356270 0.000000 
34.258321 3.016147 0.000000 
59.118587 1.739779 0.000000 
46.484998 3.451386 0.000000 
4.898949 13.238670 0.000000 
31.745348 8.358552 0.000000 
9.968748 1.595809 0.000000 
46.140072 3.857841 0.000000 
2.963671 8.830034 0.000000 
30.201780 3.009560 0.000000 
29.954312 1.379313 0.000000 
1.154939 8.306537 0.000000 
9.974109 5.185990 0.000000 
48.014530 2.278193 0.000000 
27.456427 1.051368 0.000000 
15.337517 1.201112 0.000000 
32.224727 8.136885 0.000000 
40.728229 3.518620 0.000000 
28.541206 4.272885 0.000000 
10.977872 5.987157 0.000000 
28.776989 3.335774 0.000000 
44.696565 1.618699 0.000000 
3.926454 0.469949 0.000000 
18.166411 2.693263 0.000000 
15.295902 7.806717 0.000000 
12.835414 7.472978 0.000000 
15.807316 14.281629 0.000000 
35.508471 5.473552 0.000000 
5.864367 9.520662 0.000000 
13.476563 12.541857 0.000000 
35.912049 6.050885 0.000000 
18.690214 3.813414 0.000000 
22.877410 12.806231 0.000000 
3.439592 11.646868 0.000000 
18.312808 12.416802 0.000000 
0.834282 13.277884 0.000000 
24.048161 7.859894 0.000000 
7.829343 0.669779 0.000000 
5.991886 13.726704 0.000000 
6.893854 12.071219 0.000000 
22.433138 0.729279 0.000000 
25.973003 10.125258 0.000000 
2.494341 13.715223 0.000000 
10.406474 11.469851 0.000000 
39.606392 4.654645 0.000000 
13.331689 8.695154 0.000000 
14.815977 1.311256 0.000000 
4.214073 7.531752 0.000000 
17.407729 1.965591 0.000000 
1.100889 1.142043 0.000000 
8.548112 2.051178 0.000000 
24.443836 0.643712 0.000000 
58.876883 2.437616 0.000000 
29.845137 0.452177 0.000000 
13.245526 6.148569 0.000000 
37.229109 1.150522 0.000000 
4.821190 2.930562 0.000000 
48.363703 4.311084 0.000000 
39.161663 2.317865 0.000000 
54.895196 3.694568 0.000000 
26.323685 4.826720 0.000000 
16.076156 3.006993 0.000000 
15.181715 13.885196 0.000000 
22.209404 4.070993 0.000000 
23.114632 12.661263 0.000000 
46.079522 2.586115 0.000000 
26.913568 8.757507 0.000000 
4.419632 13.344293 0.000000 
5.464143 9.018497 0.000000 
22.365593 10.986808 0.000000 
23.224673 10.769369 0.000000 
14.661171 1.100218 0.000000 
11.684461 14.330862 0.000000 
3.495532 5.516255 0.000000 
42.235690 3.561063 0.000000 
43.607694 2.321140 0.000000 
21.329492 3.647092 0.000000 
29.754072 4.241976 0.000000 
4.395896 8.986826 0.000000 
7.819784 13.240211 0.000000 
20.039343 10.276588 0.000000 
12.220639 2.413850 0.000000 
31.184415 0.685737 0.000000 
2.061745 13.992430 0.000000 
22.352681 10.467559 0.000000 
51.784651 1.115352 0.000000 
1.460719 0.800204 0.000000 
58.264706 3.798801 0.000000 
18.052033 14.202936 0.000000 
33.968687 4.365222 0.000000 
12.368543 2.649623 0.000000 
19.555676 11.557694 0.000000 
9.138807 3.682194 0.000000 
24.628569 3.445419 0.000000 
24.427724 5.916470 0.000000 
30.419200 8.585322 0.000000 
46.511563 2.969141 0.000000 
42.519048 2.346885 0.000000 
20.798469 6.221423 0.000000 
9.007516 12.770007 0.000000 
5.115707 5.914218 0.000000 
1.384576 3.768465 0.000000 
1.033927 4.315435 0.000000 
7.433939 9.351899 0.000000 
9.229000 10.944168 0.000000 
9.394100 13.914136 0.000000 
24.007316 7.068290 0.000000 
30.652974 3.622176 0.000000 
13.644478 1.494353 0.000000 
55.438841 1.472024 0.000000 
23.962087 5.491210 0.000000 
22.666545 8.915590 0.000000 
48.471764 1.283086 0.000000 
24.105386 1.769918 0.000000 
8.771703 12.606628 0.000000 
8.521532 11.733493 0.000000 
5.875789 9.250683 0.000000 
18.302971 3.313627 0.000000 
11.463494 2.855577 0.000000 
6.170038 11.063606 0.000000 
34.674303 6.923919 0.000000 
14.574176 6.711831 0.000000 
22.857243 0.445350 0.000000 
7.557158 1.101151 0.000000 
52.965976 1.059630 0.000000 
28.890408 1.194939 0.000000 
48.757801 3.895326 0.000000 
1.885257 14.375397 0.000000 
22.662327 5.157882 0.000000 
20.905809 2.007413 0.000000 
6.312902 0.677270 0.000000 
27.627766 7.852662 0.000000 
33.377962 2.119703 0.000000 
19.604695 0.444280 0.000000 
34.221302 0.649475 0.000000 
9.419646 6.056561 0.000000 
24.752503 8.760478 0.000000 
34.903188 6.790631 0.000000 
12.029794 10.885457 0.000000 
40.460082 3.085149 0.000000 
18.007891 1.484963 0.000000 
37.434329 5.701018 0.000000 
20.007339 14.137745 0.000000 
11.643157 1.235695 0.000000 
9.376325 3.272051 0.000000 
30.240403 6.740233 0.000000 
1.691329 8.208732 0.000000 
17.644174 4.514231 0.000000 
27.334534 1.763526 0.000000 
18.936937 8.727858 0.000000 
18.810387 13.090120 0.000000 
2.474845 9.424941 0.000000 
7.011509 9.638547 0.000000 
9.783406 2.970257 0.000000 
1.837295 10.158173 0.000000 
18.996555 8.985587 0.000000 
18.239769 7.095535 0.000000 
12.841511 5.282896 0.000000 
14.306595 3.501083 0.000000 
0.874770 5.674075 0.000000 
55.535110 0.413462 0.000000 
4.442852 11.719042 0.000000 
26.216795 10.508144 0.000000 
14.857448 0.637334 0.000000 
26.040112 1.834332 0.000000 
15.108924 2.027629 0.000000 
18.404581 2.187252 0.000000 
0.678704 2.113394 0.000000 
35.903299 2.692019 0.000000 
31.033273 0.899389 0.000000 
30.721175 1.302321 0.000000 
11.702922 1.528324 0.000000 
24.925478 7.978298 0.000000 
12.632033 1.751292 0.000000 
6.181509 13.550205 0.000000 
12.309730 9.406026 0.000000 
11.232714 2.814486 0.000000 
56.034722 3.541356 0.000000 
11.948268 14.384756 0.000000 
23.208305 10.507319 0.000000 
15.626617 9.153573 0.000000 
15.019979 8.668882 0.000000 
7.535913 11.229702 0.000000 
58.805163 3.548724 0.000000 
53.985624 1.697258 0.000000 
53.493332 1.875763 0.000000 
13.240459 1.508029 0.000000 
8.200569 2.333438 0.000000 
44.933980 4.351396 0.000000 
31.695005 7.786689 0.000000 
0.928497 3.012568 0.000000 
1.384442 2.773065 0.000000 
1.852223 3.510787 0.000000 
5.276950 5.710653 0.000000 
20.199732 0.996464 0.000000 
48.619646 0.967617 0.000000 
15.182126 9.474470 0.000000 
6.996217 14.566326 0.000000 
50.686379 4.364375 0.000000 
8.589698 5.380977 0.000000 
20.358470 7.870153 0.000000 
12.318795 5.790073 0.000000 
51.560521 2.931745 0.000000 
10.505594 14.549553 0.000000 
11.353677 11.698420 0.000000 
40.207213 3.084824 0.000000 
23.341100 9.627772 0.000000 
43.239338 3.304475 0.000000 
1.388018 10.929668 0.000000 
34.432281 6.540896 0.000000 
13.663486 3.717564 0.000000 
0.865447 8.760854 0.000000 
35.525877 1.078426 0.000000 
7.045469 10.150570 0.000000 
13.478250 7.454375 0.000000 
39.235934 3.125959 0.000000 
55.820918 3.985597 0.000000 
55.278475 3.156308 0.000000 
14.612349 0.658096 0.000000 
48.239185 1.608854 0.000000 
17.736522 13.208332 0.000000 
7.273681 3.532181 0.000000 
3.685383 2.618082 0.000000 
32.935745 0.932555 0.000000 
0.598831 9.822519 0.000000 
33.894292 6.409872 0.000000 
6.217406 3.977406 0.000000 
35.774955 3.469120 0.000000 
39.214594 2.858488 0.000000 
15.345198 10.477617 0.000000 
14.984532 7.355631 0.000000 
28.420878 7.828175 0.000000 
36.686694 0.522475 0.000000 
33.598586 6.812337 0.000000 
21.878650 10.908923 0.000000 
32.096816 0.451824 0.000000 
24.074808 0.431503 0.000000 
13.972738 0.453453 0.000000 
42.530274 4.558975 0.000000 
24.466305 5.425115 0.000000 
11.041793 3.126265 0.000000 
4.787215 3.965402 0.000000 
9.286552 12.437649 0.000000 
16.057254 9.416542 0.000000 
39.975142 4.005840 0.000000 
14.707902 6.930375 0.000000 
9.734093 4.886709 0.000000 
35.807247 3.207049 0.000000 
25.606554 7.410082 0.000000 
1.276372 13.392914 0.000000 
15.960802 8.327272 0.000000 
52.743683 2.523710 0.000000 
6.418568 8.123934 0.000000 
3.716840 10.635623 0.000000 
26.929254 4.640364 0.000000 
21.508734 4.859733 0.000000 
11.985479 13.598247 0.000000 
25.585255 3.972041 0.000000 
7.314211 7.982837 0.000000 
26.788074 9.825068 0.000000 
17.014251 3.285522 0.000000 
40.574491 2.861265 0.000000 
25.554076 4.229430 0.000000 
30.317450 7.006291 0.000000 
37.947262 1.081283 0.000000 
2.635518 9.238024 0.000000 
24.285523 4.563148 0.000000 
37.768240 4.862312 0.000000 
4.248353 6.886521 0.000000 
32.788119 5.826026 0.000000 
15.489225 2.264795 0.000000 
5.987063 3.828164 0.000000 
5.345240 1.065899 0.000000 
0.219409 5.871981 0.000000 
30.793104 5.734144 0.000000 
38.726837 1.432978 0.000000 
2.189466 2.697315 0.000000 
31.282995 6.958686 0.000000 
27.546314 10.527624 0.000000 
1.356207 14.318561 0.000000 
3.653545 10.022863 0.000000 
15.081863 13.456120 0.000000 
21.727566 4.658339 0.000000 
31.704100 1.479327 0.000000 
24.523431 4.475200 0.000000 
22.927549 5.470189 0.000000 
22.922425 6.338859 0.000000 
3.931940 9.251105 0.000000 
6.321921 11.300902 0.000000 
56.311846 2.832724 0.000000 
22.739189 4.621830 0.000000 
20.782081 10.075732 0.000000 
24.415408 11.577424 0.000000 
30.413792 4.305504 0.000000 
1.532742 11.133560 0.000000 
6.198941 10.615405 0.000000 
16.883075 1.991988 0.000000 
31.729386 8.070486 0.000000 
1.391442 12.016852 0.000000 
24.284938 5.741524 0.000000 
47.804382 0.467867 0.000000 
16.881947 13.143324 0.000000 
12.393447 13.241324 0.000000 
20.582047 12.123918 0.000000 
55.172859 1.375133 0.000000 
0.420197 4.005433 0.000000 
55.180198 0.623189 0.000000 
1.737653 1.664590 0.000000 
1.667923 2.171484 0.000000 
57.086373 1.120316 0.000000 
36.136448 0.946102 0.000000 
2.419049 6.636102 0.000000 
47.331077 3.168727 0.000000 
1.607798 2.667612 0.000000 
8.639275 3.456170 0.000000 
40.472327 4.603006 0.000000 
0.999623 6.654927 0.000000 
9.131304 4.227281 0.000000 
57.107075 1.958013 0.000000 
19.907336 7.106158 0.000000 
0.177803 9.376146 0.000000 
7.502484 2.947667 0.000000 
24.893877 6.470101 0.000000 
3.831457 8.840012 0.000000 
45.530173 4.558702 0.000000 
12.780272 0.610512 0.000000 
9.343659 4.373410 0.000000 
45.759026 4.145085 0.000000 
21.140012 3.433321 0.000000 
13.423163 13.632770 0.000000 
15.916820 9.980296 0.000000 
29.982768 6.753552 0.000000 
34.697342 0.625527 0.000000 
43.518088 2.904791 0.000000 
1.959965 8.179480 0.000000 
7.129885 13.075548 0.000000 
0.623596 14.082162 0.000000 
16.891513 14.269045 0.000000 
14.348136 0.661638 0.000000 
0.407130 10.727652 0.000000 
52.366097 1.639237 0.000000 
47.131999 3.260772 0.000000 
22.450682 5.480948 0.000000 
40.057371 2.434120 0.000000 
34.983939 4.190109 0.000000 
9.599103 9.955460 0.000000 
4.545736 5.143287 0.000000 
2.941985 13.843305 0.000000 
43.749564 3.277619 0.000000 
8.323793 0.719868 0.000000 
49.156105 2.908169 0.000000 
39.100519 5.214384 0.000000 
52.542735 0.419055 0.000000 
20.754206 3.831299 0.000000 
7.867244 11.565018 0.000000 
21.792114 3.903656 0.000000 
4.676303 5.397111 0.000000 
19.555100 10.201618 0.000000 
6.743810 13.225040 0.000000 
55.758119 2.053904 0.000000 
22.469707 4.496056 0.000000 
28.598030 2.314626 0.000000 
35.066104 5.892595 0.000000 
20.730595 2.166896 0.000000 
0.403387 7.177894 0.000000 
41.891099 1.259820 0.000000 
3.987611 5.921768 0.000000 
4.922755 1.842249 0.000000 
7.159397 12.133213 0.000000 
10.531084 8.554200 0.000000 
2.187457 12.583125 0.000000 
58.365766 4.796868 0.000000 
10.857565 6.624285 0.000000 
14.774454 0.876827 0.000000 
55.230707 0.992145 0.000000 
49.193573 4.351319 0.000000 
13.710382 14.178995 0.000000 
11.158406 10.520015 0.000000 
50.021285 0.384437 0.000000 
56.178549 2.309410 0.000000 
41.309689 1.623174 0.000000 
9.340884 6.465697 0.000000 
59.556845 0.463707 0.000000 
21.008895 2.478948 0.000000 
21.074381 11.238885 0.000000 
4.053787 8.778662 0.000000 
7.300322 8.602538 0.000000 
50.474737 2.630053 0.000000 
10.162431 4.746299 0.000000 
48.996648 3.150110 0.000000 
7.553281 4.694754 0.000000 
24.996299 12.025824 0.000000 
23.782632 11.750742 0.000000 
4.919746 4.373811 0.000000 
23.886285 6.383245 0.000000 
1.651182 0.426306 0.000000 
20.816253 2.625804 0.000000 
31.851083 0.399035 0.000000 
14.392596 3.069846 0.000000 
3.646585 14.381913 0.000000 
0.916187 14.372409 0.000000 
8.233633 2.724800 0.000000 
59.352695 1.631332 0.000000 
20.622059 10.824017 0.000000 
6.237053 1.208449 0.000000 
39.056934 0.391913 0.000000 
4.612034 10.402970 0.000000 
27.395688 4.681638 0.000000 
13.586168 9.156799 0.000000 
28.553570 10.257196 0.000000 
48.886108 3.396691 0.000000 
27.776500 2.573558 0.000000 
21.121370 2.873207 0.000000 
24.960119 4.261704 0.000000 
42.910514 0.789732 0.000000 
24.145919 8.487675 0.000000 
5.680455 2.329181 0.000000 
31.915072 6.271353 0.000000 
59.600391 3.777504 0.000000 
44.466902 0.875958 0.000000 
33.807681 5.301883 0.000000 
1.099010 7.390529 0.000000 
39.446659 0.568827 0.000000 
7.990382 14.572251 0.000000 
30.159001 7.201998 0.000000 
21.819395 12.098494 0.000000 
13.879619 4.801287 0.000000 
12.339071 10.217828 0.000000 
0.210556 8.893636 0.000000 
3.758830 4.701868 0.000000 
4.647468 4.703143 0.000000 
17.213516 0.447081 0.000000 
13.716580 14.572473 0.000000 
3.540348 6.741124 0.000000 
18.802844 0.189240 0.000000 
46.230607 4.586940 0.000000 
11.213098 7.053245 0.000000 
28.787761 1.697563 0.000000 
14.763410 14.599823 0.000000 
0.710869 7.461677 0.000000 
9.791917 12.240740 0.000000 
0.669003 14.329920 0.000000 
6.158056 10.211742 0.000000 
7.335609 1.962985 0.000000 
6.621539 11.751298 0.000000 
3.031230 7.396755 0.000000 
17.267323 14.192052 0.000000 
6.871754 3.880390 0.000000 
57.249828 4.547820 0.000000 
21.786597 12.780937 0.000000 
48.747545 0.415640 0.000000 
13.923091 1.060463 0.000000 
29.544365 2.154119 0.000000 
18.971365 8.467431 0.000000 
3.239349 1.888584 0.000000 
0.379786 12.620951 0.000000 
29.331559 4.711957 0.000000 
15.854249 2.102982 0.000000 
9.848800 8.826755 0.000000 
34.455251 0.615930 0.000000 
13.382430 0.641599 0.000000 
29.241354 9.917825 0.000000 
2.402911 12.177219 0.000000 
51.281005 4.580982 0.000000 
43.152055 0.203735 0.000000 
14.119933 7.616486 0.000000 
21.621836 13.722507 0.000000 
7.750854 8.611055 0.000000 
11.415705 1.840412 0.000000 
40.838639 4.792267 0.000000 
10.244747 10.428930 0.000000 
24.064178 12.479647 0.000000 
4.100906 7.130191 0.000000 
34.057885 4.117925 0.000000 
27.970109 2.122070 0.000000 
58.018039 4.594884 0.000000 
17.478610 1.167427 0.000000 
28.051034 4.328744 0.000000 
58.404057 2.452676 0.000000 
23.313002 0.467093 0.000000 
37.789944 0.439582 0.000000 
28.946695 10.317608 0.000000 
29.816165 6.142183 0.000000 
28.917875 4.322499 0.000000 
2.535791 7.460384 0.000000 
15.745082 12.642005 0.000000 
43.826628 1.835793 0.000000 
27.312440 8.973343 0.000000 
29.444318 2.416583 0.000000 
16.208423 8.472243 0.000000 
11.383716 13.386226 0.000000 
16.078741 13.322450 0.000000 
22.821457 9.723095 0.000000 
24.647476 6.489040 0.000000 
0.187561 5.120687 0.000000 
20.448086 14.317018 0.000000 
35.253878 5.175697 0.000000 
27.955804 9.119049 0.000000 
34.372544 5.048589 0.000000 
14.900086 12.494029 0.000000 
11.858040 1.074029 0.000000 
44.269140 1.712511 0.000000 
22.668850 12.491485 0.000000 
3.079839 0.196364 0.000000 
13.319417 3.399600 0.000000 
43.298612 1.244776 0.000000 
9.620727 11.170872 0.000000 
4.070859 0.988673 0.000000 
57.492975 0.411696 0.000000 
21.028433 5.387840 0.000000 
52.659023 1.304982 0.000000 
5.302596 13.334023 0.000000 
21.400910 4.377584 0.000000 
7.698266 13.626960 0.000000 
4.147511 14.390686 0.000000 
20.172338 8.244048 0.000000 
32.417123 7.153634 0.000000 
2.621527 11.113875 0.000000 
31.459538 6.344179 0.000000 
10.322835 8.493322 0.000000 
12.880286 3.384399 0.000000 
13.741090 7.433888 0.000000 
27.778025 3.913072 0.000000 
38.540595 0.397200 0.000000 
56.255954 0.446998 0.000000 
2.291109 0.443240 0.000000 
2.060088 7.509005 0.000000 
51.813738 3.497808 0.000000 
58.060115 3.331358 0.000000 
57.186471 2.970765 0.000000 
4.146482 1.438149 0.000000 
14.247418 2.339998 0.000000 
14.836626 2.294249 0.000000 
13.690950 5.679886 0.000000 
10.224141 4.249687 0.000000 
14.271709 7.783865 0.000000 
13.512998 4.051420 0.000000 
36.168626 0.680146 0.000000 
54.970915 4.580092 0.000000 
10.071848 4.961426 0.000000 
51.984520 4.617590 0.000000 
8.815552 8.377948 0.000000 
12.360500 14.815445 0.000000 
25.101514 1.927401 0.000000 
2.760278 12.348292 0.000000 
4.747447 4.954427 0.000000 
20.877522 5.239154 0.000000 
0.453827 1.783114 0.000000 
0.745557 0.429857 0.000000 
46.565400 4.261519 0.000000 
20.123448 6.032601 0.000000 
17.422954 14.790324 0.000000 
22.563049 12.149935 0.000000 
11.413206 0.405906 0.000000 
38.682215 5.441797 0.000000 
4.400328 14.391727 0.000000 
50.474233 1.186974 0.000000 
34.956900 3.553130 0.000000 
7.754496 12.370519 0.000000 
3.055892 2.647402 0.000000 
14.624260 8.318307 0.000000 
1.126411 12.238825 0.000000 
52.366570 3.126235 0.000000 
2.122131 0.811629 0.000000 
11.724687 13.912901 0.000000 
14.621513 8.690974 0.000000 
19.464287 12.843484 0.000000 
29.363309 8.055635 0.000000 
7.372043 2.534676 0.000000 
6.534339 8.944120 0.000000 
45.201795 2.776341 0.000000 
11.814471 8.419470 0.000000 
57.775364 0.456007 0.000000 
16.560984 12.793469 0.000000 
4.652257 14.388979 0.000000 
29.626521 3.385991 0.000000 
3.897450 14.388953 0.000000 
6.905790 13.028085 0.000000 
17.071151 14.087729 0.000000 
50.111694 2.789132 0.000000 
13.775244 13.331796 0.000000 
35.180650 0.607156 0.000000 
0.217470 12.842475 0.000000 
57.720437 2.396081 0.000000 
3.737154 9.613038 0.000000 
12.753668 11.184085 0.000000 
13.794129 3.016992 0.000000 
6.148120 13.340607 0.000000 
49.873255 2.084183 0.000000 
10.597567 6.955535 0.000000 
57.554930 2.995597 0.000000 
58.813667 0.945075 0.000000 
15.418925 12.919850 0.000000 
36.967202 5.846258 0.000000 
3.824107 13.402350 0.000000 
29.496865 3.773020 0.000000 
16.130319 12.573511 0.000000 
31.339500 8.855059 0.000000 
24.809742 0.784574 0.000000 
12.086700 11.074252 0.000000 
2.973265 11.816401 0.000000 
59.223663 0.353525 0.000000 
34.233621 6.177434 0.000000 
21.862286 5.633665 0.000000 
38.445389 5.553303 0.000000 
0.801129 0.219658 0.000000 
12.322020 2.182775 0.000000 
51.570793 3.194361 0.000000 
8.186053 12.476102 0.000000 
10.711528 3.299877 0.000000 
56.861711 4.351329 0.000000 
5.358578 10.571765 0.000000 
11.693764 7.550397 0.000000 
12.049992 0.933724 0.000000 
20.539510 9.658336 0.000000 
9.272859 8.149362 0.000000 
4.343130 5.593691 0.000000 
10.898542 3.965418 0.000000 
34.252052 5.790884 0.000000 
40.704371 0.160732 0.000000 
50.985229 0.440457 0.000000 
51.235582 0.424244 0.000000 
5.292669 9.857916 0.000000 
6.115315 9.203503 0.000000 
10.071074 7.639176 0.000000 
58.482379 3.211298 0.000000 
2.541075 1.998894 0.000000 
49.423959 2.812824 0.000000 
12.017002 8.582456 0.000000 
34.209311 1.761880 0.000000 
59.408136 3.885843 0.000000 
34.786650 4.639710 0.000000 
4.656842 9.860883 0.000000 
20.233125 0.606113 0.000000 
30.723903 4.656959 0.000000 
36.258440 5.419891 0.000000 
3.655379 7.787139 0.000000 
35.126277 4.554929 0.000000 
49.363605 1.605334 0.000000 
28.041343 8.955685 0.000000 
39.946723 1.806811 0.000000 
18.016227 14.607236 0.000000 
21.507133 0.596162 0.000000 
41.523669 1.244324 0.000000 
6.847213 10.491119 0.000000 
25.074635 0.407948 0.000000 
19.031544 4.119841 0.000000 
8.575712 0.656598 0.000000 
5.552503 11.076238 0.000000 
30.175771 5.245287 0.000000 
11.444103 9.267455 0.000000 
48.043683 4.592641 0.000000 
12.502999 14.357511 0.000000 
39.265335 3.594416 0.000000 
11.582317 13.012249 0.000000 
52.213799 0.780134 0.000000 
34.831328 1.899655 0.000000 
32.126841 6.871820 0.000000 
0.790906 10.654892 0.000000 
14.297796 14.601220 0.000000 
38.068083 5.524459 0.000000 
47.107968 4.081533 0.000000 
0.440229 11.566972 0.000000 
20.194994 9.538123 0.000000 
28.160531 10.283019 0.000000 
39.860137 2.901551 0.000000 
18.585797 4.772018 0.000000 
9.061851 8.501800 0.000000 
31.438819 7.425936 0.000000 
21.043609 10.055308 0.000000 
43.991690 0.858376 0.000000 
4.454367 9.697246 0.000000 
45.639886 0.648622 0.000000 
40.054578 4.384412 0.000000 
11.657489 8.566150 0.000000 
52.527529 3.982808 0.000000 
59.589039 1.305645 0.000000 
12.220920 7.914322 0.000000 
24.640514 10.744260 0.000000 
8.037761 13.221226 0.000000 
10.707381 0.614153 0.000000 
58.807708 4.579499 0.000000 
14.099202 5.060366 0.000000 
11.789504 6.217847 0.000000 
16.637436 14.871499 0.000000 
42.079153 4.562047 0.000000 
21.924329 6.273718 0.000000 
57.732347 1.218424 0.000000 
12.998808 0.618274 0.000000 
16.812628 0.160592 0.000000 
16.503606 1.212730 0.000000 
47.304341 0.187336 0.000000 
1.300740 1.929394 0.000000 
1.132302 14.412702 0.000000 
51.162180 3.611159 0.000000 
3.118192 1.175604 0.000000 
17.812612 2.536493 0.000000 
31.110989 7.704818 0.000000 
46.541192 4.782030 0.000000 
57.558903 2.748075 0.000000 
4.991773 0.895359 0.000000 
47.466049 2.527296 0.000000 
43.343196 1.470306 0.000000 
25.224179 0.204214 0.000000 
19.905558 4.237932 0.000000 
31.503060 5.696758 0.000000 
20.195092 5.137555 0.000000 
36.066055 1.994911 0.000000 
25.182354 3.486368 0.000000 
11.047835 13.610419 0.000000 
44.824809 2.602609 0.000000 
16.208005 14.106781 0.000000 
48.181301 2.109146 0.000000 
14.370864 13.076569 0.000000 
0.165234 8.373559 0.000000 
10.747822 4.357562 0.000000 
40.317350 1.188530 0.000000 
27.856261 10.084516 0.000000 
26.429412 0.431160 0.000000 
1.701823 7.567016 0.000000 
34.726184 2.369831 0.000000 
20.180792 13.538131 0.000000 
0.889109 1.541576 0.000000 
10.633613 7.306225 0.000000 
36.756801 6.177547 0.000000 
0.174834 0.175535 0.000000 
8.535014 9.136564 0.000000 
31.602712 5.234849 0.000000 
0.384523 7.952260 0.000000 
28.415871 2.144254 0.000000 
9.368134 6.900043 0.000000 
18.431120 0.185494 0.000000 
28.826497 8.463008 0.000000 
47.283176 2.879389 0.000000 
55.381947 4.401916 0.000000 
11.916308 9.172250 0.000000 
22.624755 0.386310 0.000000 
59.825715 0.174834 0.000000 
59.827694 4.826261 0.000000 
0.175663 14.824391 0.000000 
24.459839 10.422792 0.000000 
28.627429 8.636952 0.000000 
19.368524 6.424430 0.000000 
17.768379 0.759989 0.000000 
48.627901 3.713803 0.000000 
16.511777 14.851041 0.000000 
35.208745 1.712513 0.000000 
0.417260 0.697523 0.000000 
51.042033 1.270862 0.000000 
30.533394 5.300005 0.000000 
0.583623 12.175141 0.000000 
51.688409 0.413877 0.000000 
34.653689 3.033230 0.000000 
10.784720 5.400584 0.000000 
9.389610 11.993483 0.000000 
18.191950 0.876932 0.000000 
16.014100 14.640223 0.000000 
27.878789 0.359355 0.000000 
21.982354 4.047425 0.000000 
7.588971 9.013663 0.000000 
13.414173 14.814874 0.000000 
10.026440 3.870715 0.000000 
21.073567 1.019963 0.000000 
13.780708 4.245527 0.000000 
28.855219 0.361071 0.000000 
11.006082 14.609112 0.000000 
50.029353 0.755646 0.000000 
48.130992 3.061813 0.000000 
58.441252 1.047807 0.000000 
19.844299 8.790607 0.000000 
10.356494 3.889140 0.000000 
2.392384 13.281633 0.000000 
23.833741 4.717816 0.000000 
9.419510 7.241931 0.000000 
29.997215 2.860637 0.000000 
21.503792 10.822322 0.000000 
2.135253 13.560780 0.000000 
10.218552 12.735337 0.000000 
3.263999 10.690999 0.000000 
44.713501 3.968177 0.000000 
19.992115 0.593603 0.000000 
59.595065 0.731881 0.000000 
32.718596 0.621230 0.000000 
19.529358 0.960837 0.000000 
3.796191 1.669488 0.000000 
1.700403 13.454640 0.000000 
46.933166 2.903877 0.000000 
10.160206 2.015125 0.000000 
18.350562 9.934202 0.000000 
43.482700 2.596275 0.000000 
14.460305 10.170079 0.000000 
33.016143 5.972818 0.000000 
20.446286 6.598033 0.000000 
48.430164 1.720098 0.000000 
8.277614 1.711736 0.000000 
19.776400 12.198037 0.000000 
35.863489 3.854885 0.000000 
13.085453 14.851074 0.000000 
23.925177 0.652601 0.000000 
28.642109 9.623665 0.000000 
59.371517 4.470186 0.000000 
49.682683 3.724320 0.000000 
48.934999 2.399178 0.000000 
23.908345 12.398852 0.000000 
1.779495 13.218032 0.000000 
12.625000 15.000000 0.000000 
36.679955 2.109005 0.000000 
6.804676 7.626320 0.000000 
38.647713 3.673990 0.000000 
15.099721 7.123958 0.000000 
6.444103 5.298639 0.000000 
37.099711 1.808196 0.000000 
17.080921 7.305187 0.000000 
6.206060 5.357490 0.000000 
31.635943 4.143741 0.000000 
31.477665 3.941687 0.000000 
38.974106 2.751996 0.000000 
36.045278 3.119166 0.000000 
54.220253 3.753884 0.000000 
6.913766 5.200018 0.000000 
2.776203 5.933664 0.000000 
54.454044 3.641592 0.000000 
2.893826 5.722186 0.000000 
33.706341 4.403793 0.000000 
27.287615 7.256263 0.000000 
33.764513 3.479801 0.000000 
27.861723 5.424128 0.000000 
22.430280 6.764639 0.000000 
1.831290 3.770080 0.000000 
53.698043 2.029830 0.000000 
15.147655 5.039084 0.000000 
8.074360 6.473083 0.000000 
7.144668 5.162369 0.000000 
21.577964 6.955172 0.000000 
21.940351 8.556347 0.000000 
27.627591 5.310243 0.000000 
5.536435 5.738442 0.000000 
26.550619 6.504145 0.000000 
14.184619 12.053241 0.000000 
31.366351 2.578469 0.000000 
28.544478 6.370662 0.000000 
15.669129 3.550572 0.000000 
32.508110 5.177664 0.000000 
33.361451 2.371681 0.000000 
17.950666 11.942384 0.000000 
2.663839 6.150647 0.000000 
55.009406 3.189411 0.000000 
21.382282 7.114966 0.000000 
1.090309 5.522073 0.000000 
15.233394 7.335945 0.000000 
13.936133 10.659363 0.000000 
26.404729 6.278736 0.000000 
15.026162 11.911476 0.000000 
23.900945 2.385695 0.000000 
19.540266 2.676636 0.000000 
36.005550 3.382129 0.000000 
13.928808 12.062538 0.000000 
52.842222 3.560522 0.000000 
13.369802 11.090288 0.000000 
19.588259 2.925311 0.000000 
53.471789 2.116613 0.000000 
42.272941 2.756243 0.000000 
18.718160 10.504583 0.000000 
26.324396 5.072565 0.000000 
26.859524 4.892289 0.000000 
24.001333 2.621138 0.000000 
33.557198 2.494060 0.000000 
5.364241 5.944102 0.000000 
53.490468 4.153653 0.000000 
18.552632 3.317708 0.000000 
14.830066 6.700831 0.000000 
17.394498 4.438368 0.000000 
38.202673 4.269769 0.000000 
4.473353 13.115837 0.000000 
17.232846 11.562162 0.000000 
18.519294 2.427769 0.000000 
36.078252 3.924436 0.000000 
18.984917 10.552236 0.000000 
40.831368 2.856772 0.000000 
5.401961 7.935910 0.000000 
22.294817 2.714365 0.000000 
7.806174 5.061148 0.000000 
30.906495 3.549861 0.000000 
7.456012 9.605577 0.000000 
13.068470 11.571544 0.000000 
23.836774 7.944374 0.000000 
26.074570 5.166948 0.000000 
7.261286 9.993283 0.000000 
32.265165 5.056532 0.000000 
15.416439 3.619393 0.000000 
23.496908 3.702144 0.000000 
52.994164 2.561765 0.000000 
18.668417 2.212560 0.000000 
23.222001 1.512026 0.000000 
23.774618 7.051006 0.000000 
8.573452 11.505869 0.000000 
2.018340 6.533296 0.000000 
5.962288 5.413246 0.000000 
7.795450 7.348328 0.000000 
54.791010 2.171748 0.000000 
39.004440 3.015782 0.000000 
15.087438 4.111352 0.000000 
40.863850 3.315879 0.000000 
26.509016 0.889310 0.000000 
25.776589 9.052644 0.000000 
24.931386 8.947960 0.000000 
19.537153 1.996627 0.000000 
18.998794 14.126538 0.000000 
26.985514 1.056761 0.000000 
7.761683 11.154268 0.000000 
8.479966 10.425328 0.000000 
26.761366 1.747499 0.000000 
27.187433 1.527130 0.000000 
12.778980 4.474669 0.000000 
7.936899 11.341724 0.000000 
22.679709 1.758946 0.000000 
2.083240 3.634359 0.000000 
54.693030 3.520146 0.000000 
3.381382 11.921418 0.000000 
25.927973 1.418233 0.000000 
19.373733 13.733035 0.000000 
25.049295 9.671640 0.000000 
8.345059 9.484708 0.000000 
20.616535 12.375724 0.000000 
41.428064 1.837518 0.000000 
55.135843 2.944124 0.000000 
18.904160 3.720012 0.000000 
17.621708 5.173166 0.000000 
23.405015 6.799125 0.000000 
3.262157 12.382932 0.000000 
18.732524 14.144917 0.000000 
23.919110 11.364081 0.000000 
1.068712 5.269358 0.000000 
38.057375 4.465784 0.000000 
19.641445 10.412799 0.000000 
2.542385 9.016706 0.000000 
25.632787 9.415069 0.000000 
1.582539 8.441006 0.000000 
11.197384 10.987678 0.000000 
12.992510 12.110488 0.000000 
24.020148 4.864204 0.000000 
17.516937 11.872980 0.000000 
18.464034 14.148026 0.000000 
54.199745 1.864829 0.000000 
28.517327 7.598290 0.000000 
15.387795 7.547210 0.000000 
4.506547 2.297916 0.000000 
3.887728 1.847566 0.000000 
33.803417 4.164400 0.000000 
1.291891 4.247865 0.000000 
16.609708 3.223079 0.000000 
18.225539 14.032195 0.000000 
25.231243 9.928707 0.000000 
16.813487 11.141773 0.000000 
5.404006 12.129932 0.000000 
25.672198 9.825650 0.000000 
1.847379 8.427084 0.000000 
17.171371 3.946268 0.000000 
23.470761 10.908321 0.000000 
28.824703 6.734170 0.000000 
25.704403 8.394956 0.000000 
46.805853 1.724403 0.000000 
8.947412 10.974451 0.000000 
10.610435 12.804819 0.000000 
42.285140 2.492950 0.000000 
9.389457 1.210044 0.000000 
19.827910 3.388633 0.000000 
20.852803 8.556273 0.000000 
46.935703 1.082311 0.000000 
51.484308 2.496082 0.000000 
51.106096 2.262461 0.000000 
23.042989 5.269283 0.000000 
23.101088 3.627602 0.000000 
17.258444 10.760577 0.000000 
5.006784 7.781209 0.000000 
56.164102 3.741773 0.000000 
26.152299 10.958591 0.000000 
19.243487 14.137914 0.000000 
18.289204 2.890948 0.000000 
23.812475 4.906333 0.000000 
15.170851 3.641330 0.000000 
11.684782 4.372093 0.000000 
23.078178 4.886078 0.000000 
1.163887 2.624967 0.000000 
10.033240 2.224701 0.000000 
24.358623 10.660271 0.000000 
23.844867 1.740943 0.000000 
2.976290 3.632120 0.000000 
1.258252 2.134659 0.000000 
26.819955 7.118333 0.000000 
2.143915 9.163431 0.000000 
9.968302 2.828078 0.000000 
30.188721 1.241363 0.000000 
18.764212 13.327000 0.000000 
24.429236 3.300945 0.000000 
20.728439 12.874285 0.000000 
13.227640 7.353202 0.000000 
30.472332 1.254730 0.000000 
12.641767 5.109306 0.000000 
1.142570 6.018514 0.000000 
11.456318 11.164955 0.000000 
56.205664 4.161150 0.000000 
26.884153 3.567710 0.000000 
33.990170 6.636285 0.000000 
16.367256 8.246962 0.000000 
6.944117 0.863231 0.000000 
34.262637 6.937877 0.000000 
4.340066 7.304459 0.000000 
24.809424 9.485291 0.000000 
34.042786 7.049716 0.000000 
26.406846 3.043102 0.000000 
25.916136 3.148020 0.000000 
7.193221 0.930311 0.000000 
15.250043 11.122488 0.000000 
25.338788 10.211413 0.000000 
36.575919 4.341080 0.000000 
20.688282 1.079374 0.000000 
2.872700 1.270496 0.000000 
23.566079 8.399239 0.000000 
43.534666 4.114941 0.000000 
4.589708 7.656634 0.000000 
3.318774 10.445346 0.000000 
26.282642 3.686246 0.000000 
33.580201 7.247073 0.000000 
6.071825 2.464265 0.000000 
9.660145 0.890441 0.000000 
50.293439 3.866263 0.000000 
0.941691 2.458866 0.000000 
30.631661 1.077155 0.000000 
3.237028 10.186952 0.000000 
11.071357 13.401160 0.000000 
2.755223 13.971468 0.000000 
28.295843 5.409822 0.000000 
38.933512 2.225804 0.000000 
5.022576 12.033460 0.000000 
18.307816 10.197840 0.000000 
22.150370 10.593868 0.000000 
30.120687 0.939269 0.000000 
31.846129 4.782997 0.000000 
43.616468 3.433119 0.000000 
28.985467 7.226605 0.000000 
10.845245 12.740341 0.000000 
33.887593 2.725151 0.000000 
8.219903 7.418419 0.000000 
30.203323 0.666617 0.000000 
9.847675 1.833324 0.000000 
41.686123 1.404932 0.000000 
45.400868 1.408861 0.000000 
32.124104 1.718971 0.000000 
21.143200 12.799106 0.000000 
22.153094 1.864105 0.000000 
8.354732 7.027276 0.000000 
4.425782 3.115969 0.000000 
25.224028 7.614988 0.000000 
26.854396 3.091028 0.000000 
25.918742 11.075028 0.000000 
32.976649 2.124134 0.000000 
20.435563 8.134471 0.000000 
17.704426 10.561190 0.000000 
7.559122 7.678122 0.000000 
56.263535 3.519642 0.000000 
8.081394 5.175229 0.000000 
11.408864 4.842609 0.000000 
41.631118 3.818849 0.000000 
30.152648 1.541265 0.000000 
22.123715 10.311548 0.000000 
10.780333 9.303547 0.000000 
25.990184 6.078408 0.000000 
6.202461 7.957821 0.000000 
7.523484 4.948280 0.000000 
57.313936 1.643791 0.000000 
4.183202 2.939203 0.000000 
6.911674 1.263009 0.000000 
8.544847 9.979677 0.000000 
2.518883 14.120295 0.000000 
26.314378 10.752743 0.000000 
34.174557 6.422969 0.000000 
21.562921 8.816554 0.000000 
9.164018 13.885587 0.000000 
14.264562 10.331222 0.000000 
12.012362 3.899895 0.000000 
27.185761 2.008903 0.000000 
22.310261 8.745445 0.000000 
25.162066 7.890089 0.000000 
8.956966 14.067131 0.000000 
33.831037 7.145720 0.000000 
9.384723 0.932563 0.000000 
10.678064 11.412529 0.000000 
9.440472 1.722051 0.000000 
19.898474 10.489302 0.000000 
27.090703 9.116600 0.000000 
16.010240 0.767974 0.000000 
56.461068 4.143753 0.000000 
58.431924 3.413794 0.000000 
11.439029 1.636127 0.000000 
20.879203 0.885484 0.000000 
19.950407 10.945741 0.000000 
21.293813 8.820941 0.000000 
14.850966 5.445919 0.000000 
6.716750 0.840138 0.000000 
43.359131 3.675387 0.000000 
33.666801 5.081500 0.000000 
59.048794 2.005623 0.000000 
31.775249 5.050174 0.000000 
25.188928 7.091584 0.000000 
9.866212 1.365114 0.000000 
24.344403 2.878913 0.000000 
24.440001 11.331800 0.000000 
51.356426 2.751890 0.000000 
4.846472 10.526825 0.000000 
8.260901 6.040504 0.000000 
13.493263 10.595119 0.000000 
1.145604 8.768658 0.000000 
6.009756 2.700572 0.000000 
21.563398 12.153942 0.000000 
35.565752 5.689260 0.000000 
12.827191 4.738034 0.000000 
14.737577 6.007044 0.000000 
1.668192 9.080345 0.000000 
8.305290 1.942520 0.000000 
57.256353 1.368898 0.000000 
7.671036 9.228729 0.000000 
4.716762 3.148296 0.000000 
7.033214 13.500020 0.000000 
28.710755 5.933519 0.000000 
11.012897 5.438418 0.000000 
23.177162 8.564654 0.000000 
7.569285 10.960347 0.000000 
16.902983 7.734096 0.000000 
3.520607 4.756731 0.000000 
22.052517 6.521576 0.000000 
16.406749 9.744410 0.000000 
19.508416 14.132874 0.000000 
11.139532 11.523462 0.000000 
43.799108 4.131046 0.000000 
50.099781 1.477408 0.000000 
3.561334 4.081109 0.000000 
13.453614 1.917641 0.000000 
3.402792 5.262915 0.000000 
43.267472 4.080772 0.000000 
14.926544 9.096113 0.000000 
9.720387 2.688638 0.000000 
3.457654 12.894670 0.000000 
44.760210 3.000232 0.000000 
32.557609 1.919824 0.000000 
44.981593 3.380128 0.000000 
56.958300 1.343497 0.000000 
41.002144 3.561347 0.000000 
38.081583 1.298717 0.000000 
1.579363 11.624716 0.000000 
35.231360 5.404950 0.000000 
17.920263 13.719590 0.000000 
25.654218 11.144478 0.000000 
14.920605 4.577523 0.000000 
19.680339 2.235294 0.000000 
56.375901 1.374315 0.000000 
41.993591 3.487742 0.000000 
19.351879 13.289313 0.000000 
12.918317 6.727443 0.000000 
19.508206 11.302652 0.000000 
27.790401 7.635484 0.000000 
25.687210 8.114024 0.000000 
8.445577 3.630035 0.000000 
9.585127 12.100637 0.000000 
56.410983 3.307460 0.000000 
45.028493 2.942672 0.000000 
14.834504 12.269882 0.000000 
37.141630 4.594281 0.000000 
10.411728 8.742680 0.000000 
17.552249 7.261735 0.000000 
3.277600 14.112597 0.000000 
31.477003 2.107874 0.000000 
10.387661 10.808277 0.000000 
5.198904 6.150041 0.000000 
6.496479 2.007918 0.000000 
37.233735 1.410153 0.000000 
49.765722 1.902458 0.000000 
15.992223 3.243658 0.000000 
10.808944 3.065470 0.000000 
30.893415 2.713207 0.000000 
13.567515 12.307442 0.000000 
30.239672 1.805066 0.000000 
25.809585 2.894683 0.000000 
19.669079 3.916153 0.000000 
34.044951 3.136578 0.000000 
52.597165 3.171212 0.000000 
28.514181 5.281288 0.000000 
44.545934 4.131495 0.000000 
2.585214 1.582866 0.000000 
6.148163 3.112847 0.000000 
6.301707 14.171461 0.000000 
25.884292 8.820274 0.000000 
5.773873 14.176244 0.000000 
0.676029 10.394556 0.000000 
47.268390 0.892928 0.000000 
55.240136 2.674551 0.000000 
17.405298 3.910789 0.000000 
4.601227 3.551553 0.000000 
53.040508 2.092352 0.000000 
1.221099 4.493285 0.000000 
10.599235 2.901613 0.000000 
3.871878 2.478034 0.000000 
5.290222 13.072475 0.000000 
20.383326 13.200497 0.000000 
11.602513 11.621282 0.000000 
49.628339 1.691844 0.000000 
18.824457 11.943229 0.000000 
26.254424 2.674469 0.000000 
49.961319 1.225507 0.000000 
18.376524 12.157673 0.000000 
9.935736 13.564834 0.000000 
45.398526 1.135353 0.000000 
2.325433 13.909126 0.000000 
24.398972 9.305051 0.000000 
34.009720 6.197727 0.000000 
4.315208 1.620462 0.000000 
22.561433 3.197771 0.000000 
7.623963 13.398991 0.000000 
20.802690 7.324763 0.000000 
45.382955 0.663223 0.000000 
56.802021 3.208374 0.000000 
31.064190 3.763339 0.000000 
24.256801 4.807310 0.000000 
19.684706 7.281363 0.000000 
11.978596 7.946227 0.000000 
47.652428 4.347679 0.000000 
46.490410 3.206855 0.000000 
0.954368 10.051576 0.000000 
48.668331 2.372469 0.000000 
11.188541 0.643282 0.000000 
9.681750 6.066499 0.000000 
4.991019 4.143103 0.000000 
4.820620 3.698295 0.000000 
21.614108 10.338196 0.000000 
3.984509 9.021795 0.000000 
15.151513 10.633547 0.000000 
57.741924 1.946167 0.000000 
6.941345 13.879061 0.000000 
14.810436 8.829014 0.000000 
24.572953 0.889531 0.000000 
3.909121 13.174521 0.000000 
54.483046 1.793339 0.000000 
46.488667 1.391327 0.000000 
6.087154 9.435549 0.000000 
4.859135 6.552570 0.000000 
22.432620 4.209452 0.000000 
23.044355 6.561107 0.000000 
9.352937 2.994976 0.000000 
10.482385 11.210221 0.000000 
34.102231 1.113430 0.000000 
19.121858 3.891780 0.000000 
16.850351 11.388259 0.000000 
50.773783 3.722510 0.000000 
38.623038 1.655441 0.000000 
24.991869 8.684569 0.000000 
54.106429 0.675587 0.000000 
24.246653 5.507654 0.000000 
14.769818 3.755634 0.000000 
17.868853 5.233232 0.000000 
52.731107 3.829243 0.000000 
48.207924 0.681919 0.000000 
4.533833 11.962942 0.000000 
15.371428 9.267785 0.000000 
21.133052 13.920967 0.000000 
26.744801 10.687144 0.000000 
21.145405 0.817147 0.000000 
28.776153 3.053944 0.000000 
15.616805 9.402452 0.000000 
18.048003 6.618931 0.000000 
25.119443 8.148920 0.000000 
1.409687 0.559854 0.000000 
3.485792 10.225264 0.000000 
33.766820 0.883443 0.000000 
1.204883 6.510337 0.000000 
17.469878 4.688371 0.000000 
48.510536 3.892281 0.000000 
5.658855 7.926932 0.000000 
8.901934 3.528762 0.000000 
50.152309 3.503870 0.000000 
5.090339 14.330427 0.000000 
44.164243 4.370660 0.000000 
10.309486 0.704732 0.000000 
12.077016 5.681607 0.000000 
16.897615 3.523425 0.000000 
37.654318 4.638704 0.000000 
4.500661 6.915055 0.000000 
28.247892 3.024743 0.000000 
32.769274 5.574129 0.000000 
15.984609 8.060687 0.000000 
20.831251 1.553443 0.000000 
33.308431 5.690161 0.000000 
10.240134 13.314121 0.000000 
17.293234 13.097560 0.000000 
26.838042 9.589665 0.000000 
36.246719 2.125642 0.000000 
18.081231 5.950403 0.000000 
21.665629 1.617712 0.000000 
11.722466 6.011906 0.000000 
27.273968 10.614499 0.000000 
14.760627 3.489328 0.000000 
3.536569 14.178686 0.000000 
2.453832 10.510484 0.000000 
56.618443 3.677502 0.000000 
11.000427 5.002908 0.000000 
22.797676 1.495209 0.000000 
51.679495 4.374830 0.000000 
18.848226 5.505180 0.000000 
32.742216 0.829723 0.000000 
11.235795 5.945038 0.000000 
24.160553 3.677258 0.000000 
20.509419 7.680367 0.000000 
12.685722 6.648050 0.000000 
11.798278 12.052379 0.000000 
12.982993 7.249869 0.000000 
47.090256 3.049900 0.000000 
8.392224 1.394534 0.000000 
21.677103 10.082423 0.000000 
29.554664 4.053450 0.000000 
23.207976 11.275353 0.000000 
2.231726 9.382029 0.000000 
4.285564 11.923509 0.000000 
5.559540 1.257794 0.000000 
9.118444 0.872662 0.000000 
3.321422 9.765310 0.000000 
19.577734 1.562770 0.000000 
45.400897 1.642990 0.000000 
23.431520 10.635596 0.000000 
34.457358 6.800780 0.000000 
43.757569 2.516033 0.000000 
54.383674 0.670075 0.000000 
2.825383 10.296867 0.000000 
51.623003 2.089411 0.000000 
11.183363 14.329974 0.000000 
9.768799 5.338150 0.000000 
7.174258 7.782358 0.000000 
6.469364 7.897863 0.000000 
29.118257 4.371001 0.000000 
18.394903 6.241435 0.000000 
14.570311 12.272085 0.000000 
17.539017 9.359837 0.000000 
18.012547 10.127275 0.000000 
11.529409 8.023568 0.000000 
8.330500 14.383887 0.000000 
0.904921 5.922372 0.000000 
40.792675 2.417758 0.000000 
4.692263 1.908365 0.000000 
36.136229 2.608327 0.000000 
9.877485 14.348408 0.000000 
38.598116 4.101316 0.000000 
2.273455 13.433714 0.000000 
22.708313 8.677175 0.000000 
27.551354 7.593868 0.000000 
3.263108 5.495479 0.000000 
15.586247 11.694034 0.000000 
24.332504 5.240537 0.000000 
26.031551 10.363847 0.000000 
29.721868 0.664991 0.000000 
18.219189 8.117954 0.000000 
9.911809 0.907362 0.000000 
33.354973 0.880282 0.000000 
1.853474 11.544896 0.000000 
16.845002 9.520295 0.000000 
46.567046 0.910642 0.000000 
24.920578 4.474269 0.000000 
25.812690 3.865973 0.000000 
53.957185 4.126083 0.000000 
17.334336 9.026874 0.000000 
45.671086 4.343448 0.000000 
56.818426 1.569060 0.000000 
50.675069 2.447596 0.000000 
19.244276 7.507546 0.000000 
30.481929 3.046820 0.000000 
6.643805 3.942631 0.000000 
44.585205 2.537711 0.000000 
16.020121 14.192571 0.000000 
8.677201 14.120505 0.000000 
2.663380 8.295977 0.000000 
28.388765 3.486041 0.000000 
7.061553 11.925760 0.000000 
53.631187 0.865542 0.000000 
4.870897 14.411531 0.000000 
17.890339 8.551612 0.000000 
23.768187 6.606039 0.000000 
10.599595 12.305477 0.000000 
5.737613 3.904445 0.000000 
11.888178 11.050050 0.000000 
13.605620 8.637826 0.000000 
23.247183 11.763464 0.000000 
38.028147 4.888398 0.000000 
6.030681 14.169877 0.000000 
20.514422 6.175996 0.000000 
13.301623 6.384465 0.000000 
23.840051 10.387504 0.000000 
27.955417 10.310172 0.000000 
21.783563 2.074687 0.000000 
12.533172 3.977007 0.000000 
35.222176 3.087805 0.000000 
18.178147 3.112491 0.000000 
13.094984 8.759946 0.000000 
19.039793 12.995371 0.000000 
12.172392 13.136824 0.000000 
44.950375 1.468896 0.000000 
0.198028 5.623996 0.000000 
7.468992 0.893945 0.000000 
9.225680 14.108228 0.000000 
19.326959 11.500461 0.000000 
52.894507 4.266952 0.000000 
10.358479 9.006758 0.000000 
13.403082 0.423389 0.000000 
14.089026 0.656183 0.000000 
5.185903 0.915737 0.000000 
30.485455 3.456050 0.000000 
1.405416 2.524826 0.000000 
32.183620 7.081505 0.000000 
51.856578 2.230507 0.000000 
12.381291 2.913739 0.000000 
24.189453 0.632493 0.000000 
9.009367 13.031524 0.000000 
21.587987 12.651131 0.000000 
30.724655 6.803685 0.000000 
5.483046 3.979333 0.000000 
10.174616 11.530444 0.000000 
23.804272 11.999378 0.000000 
15.494379 11.209112 0.000000 
32.442139 8.117765 0.000000 
8.234094 3.789732 0.000000 
54.760293 0.875079 0.000000 
32.924015 7.859814 0.000000 
2.310397 13.647618 0.000000 
18.001032 7.017048 0.000000 
1.208092 1.350696 0.000000 
30.314913 5.736681 0.000000 
12.508402 5.650129 0.000000 
23.977594 8.322974 0.000000 
10.374818 12.881268 0.000000 
1.445510 11.362858 0.000000 
1.640298 14.348935 0.000000 
22.378576 10.226604 0.000000 
7.257350 1.613217 0.000000 
26.913835 8.534124 0.000000 
12.719656 1.027808 0.000000 
11.713336 9.494660 0.000000 
16.331439 14.832283 0.000000 
29.082677 6.799512 0.000000 
21.235924 4.532910 0.000000 
42.665002 4.367984 0.000000 
41.037602 2.008086 0.000000 
56.378249 2.403150 0.000000 
47.382106 1.497345 0.000000 
43.981437 0.662295 0.000000 
3.272149 13.057464 0.000000 
17.712907 8.971773 0.000000 
21.015502 2.688125 0.000000 
52.040598 2.030629 0.000000 
13.911878 1.981721 0.000000 
12.684810 2.016127 0.000000 
8.369479 5.506219 0.000000 
25.950613 0.156815 0.000000 
16.310270 2.956934 0.000000 
13.331065 6.639407 0.000000 
3.569830 9.799198 0.000000 
30.557950 8.281818 0.000000 
55.710395 4.198474 0.000000 
43.088362 1.195254 0.000000 
13.469233 1.637087 0.000000 
9.683043 7.453092 0.000000 
20.394041 12.555208 0.000000 
6.777687 13.807121 0.000000 
25.937142 8.057046 0.000000 
12.733851 11.814620 0.000000 
11.927058 12.260296 0.000000 
5.641651 9.194357 0.000000 
48.925039 4.350062 0.000000 
8.073724 0.662977 0.000000 
48.388856 2.090645 0.000000 
42.022426 0.441875 0.000000 
5.847630 2.525718 0.000000 
10.568954 9.789796 0.000000 
39.403907 4.815339 0.000000 
19.005368 9.183365 0.000000 
15.696736 2.247146 0.000000 
29.688118 4.445997 0.000000 
16.275720 12.459219 0.000000 
49.899740 3.859542 0.000000 
1.667077 6.700784 0.000000 
39.188442 0.582572 0.000000 
31.357007 7.195694 0.000000 
35.037965 3.944119 0.000000 
25.226160 11.907241 0.000000 
1.275080 9.239202 0.000000 
33.179291 1.996996 0.000000 
9.862093 7.778755 0.000000 
19.189505 1.457680 0.000000 
2.077912 10.154697 0.000000 
21.852245 13.617660 0.000000 
12.929166 4.062760 0.000000 
30.487195 5.530185 0.000000 
57.749410 3.656215 0.000000 
15.256423 14.142153 0.000000 
3.848864 6.114597 0.000000 
10.973812 9.110816 0.000000 
5.565658 5.322547 0.000000 
19.239621 5.315596 0.000000 
51.421069 4.364260 0.000000 
13.398874 5.984614 0.000000 
10.198604 4.001568 0.000000 
8.000400 13.411731 0.000000 
13.243221 12.558420 0.000000 
6.448214 1.120330 0.000000 
3.990480 1.229828 0.000000 
21.112273 13.041075 0.000000 
5.745698 12.412227 0.000000 
0.622880 1.908601 0.000000 
31.264106 6.508513 0.000000 
31.469030 8.091577 0.000000 
15.197740 13.287485 0.000000 
7.091789 13.735344 0.000000 
35.932831 0.833188 0.000000 
21.016056 6.026021 0.000000 
30.085811 0.449990 0.000000 
6.116469 10.823557 0.000000 
55.426733 0.611240 0.000000 
39.555901 0.378278 0.000000 
40.376242 0.999358 0.000000 
49.427135 2.174849 0.000000 
32.094975 6.142634 0.000000 
16.536767 0.835486 0.000000 
11.799089 7.364459 0.000000 
4.651463 2.742283 0.000000 
6.369211 2.765614 0.000000 
11.520210 4.156342 0.000000 
57.743353 1.684160 0.000000 
17.770365 14.602603 0.000000 
45.426172 2.004955 0.000000 
17.065888 10.588047 0.000000 
15.077905 0.602027 0.000000 
4.343804 7.708896 0.000000 
24.825281 0.413515 0.000000 
25.740153 0.830135 0.000000 
31.736719 1.706561 0.000000 
53.047874 0.849379 0.000000 
9.340941 4.604752 0.000000 
18.887815 0.389594 0.000000 
13.936245 14.590660 0.000000 
31.993986 8.048177 0.000000 
47.920881 4.764686 0.000000 
0.406309 14.007216 0.000000 
42.386282 3.394010 0.000000 
10.818496 4.185737 0.000000 
19.925776 3.805672 0.000000 
11.042557 1.707760 0.000000 
3.416277 3.666673 0.000000 
11.834939 2.624434 0.000000 
21.866985 2.497791 0.000000 
55.799681 2.270585 0.000000 
37.334716 5.886744 0.000000 
32.323976 0.386086 0.000000 
13.571621 2.158336 0.000000 
16.687651 2.086159 0.000000 
36.760695 5.966546 0.000000 
15.125532 9.254446 0.000000 
14.892964 14.413243 0.000000 
15.368533 0.998556 0.000000 
12.534666 0.559774 0.000000 
0.429581 10.954456 0.000000 
15.190527 1.785848 0.000000 
36.048050 4.186902 0.000000 
36.375648 4.463590 0.000000 
7.860568 3.485772 0.000000 
19.378956 0.377356 0.000000 
20.344406 0.812042 0.000000 
22.434507 8.956671 0.000000 
2.068898 12.758018 0.000000 
11.754713 3.808530 0.000000 
7.868854 8.454089 0.000000 
15.031743 2.298450 0.000000 
50.600924 4.175329 0.000000 
25.578664 5.935716 0.000000 
35.540320 0.864780 0.000000 
10.046808 8.800624 0.000000 
25.348548 2.540231 0.000000 
7.536316 7.924176 0.000000 
12.046779 8.348937 0.000000 
50.297299 1.600821 0.000000 
53.995194 4.576268 0.000000 
6.220943 8.188840 0.000000 
6.102030 11.282104 0.000000 
44.457128 1.603193 0.000000 
13.082589 7.914203 0.000000 
35.256925 5.818450 0.000000 
30.179257 5.051968 0.000000 
15.926292 10.189246 0.000000 
28.771788 4.179699 0.000000 
38.799048 0.394706 0.000000 
58.598068 2.104169 0.000000 
56.455584 3.053352 0.000000 
36.789076 5.721587 0.000000 
22.347774 11.248205 0.000000 
29.875578 6.572827 0.000000 
23.459818 1.229165 0.000000 
21.512862 11.742887 0.000000 
52.927389 0.639110 0.000000 
37.648422 5.702941 0.000000 
48.620966 0.607682 0.000000 
2.293384 7.485194 0.000000 
36.509191 0.410916 0.000000 
5.029515 9.134506 0.000000 
4.459153 10.717868 0.000000 
55.129588 1.162577 0.000000 
17.403389 1.411314 0.000000 
17.784592 8.349855 0.000000 
25.551365 2.930843 0.000000 
17.077026 9.617716 0.000000 
33.367851 7.409931 0.000000 
0.756159 13.093658 0.000000 
41.650109 4.068231 0.000000 
12.655394 14.347621 0.000000 
24.541073 6.294066 0.000000 
25.259537 11.642290 0.000000 
8.604491 9.559518 0.000000 
22.380458 3.348401 0.000000 
16.590933 10.743691 0.000000 
55.041676 2.232421 0.000000 
1.981719 7.325455 0.000000 
9.542548 9.775288 0.000000 
7.324549 2.176321 0.000000 
3.997981 9.648911 0.000000 
11.996710 11.908945 0.000000 
26.094328 8.879239 0.000000 
17.420868 14.111632 0.000000 
12.094700 2.616671 0.000000 
46.123386 2.852216 0.000000 
16.754542 8.154229 0.000000 
36.859120 0.406560 0.000000 
5.171881 11.832235 0.000000 
34.568770 0.788880 0.000000 
12.736205 6.882015 0.000000 
1.459481 1.006805 0.000000 
8.122020 14.417860 0.000000 
28.005606 1.902044 0.000000 
13.759722 0.428177 0.000000 
11.182737 1.236759 0.000000 
13.613632 8.345372 0.000000 
13.848540 4.600085 0.000000 
28.878604 7.733540 0.000000 
43.479577 2.082090 0.000000 
12.665941 14.874855 0.000000 
58.192915 2.444869 0.000000 
21.550436 3.568831 0.000000 
3.404679 6.927060 0.000000 
8.437424 7.557207 0.000000 
40.412048 4.413020 0.000000 
8.657949 7.266258 0.000000 
4.836329 4.575690 0.000000 
30.686389 6.577398 0.000000 
7.812415 14.017385 0.000000 
10.780407 1.406668 0.000000 
9.353173 11.151229 0.000000 
20.622421 13.990154 0.000000 
0.387692 9.770663 0.000000 
58.478721 3.837829 0.000000 
9.319557 6.261691 0.000000 
12.769409 3.205747 0.000000 
58.224005 4.633715 0.000000 
4.679360 9.646944 0.000000 
13.053407 7.509500 0.000000 
52.119576 1.664793 0.000000 
40.818170 3.712550 0.000000 
2.270644 3.446474 0.000000 
50.229803 1.239316 0.000000 
5.835574 11.992274 0.000000 
33.943860 2.487080 0.000000 
18.516950 3.697043 0.000000 
9.019988 13.277376 0.000000 
15.611088 14.383009 0.000000 
15.360420 2.098495 0.000000 
21.747353 0.583643 0.000000 
25.342580 4.286731 0.000000 
39.972484 2.229197 0.000000 
22.079673 5.702324 0.000000 
21.102470 3.643962 0.000000 
21.719290 10.738406 0.000000 
9.165091 3.431928 0.000000 
58.874511 3.349688 0.000000 
18.332348 1.291385 0.000000 
4.226353 13.416530 0.000000 
18.148408 14.412588 0.000000 
59.417022 4.089920 0.000000 
43.388701 1.682550 0.000000 
12.200089 13.582108 0.000000 
47.519979 1.845265 0.000000 
14.498479 6.042168 0.000000 
52.578080 1.711916 0.000000 
53.186156 1.050423 0.000000 
3.619655 5.348963 0.000000 
4.197741 0.423303 0.000000 
52.863936 1.237834 0.000000 
32.338231 1.573579 0.000000 
8.361550 2.524351 0.000000 
47.129077 2.034181 0.000000 
26.422032 7.167291 0.000000 
18.118139 8.922537 0.000000 
7.380971 1.232646 0.000000 
9.579402 5.003842 0.000000 
2.956708 1.677073 0.000000 
17.186465 11.965729 0.000000 
7.505463 3.571856 0.000000 
41.290870 4.137904 0.000000 
5.666535 12.825937 0.000000 
17.249474 2.132908 0.000000 
55.118430 0.820879 0.000000 
13.785245 1.349328 0.000000 
3.206543 0.375043 0.000000 
8.527444 12.575498 0.000000 
19.901732 2.161636 0.000000 
26.504945 4.710763 0.000000 
20.973551 3.047189 0.000000 
7.375782 11.095450 0.000000 
6.192172 1.430476 0.000000 
25.634512 3.514321 0.000000 
43.936124 1.653741 0.000000 
51.223035 2.050707 0.000000 
25.143213 2.142683 0.000000 
12.630757 14.623522 0.000000 
42.182263 1.766236 0.000000 
1.979682 2.694230 0.000000 
18.322865 13.539238 0.000000 
8.225427 3.322939 0.000000 
48.292579 1.400885 0.000000 
30.907956 8.219944 0.000000 
7.188036 8.774148 0.000000 
14.172886 3.056300 0.000000 
10.373996 2.568012 0.000000 
8.343598 2.892206 0.000000 
6.098556 0.595345 0.000000 
16.653585 11.465664 0.000000 
55.092875 3.590888 0.000000 
20.805197 10.951680 0.000000 
2.400134 11.879163 0.000000 
57.032627 2.140902 0.000000 
24.109666 7.267236 0.000000 
23.192741 9.816734 0.000000 
12.975952 11.182055 0.000000 
35.436058 6.090837 0.000000 
29.259444 10.164724 0.000000 
38.895014 5.135865 0.000000 
18.024280 2.540562 0.000000 
25.539469 10.673152 0.000000 
18.467591 7.052703 0.000000 
10.293264 7.713285 0.000000 
21.273558 10.031660 0.000000 
40.077967 4.186153 0.000000 
23.886081 1.372864 0.000000 
40.683164 4.621806 0.000000 
9.890468 4.994207 0.000000 
34.450665 3.108794 0.000000 
24.678596 0.625145 0.000000 
1.183528 3.872007 0.000000 
20.201218 10.872885 0.000000 
24.022501 7.663033 0.000000 
15.412318 13.947652 0.000000 
42.846993 0.570310 0.000000 
17.966152 1.684526 0.000000 
11.221117 12.848287 0.000000 
12.382662 9.599850 0.000000 
21.454772 4.620635 0.000000 
48.442086 1.062027 0.000000 
34.866163 1.642930 0.000000 
25.596347 1.226726 0.000000 
57.986169 0.620329 0.000000 
33.153807 6.809250 0.000000 
23.675064 4.603924 0.000000 
0.455649 0.927520 0.000000 
3.588093 1.675849 0.000000 
19.772422 0.586357 0.000000 
11.028656 2.904698 0.000000 
0.585204 0.345854 0.000000 
12.844211 12.515604 0.000000 
47.537463 4.166863 0.000000 
6.897855 3.661263 0.000000 
45.940026 4.034917 0.000000 
25.364617 5.587486 0.000000 
13.466366 8.893233 0.000000 
14.973580 5.873785 0.000000 
17.374712 5.114108 0.000000 
15.027117 5.618322 0.000000 
36.770326 4.223546 0.000000 
6.378910 5.534245 0.000000 
31.740442 3.908065 0.000000 
17.837561 5.891616 0.000000 
15.346555 7.104592 0.000000 
32.781597 2.280757 0.000000 
17.228088 4.630944 0.000000 
5.607373 5.986619 0.000000 
37.274535 4.394326 0.000000 
1.397925 4.668592 0.000000 
2.646853 5.722064 0.000000 
6.057465 7.718751 0.000000 
5.445733 6.189409 0.000000 
2.030669 3.913762 0.000000 
16.921875 3.941957 0.000000 
54.240242 3.502871 0.000000 
38.532701 1.881223 0.000000 
22.739097 8.448135 0.000000 
5.790506 7.714134 0.000000 
22.988112 8.390046 0.000000 
3.287734 4.797769 0.000000 
7.076713 5.379793 0.000000 
1.306627 5.376831 0.000000 
32.565526 2.173482 0.000000 
36.243784 3.270125 0.000000 
33.552982 4.206479 0.000000 
3.221940 5.056176 0.000000 
33.353479 2.635808 0.000000 
53.649744 2.273282 0.000000 
27.656989 5.566972 0.000000 
32.497498 4.919051 0.000000 
6.146707 5.594321 0.000000 
22.834446 3.157789 0.000000 
18.633000 11.778221 0.000000 
20.900418 7.547911 0.000000 
5.521815 7.707824 0.000000 
54.479508 3.390214 0.000000 
38.758195 2.908951 0.000000 
21.619832 7.206328 0.000000 
15.002204 11.036634 0.000000 
27.916477 7.405935 0.000000 
26.668211 6.265434 0.000000 
23.752194 2.581852 0.000000 
14.056498 11.843794 0.000000 
4.937927 6.805854 0.000000 
17.679139 10.815778 0.000000 
54.863404 2.987295 0.000000 
19.086645 11.469522 0.000000 
31.940256 4.540066 0.000000 
3.859861 12.931986 0.000000 
42.054284 2.614075 0.000000 
18.803891 10.748723 0.000000 
16.029242 7.817176 0.000000 
4.119180 12.114493 0.000000 
31.155184 3.513547 0.000000 
1.485978 4.413974 0.000000 
33.517354 4.866765 0.000000 
11.832365 4.627357 0.000000 
17.508154 7.029643 0.000000 
19.347759 2.845884 0.000000 
41.034364 2.421815 0.000000 
4.896732 12.232403 0.000000 
41.114831 3.301509 0.000000 
41.740111 3.403687 0.000000 
23.958471 3.537390 0.000000 
11.818902 5.563300 0.000000 
31.758431 2.132688 0.000000 
4.374031 12.172962 0.000000 
15.587035 3.807968 0.000000 
8.034857 5.913059 0.000000 
26.279411 5.340041 0.000000 
12.587889 4.641549 0.000000 
37.948008 4.244671 0.000000 
7.870767 5.322434 0.000000 
11.267194 5.524638 0.000000 
1.379176 6.115342 0.000000 
7.688357 10.721550 0.000000 
22.582015 2.015910 0.000000 
8.015428 11.096111 0.000000 
18.792026 2.451203 0.000000 
12.402449 4.176561 0.000000 
23.871444 7.529255 0.000000 
5.260937 12.824405 0.000000 
19.297069 3.726162 0.000000 
6.309691 7.704987 0.000000 
19.257889 11.260190 0.000000 
8.576889 10.665165 0.000000 
27.376728 5.196296 0.000000 
36.363450 2.529206 0.000000 
25.764517 5.445864 0.000000 
19.440856 11.036921 0.000000 
18.381901 11.890567 0.000000 
20.987481 12.137431 0.000000 
3.197544 3.809839 0.000000 
19.409766 2.198094 0.000000 
22.315027 2.061914 0.000000 
18.868348 13.929509 0.000000 
19.007735 1.834533 0.000000 
21.165207 12.540762 0.000000 
30.942461 2.974897 0.000000 
23.797566 2.153841 0.000000 
38.221473 1.500711 0.000000 
38.797162 3.444999 0.000000 
8.060927 6.728850 0.000000 
2.052629 8.935230 0.000000 
25.170745 8.869411 0.000000 
25.664837 8.872230 0.000000 
52.850184 3.132979 0.000000 
54.914564 2.397271 0.000000 
19.255117 10.606623 0.000000 
24.051257 11.193425 0.000000 
25.629209 5.667656 0.000000 
17.696021 5.410303 0.000000 
7.872495 9.438465 0.000000 
27.231893 4.823943 0.000000 
21.353191 12.327168 0.000000 
18.613927 13.940858 0.000000 
18.062702 10.349465 0.000000 
26.107716 0.922363 0.000000 
11.260849 5.075790 0.000000 
26.470498 3.266823 0.000000 
12.460708 5.432069 0.000000 
25.741227 10.729223 0.000000 
25.237196 8.606474 0.000000 
22.683486 6.757547 0.000000 
1.627469 6.450677 0.000000 
54.979658 2.768734 0.000000 
33.716122 3.731456 0.000000 
4.230725 2.685341 0.000000 
17.027135 11.214800 0.000000 
21.955289 6.762376 0.000000 
23.423935 11.407267 0.000000 
17.977307 6.373282 0.000000 
53.071789 4.149660 0.000000 
22.039860 2.390272 0.000000 
13.348011 6.860321 0.000000 
4.064774 2.331229 0.000000 
18.495631 13.700008 0.000000 
52.992699 3.781206 0.000000 
24.123825 10.801771 0.000000 
33.197681 5.493836 0.000000 
18.724197 13.557416 0.000000 
23.600381 11.581502 0.000000 
39.051437 3.523674 0.000000 
25.463290 9.247399 0.000000 
12.115076 4.145640 0.000000 
5.525053 12.484839 0.000000 
25.685972 10.509023 0.000000 
25.032887 9.385451 0.000000 
13.212829 7.077224 0.000000 
10.791700 12.991277 0.000000 
14.824578 6.263943 0.000000 
14.668629 12.061390 0.000000 
2.252601 6.469282 0.000000 
4.199429 13.184962 0.000000 
23.937305 5.076521 0.000000 
2.352409 3.641287 0.000000 
47.155065 1.388321 0.000000 
26.677368 6.721203 0.000000 
47.155677 1.788486 0.000000 
23.619502 8.215828 0.000000 
26.244571 1.670384 0.000000 
4.275775 1.869102 0.000000 
2.498662 6.370114 0.000000 
16.872879 7.460499 0.000000 
15.185941 4.724079 0.000000 
15.118819 5.344375 0.000000 
8.016647 6.197617 0.000000 
25.818175 10.325107 0.000000 
21.189816 7.265891 0.000000 
23.470133 1.464653 0.000000 
13.175939 11.306424 0.000000 
19.679695 10.880930 0.000000 
18.462282 10.450328 0.000000 
36.267445 4.102132 0.000000 
41.952543 1.869336 0.000000 
10.165018 2.657451 0.000000 
22.916977 1.746242 0.000000 
9.691264 1.596757 0.000000 
18.690151 3.547975 0.000000 
26.007416 3.369720 0.000000 
28.587854 6.644388 0.000000 
28.469767 6.092164 0.000000 
26.581772 4.942403 0.000000 
8.449395 9.737001 0.000000 
10.944089 11.362170 0.000000 
18.207285 13.763828 0.000000 
54.362332 2.051622 0.000000 
46.681239 1.307556 0.000000 
25.391298 8.065267 0.000000 
4.825333 7.583227 0.000000 
19.135516 13.883724 0.000000 
19.651631 3.183912 0.000000 
21.764164 10.524045 0.000000 
9.807547 2.398678 0.000000 
26.250290 6.054905 0.000000 
42.172652 3.285594 0.000000 
25.310095 9.670931 0.000000 
16.708156 7.903510 0.000000 
31.158436 2.781650 0.000000 
31.562951 2.355042 0.000000 
4.462419 2.574482 0.000000 
2.576057 8.565947 0.000000 
17.307188 7.164557 0.000000 
21.155319 8.584242 0.000000 
17.326967 4.171820 0.000000 
26.470424 3.541599 0.000000 
22.426482 2.946302 0.000000 
15.566902 1.078371 0.000000 
33.826594 2.959165 0.000000 
8.391824 10.181157 0.000000 
27.045743 1.759390 0.000000 
13.329114 12.347827 0.000000 
19.162976 13.378313 0.000000 
53.132967 2.351746 0.000000 
16.216037 3.186760 0.000000 
3.347285 12.642700 0.000000 
19.752604 3.643524 0.000000 
27.312582 1.299757 0.000000 
11.364082 5.744735 0.000000 
26.754521 0.973388 0.000000 
54.924483 3.427532 0.000000 
51.387782 2.232240 0.000000 
14.172690 10.578349 0.000000 
28.746599 7.562081 0.000000 
10.381111 2.783179 0.000000 
53.705725 4.138306 0.000000 
12.693021 4.199750 0.000000 
26.586047 6.984178 0.000000 
1.349868 8.871711 0.000000 
31.315363 3.734414 0.000000 
11.203152 1.480850 0.000000 
50.952787 2.500170 0.000000 
51.117022 2.917299 0.000000 
15.127914 4.410775 0.000000 
27.088860 3.190499 0.000000 
8.226450 3.545761 0.000000 
35.978008 3.656867 0.000000 
38.950821 2.488925 0.000000 
38.347489 4.074392 0.000000 
20.442198 1.018732 0.000000 
28.278667 7.615242 0.000000 
25.202557 7.339230 0.000000 
24.100085 2.862235 0.000000 
8.844190 10.713818 0.000000 
10.600699 10.938753 0.000000 
36.090051 2.862054 0.000000 
7.162822 1.216188 0.000000 
15.361432 11.604937 0.000000 
30.376160 1.044291 0.000000 
28.496147 5.806449 0.000000 
1.083837 5.016328 0.000000 
20.684168 12.602011 0.000000 
7.564024 7.442260 0.000000 
13.554621 10.880339 0.000000 
11.046375 10.742423 0.000000 
28.367653 3.265232 0.000000 
12.970825 11.838471 0.000000 
5.712211 5.523214 0.000000 
23.164874 6.782976 0.000000 
31.787022 4.345976 0.000000 
3.068743 10.348778 0.000000 
58.196400 3.529471 0.000000 
26.498553 1.721544 0.000000 
15.921319 3.487138 0.000000 
24.193581 3.407590 0.000000 
28.078619 5.532407 0.000000 
20.629271 8.355101 0.000000 
53.942399 1.946193 0.000000 
4.602946 2.957508 0.000000 
8.915357 11.265200 0.000000 
2.749081 3.466098 0.000000 
6.967416 13.269161 0.000000 
22.126820 10.865727 0.000000 
41.405996 3.942697 0.000000 
7.269309 10.243066 0.000000 
30.732455 3.380890 0.000000 
6.541855 14.306715 0.000000 
11.383764 11.445490 0.000000 
8.016110 7.256037 0.000000 
11.201123 11.271665 0.000000 
22.895538 5.058203 0.000000 
17.035869 10.819238 0.000000 
40.720324 3.085855 0.000000 
59.080783 2.280523 0.000000 
13.676199 12.083155 0.000000 
15.565433 7.729460 0.000000 
21.683523 8.584184 0.000000 
18.417466 3.103541 0.000000 
23.294774 5.220191 0.000000 
3.806167 11.841991 0.000000 
19.752042 14.121315 0.000000 
14.964478 6.913272 0.000000 
33.851244 6.874196 0.000000 
0.933705 2.738746 0.000000 
32.742405 5.306750 0.000000 
11.812707 4.103545 0.000000 
5.025945 3.884322 0.000000 
42.235286 3.016334 0.000000 
14.913586 10.542760 0.000000 
25.487579 7.631005 0.000000 
18.397432 2.652074 0.000000 
52.845036 2.740303 0.000000 
33.456610 7.017469 0.000000 
15.023727 3.848851 0.000000 
1.355278 4.013482 0.000000 
7.052003 7.585010 0.000000 
37.912843 4.663202 0.000000 
26.796601 3.813058 0.000000 
53.994686 3.864444 0.000000 
35.357051 5.644967 0.000000 
22.203024 8.535510 0.000000 
5.231501 4.067863 0.000000 
3.402920 9.993654 0.000000 
37.294068 1.654286 0.000000 
37.839468 1.308827 0.000000 
1.113456 5.771369 0.000000 
17.942223 5.471956 0.000000 
28.892087 6.979809 0.000000 
33.798768 3.220125 0.000000 
15.416094 9.549291 0.000000 
8.438662 7.284214 0.000000 
3.208457 12.138349 0.000000 
2.116398 8.392253 0.000000 
16.801727 10.894798 0.000000 
1.208359 8.553712 0.000000 
25.488659 11.298306 0.000000 
12.867088 14.861352 0.000000 
36.892399 1.958099 0.000000 
57.067952 1.562738 0.000000 
2.387875 9.205852 0.000000 
51.242058 2.478835 0.000000 
6.679412 5.245236 0.000000 
1.589399 11.923726 0.000000 
7.243419 9.744021 0.000000 
56.305821 3.943720 0.000000 
1.590501 3.898881 0.000000 
16.037181 1.019864 0.000000 
29.513969 4.320728 0.000000 
38.475019 1.465526 0.000000 
1.193842 10.065740 0.000000 
2.744033 1.082581 0.000000 
50.336365 3.649755 0.000000 
25.380556 6.981282 0.000000 
33.612197 4.637600 0.000000 
23.815667 10.589599 0.000000 
17.728468 11.919175 0.000000 
23.650393 6.820835 0.000000 
8.681829 3.710731 0.000000 
4.741638 13.055657 0.000000 
35.464996 5.879988 0.000000 
4.603314 10.841860 0.000000 
9.093898 13.660871 0.000000 
2.686978 8.823954 0.000000 
42.261242 2.240932 0.000000 
56.063830 3.963205 0.000000 
30.788281 0.879550 0.000000 
21.467713 11.943663 0.000000 
48.574062 4.108162 0.000000 
22.803140 6.549980 0.000000 
1.205257 2.380952 0.000000 
57.515563 1.524756 0.000000 
15.187842 11.759454 0.000000 
23.655921 10.729072 0.000000 
8.144194 11.522434 0.000000 
19.389908 10.376110 0.000000 
6.814419 1.047487 0.000000 
27.054593 7.189278 0.000000 
20.487908 12.967429 0.000000 
4.869711 2.065943 0.000000 
34.236599 6.687161 0.000000 
34.040936 1.335885 0.000000 
9.826029 11.941645 0.000000 
24.491178 10.876175 0.000000 
47.147260 1.141094 0.000000 
23.733731 1.528427 0.000000 
0.861035 10.254773 0.000000 
10.550869 9.152688 0.000000 
22.838105 5.275512 0.000000 
32.035487 4.942505 0.000000 
9.624744 1.877903 0.000000 
21.257505 0.610375 0.000000 
10.672558 9.551329 0.000000 
19.403804 7.307045 0.000000 
11.744576 7.972320 0.000000 
48.459812 0.805339 0.000000 
44.566123 3.140740 0.000000 
15.839877 9.522690 0.000000 
14.500608 10.360193 0.000000 
7.989786 13.941108 0.000000 
17.540785 9.113904 0.000000 
14.701718 9.048919 0.000000 
15.032284 8.894400 0.000000 
20.850892 1.771444 0.000000 
4.826359 10.251103 0.000000 
9.787165 1.116223 0.000000 
2.254380 14.157566 0.000000 
29.970632 0.690736 0.000000 
10.227369 8.846675 0.000000 
33.884903 3.919595 0.000000 
15.304147 11.362822 0.000000 
17.316062 11.802322 0.000000 
6.443448 4.014117 0.000000 
47.359850 1.717495 0.000000 
4.060139 1.693424 0.000000 
17.545313 1.570582 0.000000 
43.489020 3.201258 0.000000 
12.473817 0.359661 0.000000 
41.558852 1.627648 0.000000 
33.559402 5.294701 0.000000 
30.377800 8.360208 0.000000 
43.664671 3.911595 0.000000 
0.182533 5.374936 0.000000 
8.914398 0.802530 0.000000 
16.237004 9.581509 0.000000 
36.394368 4.260850 0.000000 
16.154986 8.216133 0.000000 
45.256282 0.890336 0.000000 
17.828644 13.457765 0.000000 
23.727976 3.654183 0.000000 
6.482003 0.869120 0.000000 
56.723371 4.116761 0.000000 
3.838559 2.040013 0.000000 
10.007398 11.704574 0.000000 
50.108127 3.754563 0.000000 
23.287898 3.730746 0.000000 
18.980374 0.593588 0.000000 
9.970052 2.006335 0.000000 
9.570768 2.905763 0.000000 
5.897681 13.975882 0.000000 
46.881465 3.067193 0.000000 
2.697668 10.497677 0.000000 
16.797218 3.327135 0.000000 
36.928294 4.582492 0.000000 
32.916740 7.652107 0.000000 
8.369288 11.575204 0.000000 
9.451012 14.128698 0.000000 
27.344255 9.188725 0.000000 
45.181658 1.318349 0.000000 
3.876963 9.458434 0.000000 
44.932138 3.148167 0.000000 
5.175293 7.936950 0.000000 
26.039003 2.968245 0.000000 
5.115838 13.205673 0.000000 
2.992393 14.108469 0.000000 
9.747500 5.115166 0.000000 
22.901980 3.557036 0.000000 
4.425923 7.510890 0.000000 
16.634850 9.654047 0.000000 
56.598108 3.206629 0.000000 
2.185469 13.214053 0.000000 
26.543119 10.823996 0.000000 
30.033958 1.753169 0.000000 
35.728479 5.846006 0.000000 
18.837264 5.693746 0.000000 
19.373342 13.953460 0.000000 
4.339135 7.081649 0.000000 
18.184809 1.422162 0.000000 
8.128587 9.306918 0.000000 
24.456119 3.075752 0.000000 
17.129254 13.240465 0.000000 
2.116972 12.981055 0.000000 
49.972995 0.959582 0.000000 
10.408566 13.454286 0.000000 
6.288908 2.424739 0.000000 
9.170266 3.179643 0.000000 
22.193246 11.099811 0.000000 
25.871124 5.253167 0.000000 
22.078725 13.516466 0.000000 
7.671309 3.395098 0.000000 
2.516039 1.783174 0.000000 
19.032426 11.868480 0.000000 
30.686878 8.139782 0.000000 
20.970033 7.159108 0.000000 
5.230422 12.032900 0.000000 
9.824234 13.415293 0.000000 
19.553735 13.343061 0.000000 
28.722980 5.399245 0.000000 
31.094383 6.632634 0.000000 
49.818197 1.472607 0.000000 
5.526441 14.177291 0.000000 
2.753689 14.186570 0.000000 
22.593814 10.161801 0.000000 
48.306154 3.861520 0.000000 
21.439140 1.603171 0.000000 
46.459913 1.607782 0.000000 
33.147299 7.534201 0.000000 
24.371596 9.542893 0.000000 
10.870601 13.417409 0.000000 
2.354291 12.023707 0.000000 
30.350917 1.432820 0.000000 
20.952661 12.896521 0.000000 
33.175545 2.241526 0.000000 
30.472511 6.849581 0.000000 
3.600511 4.557383 0.000000 
24.482706 4.715310 0.000000 
30.404878 1.649339 0.000000 
13.503122 2.366855 0.000000 
49.541881 1.953592 0.000000 
56.254691 1.104133 0.000000 
32.160414 7.922959 0.000000 
18.221160 8.322798 0.000000 
55.604779 4.396150 0.000000 
19.069333 5.222722 0.000000 
10.544359 10.669542 0.000000 
1.234671 11.361761 0.000000 
17.890411 8.820769 0.000000 
32.613009 8.019584 0.000000 
10.191581 2.928727 0.000000 
4.183814 8.948594 0.000000 
14.117122 1.885290 0.000000 
46.703174 3.131055 0.000000 
38.911489 2.005298 0.000000 
42.886226 1.156124 0.000000 
19.366416 13.499605 0.000000 
56.584812 1.555320 0.000000 
11.064195 5.200048 0.000000 
26.713719 8.477045 0.000000 
28.950072 3.195308 0.000000 
17.541607 4.073713 0.000000 
18.258251 14.236804 0.000000 
37.400904 1.287905 0.000000 
25.755144 10.939159 0.000000 
43.904853 3.930356 0.000000 
53.868886 0.798693 0.000000 
18.186253 12.240970 0.000000 
7.251109 13.549674 0.000000 
13.402690 7.225634 0.000000 
22.519148 8.763980 0.000000 
33.565104 0.814666 0.000000 
13.234102 8.922266 0.000000 
33.120481 0.834808 0.000000 
44.299343 4.199841 0.000000 
4.593952 3.326357 0.000000 
33.752434 2.567541 0.000000 
7.380072 7.782743 0.000000 
41.894803 1.459493 0.000000 
7.348883 1.061747 0.000000 
32.346867 1.812873 0.000000 
11.162039 6.145437 0.000000 
39.781282 0.372777 0.000000 
51.614711 2.306384 0.000000 
9.318941 4.798870 0.000000 
11.478559 1.428077 0.000000 
42.879620 4.408989 0.000000 
44.857688 2.808983 0.000000 
21.696984 11.683631 0.000000 
13.118943 7.711725 0.000000 
0.584265 10.611741 0.000000 
25.637574 2.734385 0.000000 
10.302769 10.616948 0.000000 
21.264015 5.905539 0.000000 
6.172982 2.861436 0.000000 
10.791753 12.350516 0.000000 
15.017744 14.237877 0.000000 
21.963478 0.571646 0.000000 
7.811976 13.454119 0.000000 
23.254718 4.984374 0.000000 
20.960864 3.774427 0.000000 
8.319464 2.149686 0.000000 
9.270805 1.581151 0.000000 
58.600923 3.520243 0.000000 
26.918313 10.845775 0.000000 
13.682741 1.981845 0.000000 
4.097677 0.612456 0.000000 
16.444874 1.012757 0.000000 
12.521508 2.163573 0.000000 
2.556938 13.899661 0.000000 
56.853888 3.010041 0.000000 
23.393857 8.498835 0.000000 
49.716209 1.265282 0.000000 
11.392194 7.882234 0.000000 
7.955887 0.841052 0.000000 
8.109196 1.879037 0.000000 
33.965039 0.947648 0.000000 
11.221229 13.279196 0.000000 
26.927787 8.966024 0.000000 
48.622345 2.134398 0.000000 
1.256286 0.715251 0.000000 
7.347813 3.738784 0.000000 
53.250757 0.836498 0.000000 
28.197410 3.465318 0.000000 
20.735701 5.996044 0.000000 
43.022407 0.397132 0.000000 
15.200303 5.811078 0.000000 
17.085613 7.056945 0.000000 
36.926404 2.201862 0.000000 
6.892802 7.395281 0.000000 
7.870004 6.606455 0.000000 
15.248790 5.586651 0.000000 
15.363178 5.193244 0.000000 
6.304740 5.772629 0.000000 
37.348329 1.900111 0.000000 
32.597106 2.431954 0.000000 
5.695396 6.227215 0.000000 
17.286216 6.913165 0.000000 
6.168196 7.480110 0.000000 
22.562571 6.957958 0.000000 
33.529960 3.561598 0.000000 
31.629592 2.633370 0.000000 
32.036367 4.326047 0.000000 
3.036965 4.869902 0.000000 
22.809311 8.211457 0.000000 
1.643094 4.604150 0.000000 
38.528869 3.473215 0.000000 
28.365608 6.555526 0.000000 
22.050882 8.331473 0.000000 
5.659891 7.501051 0.000000 
54.252194 3.241020 0.000000 
21.797176 8.347768 0.000000 
18.408593 11.633947 0.000000 
31.418952 3.510824 0.000000 
15.086008 6.685480 0.000000 
23.323600 3.467662 0.000000 
14.099441 10.835471 0.000000 
27.244895 7.017061 0.000000 
17.867704 11.715354 0.000000 
33.361350 4.657425 0.000000 
53.105392 3.574748 0.000000 
31.815024 2.418505 0.000000 
13.635339 11.127486 0.000000 
7.483620 10.096189 0.000000 
2.944559 3.906613 0.000000 
2.262798 6.235022 0.000000 
7.812442 6.010112 0.000000 
54.690857 2.407837 0.000000 
15.371648 4.486841 0.000000 
7.604656 7.188173 0.000000 
4.562733 12.883101 0.000000 
53.599970 3.941043 0.000000 
22.544934 2.710474 0.000000 
13.449680 11.324788 0.000000 
16.620246 3.502718 0.000000 
28.386716 7.391933 0.000000 
53.229659 2.577123 0.000000 
14.951534 11.685092 0.000000 
2.761241 5.514925 0.000000 
37.710175 1.537653 0.000000 
23.282797 7.006126 0.000000 
18.930082 3.476291 0.000000 
18.653664 3.089604 0.000000 
26.806736 5.123717 0.000000 
3.514992 12.431328 0.000000 
15.634884 7.494069 0.000000 
4.195726 12.348621 0.000000 
3.329693 4.252175 0.000000 
38.721499 2.376619 0.000000 
17.811601 6.556171 0.000000 
14.698968 10.688935 0.000000 
15.542021 4.059768 0.000000 
23.362798 1.690264 0.000000 
32.149695 1.946058 0.000000 
36.344522 3.894115 0.000000 
8.312010 10.632260 0.000000 
20.702015 8.102438 0.000000 
18.990810 11.228846 0.000000 
7.315687 5.342771 0.000000 
26.544909 1.116955 0.000000 
11.535126 5.083808 0.000000 
54.737999 2.785548 0.000000 
8.217029 9.717210 0.000000 
26.664982 1.515609 0.000000 
26.086540 5.838976 0.000000 
17.901200 10.726650 0.000000 
4.313823 12.939327 0.000000 
14.303249 11.813650 0.000000 
28.737727 7.164686 0.000000 
16.675779 7.643131 0.000000 
8.376483 11.340560 0.000000 
7.590287 10.498752 0.000000 
28.615763 6.925144 0.000000 
4.547926 7.142743 0.000000 
22.496226 2.257878 0.000000 
18.923271 2.247415 0.000000 
26.407016 1.501064 0.000000 
23.982620 3.284171 0.000000 
26.783289 1.256795 0.000000 
23.737135 10.931721 0.000000 
5.099211 7.538209 0.000000 
8.309372 9.944734 0.000000 
42.003553 3.082038 0.000000 
31.191087 3.042145 0.000000 
15.125348 11.523473 0.000000 
8.750100 11.106813 0.000000 
23.831091 11.154014 0.000000 
21.431218 8.617386 0.000000 
19.596173 3.449258 0.000000 
12.064483 5.432207 0.000000 
16.255423 7.991254 0.000000 
19.311411 2.602604 0.000000 
12.240498 4.378130 0.000000 
5.021139 12.986714 0.000000 
21.022180 8.403178 0.000000 
33.613914 2.763345 0.000000 
33.139598 2.499267 0.000000 
21.845254 7.028514 0.000000 
27.016176 6.955877 0.000000 
7.319283 7.556678 0.000000 
17.875732 6.821690 0.000000 
26.510896 6.040151 0.000000 
23.419368 8.261205 0.000000 
26.021983 5.416014 0.000000 
32.740447 5.037981 0.000000 
5.279612 6.395000 0.000000 
10.897924 10.941082 0.000000 
5.170177 12.258110 0.000000 
1.703474 8.656418 0.000000 
31.896861 1.871870 0.000000 
10.759390 11.165139 0.000000 
14.445110 10.571952 0.000000 
11.533767 5.541772 0.000000 
5.111827 6.606737 0.000000 
18.892427 11.670635 0.000000 
19.156144 13.617556 0.000000 
41.680166 1.855770 0.000000 
7.583588 5.254896 0.000000 
24.204366 3.122995 0.000000 
19.153885 11.037432 0.000000 
42.021893 2.130176 0.000000 
26.820237 6.491773 0.000000 
38.809844 3.169157 0.000000 
32.268004 4.805719 0.000000 
18.522279 2.876841 0.000000 
25.096351 9.127508 0.000000 
19.257515 1.968796 0.000000 
17.154039 4.384560 0.000000 
41.287669 2.029435 0.000000 
9.450668 1.461714 0.000000 
8.126952 5.463994 0.000000 
25.817257 1.212671 0.000000 
3.586433 12.659666 0.000000 
37.004489 4.364484 0.000000 
25.937414 10.567700 0.000000 
2.289000 8.578506 0.000000 
38.728287 2.651485 0.000000 
28.279404 5.901539 0.000000 
21.398109 7.376849 0.000000 
16.162867 3.426096 0.000000 
1.795309 4.051574 0.000000 
20.922520 12.675380 0.000000 
22.836420 1.989300 0.000000 
10.984869 13.180045 0.000000 
23.841789 2.814829 0.000000 
40.978302 3.076412 0.000000 
7.482472 9.844358 0.000000 
54.721818 3.232911 0.000000 
4.011654 2.143671 0.000000 
5.777361 5.792821 0.000000 
19.205778 1.708557 0.000000 
25.852841 3.598315 0.000000 
10.547611 13.036053 0.000000 
33.328904 5.291840 0.000000 
22.478950 8.535013 0.000000 
23.887285 7.290785 0.000000 
22.045445 2.127552 0.000000 
23.657672 2.348079 0.000000 
26.196357 3.169093 0.000000 
21.264407 12.073041 0.000000 
53.403356 2.372636 0.000000 
6.607379 5.471589 0.000000 
36.464319 2.278170 0.000000 
54.126217 2.110680 0.000000 
4.626628 12.207042 0.000000 
25.740077 10.074640 0.000000 
36.285226 3.023054 0.000000 
1.552146 4.164918 0.000000 
30.992507 3.267364 0.000000 
38.094670 4.049314 0.000000 
31.893104 4.116212 0.000000 
31.580596 3.710989 0.000000 
24.872592 9.210232 0.000000 
18.556652 10.697631 0.000000 
50.512269 3.808001 0.000000 
17.204590 11.027137 0.000000 
27.871733 5.668585 0.000000 
38.371277 1.699614 0.000000 
27.428138 5.451946 0.000000 
2.298843 8.992214 0.000000 
15.843859 3.726405 0.000000 
1.345058 5.868496 0.000000 
23.950728 1.963240 0.000000 
30.740065 3.130627 0.000000 
19.473045 10.767250 0.000000 
12.619514 4.877116 0.000000 
17.300578 4.874008 0.000000 
18.813484 2.004268 0.000000 
18.171721 12.012574 0.000000 
1.405974 6.358492 0.000000 
15.218843 6.894761 0.000000 
3.133033 5.288627 0.000000 
13.791837 11.843636 0.000000 
3.874977 12.071705 0.000000 
17.449219 5.351405 0.000000 
17.055515 4.159856 0.000000 
9.782548 2.107890 0.000000 
16.774325 3.729833 0.000000 
17.768347 5.649282 0.000000 
6.563040 7.665063 0.000000 
27.513543 7.333857 0.000000 
14.700228 6.483555 0.000000 
37.467674 1.493984 0.000000 
19.404633 3.078041 0.000000 
37.538818 4.416552 0.000000 
7.334485 10.480663 0.000000 
53.886236 2.186375 0.000000 
7.844297 10.924377 0.000000 
3.012343 5.512355 0.000000 
28.152668 7.407953 0.000000 
17.474209 11.635188 0.000000 
40.935111 2.635630 0.000000 
54.005966 3.623503 0.000000 
26.700131 3.233191 0.000000 
4.740408 6.965504 0.000000 
19.859391 14.347752 0.000000 
1.320653 5.621369 0.000000 
23.430678 11.179470 0.000000 
20.559495 8.614746 0.000000 
5.473214 12.704628 0.000000 
25.286978 8.334238 0.000000 
18.151217 6.187387 0.000000 
4.274444 2.421421 0.000000 
14.430698 12.049812 0.000000 
1.422917 10.064277 0.000000 
24.304224 10.925904 0.000000 
4.467676 2.023633 0.000000 
13.063762 12.368810 0.000000 
8.784291 11.449415 0.000000 
20.604263 0.846491 0.000000 
58.841860 2.205948 0.000000 
13.139578 6.811494 0.000000 
41.430536 3.686648 0.000000 
30.554110 0.859218 0.000000 
1.325316 4.902713 0.000000 
17.448366 10.915842 0.000000 
19.504306 2.433917 0.000000 
32.960624 5.431775 0.000000 
5.037694 10.102591 0.000000 
20.307201 1.208395 0.000000 
22.926548 6.769569 0.000000 
22.194016 6.752963 0.000000 
19.887295 3.178591 0.000000 
12.518374 4.395155 0.000000 
41.261435 3.504167 0.000000 
23.817537 5.274133 0.000000 
9.934500 2.613626 0.000000 
33.644197 3.972700 0.000000 
4.417644 2.836058 0.000000 
10.550652 9.360747 0.000000 
25.675026 8.655518 0.000000 
13.481815 7.023030 0.000000 
36.323104 2.777236 0.000000 
23.820211 8.168893 0.000000 
41.795049 1.645785 0.000000 
58.004611 3.729486 0.000000 
3.085607 10.573358 0.000000 
1.295260 5.141181 0.000000 
38.494659 3.878874 0.000000 
15.764605 0.922561 0.000000 
2.617157 1.316299 0.000000 
23.400946 11.620858 0.000000 
25.208717 6.842512 0.000000 
27.390026 4.955815 0.000000 
7.635877 9.463815 0.000000 
26.303905 0.833392 0.000000 
5.283607 14.140635 0.000000 
19.861912 10.730309 0.000000 
13.711703 10.707280 0.000000 
20.778012 12.215164 0.000000 
24.188862 5.041273 0.000000 
1.442000 2.275213 0.000000 
12.280410 5.556064 0.000000 
8.712588 0.843543 0.000000 
33.355396 7.198540 0.000000 
53.272870 4.162875 0.000000 
23.101796 5.085954 0.000000 
3.422005 3.869877 0.000000 
20.284156 12.999260 0.000000 
21.408303 12.533956 0.000000 
46.733177 1.110453 0.000000 
53.805924 3.959611 0.000000 
25.391122 7.439623 0.000000 
47.201312 1.593377 0.000000 
8.958930 13.826331 0.000000 
21.848047 10.292124 0.000000 
27.170788 9.323548 0.000000 
20.523823 12.757343 0.000000 
18.919386 5.827371 0.000000 
11.890917 8.176433 0.000000 
57.142568 1.762824 0.000000 
24.685063 3.169728 0.000000 
25.935567 10.829252 0.000000 
29.321242 4.464571 0.000000 
16.446456 9.489604 0.000000 
25.437834 8.800599 0.000000 
52.789783 3.331798 0.000000 
17.066979 11.415080 0.000000 
7.189756 13.311834 0.000000 
55.955913 4.178549 0.000000 
2.239731 3.821393 0.000000 
28.599375 3.217606 0.000000 
46.713457 1.524117 0.000000 
21.937039 10.693449 0.000000 
2.819230 8.657245 0.000000 
25.368888 7.812327 0.000000 
21.743524 6.799065 0.000000 
26.901124 3.334242 0.000000 
43.409137 3.463366 0.000000 
26.246590 2.896471 0.000000 
9.124591 2.974026 0.000000 
7.013929 1.061652 0.000000 
16.032738 9.623954 0.000000 
25.281678 11.366255 0.000000 
24.271015 11.169598 0.000000 
28.503666 5.539217 0.000000 
34.074027 6.838451 0.000000 
3.153411 11.928138 0.000000 
56.392875 3.726272 0.000000 
22.296788 13.419898 0.000000 
18.247500 10.450397 0.000000 
24.086484 5.279355 0.000000 
22.881876 4.818130 0.000000 
1.815355 6.550210 0.000000 
43.432404 3.880213 0.000000 
18.991383 13.233139 0.000000 
14.946679 3.629202 0.000000 
52.916669 2.935984 0.000000 
27.047279 4.806889 0.000000 
23.833948 7.740063 0.000000 
16.519558 8.066327 0.000000 
3.588608 11.810658 0.000000 
1.416620 8.659031 0.000000 
6.623508 1.017374 0.000000 
14.951459 6.089338 0.000000 
14.877050 12.052231 0.000000 
26.373757 10.949605 0.000000 
23.017848 1.561460 0.000000 
52.918565 4.008509 0.000000 
23.794543 11.527506 0.000000 
53.263327 2.179098 0.000000 
27.203969 1.121618 0.000000 
18.400612 13.908492 0.000000 
1.050918 2.212617 0.000000 
46.912758 1.315919 0.000000 
55.031410 2.568441 0.000000 
25.583666 10.275154 0.000000 
27.025257 2.967635 0.000000 
56.545443 3.919286 0.000000 
11.607311 11.391531 0.000000 
21.006300 7.367817 0.000000 
2.831702 3.221875 0.000000 
10.750476 9.087035 0.000000 
27.517519 1.309556 0.000000 
1.433780 9.065701 0.000000 
16.419632 3.132820 0.000000 
6.340115 14.397605 0.000000 
2.024596 14.206258 0.000000 
25.212494 9.491000 0.000000 
33.665565 7.015499 0.000000 
8.224697 7.197864 0.000000 
25.554844 9.625379 0.000000 
47.381520 1.064790 0.000000 
26.666919 3.641001 0.000000 
56.907640 3.997677 0.000000 
0.847650 2.256586 0.000000 
4.075847 2.537144 0.000000 
53.804629 4.312357 0.000000 
12.619223 5.309070 0.000000 
25.543942 9.038313 0.000000 
18.725244 13.764875 0.000000 
8.255325 6.830995 0.000000 
26.033128 1.610916 0.000000 
46.958598 1.857510 0.000000 
9.618369 2.274594 0.000000 
9.113832 11.135265 0.000000 
54.585986 2.033390 0.000000 
17.374860 9.233922 0.000000 
6.226653 2.624011 0.000000 
51.135432 2.679028 0.000000 
9.004101 13.482987 0.000000 
44.113144 3.901871 0.000000 
27.098688 9.530858 0.000000 
5.582194 12.250081 0.000000 
5.647158 13.985165 0.000000 
30.201107 8.518205 0.000000 
58.425488 3.631807 0.000000 
17.201717 5.295118 0.000000 
15.467774 6.878950 0.000000 
15.425932 5.759411 0.000000 
17.075033 6.790937 0.000000 
32.002041 3.879622 0.000000 
17.058494 4.819015 0.000000 
36.487645 3.177350 0.000000 
15.551431 5.379176 0.000000 
32.150589 4.089117 0.000000 
15.343812 6.666276 0.000000 
2.521441 5.511403 0.000000 
38.504206 2.538224 0.000000 
2.256686 4.046159 0.000000 
1.523558 5.473739 0.000000 
1.523185 5.239817 0.000000 
33.087027 2.755143 0.000000 
27.677512 5.823291 0.000000 
38.276047 1.937904 0.000000 
23.658989 7.610892 0.000000 
37.436809 4.194384 0.000000 
21.858302 7.322703 0.000000 
16.691034 3.950680 0.000000 
17.596541 5.827759 0.000000 
36.524594 2.935237 0.000000 
31.679978 3.486639 0.000000 
53.635679 2.505717 0.000000 
26.943445 6.254822 0.000000 
16.633979 7.376617 0.000000 
31.909643 2.655565 0.000000 
21.898199 8.115732 0.000000 
5.361447 6.633833 0.000000 
23.515015 2.544173 0.000000 
2.016544 4.184518 0.000000 
41.171118 2.627543 0.000000 
53.070801 3.075076 0.000000 
7.230117 5.571441 0.000000 
37.840733 4.023536 0.000000 
14.152513 11.589990 0.000000 
32.471180 4.655709 0.000000 
37.187216 4.173490 0.000000 
17.884951 10.975746 0.000000 
28.024063 7.194211 0.000000 
1.575273 5.966723 0.000000 
32.725719 4.779193 0.000000 
5.205283 6.865188 0.000000 
54.068378 2.336335 0.000000 
41.240022 3.054085 0.000000 
33.353160 2.887688 0.000000 
23.479474 8.043689 0.000000 
12.432715 5.002268 0.000000 
2.481211 3.873563 0.000000 
16.531676 3.760580 0.000000 
8.150407 10.135394 0.000000 
17.446781 11.412266 0.000000 
7.700664 5.505646 0.000000 
13.209865 11.752940 0.000000 
18.637896 10.953305 0.000000 
13.552864 11.902622 0.000000 
19.129719 2.744754 0.000000 
33.412572 4.018845 0.000000 
5.002297 12.450642 0.000000 
7.685378 9.973425 0.000000 
27.174452 6.767077 0.000000 
13.696935 11.373820 0.000000 
7.822969 10.498896 0.000000 
8.081699 9.905905 0.000000 
27.183933 5.350257 0.000000 
15.072687 6.268093 0.000000 
12.379535 4.785951 0.000000 
18.751345 2.872609 0.000000 
23.559444 3.488259 0.000000 
27.107907 5.061238 0.000000 
3.107641 4.634144 0.000000 
14.515497 10.845175 0.000000 
19.145372 3.016619 0.000000 
28.259837 7.194227 0.000000 
15.438503 4.711291 0.000000 
36.541006 4.079461 0.000000 
5.045272 12.710124 0.000000 
21.163396 7.533027 0.000000 
7.714767 9.692183 0.000000 
17.721647 6.326464 0.000000 
11.880956 5.311449 0.000000 
17.430191 11.157887 0.000000 
23.546276 2.121248 0.000000 
32.352892 2.318839 0.000000 
4.908761 7.347134 0.000000 
8.403835 10.870805 0.000000 
3.770795 12.481745 0.000000 
33.265588 4.890462 0.000000 
26.360101 5.803061 0.000000 
28.200417 6.122924 0.000000 
26.307401 1.045172 0.000000 
21.197453 8.344464 0.000000 
14.882683 11.450270 0.000000 
7.814104 5.748171 0.000000 
21.555199 8.376844 0.000000 
37.550468 1.733837 0.000000 
23.070456 1.948676 0.000000 
4.410685 12.702219 0.000000 
7.862097 6.851302 0.000000 
7.753659 6.233913 0.000000 
22.561192 8.277643 0.000000 
32.861090 2.550189 0.000000 
18.138187 11.737217 0.000000 
23.042180 8.150076 0.000000 
17.478766 6.784682 0.000000 
23.589155 1.705360 0.000000 
5.531316 6.425814 0.000000 
1.769327 4.344375 0.000000 
31.439680 2.867740 0.000000 
5.377421 7.471222 0.000000 
1.577845 4.839103 0.000000 
53.013549 3.332516 0.000000 
31.967373 2.263455 0.000000 
11.676649 4.854487 0.000000 
53.247590 3.761203 0.000000 
19.069745 2.477903 0.000000 
23.046501 6.991187 0.000000 
7.372418 7.287138 0.000000 
15.333397 4.205526 0.000000 
54.305607 2.281295 0.000000 
2.743212 3.756551 0.000000 
23.044208 3.357627 0.000000 
53.757993 3.734708 0.000000 
53.099927 2.809592 0.000000 
3.628113 12.023973 0.000000 
15.157807 6.040336 0.000000 
36.205237 3.512857 0.000000 
18.655319 11.517110 0.000000 
6.657726 7.435814 0.000000 
54.033418 3.361304 0.000000 
5.846792 6.022566 0.000000 
22.076574 6.948458 0.000000 
27.053950 1.301024 0.000000 
38.389406 3.663053 0.000000 
38.688612 2.102261 0.000000 
2.976025 5.098970 0.000000 
28.371336 6.792191 0.000000 
18.312499 10.663102 0.000000 
23.656583 11.330084 0.000000 
16.102264 3.672646 0.000000 
6.546227 5.708960 0.000000 
16.397996 3.356862 0.000000 
54.598492 2.972924 0.000000 
16.250076 7.714430 0.000000 
26.197804 5.595690 0.000000 
20.900773 12.413522 0.000000 
25.255694 9.285271 0.000000 
3.128081 4.064228 0.000000 
3.371056 4.533854 0.000000 
4.621793 7.385449 0.000000 
11.418993 5.302841 0.000000 
18.935795 13.702089 0.000000 
32.948109 5.171804 0.000000 
33.440287 4.429647 0.000000 
19.051676 10.791617 0.000000 
22.753135 2.228476 0.000000 
5.918474 7.485814 0.000000 
42.047057 2.847725 0.000000 
25.414495 9.455868 0.000000 
15.784105 3.961680 0.000000 
14.793721 11.854033 0.000000 
11.634244 5.773588 0.000000 
22.415907 2.489527 0.000000 
19.162368 2.222775 0.000000 
20.741951 7.706685 0.000000 
8.233578 10.374647 0.000000 
14.953203 6.476648 0.000000 
27.495490 7.089972 0.000000 
14.947903 10.788326 0.000000 
31.269006 3.295371 0.000000 
16.831508 7.176453 0.000000 
2.002247 8.660079 0.000000 
22.313328 8.314112 0.000000 
32.215324 4.534917 0.000000 
13.840654 10.929489 0.000000 
37.799361 4.440712 0.000000 
25.472927 8.524273 0.000000 
15.819484 7.650019 0.000000 
25.499870 10.028487 0.000000 
37.958381 1.537072 0.000000 
10.477937 13.250839 0.000000 
1.857852 6.323491 0.000000 
10.723632 13.220202 0.000000 
24.647209 9.256350 0.000000 
26.539069 5.234176 0.000000 
5.268629 7.720346 0.000000 
8.643244 11.294453 0.000000 
5.379854 12.335708 0.000000 
25.914775 5.640849 0.000000 
4.462206 12.434054 0.000000 
2.444857 8.789339 0.000000 
23.951987 10.977315 0.000000 
1.571473 8.864994 0.000000 
9.630512 1.316701 0.000000 
26.260454 3.424210 0.000000 
11.967464 4.379928 0.000000 
33.562402 3.311386 0.000000 
4.253687 2.149179 0.000000 
19.439276 1.774379 0.000000 
7.368225 5.130316 0.000000 
1.821896 8.876721 0.000000 
23.937069 3.042782 0.000000 
19.515260 3.689265 0.000000 
46.980851 1.591067 0.000000 
37.135557 2.056395 0.000000 
11.016976 12.921896 0.000000 
18.646125 2.657458 0.000000 
15.469741 7.308781 0.000000 
18.785544 3.299400 0.000000 
26.673601 3.432898 0.000000 
23.524029 7.021713 0.000000 
8.152566 11.283896 0.000000 
13.305962 11.530002 0.000000 
41.538965 2.068712 0.000000 
54.831826 2.591327 0.000000 
25.326173 9.050348 0.000000 
41.774841 2.081681 0.000000 
19.676602 10.631211 0.000000 
19.449942 3.292187 0.000000 
6.840811 5.420598 0.000000 
2.528982 5.928669 0.000000 
19.115311 3.626810 0.000000 
22.683340 2.942627 0.000000 
27.704480 7.430810 0.000000 
11.005358 11.143444 0.000000 
41.922216 3.277672 0.000000 
10.036568 2.445404 0.000000 
26.109120 10.714965 0.000000 
41.152650 2.218431 0.000000 
4.661572 2.118513 0.000000 
30.340146 0.830299 0.000000 
21.931736 1.913541 0.000000 
38.626066 3.283802 0.000000 
39.022466 3.283540 0.000000 
20.521904 1.218051 0.000000 
33.421782 5.085760 0.000000 
42.057913 2.378675 0.000000 
7.481185 10.312562 0.000000 
23.682190 5.057540 0.000000 
28.078956 5.760703 0.000000 
17.659006 11.723147 0.000000 
19.369395 1.566660 0.000000 
4.079326 12.974033 0.000000 
8.112524 9.524362 0.000000 
25.893708 0.993667 0.000000 
12.978481 6.976840 0.000000 
30.553167 3.254151 0.000000 
1.636135 10.043374 0.000000 
16.978843 11.016946 0.000000 
23.671174 8.036908 0.000000 
26.088211 3.573859 0.000000 
8.675129 10.896175 0.000000 
28.289181 5.658210 0.000000 
22.326043 13.195435 0.000000 
20.069080 14.343767 0.000000 
5.208550 10.214601 0.000000 
32.355554 2.060414 0.000000 
56.471883 3.523700 0.000000 
2.078451 6.337452 0.000000 
25.509746 8.278259 0.000000 
5.929337 5.633226 0.000000 
26.547016 1.331685 0.000000 
3.675261 12.848240 0.000000 
26.805881 6.899949 0.000000 
2.797218 1.517978 0.000000 
28.822693 7.367191 0.000000 
20.862785 8.270020 0.000000 
32.985967 2.342790 0.000000 
1.364161 8.430990 0.000000 
23.213594 8.329336 0.000000 
2.904635 10.481844 0.000000 
25.657792 9.212395 0.000000 
43.588918 3.660279 0.000000 
21.966149 10.479098 0.000000 
4.067465 1.953738 0.000000 
37.166213 2.309546 0.000000 
38.281985 3.446603 0.000000 
15.602054 6.648486 0.000000 
36.738864 3.089450 0.000000 
6.497645 5.945148 0.000000 
5.940629 6.267241 0.000000 
6.738677 7.205974 0.000000 
32.271072 3.869636 0.000000 
37.329596 3.972392 0.000000 
32.808454 2.800140 0.000000 
2.785840 4.930644 0.000000 
38.414053 3.257703 0.000000 
7.663726 6.697865 0.000000 
16.558640 7.138938 0.000000 
6.038054 7.244039 0.000000 
22.643568 8.036969 0.000000 
1.819362 4.813172 0.000000 
2.248219 4.293289 0.000000 
32.689875 4.521250 0.000000 
37.610903 1.988856 0.000000 
15.871250 7.391808 0.000000 
36.802122 3.957261 0.000000 
1.722066 5.326660 0.000000 
23.156722 7.224941 0.000000 
53.236030 3.212439 0.000000 
26.745383 5.386632 0.000000 
16.906675 4.361365 0.000000 
5.622209 6.646091 0.000000 
27.237226 5.591573 0.000000 
2.892773 4.162460 0.000000 
5.793261 7.260968 0.000000 
2.476581 4.149624 0.000000 
2.038024 4.437633 0.000000 
15.624261 4.571573 0.000000 
22.936768 2.905498 0.000000 
33.340269 3.411040 0.000000 
54.045486 3.088536 0.000000 
28.154655 6.695711 0.000000 
41.829301 2.494212 0.000000 
33.161474 4.462804 0.000000 
7.589110 6.101166 0.000000 
22.799798 2.691538 0.000000 
22.400138 8.082572 0.000000 
41.828128 2.722485 0.000000 
26.615138 5.806130 0.000000 
23.672457 3.008049 0.000000 
32.360330 2.560181 0.000000 
7.415650 7.028299 0.000000 
54.490528 2.756411 0.000000 
20.948261 8.031161 0.000000 
17.968356 11.504674 0.000000 
21.419529 7.620387 0.000000 
23.273714 3.189627 0.000000 
41.637210 2.319327 0.000000 
53.355242 2.787104 0.000000 
18.460758 11.366148 0.000000 
14.077929 11.075430 0.000000 
23.398724 7.224805 0.000000 
16.481283 3.970820 0.000000 
17.277409 5.530047 0.000000 
37.988916 3.828899 0.000000 
36.571815 2.484863 0.000000 
14.438174 11.576634 0.000000 
15.308214 6.228561 0.000000 
3.993224 12.780389 0.000000 
15.737302 4.181472 0.000000 
12.194636 4.925370 0.000000 
54.229420 2.476761 0.000000 
12.057136 5.157367 0.000000 
2.040825 6.126717 0.000000 
32.457178 4.399575 0.000000 
38.495999 2.813970 0.000000 
2.627930 5.303831 0.000000 
31.736317 2.872113 0.000000 
15.381111 5.988384 0.000000 
19.133479 3.422384 0.000000 
38.574958 3.068522 0.000000 
14.750123 10.949703 0.000000 
4.630239 12.640730 0.000000 
28.151562 6.955719 0.000000 
27.884373 5.907251 0.000000 
17.532948 6.524073 0.000000 
2.397179 5.730489 0.000000 
8.119514 10.842264 0.000000 
13.538845 11.535849 0.000000 
7.709272 10.250689 0.000000 
18.395006 10.875659 0.000000 
8.084833 6.995672 0.000000 
32.104131 2.448268 0.000000 
32.987315 4.901948 0.000000 
17.289777 6.653677 0.000000 
6.046181 5.841227 0.000000 
5.259737 12.535529 0.000000 
38.499348 2.290856 0.000000 
6.996794 5.589466 0.000000 
27.101524 6.496521 0.000000 
27.748543 7.188728 0.000000 
16.015821 3.901252 0.000000 
38.113497 1.725427 0.000000 
11.792886 5.095737 0.000000 
1.617458 6.214199 0.000000 
31.849025 3.661390 0.000000 
21.001581 7.769812 0.000000 
19.337736 3.492978 0.000000 
33.298395 4.227837 0.000000 
31.515057 3.301422 0.000000 
4.809362 12.824542 0.000000 
13.410729 12.102405 0.000000 
26.914290 1.513016 0.000000 
17.662057 11.060486 0.000000 
23.023205 2.197031 0.000000 
27.425964 6.851406 0.000000 
33.583966 3.043884 0.000000 
23.428167 2.312280 0.000000 
21.630897 8.132824 0.000000 
17.127777 5.058077 0.000000 
53.820475 3.480574 0.000000 
41.352728 3.268836 0.000000 
7.137377 7.356104 0.000000 
4.993986 7.072958 0.000000 
53.853593 2.425356 0.000000 
26.783757 6.026990 0.000000 
23.587822 2.777697 0.000000 
23.609789 7.836404 0.000000 
3.949191 12.309057 0.000000 
26.964253 5.296290 0.000000 
5.157337 7.299847 0.000000 
28.509500 7.177618 0.000000 
37.692395 4.219454 0.000000 
18.885279 11.003856 0.000000 
41.098266 2.847153 0.000000 
27.462213 5.704779 0.000000 
1.542717 5.719005 0.000000 
26.079479 1.187102 0.000000 
6.415486 7.470135 0.000000 
13.183772 11.979777 0.000000 
2.445509 6.130234 0.000000 
22.083990 7.174441 0.000000 
14.702501 11.626384 0.000000 
36.440119 3.415657 0.000000 
18.893116 2.670565 0.000000 
7.970532 9.684472 0.000000 
17.902821 6.136066 0.000000 
25.816692 5.873804 0.000000 
17.242143 11.294694 0.000000 
16.353632 3.602321 0.000000 
22.808052 6.972451 0.000000 
19.034625 2.051495 0.000000 
53.376310 3.954517 0.000000 
23.139932 1.722812 0.000000 
8.509592 11.103624 0.000000 
12.445948 5.216153 0.000000 
20.580983 7.902117 0.000000 
7.465526 5.515644 0.000000 
26.937892 6.712966 0.000000 
22.303092 7.003528 0.000000 
14.554618 11.825725 0.000000 
54.470462 3.158990 0.000000 
54.532245 2.250200 0.000000 
3.175323 4.430132 0.000000 
7.911499 10.085900 0.000000 
14.308964 10.757462 0.000000 
18.864477 11.422911 0.000000 
3.447028 12.184656 0.000000 
21.128964 12.308123 0.000000 
2.880930 5.318329 0.000000 
22.251155 2.297218 0.000000 
15.398998 4.944977 0.000000 
16.473344 7.818412 0.000000 
38.241741 3.855359 0.000000 
23.902596 10.770422 0.000000 
23.699904 1.930942 0.000000 
18.095184 10.601353 0.000000 
4.254963 12.555620 0.000000 
13.196991 12.185329 0.000000 
9.569614 1.090888 0.000000 
7.907302 5.541130 0.000000 
1.495153 5.035356 0.000000 
33.492155 3.792163 0.000000 
23.713291 7.417278 0.000000 
23.627613 11.105248 0.000000 
11.208909 5.319385 0.000000 
15.059307 11.280474 0.000000 
28.310787 6.315903 0.000000 
32.064242 4.718342 0.000000 
19.273091 10.845151 0.000000 
2.564344 3.627021 0.000000 
33.123251 5.298194 0.000000 
7.880915 6.392886 0.000000 
36.968393 4.136347 0.000000 
12.367933 4.568917 0.000000 
19.481138 10.559588 0.000000 
2.214772 8.789965 0.000000 
19.289971 2.390856 0.000000 
24.563024 9.447816 0.000000 
25.453093 9.819078 0.000000 
17.667924 6.896756 0.000000 
23.265626 8.091041 0.000000 
22.511651 13.119697 0.000000 
36.195565 3.732114 0.000000 
24.136590 11.016136 0.000000 
22.203876 2.515540 0.000000 
15.451968 5.560059 0.000000 
32.163820 2.188604 0.000000 
3.330295 4.033089 0.000000 
20.232636 14.203144 0.000000 
18.953764 13.470073 0.000000 
21.353612 8.428693 0.000000 
15.658183 5.632147 0.000000 
17.027628 5.478394 0.000000 
15.615301 5.908246 0.000000 
16.886646 5.001227 0.000000 
38.182260 3.221312 0.000000 
17.047315 6.547818 0.000000 
38.284976 2.643109 0.000000 
33.170337 4.010986 0.000000 
31.989654 2.905647 0.000000 
22.688333 7.163516 0.000000 
23.110661 7.906682 0.000000 
31.949522 3.388618 0.000000 
2.395516 5.286454 0.000000 
27.703495 6.088730 0.000000 
15.628886 4.840929 0.000000 
17.279157 6.409950 0.000000 
22.090507 7.434327 0.000000 
32.660105 4.272075 0.000000 
22.489097 7.866339 0.000000 
27.490222 5.955261 0.000000 
27.188749 6.233758 0.000000 
2.247674 4.558315 0.000000 
23.436568 7.644519 0.000000 
7.127023 5.793217 0.000000 
15.709647 6.890721 0.000000 
2.290926 5.497183 0.000000 
2.460108 4.399356 0.000000 
28.065054 6.308670 0.000000 
41.488375 3.055903 0.000000 
23.275059 7.442173 0.000000 
41.743818 3.129180 0.000000 
22.480161 7.155924 0.000000 
15.557602 6.181378 0.000000 
1.763174 5.815093 0.000000 
33.063894 4.211752 0.000000 
21.756508 7.895015 0.000000 
23.291034 2.511496 0.000000 
27.946558 6.793862 0.000000 
53.826784 2.681141 0.000000 
23.074332 2.666600 0.000000 
16.573747 4.154405 0.000000 
6.728124 5.881093 0.000000 
14.644441 11.386612 0.000000 
14.278607 11.417726 0.000000 
16.382537 7.311085 0.000000 
7.534102 6.311522 0.000000 
37.734928 3.801574 0.000000 
38.026639 1.923703 0.000000 
5.388018 7.212914 0.000000 
5.894368 6.997624 0.000000 
53.584469 3.543588 0.000000 
32.953203 2.958223 0.000000 
14.541951 11.122712 0.000000 
36.692538 3.335398 0.000000 
1.735358 5.062869 0.000000 
7.383361 5.769691 0.000000 
32.432289 4.112269 0.000000 
41.591649 2.604462 0.000000 
36.750243 2.831774 0.000000 
38.347032 3.041485 0.000000 
37.076104 3.948335 0.000000 
5.477718 6.835674 0.000000 
36.958167 2.451251 0.000000 
41.391075 2.236350 0.000000 
16.689547 6.940432 0.000000 
21.362049 8.178695 0.000000 
18.707307 11.230028 0.000000 
2.919073 4.433927 0.000000 
26.876176 5.795392 0.000000 
12.127363 4.648817 0.000000 
32.930022 4.625845 0.000000 
54.308965 2.962538 0.000000 
17.851086 11.252898 0.000000 
27.346211 6.612492 0.000000 
27.694373 6.904858 0.000000 
6.966288 7.169461 0.000000 
2.260302 5.966762 0.000000 
53.834225 3.224242 0.000000 
17.703606 11.496863 0.000000 
6.260740 6.004077 0.000000 
6.516992 7.251105 0.000000 
5.797395 6.468156 0.000000 
21.638989 7.463323 0.000000 
54.040924 2.579367 0.000000 
22.890944 2.445889 0.000000 
15.591781 7.089104 0.000000 
23.430664 2.989550 0.000000 
8.266537 11.084256 0.000000 
32.105442 3.638423 0.000000 
18.887410 3.073904 0.000000 
18.464075 11.119381 0.000000 
13.753737 11.595955 0.000000 
15.952993 4.157221 0.000000 
36.569753 3.824528 0.000000 
23.285316 2.093267 0.000000 
2.850609 4.697085 0.000000 
23.531881 3.251289 0.000000 
26.492977 5.536846 0.000000 
32.604968 2.672162 0.000000 
18.221984 11.476211 0.000000 
8.076078 10.561729 0.000000 
2.697428 4.018679 0.000000 
15.208011 6.461463 0.000000 
17.524408 5.586190 0.000000 
18.128912 10.852628 0.000000 
16.042268 7.551819 0.000000 
22.876171 7.966074 0.000000 
33.175009 5.097032 0.000000 
4.023711 12.555994 0.000000 
33.358384 3.159158 0.000000 
16.989718 4.584262 0.000000 
11.952114 4.890792 0.000000 
3.697975 12.252173 0.000000 
4.736387 12.420477 0.000000 
16.806748 4.150413 0.000000 
3.815963 12.698667 0.000000 
37.384937 2.156244 0.000000 
17.622036 11.279275 0.000000 
1.731194 5.569431 0.000000 
12.257648 5.322243 0.000000 
12.272373 5.122323 0.000000 
21.239883 7.756826 0.000000 
28.611939 7.377114 0.000000 
38.137173 3.636377 0.000000 
22.148401 8.105454 0.000000 
41.489469 3.451036 0.000000 
8.041056 5.688178 0.000000 
26.170631 1.433099 0.000000 
54.635299 2.604893 0.000000 
4.761742 7.183334 0.000000 
7.837515 7.093289 0.000000 
23.639280 7.230225 0.000000 
26.334533 1.267838 0.000000 
6.765152 5.637438 0.000000 
1.864934 4.581251 0.000000 
17.668876 6.705185 0.000000 
7.977616 10.316907 0.000000 
13.874779 11.208109 0.000000 
36.545993 2.699339 0.000000 
13.359746 11.893958 0.000000 
4.186691 12.752963 0.000000 
16.282927 3.870911 0.000000 
28.079819 5.960854 0.000000 
41.861268 2.281382 0.000000 
53.276634 2.988579 0.000000 
53.152596 3.961070 0.000000 
17.909949 10.501558 0.000000 
19.245928 3.251874 0.000000 
23.758710 3.407453 0.000000 
28.377828 7.009399 0.000000 
23.055980 3.110441 0.000000 
53.445330 2.596544 0.000000 
31.983095 2.069741 0.000000 
4.846382 12.608546 0.000000 
20.792968 7.901640 0.000000 
11.657671 5.326971 0.000000 
15.576189 4.333621 0.000000 
31.407375 3.112966 0.000000 
32.259152 4.291772 0.000000 
38.458610 2.079127 0.000000 
16.453206 7.558666 0.000000 
2.759226 5.139928 0.000000 
21.096704 8.183734 0.000000 
15.338951 5.405469 0.000000 
7.871720 9.869361 0.000000 
36.963239 2.970929 0.000000 
15.857584 5.832069 0.000000 
37.190831 2.570839 0.000000 
15.846049 6.669916 0.000000 
15.799238 6.106426 0.000000 
6.700508 6.120537 0.000000 
6.585733 7.018173 0.000000 
6.806678 6.985575 0.000000 
15.783587 5.383254 0.000000 
32.361576 3.632711 0.000000 
36.970989 3.259276 0.000000 
32.760176 3.048006 0.000000 
16.463153 6.915027 0.000000 
37.626319 2.256968 0.000000 
37.223369 3.748451 0.000000 
6.076527 6.507662 0.000000 
17.035650 6.301941 0.000000 
16.759121 4.548695 0.000000 
32.230646 3.415224 0.000000 
17.108830 5.709250 0.000000 
15.824233 4.685892 0.000000 
23.004191 7.450480 0.000000 
38.096589 3.000160 0.000000 
22.939163 7.715003 0.000000 
33.148304 3.278534 0.000000 
37.884221 3.605796 0.000000 
2.033090 5.000512 0.000000 
53.517777 2.957678 0.000000 
38.287019 2.192369 0.000000 
2.128894 5.282078 0.000000 
32.385752 2.794364 0.000000 
6.172427 7.030731 0.000000 
22.552497 7.380643 0.000000 
2.594408 4.795544 0.000000 
36.976325 3.742713 0.000000 
16.346860 4.134388 0.000000 
7.373054 6.166852 0.000000 
38.282513 2.412869 0.000000 
16.815261 6.695723 0.000000 
41.377665 2.806597 0.000000 
13.923812 11.458596 0.000000 
31.874945 3.111741 0.000000 
33.301585 3.643610 0.000000 
21.462118 7.904479 0.000000 
15.860837 7.121053 0.000000 
5.877134 6.709175 0.000000 
14.314581 10.978129 0.000000 
27.569373 6.670446 0.000000 
27.455329 6.204539 0.000000 
27.954745 6.533905 0.000000 
21.187255 7.974744 0.000000 
26.977660 5.539297 0.000000 
17.480743 6.257778 0.000000 
27.060049 5.996176 0.000000 
22.008475 7.875970 0.000000 
16.952671 5.242460 0.000000 
16.106083 7.275653 0.000000 
53.787648 2.955681 0.000000 
17.357173 5.760630 0.000000 
21.875359 7.622014 0.000000 
18.067630 11.104864 0.000000 
32.153321 2.700060 0.000000 
23.342537 2.736519 0.000000 
37.830578 1.797128 0.000000 
27.955079 6.118989 0.000000 
15.468396 6.429369 0.000000 
41.570059 3.260378 0.000000 
32.898474 4.387135 0.000000 
5.610038 7.067403 0.000000 
37.585561 3.997465 0.000000 
7.686398 6.463294 0.000000 
23.225932 2.294541 0.000000 
15.635650 5.125501 0.000000 
14.806383 11.199694 0.000000 
23.509414 7.428613 0.000000 
53.357647 3.566296 0.000000 
23.466179 1.909363 0.000000 
22.650237 2.470527 0.000000 
22.927175 7.191155 0.000000 
5.215349 7.091660 0.000000 
33.139953 4.706403 0.000000 
23.774560 3.197796 0.000000 
27.275760 5.838388 0.000000 
7.192781 7.109115 0.000000 
6.917119 5.786404 0.000000 
27.905269 7.008459 0.000000 
6.277485 7.266556 0.000000 
41.625814 3.600037 0.000000 
7.610546 5.887116 0.000000 
54.449746 2.495565 0.000000 
36.728737 2.340206 0.000000 
16.245976 7.480782 0.000000 
7.636356 6.936049 0.000000 
22.303568 7.276434 0.000000 
3.079467 4.263444 0.000000 
14.445998 11.328023 0.000000 
13.939411 11.668164 0.000000 
7.912335 10.710719 0.000000 
53.656411 3.350125 0.000000 
1.809764 6.063828 0.000000 
33.153470 3.029484 0.000000 
5.572392 7.299367 0.000000 
27.318658 6.400319 0.000000 
53.494709 3.748662 0.000000 
18.963520 2.878504 0.000000 
41.253973 2.414618 0.000000 
6.056106 6.072946 0.000000 
13.614110 11.721824 0.000000 
19.022378 3.246516 0.000000 
41.456762 2.425002 0.000000 
36.761853 2.587324 0.000000 
16.901686 6.930725 0.000000 
23.353382 7.859974 0.000000 
16.854968 5.664066 0.000000 
16.713174 5.179572 0.000000 
37.183838 3.077342 0.000000 
16.054057 6.000059 0.000000 
7.322457 6.376136 0.000000 
7.241255 6.869268 0.000000 
6.645142 6.796591 0.000000 
33.073866 3.768789 0.000000 
32.694190 4.018397 0.000000 
37.628605 3.578221 0.000000 
37.932770 3.173447 0.000000 
38.063300 2.294284 0.000000 
38.065896 2.526005 0.000000 
6.964723 6.020269 0.000000 
32.510474 3.409653 0.000000 
16.425624 4.342679 0.000000 
15.907315 5.185361 0.000000 
16.096103 7.006148 0.000000 
1.934175 5.662479 0.000000 
2.272338 5.088821 0.000000 
27.645667 6.297290 0.000000 
17.198351 5.928929 0.000000 
6.185821 6.252801 0.000000 
2.530185 5.045729 0.000000 
2.058492 4.715497 0.000000 
37.104674 3.514258 0.000000 
32.129327 3.150984 0.000000 
22.330406 7.505715 0.000000 
16.816303 6.414676 0.000000 
15.750274 6.399842 0.000000 
36.964993 2.706449 0.000000 
23.180523 7.664588 0.000000 
31.621509 3.079978 0.000000 
22.707913 7.797192 0.000000 
2.002250 5.892282 0.000000 
37.404337 2.427589 0.000000 
22.784080 7.349484 0.000000 
54.048527 2.833133 0.000000 
15.858066 4.411226 0.000000 
41.639473 2.874932 0.000000 
32.581614 2.914424 0.000000 
6.107257 6.796219 0.000000 
6.436730 6.182610 0.000000 
36.612104 3.572933 0.000000 
14.287263 11.196911 0.000000 
53.445521 3.338299 0.000000 
22.139398 7.671596 0.000000 
2.670797 4.537316 0.000000 
53.614421 3.154692 0.000000 
1.911423 5.211046 0.000000 
23.188196 2.922728 0.000000 
18.266059 11.241029 0.000000 
16.819089 4.768091 0.000000 
32.949673 3.170980 0.000000 
17.661110 6.074555 0.000000 
15.899727 5.595898 0.000000 
13.424477 11.714216 0.000000 
16.672678 4.341856 0.000000 
21.633796 7.698762 0.000000 
27.294447 6.047891 0.000000 
27.085177 5.747918 0.000000 
41.369585 2.587249 0.000000 
26.743094 5.612350 0.000000 
53.602848 2.753186 0.000000 
22.249579 7.895905 0.000000 
16.587684 6.749455 0.000000 
7.593592 5.688008 0.000000 
23.098864 2.436139 0.000000 
38.032949 3.409725 0.000000 
6.386399 7.080646 0.000000 
16.151140 4.074912 0.000000 
15.686193 7.279851 0.000000 
5.392163 7.013836 0.000000 
31.728942 3.274807 0.000000 
7.434225 5.976857 0.000000 
5.698637 6.857382 0.000000 
27.775110 6.680006 0.000000 
28.167713 6.483224 0.000000 
38.259319 2.852688 0.000000 
23.266181 1.875952 0.000000 
16.366168 6.677673 0.000000 
37.428454 2.706042 0.000000 
16.578983 4.709472 0.000000 
37.842728 2.917506 0.000000 
16.817083 6.129551 0.000000 
15.997468 6.508037 0.000000 
37.632668 2.521552 0.000000 
6.893747 6.309227 0.000000 
32.585739 3.633210 0.000000 
6.348230 6.423012 0.000000 
16.067834 5.420619 0.000000 
16.065262 4.590883 0.000000 
6.870738 6.771677 0.000000 
16.124987 5.720071 0.000000 
32.738683 3.285781 0.000000 
32.943350 3.388190 0.000000 
32.371635 3.031019 0.000000 
37.368941 3.548121 0.000000 
32.946803 3.979996 0.000000 
37.864733 2.101352 0.000000 
16.772890 5.430547 0.000000 
27.514850 6.446857 0.000000 
2.305860 4.843026 0.000000 
16.953405 5.894056 0.000000 
7.145155 6.197941 0.000000 
37.780279 3.378943 0.000000 
36.858134 3.515137 0.000000 
2.166607 5.720257 0.000000 
16.589130 6.533709 0.000000 
32.525800 3.848423 0.000000 
1.913798 5.424876 0.000000 
7.476833 6.541437 0.000000 
17.425942 6.004073 0.000000 
18.071531 11.312804 0.000000 
27.846893 6.306386 0.000000 
22.538373 7.629823 0.000000 
54.267836 2.690876 0.000000 
15.926255 6.879107 0.000000 
2.689029 4.288657 0.000000 
38.060569 2.764868 0.000000 
16.307364 7.095379 0.000000 
7.231383 5.983271 0.000000 
15.834930 4.945317 0.000000 
36.400853 3.656680 0.000000 
33.289880 3.846306 0.000000 
53.416404 3.134932 0.000000 
7.023872 6.950644 0.000000 
41.850177 2.936394 0.000000 
7.443321 6.773640 0.000000 
14.095789 11.327421 0.000000 
22.348866 7.714448 0.000000 
16.551101 4.507551 0.000000 
53.231181 3.407155 0.000000 
38.113397 2.095653 0.000000 
18.261928 11.035598 0.000000 
16.365546 6.408039 0.000000 
16.053913 4.995013 0.000000 
16.726062 5.867946 0.000000 
16.309211 5.954502 0.000000 
37.687829 3.145889 0.000000 
16.533437 5.361986 0.000000 
16.333869 4.590725 0.000000 
16.327986 5.516030 0.000000 
16.102359 6.740993 0.000000 
7.240382 6.613873 0.000000 
37.861700 2.644385 0.000000 
6.382989 6.851816 0.000000 
32.794211 3.769894 0.000000 
16.158912 4.344847 0.000000 
37.177191 2.815466 0.000000 
37.479192 3.774787 0.000000 
6.757231 6.558327 0.000000 
37.846609 2.383369 0.000000 
32.559652 3.156574 0.000000 
2.456628 4.624227 0.000000 
32.203800 2.915067 0.000000 
17.252923 6.168495 0.000000 
32.853494 4.173007 0.000000 
27.720888 6.486245 0.000000 
16.648437 4.935852 0.000000 
33.126318 3.517580 0.000000 
15.984717 6.259895 0.000000 
36.762682 3.725119 0.000000 
37.255972 3.313484 0.000000 
32.750510 3.508065 0.000000 
2.087050 5.520219 0.000000 
22.753376 7.558131 0.000000 
6.280440 6.640826 0.000000 
16.412425 4.856339 0.000000 
37.432206 3.138035 0.000000 
16.210414 6.193296 0.000000 
16.587511 5.628116 0.000000 
16.566233 6.045005 0.000000 
16.305796 5.280233 0.000000 
6.507106 6.609097 0.000000 
7.118066 6.409151 0.000000 
6.612185 6.362992 0.000000 
16.264867 6.876679 0.000000 
16.357571 5.732004 0.000000 
17.049489 6.084994 0.000000 
32.360809 3.237321 0.000000 
32.936771 3.598285 0.000000 
7.074455 6.751415 0.000000 
37.574863 2.936798 0.000000 
16.200659 6.557263 0.000000 
16.516228 5.845257 0.000000 
16.602157 6.293298 0.000000 
16.119067 5.189243 0.000000 
16.481808 5.105185 0.000000 
37.523701 3.354115 0.000000 
16.197045 4.806945 0.000000 
6.986248 6.565423 0.000000 
16.266300 5.036133 0.000000 
37.665595 2.743817 0.000000 
16.154871 6.380635 0.000000 
15.994061 4.803776 0.000000 
37.359812 2.931872 0.000000 
16.412054 6.184835 0.000000 
50.196967 3.234962 0.000000 
13.337885 9.314702 0.000000 
4.356504 10.547086 0.000000 
3.166808 0.868100 0.000000 
29.165553 1.090492 0.000000 
4.833928 10.819440 0.000000 
47.000397 4.541424 0.000000 
35.012458 5.186235 0.000000 
27.392083 8.732330 0.000000 
14.314450 9.561118 0.000000 
29.426179 2.715863 0.000000 
0.284341 6.896240 0.000000 
49.482104 4.783185 0.000000 
29.831197 7.677513 0.000000 
46.936094 4.234668 0.000000 
52.046003 0.978861 0.000000 
6.459539 12.443237 0.000000 
29.908558 3.068332 0.000000 
45.032929 3.651638 0.000000 
10.812667 2.779258 0.000000 
15.282802 0.420705 0.000000 
8.914246 3.817831 0.000000 
33.031376 5.694286 0.000000 
15.306660 3.899135 0.000000 
12.599507 13.943870 0.000000 

CELLS 22890 91560
3 4180 6569 4845 
3 860 4699 57 
3 6273 8215 9153 
3 3151 1664 857 
3 6879 2061 4791 
3 5582 2845 4762 
3 1555 4146 4226 
3 5550 3154 2825 
3 4889 3986 9521 
3 100 6801 2731 
3 520 4253 1135 
3 2603 2706 5361 
3 9262 11729 10596 
3 11396 11539 11289 
3 5363 7401 7371 
3 6118 8636 7820 
3 6595 1352 3183 
3 8450 6337 9638 
3 3055 7873 5704 
3 7658 6529 3057 
3 3191 2252 3077 
3 2071 2061 6879 
3 2692 5340 8077 
3 754 477 4234 
3 3793 83 879 
3 6278 8124 6102 
3 5452 2750 8176 
3 5967 3826 3158 
3 8179 5977 9179 
3 10556 9258 10393 
3 47 8305 3467 
3 3656 5211 6871 
3 7157 4742 8509 
3 4112 247 8246 
3 8794 8807 7362 
3 6768 8341 9474 
3 10788 10540 9836 
3 3132 6210 8753 
3 3945 2952 1806 
3 10743 10190 5821 
3 8393 8605 6409 
3 3839 6098 6254 
3 5369 2662 2653 
3 4843 9454 2522 
3 6639 1831 4095 
3 3514 7188 38 
3 4117 3087 5947 
3 10465 10006 10469 
3 5272 3349 255 
3 11397 11400 11512 
3 9680 6121 7601 
3 3217 7146 7999 
3 7905 9968 5437 
3 11275 11487 11391 
3 801 583 4784 
3 952 2679 149 
3 5010 3001 6142 
3 467 4004 7307 
3 9409 5553 8752 
3 6102 8130 4843 
3 7202 7912 4468 
3 1193 1754 4022 
3 3971 574 7253 
3 9819 11219 10852 
3 6002 9552 9872 
3 1370 7201 218 
3 3157 1513 4081 
3 3729 2290 3807 
3 7614 5577 5682 
3 5299 2547 2552 
3 3655 7885 6247 
3 1711 3588 3908 
3 8002 9090 5931 
3 4858 6873 4900 
3 9849 9321 10611 
3 6817 4641 4920 
3 1333 4046 4084 
3 1344 3659 3814 
3 9173 4262 7288 
3 9472 5852 3546 
3 9083 8944 10092 
3 1463 3656 1603 
3 1019 6730 1385 
3 4358 4791 2051 
3 9063 3163 5802 
3 6393 4398 6657 
3 1097 7118 8370 
3 6464 1095 4431 
3 5189 3684 7272 
3 3525 3386 5900 
3 7848 10320 9094 
3 3418 753 4590 
3 4891 7179 4659 
3 4776 8247 5051 
3 420 1453 3706 
3 5573 7542 7517 
3 6103 3759 3532 
3 1453 7026 6284 
3 7642 7609 10588 
3 4807 8525 752 
3 2447 2445 3843 
3 8271 7779 4366 
3 1262 1550 4484 
3 1261 1549 3657 
3 9976 8036 9152 
3 9684 4934 6521 
3 1647 2902 3722 
3 8451 581 7101 
3 5551 7825 7499 
3 6078 6038 7316 
3 10605 10974 9955 
3 8655 6366 6350 
3 719 9430 422 
3 5566 2980 2974 
3 9829 11730 10410 
3 4106 6857 9540 
3 8932 10554 9966 
3 8235 7748 10193 
3 2745 1683 1871 
3 9844 11126 10969 
3 881 6637 3316 
3 9850 5486 7955 
3 1860 1657 4817 
3 11246 11236 11113 
3 1771 6777 1211 
3 10804 10820 9820 
3 10631 11350 10448 
3 1278 4655 110 
3 11600 11704 11699 
3 7395 10409 10060 
3 8807 8794 9782 
3 2571 5318 2580 
3 9137 8289 5823 
3 428 8745 1456 
3 4347 7193 4353 
3 1897 1623 3224 
3 6161 9527 3621 
3 9055 6779 9548 
3 7697 5608 5847 
3 2918 5455 2637 
3 1780 1952 3575 
3 5455 7462 10255 
3 865 8408 1672 
3 1665 1917 2641 
3 1394 1030 4870 
3 11033 11392 10883 
3 4861 1899 6768 
3 8646 378 6266 
3 5037 5071 2217 
3 4110 4648 2033 
3 6252 5644 3039 
3 1612 1399 1033 
3 11480 11117 11364 
3 889 2717 8619 
3 11142 11149 11475 
3 5502 2720 7789 
3 5351 7402 9034 
3 1138 5126 1504 
3 7968 7183 4427 
3 3840 6342 6171 
3 4219 6378 6479 
3 3522 7306 9275 
3 1252 4296 85 
3 1874 4856 1802 
3 4203 3699 2251 
3 942 6936 139 
3 5503 2858 2821 
3 9951 8995 7689 
3 936 3907 4148 
3 4222 697 4568 
3 9486 5481 2908 
3 3326 3252 5833 
3 8562 6468 8149 
3 6453 8172 7287 
3 2888 9683 6471 
3 1082 1448 3213 
3 5800 10249 7522 
3 3405 6483 1382 
3 4059 3951 8740 
3 4745 1391 257 
3 3226 5689 2948 
3 11167 10534 9890 
3 1317 3268 149 
3 5008 7232 1315 
3 257 3970 7266 
3 10551 11503 10803 
3 10899 10729 9857 
3 4882 1485 488 
3 5271 490 4257 
3 565 1156 5229 
3 3892 3773 6243 
3 6875 2105 9417 
3 949 4285 1715 
3 8332 2808 2818 
3 8066 2653 2708 
3 9952 10474 10899 
3 1426 1828 344 
3 7535 8970 10129 
3 950 795 1573 
3 1971 1951 9312 
3 9891 9105 7941 
3 5636 6067 9733 
3 11232 11609 11509 
3 7775 9676 3294 
3 4692 1655 4067 
3 9404 10459 7447 
3 6442 3972 8440 
3 4721 2804 1280 
3 11629 11686 11526 
3 10753 10351 11394 
3 11626 11526 11652 
3 9893 10408 9243 
3 7777 7119 2853 
3 7405 8834 7420 
3 8484 4581 4026 
3 8947 7974 5483 
3 821 5156 18 
3 9861 8828 7389 
3 9652 8237 6181 
3 10722 9967 7769 
3 4746 8497 1512 
3 6783 1540 3104 
3 5955 5978 9394 
3 1269 1809 3735 
3 11571 11048 11328 
3 11437 11096 11541 
3 1401 3086 292 
3 4118 4855 6368 
3 7348 7386 5308 
3 625 4670 4306 
3 10535 10762 11103 
3 64 2891 3431 
3 10794 11146 11508 
3 10020 10864 10399 
3 8044 10034 10227 
3 9058 8147 9244 
3 6598 4409 310 
3 3296 1713 1885 
3 645 7312 4961 
3 10071 9564 10111 
3 5664 10212 9239 
3 68 1236 2879 
3 9127 10283 7527 
3 295 3196 7184 
3 4487 8716 4798 
3 7912 7202 3490 
3 1237 7134 2604 
3 7357 7373 8801 
3 776 6992 528 
3 3396 7900 5522 
3 7732 3711 7259 
3 9007 10027 11000 
3 628 4162 5198 
3 3724 7702 7259 
3 1677 4798 1792 
3 7162 4411 4660 
3 4463 1502 5119 
3 627 4068 268 
3 9238 7909 4156 
3 6863 260 9489 
3 262 622 3711 
3 2204 2194 2929 
3 9399 7991 5863 
3 8471 6892 1073 
3 3291 8005 6585 
3 9160 7406 10655 
3 3030 365 1436 
3 3285 6633 874 
3 9039 9156 10257 
3 2595 5320 2564 
3 10633 10064 7903 
3 5303 2563 2543 
3 8395 2763 1198 
3 4134 1754 1193 
3 4583 443 735 
3 3062 2815 5454 
3 9114 7520 8994 
3 10284 7794 10740 
3 3160 5682 3047 
3 4793 2053 2041 
3 783 538 5200 
3 1704 5083 1882 
3 3081 119 1287 
3 5698 5980 3279 
3 2005 4678 8346 
3 10182 10707 9067 
3 4844 2143 4593 
3 6812 682 368 
3 4898 180 983 
3 4331 6311 4261 
3 8364 7154 8325 
3 300 649 4946 
3 9173 10699 7604 
3 329 7944 661 
3 2655 2833 1703 
3 1289 6441 2897 
3 2833 4738 922 
3 9114 7866 7520 
3 324 3235 6552 
3 5447 3400 8072 
3 9606 3857 7739 
3 11654 11592 11628 
3 9363 8242 6658 
3 1827 3736 1299 
3 1723 960 7015 
3 1552 8038 9220 
3 4626 2451 4371 
3 6341 5776 7976 
3 7350 5328 5292 
3 10561 10075 10843 
3 1576 962 5186 
3 1726 6851 8660 
3 9319 7519 2718 
3 7618 10172 10284 
3 1821 2554 1954 
3 5776 2965 5489 
3 1201 2540 1761 
3 7242 5046 9371 
3 6026 3308 5889 
3 6949 9279 7482 
3 897 3614 1692 
3 5293 2569 2540 
3 5719 408 9456 
3 3874 9331 6600 
3 8828 7398 7389 
3 3212 3582 5926 
3 9742 8631 6539 
3 9123 10927 9862 
3 11539 11398 11293 
3 4616 4423 7194 
3 5542 2778 3273 
3 4395 1339 7152 
3 7854 5639 9300 
3 1698 4625 9529 
3 9194 8647 5861 
3 7898 7739 7250 
3 2362 4811 4056 
3 3000 6683 9217 
3 7723 7021 3632 
3 118 4262 1286 
3 6618 1337 8669 
3 5130 8060 4389 
3 3174 984 1350 
3 4696 4716 4677 
3 8377 7977 7681 
3 4965 2126 4652 
3 611 5264 3206 
3 1476 5171 3828 
3 5011 4372 7286 
3 8940 10941 11198 
3 4763 2357 4344 
3 663 2508 4573 
3 4169 5014 1109 
3 6322 5762 3731 
3 3515 8391 6884 
3 4449 1730 1927 
3 1604 6871 1098 
3 4542 9405 6580 
3 4358 2051 2038 
3 6077 3288 3771 
3 8251 4985 9700 
3 3692 4570 8670 
3 3253 1224 3401 
3 8166 8958 5629 
3 8283 7603 4049 
3 8288 4101 7153 
3 8197 4250 7144 
3 7798 5766 9027 
3 6529 5782 4944 
3 7934 8999 10225 
3 9347 8422 6163 
3 245 1385 2958 
3 11022 10165 8922 
3 3036 243 1018 
3 6246 480 4477 
3 611 7075 9149 
3 3515 1385 4944 
3 3186 192 589 
3 2632 1932 1738 
3 10555 7670 10733 
3 6081 10632 8622 
3 3529 5601 2932 
3 5611 7863 7538 
3 3134 3987 6001 
3 10669 5824 10226 
3 9707 5619 7593 
3 4532 990 1356 
3 3463 5754 6035 
3 9523 8592 6489 
3 9631 3399 5116 
3 4065 8025 7271 
3 3815 598 3155 
3 422 3347 719 
3 7628 7534 3099 
3 7648 7628 9256 
3 10488 8940 7509 
3 2268 2260 3341 
3 7782 7621 10008 
3 610 3785 4971 
3 988 4065 197 
3 8418 193 7331 
3 9709 8105 6322 
3 10670 10008 8987 
3 405 7125 1450 
3 7534 10156 9080 
3 3635 2443 3605 
3 5004 4763 6720 
3 2355 2350 4426 
3 1358 4343 201 
3 3567 7315 9616 
3 4763 2359 2357 
3 200 5137 5004 
3 7257 5137 2361 
3 4653 8148 4974 
3 1358 6720 4343 
3 4524 5137 200 
3 3347 5097 719 
3 594 992 6719 
3 6325 9439 8161 
3 6137 8146 9069 
3 9517 3980 8409 
3 8083 6015 9686 
3 8193 8313 6175 
3 6049 8138 6316 
3 9066 6832 10618 
3 8617 6031 6009 
3 579 2409 798 
3 11473 10903 10433 
3 2872 1549 6949 
3 10515 9856 9025 
3 4106 9540 6755 
3 7639 10326 9501 
3 9384 8313 6232 
3 705 11727 403 
3 9615 8212 4313 
3 2514 4272 404 
3 5173 1857 4893 
3 418 718 4430 
3 8348 4272 3766 
3 9510 3766 403 
3 8271 4668 9533 
3 9455 6247 8245 
3 7888 7175 7779 
3 79 882 5205 
3 8758 880 4722 
3 7074 8006 9647 
3 3215 3703 1244 
3 11163 10804 10863 
3 11500 11163 10815 
3 8829 10595 10450 
3 7640 7469 8881 
3 10956 10400 11504 
3 5381 7376 5310 
3 6421 8271 4446 
3 79 5205 1247 
3 8850 8867 8141 
3 3638 7186 9501 
3 4718 1647 836 
3 7300 5722 7748 
3 2668 2577 35 
3 417 2980 3419 
3 4430 6284 9686 
3 7041 406 4495 
3 7740 9969 6124 
3 5084 207 600 
3 9069 9992 5779 
3 5936 5967 3158 
3 3233 1088 8161 
3 3770 6035 6161 
3 107 7193 1275 
3 6624 5230 1089 
3 9527 6083 7867 
3 722 425 36 
3 9370 9988 7528 
3 10685 9232 10065 
3 9470 7528 9988 
3 8816 10025 7371 
3 10393 10193 8925 
3 8888 7487 9988 
3 10544 8973 7512 
3 8955 10065 11730 
3 4002 8508 4405 
3 11372 11431 11081 
3 11602 11599 11564 
3 1911 1648 1872 
3 11566 11640 11413 
3 1648 2598 2557 
3 11345 11049 10554 
3 1872 1799 6846 
3 2551 8122 2552 
3 6846 8092 9372 
3 10863 9840 11163 
3 5485 7838 3793 
3 1492 8330 4743 
3 9691 8387 6183 
3 3902 885 1686 
3 7383 10869 9793 
3 7948 7038 2798 
3 507 6980 1491 
3 6635 97 1265 
3 6621 1150 4581 
3 8330 6391 6635 
3 2949 3902 1686 
3 3667 884 81 
3 4771 6903 8328 
3 1800 2866 1685 
3 5946 3411 3702 
3 5329 2583 2590 
3 11682 11696 11599 
3 2547 1860 2552 
3 3902 5218 885 
3 6047 3627 9281 
3 8681 5181 3978 
3 475 748 4923 
3 5066 1686 885 
3 901 98 3603 
3 6228 10343 9493 
3 3978 6820 8681 
3 10456 10766 11160 
3 8294 7177 4530 
3 4837 470 747 
3 5223 3690 6573 
3 4131 787 7129 
3 552 4833 786 
3 11538 11670 11400 
3 11271 11431 11524 
3 11525 11404 11599 
3 11701 11677 11699 
3 11631 11416 11245 
3 11657 11323 11547 
3 5069 6878 1544 
3 9233 10078 6795 
3 11263 11097 11086 
3 10914 10560 8845 
3 11631 11245 11468 
3 9926 7367 8805 
3 5428 10727 9882 
3 3514 1206 3821 
3 8132 6189 7512 
3 4674 4624 1947 
3 2977 5493 6189 
3 5287 5286 2531 
3 3385 3443 7956 
3 726 430 3202 
3 7486 9272 5822 
3 1090 4742 7157 
3 8365 2769 4494 
3 9951 10832 10897 
3 9864 7404 8806 
3 5462 8728 2862 
3 7440 7362 8807 
3 7022 8356 7176 
3 2632 7831 7034 
3 912 4850 109 
3 3962 6267 4392 
3 2762 7034 7831 
3 4474 3861 811 
3 6813 8067 3202 
3 4890 8592 6653 
3 1176 6392 1737 
3 4353 1697 6662 
3 9937 7593 10974 
3 4612 8509 6359 
3 3590 4397 910 
3 909 3841 3363 
3 5766 3151 3236 
3 3683 1780 1224 
3 7693 6694 9164 
3 11364 11117 10967 
3 6443 8216 9207 
3 1178 4014 3543 
3 4227 8201 6208 
3 7215 3529 248 
3 6401 3527 9678 
3 3224 5611 2923 
3 10406 10895 11490 
3 11298 11627 11556 
3 1917 1952 2637 
3 858 1665 2579 
3 9526 5435 9854 
3 5766 10294 9027 
3 10778 11055 11040 
3 5189 857 3684 
3 3710 2087 4398 
3 9377 10173 2177 
3 1226 6682 3763 
3 5592 9318 2824 
3 11365 10364 11039 
3 4699 6681 7735 
3 11326 11429 11033 
3 11349 11527 11619 
3 7891 3246 5401 
3 5143 6091 3429 
3 11527 11674 11619 
3 10593 10616 11200 
3 11429 11611 11532 
3 11425 11558 11619 
3 63 4470 858 
3 11425 11619 11674 
3 11095 10756 10397 
3 8459 9579 1585 
3 1787 1231 2571 
3 11053 11280 11464 
3 2147 6845 5106 
3 11349 11045 10759 
3 10919 10467 10948 
3 11155 10788 11264 
3 11616 11256 11674 
3 6833 4878 6584 
3 5071 6551 2207 
3 4147 7729 9459 
3 7355 8797 7354 
3 4410 3699 8339 
3 212 998 6663 
3 5343 9914 8871 
3 1918 2533 2727 
3 8053 4269 6479 
3 5502 8949 7689 
3 5502 6285 3090 
3 3501 1582 994 
3 7704 7422 8820 
3 996 210 7296 
3 9260 10217 10432 
3 1230 1786 4986 
3 9834 10800 11199 
3 8361 84 6583 
3 2663 5450 5351 
3 10898 11204 9835 
3 8599 4107 9466 
3 6320 6374 8698 
3 6749 3178 1774 
3 7236 4529 8516 
3 8494 5770 9143 
3 4713 4887 7236 
3 8494 3390 5770 
3 851 6591 4720 
3 7554 9645 3961 
3 11101 11129 11384 
3 11497 10368 11053 
3 4941 6501 6808 
3 8361 1744 6501 
3 11157 11482 10357 
3 384 4461 692 
3 2599 2627 1743 
3 5569 8078 2803 
3 6022 3597 3369 
3 9096 6559 8078 
3 10036 10564 10985 
3 1013 4303 4486 
3 11085 11273 11491 
3 232 7128 4963 
3 7128 4710 4908 
3 636 276 4384 
3 1690 3085 6524 
3 888 1546 3375 
3 11183 11395 10807 
3 5175 88 891 
3 9874 7703 9096 
3 3689 684 377 
3 7019 692 4694 
3 3194 3963 5898 
3 384 9495 8270 
3 7325 9582 11709 
3 7895 9276 7684 
3 8043 6022 9446 
3 694 8597 5144 
3 378 4407 686 
3 4294 4297 6667 
3 215 1366 4727 
3 4943 1866 4962 
3 6039 3745 3698 
3 4036 11718 8339 
3 7446 9236 10523 
3 10583 282 6502 
3 3607 5518 2834 
3 9298 6797 7568 
3 2112 4290 2122 
3 6075 6139 3578 
3 4063 6144 3698 
3 4557 8228 4293 
3 281 3540 1395 
3 6905 8381 11709 
3 6403 9561 8094 
3 9004 7537 10022 
3 8314 4290 9539 
3 5712 3810 8575 
3 6577 7728 7861 
3 4213 4300 2082 
3 1031 3905 1397 
3 6684 4297 8637 
3 7578 5565 7584 
3 4873 6139 6862 
3 5390 9117 9425 
3 9145 7778 9275 
3 6003 8668 8375 
3 8017 9403 9187 
3 8254 8668 6005 
3 135 3205 7306 
3 3116 5699 3225 
3 5962 7778 5864 
3 3943 3633 2220 
3 3522 5973 3376 
3 9425 7688 6459 
3 8489 8530 5954 
3 1301 6938 3810 
3 3079 940 137 
3 3368 3121 2200 
3 1305 939 3591 
3 3805 4194 699 
3 8398 9613 4568 
3 1080 3133 392 
3 3085 2790 5524 
3 3407 3496 2150 
3 4072 6414 6342 
3 256 7057 617 
3 3970 1391 3956 
3 6342 4264 9322 
3 8080 10197 6688 
3 1025 2877 4166 
3 7057 4739 617 
3 3979 6688 7960 
3 257 7266 3448 
3 1391 2877 1025 
3 9098 10033 5727 
3 1081 11723 5103 
3 5977 3299 3838 
3 254 3426 7216 
3 395 4152 1448 
3 1601 6969 1446 
3 1255 4139 87 
3 393 11723 1081 
3 10564 7426 10430 
3 10833 10999 9847 
3 9102 9692 8157 
3 5436 7426 5427 
3 11331 11367 10810 
3 8079 3085 5524 
3 9971 7437 9048 
3 5431 2721 7938 
3 9053 10113 10643 
3 3730 1688 3754 
3 9108 8179 10039 
3 8629 5195 6283 
3 11100 10916 10409 
3 5246 4140 1220 
3 2711 852 1537 
3 7400 5407 5377 
3 8928 10085 5846 
3 9473 8037 6775 
3 8004 9155 9973 
3 6385 6379 8304 
3 7416 5407 7400 
3 498 5239 764 
3 2849 5482 2766 
3 4467 6782 11731 
3 1219 6608 2849 
3 2700 5407 5442 
3 8304 6698 4643 
3 4851 8407 6528 
3 488 6864 4799 
3 4657 4298 9518 
3 4638 249 1388 
3 5997 7860 8539 
3 6414 7198 4264 
3 560 1522 7007 
3 1119 5255 493 
3 760 5185 5088 
3 2145 3592 2155 
3 4927 5239 765 
3 4310 6379 4197 
3 4927 761 5088 
3 7463 7417 5540 
3 1320 5024 5045 
3 7463 5540 6455 
3 460 7199 5125 
3 4597 8276 6298 
3 10569 8916 10988 
3 1599 4663 6829 
3 9507 6280 458 
3 494 5088 761 
3 7263 152 5045 
3 7525 7450 5548 
3 3827 4 7231 
3 5736 347 2786 
3 7914 3827 7231 
3 11309 10799 10569 
3 6828 7493 2786 
3 9469 4517 4485 
3 1064 8696 347 
3 11109 11321 10802 
3 7510 10637 10129 
3 5514 2662 5369 
3 7504 9851 9134 
3 9913 9313 9141 
3 5386 7428 5475 
3 1717 4765 1832 
3 8204 5538 3242 
3 9710 5475 9226 
3 7096 1318 150 
3 10085 10043 7572 
3 7572 9596 10085 
3 5371 7388 9184 
3 10162 7407 9680 
3 5533 2861 2955 
3 2955 2861 946 
3 6876 9412 8059 
3 1727 1842 6664 
3 7814 8750 9656 
3 5226 343 1060 
3 7785 5562 2905 
3 8209 4283 6290 
3 575 5047 1316 
3 3680 4534 1529 
3 22 5075 1190 
3 5562 2968 2905 
3 3435 1716 952 
3 8787 10918 9925 
3 9934 10532 8837 
3 8763 6142 9010 
3 5371 5364 7388 
3 10829 10594 10534 
3 9870 7434 8852 
3 149 2642 1317 
3 1535 847 151 
3 11205 10840 10443 
3 47 9566 8305 
3 9509 8948 5419 
3 1016 1382 6483 
3 3187 1219 3350 
3 10060 5537 5400 
3 7445 5399 5538 
3 9717 7969 6475 
3 7694 10332 9316 
3 8402 3792 4278 
3 9502 8587 6131 
3 358 3438 680 
3 3117 3178 5715 
3 3359 3467 5918 
3 9509 5419 2765 
3 1886 7063 3176 
3 8979 8464 5999 
3 7709 5935 5700 
3 11580 11316 10955 
3 3387 5819 3269 
3 9242 10148 5912 
3 4826 6844 8402 
3 608 274 239 
3 8710 6281 276 
3 7017 632 5133 
3 9133 7564 5567 
3 8189 8971 5767 
3 10590 10993 9910 
3 10610 7964 9896 
3 38 7188 3040 
3 11025 11538 11461 
3 6256 8535 6853 
3 8784 9765 10549 
3 11275 11452 11487 
3 2869 1949 6604 
3 9819 10852 10356 
3 2793 9312 7682 
3 6984 472 5219 
3 10577 10028 7611 
3 8130 8124 3922 
3 9332 7852 10262 
3 8130 5149 9454 
3 3971 1531 574 
3 7777 9101 5311 
3 9725 7751 7785 
3 11337 11419 11542 
3 577 4180 7150 
3 6544 473 4271 
3 4304 10312 9493 
3 10825 11125 11352 
3 11074 11439 11567 
3 8073 6323 4071 
3 5372 7941 2633 
3 2640 1266 7234 
3 900 3339 97 
3 3009 5647 8260 
3 3152 8230 5886 
3 7819 10986 5820 
3 4609 4603 6754 
3 1267 4535 7117 
3 7368 10120 5329 
3 8259 7939 5942 
3 11568 11250 11478 
3 5920 7939 5706 
3 5831 9339 6119 
3 10256 9197 7630 
3 3290 6040 3735 
3 3735 6181 3733 
3 10510 9339 7733 
3 9996 7932 10706 
3 10622 7380 5387 
3 3818 1147 1611 
3 6511 1243 1543 
3 7993 6368 4027 
3 3157 3818 1611 
3 3402 6019 3825 
3 545 7252 4081 
3 8624 3489 5883 
3 1148 4119 7252 
3 7000 5618 3471 
3 3825 6019 6506 
3 6473 3629 7282 
3 11148 10817 10402 
3 7032 5074 409 
3 877 1543 2638 
3 8052 6506 6019 
3 5303 7346 7351 
3 9956 7411 8826 
3 9690 8035 9944 
3 11154 10762 9790 
3 10128 7386 8799 
3 1679 3470 876 
3 11667 11610 11443 
3 2665 72 875 
3 72 4808 7098 
3 9406 9471 5883 
3 8919 9985 11353 
3 6227 3696 411 
3 7796 9588 10247 
3 10884 11380 10431 
3 1239 11720 71 
3 9015 7551 10079 
3 7059 624 625 
3 1790 2962 1236 
3 3997 1849 1632 
3 7927 9989 9675 
3 11443 11304 11134 
3 10423 11166 9042 
3 2680 1848 1745 
3 9831 8861 10462 
3 7223 65 3800 
3 10139 8946 10042 
3 1673 868 3324 
3 6002 4177 3070 
3 820 17 3476 
3 9101 7777 10330 
3 10120 9221 8261 
3 8081 6602 2678 
3 3791 3509 6197 
3 5156 1186 18 
3 3239 1790 1675 
3 1745 2936 6650 
3 9028 7558 9058 
3 2878 1848 2680 
3 2860 5494 5526 
3 9079 7587 10104 
3 7672 6415 9443 
3 1868 1791 2541 
3 7558 8147 9058 
3 1848 1630 2860 
3 7461 10531 8880 
3 7459 10609 9166 
3 7511 10124 10106 
3 10848 11038 11065 
3 7777 5625 10330 
3 2878 1630 1848 
3 5494 2860 2826 
3 6457 5676 5085 
3 4456 6869 9572 
3 9301 10124 7511 
3 7617 10118 9575 
3 10662 9011 11021 
3 5539 3372 2930 
3 5850 4828 3080 
3 8007 5923 5940 
3 4324 342 1059 
3 5893 4757 4468 
3 3452 3148 2266 
3 3705 1057 341 
3 6810 7511 9367 
3 10134 8960 10584 
3 9030 10283 9127 
3 5616 5617 7527 
3 10283 9883 7527 
3 1401 1035 2791 
3 8137 6574 9330 
3 5664 8137 9050 
3 6107 6213 3858 
3 1401 3747 6700 
3 7752 10695 7582 
3 10493 9883 10651 
3 295 7184 3797 
3 295 645 3196 
3 529 8384 6758 
3 8774 4448 6467 
3 6505 524 8436 
3 5119 4009 6564 
3 7070 527 5042 
3 8774 5135 4448 
3 4772 2335 4660 
3 4715 6626 7857 
3 7070 5042 8472 
3 6534 8614 4381 
3 4318 627 5198 
3 6626 4068 7857 
3 293 3100 7324 
3 6415 2879 9443 
3 5860 9268 7736 
3 9722 9908 7583 
3 10728 11019 8879 
3 9136 9950 11007 
3 1791 2604 2541 
3 69 289 5114 
3 7451 7386 10128 
3 8106 7134 3137 
3 1541 1239 3396 
3 525 1136 7058 
3 5111 71 11720 
3 4670 6370 4306 
3 10140 8863 10482 
3 5891 8249 3845 
3 2963 1909 1944 
3 1534 833 8473 
3 5378 5505 7421 
3 4902 7139 9462 
3 11714 1072 1438 
3 2760 5505 5378 
3 10111 9718 5865 
3 6614 4452 8766 
3 1078 8610 375 
3 1440 372 7130 
3 8337 3555 6785 
3 1457 1091 6729 
3 3741 2164 4309 
3 683 371 6785 
3 714 1757 415 
3 438 4317 731 
3 620 4792 261 
3 1909 435 5248 
3 4823 4957 4866 
3 4715 4866 6626 
3 7548 9588 10633 
3 6065 9402 6069 
3 10261 6093 3240 
3 8491 6461 9388 
3 3886 5102 6461 
3 6772 3984 1854 
3 1644 3142 6772 
3 7903 9745 6729 
3 7559 9060 7556 
3 1443 7051 375 
3 6260 8568 6191 
3 11044 11212 11291 
3 1077 6587 1443 
3 4543 4832 8699 
3 2134 6824 4968 
3 6336 4321 3700 
3 2261 2253 5077 
3 6216 6520 3964 
3 1819 8513 1291 
3 11713 1104 4031 
3 3199 368 1066 
3 6572 5083 2163 
3 5932 3287 5717 
3 9342 3814 6198 
3 6013 6271 9447 
3 3588 932 4559 
3 1439 11714 1600 
3 5337 8242 9259 
3 2657 932 1711 
3 8290 9728 4301 
3 3409 5140 6872 
3 9522 9957 8049 
3 2223 924 2233 
3 4096 3817 6187 
3 9340 9987 10726 
3 122 2193 925 
3 8191 10658 10116 
3 5610 7668 3030 
3 6446 4202 8423 
3 1066 4012 3228 
3 3964 1977 1894 
3 5555 7520 5717 
3 4480 2047 2058 
3 4604 1605 1106 
3 5633 6253 3021 
3 6133 9342 6151 
3 4723 7113 7982 
3 1108 1474 6470 
3 4937 737 5187 
3 5316 2652 2529 
3 4479 4848 6541 
3 5919 6238 8648 
3 11124 10750 11319 
3 5302 2544 2564 
3 1444 1078 5148 
3 7139 1645 4886 
3 4774 1199 6640 
3 1646 3847 835 
3 10563 10923 11151 
3 933 3410 5140 
3 11435 11288 11570 
3 6238 8019 3940 
3 6851 1726 964 
3 3876 3868 160 
3 7866 10305 5932 
3 5571 9590 3270 
3 1328 3876 160 
3 2534 2529 1989 
3 7873 7872 9114 
3 3052 6634 10147 
3 834 4886 1645 
3 10901 10378 10105 
3 8783 7336 7360 
3 7442 5596 5429 
3 10835 11338 10983 
3 8789 8790 7346 
3 2610 6582 8222 
3 6341 3847 5776 
3 9998 8851 11222 
3 1296 9462 128 
3 1330 1841 3658 
3 5559 3209 9682 
3 10172 8994 9109 
3 11061 9811 10984 
3 4004 7908 7307 
3 9118 10147 7655 
3 3854 5961 6847 
3 4585 979 176 
3 3659 1344 978 
3 7901 5881 7896 
3 3830 4563 1107 
3 3994 467 7307 
3 6118 4149 3382 
3 5213 1101 3927 
3 4996 164 967 
3 9428 4077 7800 
3 7679 8101 10119 
3 305 4010 8777 
3 8385 8364 4504 
3 452 4937 1467 
3 9797 10506 11180 
3 7698 7608 10658 
3 7443 10704 9170 
3 9987 7910 10726 
3 8354 4625 6352 
3 1435 364 3546 
3 10699 8835 7604 
3 8892 9982 10506 
3 10871 10063 10686 
3 8918 8159 10029 
3 8874 10386 9869 
3 11314 11090 10791 
3 3596 4078 6045 
3 987 1353 9211 
3 3758 6985 5117 
3 2972 3681 5854 
3 3028 5698 3279 
3 8027 7294 3069 
3 3564 6985 5693 
3 5660 5854 7890 
3 6486 5987 3917 
3 7594 10045 7890 
3 9343 10090 9121 
3 116 1283 5253 
3 9506 4781 6399 
3 184 4610 8558 
3 181 4983 1349 
3 9671 4491 8485 
3 5206 179 981 
3 5686 5957 7615 
3 2743 8159 6671 
3 10704 10962 9887 
3 4566 7742 6491 
3 5374 8804 10029 
3 3180 3174 1350 
3 3596 183 1351 
3 7883 6313 4044 
3 4440 4999 7220 
3 1405 4265 3453 
3 4103 1101 457 
3 308 1406 2984 
3 3317 7142 303 
3 1509 3566 541 
3 6780 1881 4354 
3 9217 10246 10661 
3 9201 10272 8071 
3 7562 5591 5702 
3 3918 6225 10338 
3 3583 974 4314 
3 5035 3234 6149 
3 9665 5059 661 
3 8761 10191 9289 
3 452 7988 737 
3 453 5263 660 
3 6618 9227 6900 
3 305 4215 653 
3 119 4034 922 
3 4680 6563 8502 
3 2832 5799 5405 
3 2984 6731 7753 
3 7006 3010 1338 
3 4500 967 164 
3 9994 3424 6300 
3 8669 1337 169 
3 3261 4801 980 
3 6375 7898 3999 
3 4604 8287 8316 
3 8708 6823 4998 
3 8101 8719 9250 
3 1101 4103 3726 
3 10779 9821 10570 
3 11356 11140 10603 
3 8308 7680 10167 
3 9936 10479 7455 
3 11501 10976 9821 
3 7470 5571 5441 
3 3261 1346 4445 
3 6365 172 8476 
3 1988 7334 9371 
3 5648 9492 7622 
3 11642 11608 11520 
3 5080 1501 521 
3 8875 10981 8190 
3 9142 7347 9769 
3 5309 8203 2568 
3 4412 9653 8318 
3 5072 9371 7334 
3 1855 1645 7139 
3 2610 1980 7334 
3 6582 8202 8222 
3 11270 11559 11458 
3 9081 7424 10004 
3 4240 9241 10279 
3 3992 6170 6437 
3 1810 4099 1270 
3 11472 10853 10411 
3 5090 1010 225 
3 7947 6473 3719 
3 10978 9019 9012 
3 3631 6606 7851 
3 8818 8107 10253 
3 11457 11426 11069 
3 7187 1855 8532 
3 10359 10944 11058 
3 7671 10468 9023 
3 5383 5330 9196 
3 11329 11549 11032 
3 6306 3760 6052 
3 9922 10435 11358 
3 8997 7769 9967 
3 8620 9512 6294 
3 9056 7008 3890 
3 9697 4539 8518 
3 10650 3331 6968 
3 11363 11358 10435 
3 1009 5227 223 
3 9981 10437 8883 
3 9881 10957 10572 
3 9672 9023 10299 
3 5550 5426 7454 
3 7349 5298 5331 
3 1942 3760 1754 
3 11406 11396 11026 
3 1293 124 7255 
3 4090 7255 124 
3 11628 11592 11418 
3 2629 8143 5446 
3 11094 9798 10495 
3 8781 7335 7384 
3 7423 10282 10561 
3 10882 10273 7377 
3 11237 11521 11628 
3 9008 10882 10407 
3 9008 9999 8033 
3 3335 957 3594 
3 9811 11061 11066 
3 8480 9438 6390 
3 1113 482 2396 
3 3583 1340 974 
3 482 2394 2396 
3 8781 10521 11486 
3 3948 6233 3685 
3 9862 7959 9123 
3 8498 928 125 
3 5648 7622 6317 
3 5649 7588 5827 
3 4854 6344 9498 
3 6494 7959 5542 
3 826 6386 5245 
3 6643 3425 1511 
3 9224 6711 3149 
3 2626 5331 2556 
3 3309 1942 1967 
3 6648 3162 1638 
3 1093 6702 4416 
3 6973 1969 1945 
3 4388 8100 11711 
3 10422 8886 11131 
3 1490 8336 504 
3 502 5090 1123 
3 8097 7062 4371 
3 11172 10411 8868 
3 11363 11009 10418 
3 1489 601 5242 
3 8773 8211 6522 
3 5404 7389 5366 
3 1378 8693 2800 
3 8878 10838 10418 
3 7973 2787 7077 
3 5145 1010 3787 
3 6687 8739 4619 
3 1486 3874 501 
3 3354 4994 1121 
3 11711 1486 7190 
3 6600 4641 6817 
3 2787 1011 1377 
3 10158 7567 9012 
3 1486 11711 1120 
3 6522 4484 8773 
3 6466 7730 9574 
3 3716 2461 3897 
3 601 1607 225 
3 2934 3073 2502 
3 6994 4651 4703 
3 5995 3697 3716 
3 9494 8028 10158 
3 7632 9247 10290 
3 8434 8307 6132 
3 2444 6902 2442 
3 7871 9334 7707 
3 9492 5648 8285 
3 5889 7889 8556 
3 1132 4854 518 
3 518 7015 4842 
3 2418 4871 4616 
3 3752 1820 6840 
3 4199 4198 7046 
3 1132 3873 1498 
3 4451 3486 6347 
3 5044 7233 2424 
3 483 10344 3862 
3 1483 8394 4522 
3 4989 2336 5005 
3 1416 6693 1050 
3 7142 9741 8087 
3 2352 4551 2348 
3 2394 1480 2392 
3 4216 7965 3903 
3 2382 3267 3676 
3 6268 7958 9376 
3 3534 6129 7965 
3 4338 3258 8618 
3 1480 4682 3832 
3 8480 484 4528 
3 4337 3088 1837 
3 3335 5808 3295 
3 4331 5073 6311 
3 9663 6147 5808 
3 3245 1418 3552 
3 3563 3679 5871 
3 662 4000 4024 
3 9449 6225 6138 
3 2372 5095 2370 
3 9949 9217 10661 
3 2358 3458 3536 
3 9558 7723 9110 
3 649 301 8741 
3 6439 7627 5724 
3 4440 1402 3539 
3 7928 5809 9354 
3 2756 9216 7425 
3 4999 2320 4958 
3 1036 1402 3250 
3 9183 10331 10240 
3 5374 8159 2743 
3 8160 7604 8835 
3 3179 981 4073 
3 2756 7425 6619 
3 6438 768 4906 
3 185 4533 6372 
3 8279 3995 1700 
3 6670 1701 920 
3 6270 180 3301 
3 189 4677 982 
3 3179 4073 9496 
3 5896 3995 9583 
3 5200 4075 8630 
3 4652 2136 3913 
3 3917 5987 3457 
3 1 1168 8712 
3 5200 1141 4075 
3 3981 4972 7308 
3 7755 9354 10285 
3 1142 4179 539 
3 6941 539 8726 
3 4693 4069 8596 
3 3179 1347 981 
3 9685 5789 8281 
3 6435 1507 1141 
3 4881 8499 4818 
3 6728 10260 3067 
3 802 8700 6895 
3 10339 3288 6077 
3 4601 1730 4449 
3 8722 4449 4695 
3 449 1464 4547 
3 9245 3656 6871 
3 448 8580 1098 
3 1095 6464 446 
3 4542 1466 6929 
3 1463 1603 2002 
3 8370 1461 447 
3 7118 3656 9245 
3 4358 7237 4791 
3 8478 2071 6879 
3 2081 8478 6762 
3 7179 4573 7997 
3 9670 4006 7997 
3 4336 2111 2101 
3 10325 7997 6166 
3 11710 663 332 
3 4111 1420 1054 
3 4372 2121 4006 
3 1095 1461 4431 
3 8061 4431 9245 
3 7091 334 665 
3 6976 7602 10619 
3 8478 4940 9687 
3 4852 6879 4791 
3 334 3380 665 
3 8538 4949 1095 
3 663 11710 6547 
3 7213 333 665 
3 8601 7086 5691 
3 7213 665 3380 
3 6134 6166 8482 
3 1420 2508 6547 
3 10581 9889 9962 
3 340 3175 1422 
3 10977 8921 7496 
3 8482 6166 6704 
3 6296 8992 8670 
3 10619 10102 3380 
3 10945 10585 9923 
3 4499 669 338 
3 1602 3568 1096 
3 8282 1096 451 
3 334 666 6976 
3 1602 1096 8282 
3 4949 8538 7091 
3 335 1602 5267 
3 10619 3380 6976 
3 446 8538 1095 
3 1997 4702 1983 
3 1604 1464 3288 
3 6929 1466 451 
3 4729 4600 4702 
3 1983 4695 1927 
3 2009 4736 4729 
3 4701 449 9747 
3 6077 8024 6066 
3 1099 449 4701 
3 4729 4736 4734 
3 8165 6682 3035 
3 5806 8142 6226 
3 5165 667 8282 
3 1863 3113 3035 
3 6173 451 8667 
3 1602 8282 5267 
3 4982 5902 6646 
3 8288 6680 4101 
3 9700 4101 57 
3 2597 6681 1667 
3 8251 337 4985 
3 2077 3710 3244 
3 7576 8142 5806 
3 3113 6680 8166 
3 5165 451 6173 
3 2107 4732 2097 
3 860 4101 6680 
3 3710 6393 5933 
3 10724 7546 8142 
3 8280 6763 7240 
3 4732 6657 4398 
3 8891 7735 8167 
3 6657 3763 6393 
3 1782 6556 2674 
3 6682 8165 7923 
3 1783 2613 1864 
3 1863 1667 3113 
3 5629 8165 3035 
3 1863 3035 1782 
3 6681 860 1667 
3 2597 1667 1863 
3 6680 1667 860 
3 4101 860 57 
3 667 6646 5267 
3 9163 10619 7602 
3 2587 1781 6550 
3 1054 340 3584 
3 6681 8167 7735 
3 8534 338 6759 
3 2587 6550 7430 
3 7430 6550 9643 
3 56 3816 4849 
3 9046 10607 9889 
3 10030 9097 8031 
3 9207 8216 10058 
3 8429 1056 1422 
3 1223 1779 3159 
3 7460 10507 10183 
3 10607 9046 9027 
3 10945 8921 10585 
3 3393 4499 1055 
3 481 1478 2954 
3 10581 9962 8921 
3 338 1055 4499 
3 8601 10231 5902 
3 9748 1422 6581 
3 2997 339 6514 
3 5164 1056 8429 
3 339 4250 6514 
3 3584 340 9748 
3 8759 6581 8922 
3 9748 6581 8759 
3 1478 1112 6696 
3 8759 8922 10165 
3 8505 6246 9484 
3 10165 11022 9923 
3 10165 9190 8505 
3 2958 6730 7496 
3 7518 9046 9889 
3 6884 244 1019 
3 6730 10130 7496 
3 243 611 4121 
3 6660 193 9600 
3 5828 3765 4751 
3 3207 3134 5673 
3 240 609 4956 
3 9997 9702 7645 
3 4971 609 241 
3 8025 5887 9094 
3 2958 7496 7466 
3 10030 9027 9097 
3 8999 5769 9451 
3 10225 7641 7921 
3 10294 7804 9097 
3 8031 3386 6859 
3 5191 6694 1386 
3 10737 7641 10225 
3 5608 2994 3188 
3 1386 2994 3460 
3 247 4112 1021 
3 6038 7641 7961 
3 7088 1594 2932 
3 9164 10313 7693 
3 9504 7641 10737 
3 6038 4956 7316 
3 5601 9504 10313 
3 7921 3785 9149 
3 4956 6038 3125 
3 9681 10230 7705 
3 3134 1355 989 
3 10230 5673 6001 
3 6201 3781 9754 
3 3464 7784 6163 
3 4532 4432 9673 
3 5749 5824 3243 
3 195 9702 5823 
3 196 4432 1356 
3 8119 6813 3499 
3 3260 195 5823 
3 7593 5628 8959 
3 4928 726 7264 
3 3229 429 724 
3 9480 8509 4742 
3 8119 9657 6813 
3 9657 7768 9252 
3 3343 3499 725 
3 3444 1356 3243 
3 10733 5531 7499 
3 7825 5990 9222 
3 10188 10555 8959 
3 9116 9955 7499 
3 991 196 3092 
3 5990 10669 9222 
3 197 1357 2990 
3 2990 2884 5531 
3 609 8543 6660 
3 7782 9413 7621 
3 5887 8769 9094 
3 990 3243 1356 
3 8025 10320 6071 
3 991 3092 2884 
3 1354 3900 988 
3 197 4065 7271 
3 9080 10156 10941 
3 8762 8959 5628 
3 6249 3671 190 
3 7045 7848 10334 
3 6752 988 3163 
3 190 3671 588 
3 7497 9297 6249 
3 8324 6154 3675 
3 5994 7783 5859 
3 8324 3675 6081 
3 7621 6926 9677 
3 9290 588 7330 
3 6926 192 3186 
3 9290 5166 588 
3 10334 8769 5828 
3 589 3765 191 
3 9290 3765 6497 
3 6497 8769 5887 
3 7045 7331 4767 
3 8418 6612 4512 
3 8098 5798 9378 
3 3844 9413 6612 
3 5159 1384 1018 
3 2954 6696 7473 
3 7782 10008 9047 
3 6926 7621 3844 
3 5171 479 1111 
3 9190 6696 3304 
3 6242 3993 3968 
3 480 3304 1112 
3 1110 3828 4776 
3 9385 6242 8247 
3 1110 4776 478 
3 6028 5607 7596 
3 10692 9483 7596 
3 3206 5264 242 
3 4590 8379 3418 
3 9074 8980 7517 
3 5573 7517 5525 
3 7502 8987 7566 
3 5054 478 4777 
3 7003 6322 4172 
3 4777 754 4234 
3 4172 2191 4675 
3 6764 2151 2141 
3 5054 6843 478 
3 479 4217 1111 
3 2191 2181 4675 
3 4172 6322 3731 
3 2201 2191 4172 
3 2211 2201 3731 
3 2919 5525 2966 
3 5811 3341 3191 
3 3077 2241 2966 
3 3191 5705 5811 
3 5971 5908 9448 
3 5705 5586 7566 
3 8098 3186 5798 
3 5705 7566 7830 
3 5811 8012 5908 
3 5993 5971 8324 
3 3498 2284 2276 
3 2342 3777 4280 
3 7483 9061 9000 
3 10632 7783 8622 
3 3076 2970 5600 
3 3168 5613 2970 
3 9000 10156 9333 
3 2970 2324 2316 
3 7206 4021 201 
3 4344 2357 2355 
3 6719 1358 4021 
3 4021 1358 201 
3 198 4974 7230 
3 5004 5137 7257 
3 2346 2342 4280 
3 6695 3099 1359 
3 6720 8528 4343 
3 202 595 4673 
3 7536 9333 7648 
3 5697 8762 3150 
3 6350 6366 4280 
3 9992 6122 7884 
3 9939 7981 9080 
3 5116 3399 1359 
3 6695 993 3708 
3 597 205 3815 
3 593 4728 6935 
3 600 3362 5084 
3 3947 6146 4728 
3 4490 6675 9415 
3 202 4673 8655 
3 7206 8118 4021 
3 992 1358 6719 
3 6146 8146 6935 
3 200 992 594 
3 8588 6719 8475 
3 5137 4950 2363 
3 7230 4490 4708 
3 7875 6043 9415 
3 3759 4020 2373 
3 594 3693 4524 
3 3398 420 3706 
3 420 3398 1088 
3 421 8148 719 
3 5566 2974 6015 
3 7660 9112 10324 
3 8046 4047 3953 
3 4430 6015 2974 
3 4272 8348 8046 
3 4047 6175 3586 
3 3766 9510 8138 
3 8313 9384 3586 
3 9384 6232 8212 
3 6136 8313 8193 
3 4313 4375 2377 
3 4033 2385 2383 
3 9383 6103 8435 
3 2373 4020 2375 
3 2375 4020 4313 
3 2375 4313 2377 
3 3693 594 199 
3 5137 2363 2361 
3 4375 6232 4066 
3 8193 8138 6049 
3 4066 6136 3485 
3 3485 4033 2383 
3 6316 8138 9510 
3 6316 11727 4602 
3 2395 5241 2397 
3 6481 2405 2403 
3 3766 5269 403 
3 4948 4602 11727 
3 705 403 4712 
3 9584 4885 4206 
3 5030 400 7314 
3 580 2407 5233 
3 3638 400 7186 
3 8664 4825 2401 
3 4825 5030 7314 
3 6481 4679 5233 
3 1682 3989 6517 
3 10598 6788 3477 
3 7699 9240 10142 
3 3473 6218 5807 
3 6447 9299 3618 
3 10187 6517 3989 
3 8755 8608 6218 
3 4122 2425 4631 
3 9070 7699 7642 
3 4899 578 797 
3 8023 3835 6123 
3 796 8706 579 
3 2415 8409 2417 
3 4822 6517 4899 
3 3980 2419 2417 
3 4476 9737 6480 
3 5107 797 578 
3 4822 4899 5109 
3 10187 9517 6295 
3 4722 880 1682 
3 4697 2423 2421 
3 9545 10001 10588 
3 8881 10485 9855 
3 7477 7167 3316 
3 3215 5938 3703 
3 10598 3477 6020 
3 3504 9240 8737 
3 2863 7477 7552 
3 8115 582 6480 
3 10989 9467 10509 
3 11170 10434 10911 
3 9467 6447 3524 
3 4822 5109 1797 
3 2961 5713 3356 
3 4454 398 700 
3 4279 582 800 
3 1683 881 9737 
3 398 4206 700 
3 581 799 7209 
3 8718 799 581 
3 78 3316 7167 
3 8021 404 4272 
3 3766 706 5269 
3 9969 10618 4712 
3 7047 2391 5104 
3 1450 6124 1084 
3 9537 4712 5269 
3 406 4668 701 
3 4017 3655 6247 
3 8665 7629 5768 
3 5713 10098 7740 
3 9650 8140 5949 
3 4295 417 4572 
3 1450 6755 3655 
3 405 4017 1085 
3 4017 6247 8432 
3 5744 5510 2989 
3 8432 6247 9455 
3 9976 9433 8036 
3 1451 3651 4495 
3 2902 9433 5722 
3 34 836 5192 
3 5722 10714 8925 
3 4366 4668 8271 
3 836 3722 5192 
3 701 4668 4366 
3 398 7175 4206 
3 7779 8271 6421 
3 7239 6521 4934 
3 4366 7779 7175 
3 4366 7175 398 
3 10546 7431 8867 
3 10062 7998 8953 
3 6856 1693 3801 
3 3709 3837 899 
3 10434 8867 9840 
3 11163 10954 10815 
3 10401 11320 10815 
3 10483 10815 10954 
3 5747 8953 7998 
3 1763 3721 6699 
3 8671 1798 1247 
3 79 7239 1203 
3 5747 6345 3788 
3 1798 1871 3835 
3 3721 7748 6699 
3 9171 7052 2557 
3 10820 11500 11320 
3 10049 8953 9372 
3 11378 10820 11504 
3 11320 11500 10815 
3 9978 10950 9158 
3 8844 5422 9940 
3 10447 10966 11126 
3 8901 9940 8006 
3 6330 10319 9655 
3 7571 7838 8941 
3 1946 6699 2736 
3 1946 1911 1684 
3 11098 10400 10969 
3 5487 8621 9225 
3 10889 8925 10714 
3 8932 7376 9775 
3 2736 6699 8235 
3 2598 5310 2557 
3 5722 8925 7748 
3 10193 10393 9258 
3 5192 7300 3721 
3 6699 7748 8235 
3 2621 6881 1762 
3 2902 1647 1856 
3 9433 10714 5722 
3 7300 7748 3721 
3 10025 9152 7371 
3 3530 4186 838 
3 5317 9152 8036 
3 9433 9976 10714 
3 8925 10889 10393 
3 10887 10498 10025 
3 8955 7444 7565 
3 4322 4594 1912 
3 7401 7444 8864 
3 1947 2671 2816 
3 6645 908 1556 
3 105 1272 4326 
3 6786 424 4916 
3 3991 4326 1272 
3 6714 1089 4598 
3 8495 1556 908 
3 4186 9550 4893 
3 1649 4893 1857 
3 4041 6880 6383 
3 5510 5744 7565 
3 7401 5363 5416 
3 7444 5510 7565 
3 8507 4893 9550 
3 4186 4893 1649 
3 3655 6755 7885 
3 6247 9650 8245 
3 4106 6463 6857 
3 6237 8507 9550 
3 7885 6755 9540 
3 6825 9455 8245 
3 5566 6015 7660 
3 6325 5097 3347 
3 10271 2980 5566 
3 7660 8083 9439 
3 10258 5969 7760 
3 424 8479 4598 
3 7758 9532 5967 
3 3826 6624 1455 
3 5936 3158 4599 
3 9112 5969 9532 
3 599 207 5084 
3 423 6858 4393 
3 3877 8056 8581 
3 208 6935 3362 
3 3621 207 599 
3 3362 8146 6137 
3 10327 9430 6516 
3 4653 208 4178 
3 3061 5619 5763 
3 596 203 3254 
3 3155 5779 3815 
3 596 3254 3150 
3 204 3150 3018 
3 597 3061 205 
3 3018 5628 5619 
3 429 725 5188 
3 599 3770 3621 
3 6950 8056 3877 
3 5763 11726 5754 
3 3508 8584 5711 
3 207 3621 6950 
3 8581 6380 10327 
3 3541 6083 3682 
3 8056 6380 8581 
3 7653 8065 9605 
3 7867 9605 9527 
3 8093 6033 3682 
3 106 1274 7173 
3 5878 9390 7653 
3 720 4254 3931 
3 3499 3343 5839 
3 6273 9153 8584 
3 8128 8966 9116 
3 9750 5754 11726 
3 9175 9153 11726 
3 6653 1812 1697 
3 11091 11351 11089 
3 11204 9100 9835 
3 1557 6779 909 
3 9841 9988 9370 
3 8495 908 6786 
3 6630 1554 1272 
3 4598 6631 6714 
3 7922 3620 8373 
3 7623 4353 6662 
3 6273 8584 7014 
3 908 6645 5204 
3 9470 9988 7487 
3 911 108 8690 
3 7157 728 433 
3 1276 8592 9523 
3 6489 4890 1456 
3 9037 5465 7842 
3 1276 1812 8592 
3 10898 9880 11204 
3 2771 2938 1276 
3 7485 9100 5462 
3 2901 6781 1558 
3 7842 9880 9037 
3 7436 10861 9818 
3 11350 9882 11174 
3 6189 5493 7512 
3 11174 8973 10795 
3 4002 1282 1563 
3 10544 7512 9091 
3 4544 8738 6939 
3 1282 5028 3041 
3 2701 7081 7701 
3 8805 7367 7356 
3 2977 2701 5493 
3 907 4623 4146 
3 1651 4876 1858 
3 9128 7367 9926 
3 2691 2548 1858 
3 1205 1765 4549 
3 9927 11394 10351 
3 5327 5286 7356 
3 9912 10914 10813 
3 11225 11394 10350 
3 10351 11468 11190 
3 11697 11510 11668 
3 43 6795 2527 
3 11468 11245 11190 
3 10351 11190 8805 
3 11645 11704 11631 
3 11525 11468 11404 
3 11701 11699 11645 
3 11547 11387 11056 
3 11650 11657 11600 
3 11416 11056 11245 
3 104 4586 4544 
3 4475 37 1205 
3 840 37 8657 
3 10822 11056 10387 
3 1273 104 7081 
3 9995 10866 8876 
3 5440 2671 5367 
3 2559 37 2538 
3 1205 2600 1765 
3 4594 4322 8185 
3 10822 11245 11056 
3 11245 10822 11190 
3 11120 10907 11323 
3 11547 11056 11416 
3 11431 11271 11081 
3 10889 9976 10498 
3 9258 7376 5381 
3 5381 5310 2598 
3 11657 11431 11579 
3 10907 11120 10539 
3 837 2557 7052 
3 7458 9966 8846 
3 8932 9966 9171 
3 7052 2907 44 
3 1248 837 44 
3 1212 2551 1772 
3 9171 10280 7052 
3 837 7052 44 
3 6846 9372 2926 
3 7074 883 2789 
3 5830 9158 5797 
3 5797 2866 3901 
3 9978 9524 7571 
3 1251 3738 83 
3 2949 1873 6922 
3 4771 5066 6903 
3 2949 1686 1873 
3 1801 1251 2755 
3 5830 3902 2949 
3 1686 5066 4771 
3 82 7073 885 
3 4581 8484 6621 
3 80 7110 883 
3 2789 883 1544 
3 9225 9844 10969 
3 1860 2547 1657 
3 2789 1544 2917 
3 884 1685 2904 
3 3667 81 7227 
3 2866 5797 5515 
3 4877 5925 8621 
3 9225 10969 8901 
3 6394 7917 10264 
3 7073 5066 885 
3 1800 3901 2866 
3 3901 5218 8679 
3 5096 785 5181 
3 550 785 1250 
3 549 5079 7073 
3 6903 1491 4465 
3 2904 1685 2866 
3 1517 3978 1151 
3 786 5167 551 
3 3978 5181 1151 
3 4418 6531 7227 
3 7361 6776 2527 
3 4817 8641 6878 
3 1151 5181 550 
3 8902 7344 9759 
3 7344 5299 9249 
3 5069 1860 4817 
3 4817 1657 4401 
3 11650 11677 11591 
3 9767 8846 10486 
3 11561 11668 11234 
3 11640 11566 11524 
3 11649 11697 11682 
3 11591 11561 11413 
3 11697 11668 11677 
3 11049 11566 11413 
3 9767 10751 10545 
3 11563 10768 11621 
3 8805 9927 10351 
3 10351 10753 11468 
3 11602 11512 11647 
3 11687 11651 11602 
3 11679 11512 11670 
3 11400 11397 11233 
3 11537 11434 11236 
3 11703 11670 11594 
3 11138 10746 9759 
3 10749 11113 11236 
3 11454 11334 11082 
3 1657 2547 2535 
3 9764 7361 10557 
3 11232 11509 11415 
3 3627 1211 6777 
3 1771 1951 6259 
3 6715 6394 3690 
3 7855 10264 6047 
3 552 786 475 
3 7855 6047 9281 
3 5167 3978 1517 
3 551 3690 5223 
3 6820 3978 5167 
3 786 551 7243 
3 748 470 4837 
3 1951 5615 9312 
3 4546 823 4689 
3 4807 7129 8525 
3 5615 1951 1771 
3 748 5223 470 
3 10647 6259 2517 
3 573 6588 1529 
3 6777 6259 10215 
3 9281 4007 7855 
3 5219 1916 1656 
3 10580 9893 7682 
3 749 5219 472 
3 474 752 5224 
3 1210 1770 4987 
3 472 4656 749 
3 2683 2722 5413 
3 6544 4271 7759 
3 1770 3122 1859 
3 5001 7211 4271 
3 3774 7228 1189 
3 7211 7759 4271 
3 1916 3054 1656 
3 9356 7599 10267 
3 1656 4074 845 
3 6234 10144 7211 
3 10773 10918 11036 
3 11593 11537 11412 
3 5914 5527 7636 
3 8131 6412 9723 
3 11025 11461 10755 
3 11679 11647 11512 
3 9964 10346 8787 
3 11706 11679 11644 
3 11255 11440 11626 
3 9479 6041 6465 
3 11255 10747 11316 
3 11461 11538 11263 
3 4959 38 841 
3 6746 1913 2537 
3 10747 10549 9765 
3 3466 5700 5935 
3 11043 10925 11336 
3 4650 1207 4642 
3 8000 7277 7806 
3 2950 4959 841 
3 1948 4211 6747 
3 7749 3641 5082 
3 637 5231 5207 
3 6041 9479 8029 
3 8496 5935 7709 
3 7564 9133 10590 
3 915 4721 112 
3 5519 8000 9288 
3 11333 11461 11086 
3 38 1206 3514 
3 6746 8220 8096 
3 10053 8784 10549 
3 10914 8845 10373 
3 10747 9765 11316 
3 5326 2548 2691 
3 9760 10350 9927 
3 9758 9092 10693 
3 10873 11086 11097 
3 2531 1651 2548 
3 5326 9092 7339 
3 5327 2538 5286 
3 9927 10350 11394 
3 907 5028 114 
3 8176 6868 9407 
3 6189 3041 5028 
3 7123 8508 4876 
3 3128 1281 2909 
3 631 5023 271 
3 4405 1282 4002 
3 916 113 3428 
3 3428 6799 916 
3 1282 4405 114 
3 9882 11350 10631 
3 9283 5790 7456 
3 9882 10631 9407 
3 3289 6248 9286 
3 11342 10861 11122 
3 8132 7512 8973 
3 10451 9906 10943 
3 10943 9906 10057 
3 9283 9980 7485 
3 912 109 3389 
3 10909 9980 7456 
3 7485 9980 9835 
3 9283 7485 7994 
3 2862 4850 912 
3 10471 9980 10909 
3 4661 10300 2777 
3 9826 7486 9257 
3 5434 7456 5790 
3 4249 3990 6542 
3 913 4918 110 
3 4661 111 914 
3 2777 10300 7994 
3 2829 5452 5822 
3 3560 5708 6248 
3 1281 2750 1562 
3 5519 7560 5708 
3 4503 6934 6248 
3 9611 6248 5708 
3 1562 915 3289 
3 3128 3428 113 
3 4721 8658 2804 
3 273 5133 632 
3 5036 8411 271 
3 272 632 7017 
3 280 3560 6934 
3 4503 6248 3289 
3 5180 789 7164 
3 4392 6267 8356 
3 1155 1520 558 
3 5728 3185 3378 
3 5136 1154 8698 
3 4025 1519 5136 
3 1152 4249 559 
3 6542 7030 7164 
3 788 4392 555 
3 11637 11620 11653 
3 7824 9205 6332 
3 5163 7030 3990 
3 788 555 5180 
3 10296 9556 9034 
3 4700 8748 7183 
3 1620 6355 808 
3 11070 11514 11479 
3 7337 9309 10067 
3 5443 2682 5336 
3 4700 556 789 
3 10904 11037 11053 
3 2599 2734 5323 
3 11655 11550 11427 
3 11482 11037 10357 
3 9206 8368 7882 
3 11311 11029 11402 
3 11550 11655 11676 
3 5557 3281 2802 
3 11700 11653 11684 
3 10417 10947 8807 
3 4277 7 7176 
3 1735 3281 1620 
3 4277 7176 8356 
3 4392 8356 7022 
3 11684 11613 11596 
3 7831 5359 8856 
3 11364 10888 11272 
3 10947 9044 7440 
3 11531 11551 11310 
3 11613 11432 11630 
3 11551 11401 11027 
3 11630 11583 11286 
3 1962 1933 2526 
3 5297 9476 2601 
3 9148 7390 10464 
3 7343 7362 5306 
3 11364 10967 10520 
3 10967 9782 8794 
3 10781 10417 9782 
3 11117 9782 10967 
3 10385 10841 11484 
3 10947 7440 8807 
3 2822 5418 2643 
3 7448 9431 10489 
3 10847 10385 11063 
3 5339 5336 2576 
3 7 2576 2682 
3 5443 9026 5557 
3 9636 6267 8110 
3 3962 554 6332 
3 913 5056 1560 
3 3962 4392 788 
3 5858 8110 9205 
3 3170 6392 8174 
3 5939 7824 6332 
3 9636 4277 8356 
3 5825 7807 5726 
3 5089 110 4655 
3 3527 6401 10303 
3 5858 9205 7824 
3 8221 10206 9729 
3 7987 5825 3389 
3 5244 6392 1176 
3 8174 9431 5546 
3 5947 6392 4117 
3 3385 7956 7685 
3 8292 3556 5773 
3 6359 8509 9480 
3 4284 6401 8221 
3 10206 7685 9308 
3 728 7157 8509 
3 6781 911 1558 
3 4758 8514 7235 
3 5055 726 431 
3 7264 6359 8736 
3 4284 432 727 
3 8736 6349 5188 
3 429 5188 724 
3 8745 9480 4742 
3 724 6349 428 
3 7014 4890 6653 
3 6813 3202 430 
3 725 4928 5188 
3 725 430 4928 
3 5188 4928 8736 
3 5621 9400 5745 
3 10109 9252 8289 
3 7538 7579 5552 
3 2996 1961 2923 
3 8292 7863 5986 
3 8067 6813 9657 
3 8422 9754 6163 
3 1383 4956 3125 
3 3358 3313 5745 
3 5621 7579 9400 
3 5892 9681 10340 
3 9702 195 3207 
3 1738 3313 3358 
3 7649 9400 9997 
3 4494 812 2768 
3 1594 1387 2932 
3 812 4494 9 
3 8422 9347 3879 
3 7366 5409 7439 
3 3460 2994 5764 
3 9 3565 812 
3 7784 8201 10163 
3 10340 8196 6076 
3 3746 1624 812 
3 2769 1738 1177 
3 10800 9834 10476 
3 5358 5655 2768 
3 11176 11575 10800 
3 5359 9044 8856 
3 1897 2923 1961 
3 3313 1932 2996 
3 3087 5530 5947 
3 10520 10967 10093 
3 8785 7366 8788 
3 8856 9044 10476 
3 10417 8807 9782 
3 11050 10854 10776 
3 8520 4055 3820 
3 9762 8788 9792 
3 11028 11502 10878 
3 10093 7343 7338 
3 7366 7439 8788 
3 8405 6111 9628 
3 8341 1787 9474 
3 10508 11114 11008 
3 4800 4880 6874 
3 11033 10883 10362 
3 10550 11188 10567 
3 8404 5342 2641 
3 10550 9787 10883 
3 11627 11298 11052 
3 10362 10883 9787 
3 8404 2637 5455 
3 5707 7272 7686 
3 2579 1665 2641 
3 2637 2641 1917 
3 3346 7882 5937 
3 2845 5582 5409 
3 7539 10073 9395 
3 7881 7258 3543 
3 7881 9395 10073 
3 5764 9359 3460 
3 3253 8216 6443 
3 9395 6165 9359 
3 9395 9359 5764 
3 5608 5764 2994 
3 9111 7503 10636 
3 6629 1779 2660 
3 6629 1862 1779 
3 1664 3684 857 
3 10383 11052 10895 
3 11054 10758 11040 
3 9854 10636 9526 
3 10896 9104 10255 
3 2637 1952 2918 
3 5707 9111 7462 
3 11349 11619 11045 
3 5049 2127 2137 
3 10855 10364 11365 
3 11045 11285 10760 
3 1226 4976 6556 
3 9174 8077 5340 
3 11556 11627 11257 
3 11663 11611 11429 
3 2692 6601 1668 
3 6763 5049 7240 
3 4786 58 6657 
3 2127 5049 6763 
3 1668 1864 2692 
3 2207 6551 2197 
3 1783 6845 1227 
3 3246 2591 5401 
3 2613 2582 5338 
3 7374 9770 9174 
3 10858 11285 11039 
3 11252 11040 11055 
3 11252 11533 11611 
3 11422 11425 11528 
3 11533 11039 11422 
3 11528 11243 11532 
3 11392 11532 11095 
3 10756 11105 9771 
3 1227 7151 2582 
3 7891 8907 10012 
3 7374 9174 5340 
3 10012 10593 7374 
3 11285 11045 11558 
3 862 3246 59 
3 9886 11123 10548 
3 10548 9836 7650 
3 10540 10788 11155 
3 863 5143 60 
3 6806 2591 1669 
3 2824 6806 1865 
3 8974 7650 9836 
3 9459 9886 5423 
3 11256 11425 11674 
3 11543 11616 11527 
3 11264 11349 11155 
3 10575 10759 9783 
3 10616 10760 11200 
3 11619 11558 11045 
3 10760 11285 11200 
3 5318 9327 7355 
3 8797 8795 7354 
3 5314 2579 5342 
3 1787 1953 9474 
3 9669 7049 2900 
3 2854 5458 2698 
3 4800 6874 8591 
3 4880 8341 6768 
3 1231 4800 63 
3 2553 1846 1740 
3 11360 10897 10832 
3 2664 814 1626 
3 5509 7422 7704 
3 11543 11527 11264 
3 8795 8820 7422 
3 1180 8408 9624 
3 2571 2580 1787 
3 1231 1787 8341 
3 3107 865 1672 
3 1953 4861 9474 
3 8447 10217 8243 
3 8408 6830 1672 
3 5402 9219 5375 
3 11441 11050 11584 
3 5402 5375 2664 
3 11050 11441 11312 
3 10573 9260 10432 
3 8243 5458 2854 
3 10439 10857 11149 
3 11464 11280 11584 
3 62 865 5061 
3 2727 2533 5347 
3 9624 62 12 
3 5061 3107 6302 
3 5501 9511 2724 
3 1627 1900 3120 
3 211 997 5050 
3 8871 10929 10682 
3 8459 4943 4962 
3 7729 4147 7265 
3 1786 3106 2697 
3 2567 2687 1671 
3 1866 4943 1786 
3 1866 2567 1671 
3 6551 5071 1784 
3 5143 863 8291 
3 8291 2873 9248 
3 10548 11123 9836 
3 8339 11718 4410 
3 4531 4203 2242 
3 9598 8501 5027 
3 2686 9459 5423 
3 6125 8339 6085 
3 2247 3699 4410 
3 6937 6085 6995 
3 6765 8689 5022 
3 8694 6833 998 
3 6085 8339 3699 
3 2846 6663 8309 
3 6477 4878 8694 
3 8121 6663 2959 
3 61 4878 6477 
3 10938 11215 10538 
3 7986 10086 11016 
3 6636 3112 1365 
3 2182 6326 2192 
3 10086 10691 11016 
3 4435 8703 4790 
3 1365 3112 1587 
3 6809 2202 8403 
3 4058 6462 8414 
3 5022 1587 4790 
3 8186 6636 3013 
3 4714 4727 6686 
3 11215 10938 10494 
3 6913 3329 5141 
3 3192 7537 7568 
3 7684 9305 6792 
3 10467 10919 8931 
3 9464 6854 7907 
3 8309 8121 8931 
3 10494 9963 7507 
3 8309 10084 5507 
3 10494 10919 11215 
3 5556 7507 9351 
3 11215 9865 10538 
3 9351 7507 9963 
3 3501 3906 5888 
3 10114 5518 7983 
3 9305 11018 10022 
3 10663 7983 5645 
3 4142 7042 8053 
3 4516 5063 210 
3 62 4952 12 
3 8053 5897 4269 
3 1742 2724 1935 
3 3440 5645 2899 
3 1362 211 5050 
3 8854 7789 5345 
3 2720 1901 7115 
3 5992 3120 8022 
3 5063 4879 7296 
3 1900 1935 6651 
3 3091 1742 1181 
3 3110 5050 997 
3 211 1362 6894 
3 4821 815 12 
3 1900 8611 4879 
3 6830 1741 1934 
3 6651 9511 8022 
3 4158 1741 1180 
3 8982 8022 10208 
3 10432 8982 10897 
3 7689 5501 6285 
3 9951 10897 8995 
3 8995 10897 10208 
3 10439 11149 10832 
3 10897 11360 10432 
3 11427 11482 11578 
3 6970 2558 8227 
3 7337 10067 8782 
3 8233 10296 9309 
3 9043 8227 9310 
3 1629 6808 1847 
3 10558 9310 7340 
3 2528 1629 1847 
3 7340 5290 5280 
3 9309 10458 10067 
3 2723 9556 6964 
3 8233 5283 2549 
3 10348 8782 10067 
3 11070 11479 10865 
3 10388 8873 11361 
3 3265 1844 1736 
3 6821 4862 8705 
3 1687 887 4704 
3 7164 789 556 
3 6355 7724 6356 
3 8599 9724 1519 
3 808 5259 6 
3 1153 4025 4243 
3 7039 633 274 
3 230 6966 602 
3 1154 1520 8698 
3 7278 5086 557 
3 272 630 558 
3 1175 6356 1736 
3 1175 4163 3829 
3 6190 7968 4427 
3 9440 4107 556 
3 557 1519 9724 
3 6617 9466 4120 
3 2549 1183 6964 
3 9556 2723 5351 
3 8442 15 6583 
3 84 8361 9705 
3 809 2723 15 
3 6583 1183 8361 
3 3033 231 8433 
3 6263 6190 8590 
3 7055 8642 4457 
3 5834 8701 3944 
3 6263 6288 3921 
3 6519 4303 233 
3 8442 6583 1253 
3 6501 1847 6808 
3 3945 8701 5845 
3 8734 84 6559 
3 1252 6706 3395 
3 9043 7375 5323 
3 6559 84 886 
3 5569 8858 8078 
3 4635 6808 1629 
3 2528 2524 5280 
3 2528 1847 2524 
3 1183 6583 15 
3 8854 10202 7789 
3 1963 7114 3263 
3 10857 9796 10368 
3 14 6970 2734 
3 3328 1743 3507 
3 4039 4100 6378 
3 817 6970 14 
3 8091 5843 5929 
3 3856 1182 3328 
3 4669 4941 4635 
3 377 4269 5897 
3 694 3218 3369 
3 6378 4219 9581 
3 3597 387 3369 
3 10200 9601 3689 
3 4219 388 3819 
3 4219 685 388 
3 3819 695 3597 
3 8003 5853 3218 
3 3218 5853 3369 
3 8417 6387 3852 
3 8003 8091 5853 
3 9581 3819 6156 
3 7937 8043 3263 
3 8078 10623 9096 
3 8734 1253 84 
3 11164 10991 9874 
3 7050 1874 1802 
3 887 1687 3944 
3 7703 2735 9096 
3 606 5092 232 
3 2753 1259 91 
3 3921 4196 231 
3 6519 9599 4303 
3 3306 233 3203 
3 8352 6933 235 
3 3203 3750 7744 
3 1015 6933 6867 
3 2728 2721 5431 
3 10421 10811 10440 
3 6962 4606 894 
3 894 4606 1691 
3 6943 4606 4963 
3 606 6519 233 
3 5427 7426 10564 
3 10505 10807 10826 
3 5456 5463 7441 
3 8885 10913 10414 
3 2753 91 2728 
3 4327 1379 4486 
3 6275 4185 3720 
3 4319 6896 4311 
3 4739 7057 7763 
3 10031 8937 10444 
3 10469 9223 9062 
3 2967 235 1380 
3 10430 9837 10810 
3 943 140 3609 
3 11173 10999 10833 
3 9847 10005 7441 
3 382 4536 689 
3 5757 8586 6261 
3 6272 6098 3932 
3 2726 2957 5436 
3 7217 8381 7809 
3 10155 7810 10597 
3 6293 5144 8597 
3 386 693 3863 
3 379 5157 686 
3 7809 8381 10155 
3 8381 9084 10155 
3 3963 388 9639 
3 7325 380 7303 
3 381 689 11712 
3 10051 10872 10552 
3 6576 3355 1400 
3 6905 9084 8381 
3 7809 6266 3723 
3 380 687 4557 
3 5157 11709 7217 
3 7446 5476 5469 
3 935 2910 6504 
3 6308 7895 9468 
3 8492 6770 3813 
3 7537 9004 7568 
3 686 5157 3723 
3 10192 9276 7651 
3 10583 10101 282 
3 3357 2834 8240 
3 6331 8262 5888 
3 6797 3192 7568 
3 6792 217 3446 
3 5905 9435 8255 
3 8996 8753 6210 
3 4407 9601 5905 
3 9298 7568 10074 
3 8559 9601 10200 
3 8559 6331 5970 
3 684 3689 9601 
3 8262 9209 5888 
3 10270 9209 5897 
3 3689 8262 10200 
3 1361 3548 209 
3 994 3906 3501 
3 6331 5888 3906 
3 209 3906 994 
3 2893 5529 7907 
3 7895 7684 3446 
3 10114 7983 10663 
3 10074 9435 9298 
3 9468 6838 3965 
3 995 3192 6797 
3 2893 216 2858 
3 6743 1001 3870 
3 6854 1367 2893 
3 1002 1590 2821 
3 3329 1366 5141 
3 6952 216 1367 
3 1588 1366 3329 
3 10101 6206 6743 
3 6326 6686 1588 
3 3329 3013 1588 
3 4433 9634 4714 
3 8295 2182 2172 
3 8403 2192 6326 
3 1588 6686 1366 
3 6326 8295 6686 
3 3745 6039 6220 
3 8295 4714 6686 
3 6743 6206 1589 
3 3745 2152 2142 
3 6571 282 10101 
3 1589 1367 6854 
3 1368 5131 3340 
3 8183 8269 6991 
3 6576 3045 9335 
3 8633 10309 6105 
3 8129 4209 6308 
3 1028 7222 6991 
3 1030 6571 3636 
3 6144 6039 3698 
3 1394 282 1030 
3 10137 7805 9168 
3 6502 282 1394 
3 8183 7310 6058 
3 4297 4294 2102 
3 7029 284 3278 
3 1031 4292 3905 
3 4292 6667 3905 
3 4297 2102 2092 
3 7728 6577 3355 
3 1398 4415 6889 
3 9410 9124 5805 
3 4438 1398 8536 
3 2523 1400 3355 
3 1034 3355 6577 
3 9124 9335 5805 
3 6032 4438 8273 
3 9410 5805 8269 
3 7651 9276 5679 
3 7626 5777 5678 
3 6460 8519 133 
3 935 6504 143 
3 381 142 1310 
3 9713 1034 10250 
3 1571 2733 945 
3 143 6504 1311 
3 4557 3904 8228 
3 8575 6938 3604 
3 6504 2797 1311 
3 6504 7949 2797 
3 688 9582 7325 
3 934 3604 6938 
3 5214 571 7158 
3 8575 5775 10676 
3 10250 1034 287 
3 6770 132 1301 
3 1567 935 3247 
3 6460 133 936 
3 6906 8345 3907 
3 10491 10403 9977 
3 10834 11339 11147 
3 2797 5461 2733 
3 937 6459 134 
3 10405 11147 11339 
3 1303 2770 1568 
3 10491 11010 11346 
3 11346 11087 11339 
3 10491 10834 10403 
3 11147 10405 9814 
3 10083 8904 11186 
3 11343 10403 10834 
3 11346 9810 11087 
3 3505 5954 6079 
3 4232 1528 8779 
3 3783 8273 6597 
3 4931 286 7158 
3 5214 286 1399 
3 2770 5390 2746 
3 639 4931 4867 
3 937 2746 6459 
3 6577 7861 639 
3 284 4242 1032 
3 2039 2027 8557 
3 1612 1159 1399 
3 4438 1032 1398 
3 5115 4889 7269 
3 8725 4424 6889 
3 4300 4297 2092 
3 8010 6075 9589 
3 8557 8430 6740 
3 569 1526 3462 
3 3973 5234 1158 
3 8224 6862 6139 
3 3578 4873 1159 
3 6382 10222 10211 
3 571 1159 4873 
3 8058 10716 10157 
3 4873 3578 6139 
3 568 7269 4200 
3 8375 8668 6215 
3 1527 1161 3619 
3 1526 1160 3310 
3 1991 4889 5115 
3 5031 794 7319 
3 4200 7269 9521 
3 3455 6090 3986 
3 4578 3456 6328 
3 5866 3462 3310 
3 6328 8416 6090 
3 1734 1931 3456 
3 3481 3456 1931 
3 3986 1975 1892 
3 4578 1734 3456 
3 6003 3481 3611 
3 5930 6328 3456 
3 1987 3611 3481 
3 1987 3481 1931 
3 3478 2090 2100 
3 2001 3537 3611 
3 1527 3262 570 
3 5909 3262 3619 
3 5699 7578 7713 
3 5815 7713 8102 
3 10205 7850 9145 
3 5634 2985 3114 
3 3225 5699 5815 
3 5565 7578 5699 
3 5815 3315 3225 
3 2060 2070 2985 
3 7725 5634 5765 
3 2060 3116 2049 
3 10205 7725 7850 
3 5634 5565 2985 
3 8530 8489 5996 
3 8374 7778 5962 
3 5765 5864 7850 
3 7725 10205 10242 
3 1569 3376 3366 
3 8551 5973 8374 
3 5667 9145 3205 
3 7725 10242 7584 
3 8017 10328 5543 
3 9049 7578 7584 
3 10211 4011 9324 
3 9006 9049 10242 
3 5543 10328 9006 
3 6382 4148 6339 
3 1302 2795 936 
3 5390 7465 9117 
3 9145 5667 10205 
3 937 134 3388 
3 9810 9215 10990 
3 3522 9275 5973 
3 10204 6432 8486 
3 3366 5928 5954 
3 7979 2817 6432 
3 8013 3686 8149 
3 7979 6432 10204 
3 941 6471 138 
3 8333 8552 3780 
3 6930 3549 1446 
3 7644 5710 7677 
3 7678 3686 8013 
3 4194 5274 699 
3 7781 9098 5727 
3 9915 10425 10990 
3 2788 939 2817 
3 5844 3271 10625 
3 8486 9177 10204 
3 939 136 3459 
3 8549 5989 5958 
3 1305 3591 3271 
3 9355 5958 5894 
3 5681 5710 7644 
3 3510 3523 2120 
3 3496 5989 3506 
3 5681 3161 3121 
3 2190 3161 2180 
3 7678 9165 7203 
3 3943 2220 2230 
3 9165 10715 10038 
3 6453 10038 6214 
3 9212 9442 699 
3 5274 396 3644 
3 10038 6453 4194 
3 5632 10287 9491 
3 4057 397 7326 
3 3644 9212 5274 
3 9053 8080 5945 
3 9185 616 5272 
3 4346 4439 8172 
3 7287 4434 396 
3 4588 397 1449 
3 4630 7166 4545 
3 7198 256 4264 
3 3979 255 6688 
3 9322 4264 3979 
3 3349 5945 8080 
3 3956 1391 1025 
3 1025 256 4164 
3 3231 5692 7847 
3 1689 4780 6718 
3 10113 5945 7808 
3 5265 10236 4083 
3 5643 7692 5632 
3 6178 3701 8217 
3 4222 9613 9317 
3 696 389 3074 
3 3050 8310 5665 
3 10033 8552 8333 
3 3074 5692 3231 
3 7692 10287 5632 
3 10317 9192 8488 
3 8343 3969 6969 
3 1390 4083 2983 
3 2945 9358 252 
3 7586 10511 9409 
3 10224 7763 5580 
3 390 3231 7262 
3 1601 3050 1080 
3 9648 6084 7815 
3 10031 10444 10934 
3 6314 8089 9688 
3 3969 393 1446 
3 8415 9138 6109 
3 5674 3264 7925 
3 1689 891 4780 
3 891 8583 4780 
3 8329 8889 5424 
3 4390 892 8729 
3 8583 88 6724 
3 6732 1079 1445 
3 4938 6724 1079 
3 3585 6084 7823 
3 3780 1081 1447 
3 4584 1308 942 
3 8552 8310 3549 
3 6930 393 1081 
3 6471 7829 2956 
3 10935 10466 11115 
3 6471 1306 138 
3 7829 10578 9843 
3 10806 11344 11384 
3 10552 10872 11343 
3 10452 10824 11129 
3 11339 10834 11346 
3 7031 941 394 
3 5481 9907 10578 
3 942 139 11723 
3 5103 139 1307 
3 1688 2685 2751 
3 88 6842 6724 
3 8419 3670 6148 
3 6148 4584 6377 
3 943 1570 3961 
3 2957 1255 87 
3 7108 6861 1309 
3 5461 2797 7949 
3 2799 944 2814 
3 3609 8263 9561 
3 10112 381 11712 
3 382 141 6841 
3 141 382 944 
3 2814 1310 2747 
3 8623 6841 4538 
3 7620 8929 7554 
3 3609 9561 6860 
3 7019 8586 3437 
3 8263 6254 6098 
3 3852 692 4461 
3 7426 9102 9837 
3 8533 6842 88 
3 4019 1803 1875 
3 7141 6969 4377 
3 6291 8419 6354 
3 8014 6377 3969 
3 10125 10429 10959 
3 4687 4377 4936 
3 7821 3720 6269 
3 10972 10469 9946 
3 9062 8018 5694 
3 3015 1548 4116 
3 9839 10566 8884 
3 9839 8889 10959 
3 11173 10934 10444 
3 10999 8937 10005 
3 893 90 3720 
3 9147 7821 10006 
3 3413 7247 535 
3 10708 10039 9179 
3 5977 3838 9287 
3 10249 9005 10502 
3 10314 5021 615 
3 3299 5977 8179 
3 251 614 3299 
3 613 4809 4364 
3 9360 8113 3381 
3 854 1661 2906 
3 11130 10803 11370 
3 2700 2666 5407 
3 8859 5482 10018 
3 5442 7416 9155 
3 11436 11638 11368 
3 10908 11179 9913 
3 11273 11161 10840 
3 10123 7463 10009 
3 11205 9800 11469 
3 3277 5121 847 
3 10161 10443 10009 
3 1536 1215 3242 
3 7464 9141 5739 
3 7516 9398 10161 
3 2748 2805 1658 
3 10426 9804 8813 
3 6449 1773 8460 
3 3277 6839 9328 
3 10922 10381 11368 
3 9804 8831 8813 
3 11503 10551 11322 
3 9913 11179 10582 
3 10396 10908 8827 
3 45 847 5121 
3 8813 7381 10582 
3 4924 8555 6888 
3 7417 7464 5388 
3 494 7111 5064 
3 3300 5540 2748 
3 5147 1523 563 
3 6449 1523 1157 
3 5349 2644 2602 
3 4953 4765 45 
3 4305 6627 8466 
3 6449 8460 1523 
3 4422 6798 4560 
3 5739 4633 2805 
3 563 1523 8460 
3 848 563 1658 
3 1773 1658 8460 
3 4141 3066 5979 
3 11158 8914 11197 
3 4197 4924 1777 
3 5407 2666 5377 
3 1661 6558 2906 
3 11158 10801 10018 
3 9482 9973 10586 
3 10046 8831 10551 
3 3184 615 251 
3 8629 1388 5195 
3 1776 6558 1661 
3 2906 7716 7722 
3 613 5195 249 
3 8684 4745 1026 
3 4809 9445 4364 
3 52 5246 1220 
3 1776 1220 4140 
3 9752 4141 5979 
3 10928 10511 7586 
3 3264 250 614 
3 249 5195 1388 
3 9375 4664 4638 
3 1662 4310 1861 
3 4654 4310 1662 
3 4310 4197 1861 
3 6904 8004 9482 
3 4638 4664 5017 
3 3803 2287 3432 
3 4197 6379 6385 
3 6888 53 1221 
3 4745 8684 5800 
3 5882 8629 6283 
3 489 6169 9664 
3 4257 7251 8153 
3 257 1391 3970 
3 4270 2327 2319 
3 5997 3448 7869 
3 3432 2279 3928 
3 6240 3951 3803 
3 3803 3951 2295 
3 756 490 4467 
3 4359 8407 4595 
3 4840 6942 3928 
3 4359 4754 9518 
3 9591 6782 4467 
3 6961 492 759 
3 4357 9591 6487 
3 490 756 3920 
3 10088 492 758 
3 4467 11731 756 
3 6961 6782 4357 
3 6512 4840 8517 
3 8634 4657 4754 
3 4316 6782 6961 
3 4404 498 7079 
3 497 763 6972 
3 2215 4595 8735 
3 6258 8413 4088 
3 4754 4657 9518 
3 4088 8413 4662 
3 4404 765 498 
3 6056 5885 3630 
3 7862 9536 6258 
3 6775 3846 10315 
3 4662 4932 2175 
3 8686 4214 461 
3 9649 7865 5885 
3 6775 499 3846 
3 3846 499 765 
3 4560 6798 8256 
3 8413 7079 4662 
3 4838 8351 6972 
3 499 761 4927 
3 6698 6972 4643 
3 4643 496 6385 
3 6888 495 53 
3 2644 5349 5377 
3 6004 3715 565 
3 4927 4947 5239 
3 8567 6790 792 
3 494 760 5088 
3 6790 564 792 
3 4422 8037 6798 
3 9490 564 6790 
3 5147 7013 3779 
3 6627 560 790 
3 5174 1157 3779 
3 8276 561 5125 
3 8571 562 9457 
3 10179 6982 9126 
3 460 7169 1103 
3 7856 4127 3958 
3 7856 10221 4127 
3 5161 4548 743 
3 9349 4214 8686 
3 6982 3237 9126 
3 5934 7589 9661 
3 7169 560 1103 
3 1469 3938 1103 
3 790 560 7169 
3 742 6721 2510 
3 1103 560 1469 
3 6056 3713 8731 
3 560 7007 1469 
3 1103 3938 5161 
3 2135 3630 3491 
3 8195 7661 7816 
3 7450 5490 5548 
3 6760 9507 1468 
3 5478 2785 5490 
3 2085 2075 745 
3 5593 2921 8063 
3 6430 8421 8553 
3 1103 5161 460 
3 6280 8063 2921 
3 9604 8421 6721 
3 6280 9661 8063 
3 2921 5593 3237 
3 2876 5597 3403 
3 7813 10179 9126 
3 8917 9877 10701 
3 10899 9902 10729 
3 2889 1896 3037 
3 7231 3666 7914 
3 10052 8117 5736 
3 3666 1172 1733 
3 3773 1064 347 
3 9974 10474 10275 
3 8470 6164 3782 
3 8117 10052 10574 
3 7656 10052 9107 
3 8117 11002 11228 
3 6735 1728 1843 
3 1429 6828 2786 
3 5917 6282 7597 
3 154 5025 6893 
3 8882 9952 9857 
3 7493 7471 2786 
3 7661 8195 3454 
3 5474 7524 8968 
3 9701 9898 7524 
3 9701 7524 5720 
3 2839 8125 6738 
3 5474 8125 2839 
3 3119 1599 1063 
3 1429 2786 347 
3 7553 9485 10252 
3 8696 1429 347 
3 1063 346 3806 
3 947 1572 2662 
3 5025 346 1428 
3 3936 344 1061 
3 1428 1062 6893 
3 4912 345 1062 
3 2843 1061 1598 
3 1062 8770 6893 
3 5568 7419 5361 
3 154 6893 947 
3 4038 154 947 
3 8770 947 6893 
3 8125 9374 6738 
3 154 4038 7254 
3 7597 10684 9974 
3 1834 2667 2619 
3 5873 3394 3672 
3 2988 2635 5472 
3 7524 5474 5720 
3 5568 5361 2706 
3 8548 791 5007 
3 7013 4414 7037 
3 8195 3672 3454 
3 9267 4028 6298 
3 5174 3779 6999 
3 3779 1157 1523 
3 8276 4597 5007 
3 8466 6627 4992 
3 2635 2603 5353 
3 4028 4597 6298 
3 8009 4236 7285 
3 2988 1718 2635 
3 1321 4236 2706 
3 1833 1887 3454 
3 2749 3423 954 
3 849 1536 2780 
3 6121 5468 2987 
3 11348 10829 10799 
3 5184 954 847 
3 5121 3277 6455 
3 8571 4953 6449 
3 45 5184 847 
3 9710 7145 3423 
3 5475 2749 5386 
3 5386 7407 7428 
3 7428 9226 5475 
3 2987 1320 4995 
3 8849 11167 10656 
3 9680 7601 10162 
3 8849 10656 7428 
3 10377 11309 10988 
3 8849 7428 7407 
3 8009 5371 9184 
3 7403 8916 7601 
3 10371 10850 9852 
3 11073 11309 10377 
3 5353 5361 7385 
3 8819 10547 10850 
3 10232 10473 9181 
3 5364 5371 2619 
3 7393 5514 5369 
3 1572 947 8770 
3 2653 2662 1572 
3 2653 1313 2708 
3 8066 9134 9380 
3 10371 9852 9794 
3 9380 7393 5369 
3 9380 5369 8066 
3 1572 345 1313 
3 1572 1313 2653 
3 144 2861 2708 
3 11152 10416 10478 
3 5506 5533 7504 
3 3296 2955 1713 
3 9933 9851 7504 
3 11185 10473 9808 
3 8066 5506 9134 
3 9846 9851 10478 
3 9808 10473 7393 
3 11348 11309 11303 
3 10965 11214 10543 
3 9851 11208 10478 
3 10965 10543 9933 
3 7504 9134 5506 
3 9071 9733 7818 
3 6319 9656 8750 
3 8332 8909 5520 
3 1637 3136 825 
3 7818 9733 6017 
3 145 948 1312 
3 5471 7434 10126 
3 6692 1167 7232 
3 5520 9064 8055 
3 8638 4382 6569 
3 2684 5380 2675 
3 147 7232 7168 
3 5471 2818 2759 
3 147 7168 950 
3 5477 7391 5380 
3 7434 5471 5425 
3 11335 10885 11195 
3 11208 10543 9870 
3 11214 8909 10126 
3 11208 10902 10478 
3 9315 7827 9878 
3 10043 10996 10534 
3 10679 9010 9878 
3 11377 10424 11195 
3 9314 5785 3201 
3 1654 4168 843 
3 951 1574 3001 
3 9315 3001 6805 
3 5785 7931 9587 
3 3728 4830 1318 
3 1574 3201 1317 
3 1716 3435 7063 
3 6037 4830 3728 
3 151 954 3423 
3 9596 7572 6639 
3 1716 6638 2765 
3 4190 5846 9596 
3 9226 9890 8928 
3 952 2765 2679 
3 10424 11377 9033 
3 7415 10594 9806 
3 11303 11073 11622 
3 9934 10679 10885 
3 11335 10424 10786 
3 10829 10534 11167 
3 10799 8849 10569 
3 10786 11303 11456 
3 10799 10829 11167 
3 10009 9328 7516 
3 8928 10996 10085 
3 1213 1575 46 
3 9596 5846 10085 
3 9890 9226 10656 
3 11167 8849 10799 
3 10551 11492 11322 
3 11283 11273 11469 
3 1535 1213 6839 
3 5399 7445 8988 
3 11100 10409 10819 
3 5884 8383 9757 
3 10819 11283 11100 
3 9800 8988 7445 
3 10375 11184 9984 
3 1217 49 4183 
3 11491 11553 11274 
3 9984 10470 9054 
3 10783 11274 11638 
3 11553 11491 11283 
3 10783 11085 11274 
3 11638 11274 11553 
3 8975 7575 7573 
3 853 2766 8560 
3 9932 7780 8859 
3 5657 9179 7933 
3 5694 8018 6301 
3 8352 235 2967 
3 3413 5982 7942 
3 10041 9946 9108 
3 10016 8352 2967 
3 236 7279 3550 
3 7573 3381 7247 
3 1139 1505 3792 
3 4922 6844 5002 
3 9739 4747 532 
3 1218 5126 1138 
3 5172 4278 3792 
3 5412 9086 2711 
3 4252 6362 679 
3 779 533 5002 
3 6933 1015 235 
3 10149 5604 8765 
3 6590 7569 7432 
3 3557 6710 1014 
3 4061 7747 9452 
3 5196 534 781 
3 6733 1014 4061 
3 10608 10143 9041 
3 5179 635 7011 
3 779 4747 5015 
3 7664 9041 7532 
3 7432 7569 8825 
3 4667 7040 6513 
3 7864 9115 10152 
3 9054 10470 10149 
3 11716 2509 357 
3 2774 1659 1774 
3 3241 2774 5537 
3 4720 1216 48 
3 48 1216 3117 
3 9535 5715 8171 
3 7395 5400 5604 
3 8765 5604 4720 
3 2828 2774 1774 
3 10060 10409 10916 
3 850 3467 3359 
3 9210 10060 10916 
3 6037 8305 9566 
3 1215 6742 3242 
3 6749 3359 10081 
3 7738 7676 10671 
3 3467 7738 5918 
3 10653 10209 7757 
3 7738 8305 7676 
3 3435 7673 7721 
3 3352 1768 3259 
3 7803 6454 7274 
3 7836 5813 5755 
3 3117 7274 48 
3 8225 2869 6604 
3 842 4351 3608 
3 4167 6604 1768 
3 9242 5918 10148 
3 3438 358 7020 
3 1660 2688 6591 
3 680 3430 359 
3 9213 10152 9115 
3 3438 7020 7803 
3 7864 5715 9115 
3 678 5260 357 
3 7803 7864 10152 
3 4368 677 356 
3 531 5029 4667 
3 6143 9757 8383 
3 357 1660 851 
3 7747 7532 10143 
3 238 634 608 
3 7664 7279 4488 
3 1016 5179 7011 
3 3405 5729 9475 
3 9554 8433 6299 
3 4308 8603 636 
3 5927 3314 3606 
3 4802 353 7140 
3 2507 275 7011 
3 11708 676 355 
3 636 8603 5178 
3 3542 5767 10308 
3 6442 3929 5935 
3 4691 7806 7277 
3 3606 634 275 
3 277 637 4308 
3 5733 7662 9199 
3 603 6427 239 
3 7039 10332 5133 
3 8546 8649 6351 
3 7039 274 3314 
3 280 6934 5078 
3 9199 10145 10648 
3 2865 5519 5708 
3 9199 10648 7734 
3 1027 4646 279 
3 3384 8652 7734 
3 1393 3172 1027 
3 5209 4691 638 
3 674 5231 353 
3 638 4646 8652 
3 1913 1948 2537 
3 3430 3438 5730 
3 278 637 5207 
3 10291 5884 9757 
3 9757 9361 8020 
3 4642 1767 6747 
3 4621 359 6853 
3 3098 1653 3608 
3 1914 1653 3098 
3 8156 6256 9213 
3 11440 11043 11452 
3 3259 1768 1949 
3 5459 9263 7410 
3 4167 4168 8464 
3 9813 11336 10925 
3 11191 10428 11391 
3 5291 5333 2562 
3 9103 9925 10428 
3 9426 10267 7599 
3 9144 7447 9819 
3 2809 1859 3122 
3 1770 1210 6412 
3 2809 3122 5534 
3 9723 4074 5914 
3 5395 5333 9103 
3 5291 5321 7342 
3 2648 5321 2565 
3 1655 1859 2809 
3 7353 9925 9103 
3 10449 10177 8979 
3 5291 7353 5333 
3 1209 2628 1769 
3 5794 7931 7837 
3 3387 6168 10653 
3 5333 5395 2628 
3 3461 6986 41 
3 9314 10736 5785 
3 9587 6983 3268 
3 2562 1209 41 
3 9341 5689 7837 
3 6794 5047 6723 
3 7613 9314 6804 
3 1532 5047 575 
3 9426 7585 10151 
3 6596 9607 7966 
3 844 1655 2648 
3 6116 3294 3916 
3 41 2565 2562 
3 7585 7599 5737 
3 4067 844 6986 
3 1166 7253 574 
3 1166 3294 6723 
3 3922 8124 7253 
3 7253 8124 3971 
3 2522 9454 795 
3 5149 1532 575 
3 1533 4086 1167 
3 576 2522 7168 
3 4857 572 1163 
3 1751 3135 2742 
3 11439 11296 11137 
3 3049 7814 5714 
3 824 1530 1613 
3 4029 4086 5247 
3 1613 1636 824 
3 6736 1940 2742 
3 1636 1905 3167 
3 11072 11393 11446 
3 1636 4239 824 
3 9965 10839 10453 
3 3167 6736 7611 
3 8175 6750 3166 
3 1165 3786 1531 
3 3971 8428 6588 
3 5258 21 824 
3 6588 8428 6239 
3 1859 5058 1770 
3 6234 7211 4576 
3 10144 6234 9345 
3 6613 4460 4534 
3 6179 3680 4683 
3 572 4857 1530 
3 20 823 6975 
3 7228 21 1189 
3 8490 7611 9032 
3 2722 1635 1904 
3 10319 6330 8328 
3 506 1492 4743 
3 3767 1125 1491 
3 6916 506 1125 
3 5946 9740 8257 
3 1125 3937 4465 
3 1608 1492 3702 
3 8484 4026 1609 
3 3767 9419 8487 
3 10139 8103 6027 
3 6980 9419 3767 
3 6789 1126 3411 
3 5079 507 5066 
3 1494 6837 1609 
3 1493 3442 1127 
3 507 6903 5066 
3 4282 4725 6820 
3 508 4794 1493 
3 6250 4026 4581 
3 508 1493 548 
3 553 2521 4131 
3 4833 5167 786 
3 4244 4026 6250 
3 4244 6250 10312 
3 509 1494 4244 
3 6458 8661 822 
3 1187 2831 1748 
3 10312 6250 9493 
3 5212 509 1129 
3 4244 1494 4026 
3 509 8578 1129 
3 3883 6411 6837 
3 509 5138 8578 
3 6754 4603 1495 
3 1495 5101 3883 
3 8265 8335 3872 
3 9220 511 8335 
3 3009 1903 3082 
3 1187 19 4730 
3 6754 1495 1129 
3 6924 6027 8103 
3 5329 10120 8261 
3 10050 7819 10318 
3 9916 8954 10986 
3 5683 3082 3126 
3 8085 10604 5654 
3 3108 1234 1788 
3 8388 3290 3538 
3 9916 8915 8954 
3 10180 8865 7695 
3 8954 8747 5820 
3 8946 5647 10050 
3 5638 2998 8747 
3 4535 7787 7117 
3 511 6789 1496 
3 3883 5212 1129 
3 7788 2886 7116 
3 3089 99 1267 
3 1552 1266 2640 
3 11381 11057 9793 
3 3808 98 901 
3 5966 8103 10042 
3 11477 10949 11068 
3 3808 7234 98 
3 9825 5411 9284 
3 7787 10186 5483 
3 9746 2998 99 
3 11327 10374 10816 
3 8388 3538 5942 
3 5638 8915 9197 
3 10220 8969 10650 
3 3319 904 3042 
3 7939 10256 7580 
3 3143 2998 5638 
3 9197 8241 5638 
3 100 903 6801 
3 1232 7223 2772 
3 868 3497 3324 
3 5433 2689 2772 
3 6181 3735 6040 
3 9339 5836 8232 
3 1809 3290 3735 
3 5836 9339 10510 
3 1233 1540 6783 
3 3431 5680 5831 
3 7061 4064 1512 
3 1540 867 3104 
3 6368 74 4027 
3 545 4081 1513 
3 544 1512 8497 
3 9567 7993 6251 
3 7016 4118 7993 
3 9292 7919 10099 
3 1242 74 2578 
3 8431 6835 4719 
3 3646 1242 1794 
3 2820 2615 8229 
3 11447 10812 11148 
3 3104 867 3629 
3 2844 1543 1243 
3 2820 8229 5751 
3 11048 11447 11148 
3 8861 8838 5433 
3 8839 10817 10687 
3 9875 10817 10622 
3 9790 10762 10535 
3 10817 9848 10622 
3 5344 2584 2638 
3 10027 8801 10535 
3 11449 11568 11478 
3 10987 10535 11103 
3 11250 11154 11478 
3 10496 11373 10837 
3 11103 11244 11460 
3 11011 8964 10457 
3 9956 10423 9042 
3 11569 11478 11051 
3 10762 11154 11250 
3 5433 2772 7918 
3 5486 3800 2911 
3 10936 10462 9850 
3 9850 10228 5486 
3 3734 3497 65 
3 1234 4176 1788 
3 8838 8035 5433 
3 2772 2689 1539 
3 7580 10256 7630 
3 8915 8747 8954 
3 1234 5252 4176 
3 7939 8259 10256 
3 2935 5627 3108 
3 7630 9197 10629 
3 2911 1673 6586 
3 5627 5706 7580 
3 9756 4176 4177 
3 3941 6369 6245 
3 11299 11144 11449 
3 7010 10621 10104 
3 11067 10836 10460 
3 10423 10936 11166 
3 870 2593 67 
3 8826 10460 9956 
3 11177 11011 10457 
3 870 2572 2593 
3 10480 11118 10772 
3 11498 11118 11304 
3 11304 11118 10808 
3 11102 11268 11481 
3 11498 11444 11251 
3 8826 7411 7382 
3 11251 11118 11498 
3 11623 11460 11244 
3 11373 11103 11460 
3 11244 11250 11444 
3 10987 11103 11373 
3 10971 11119 10559 
3 10496 10987 11373 
3 7394 5448 9099 
3 3471 5618 2847 
3 5396 8934 9418 
3 11206 8815 9943 
3 6709 1793 2709 
3 7394 7396 5357 
3 874 4783 3850 
3 11444 11498 11610 
3 9801 10787 11119 
3 11667 11623 11529 
3 11460 10837 11373 
3 11305 11268 11585 
3 11206 9943 10837 
3 2541 5308 2607 
3 10376 11134 10808 
3 11481 11305 11119 
3 11134 11304 10808 
3 7399 9801 9135 
3 10971 10559 9326 
3 1792 2796 1677 
3 11353 10427 11150 
3 3137 69 872 
3 4540 6534 4574 
3 9135 8106 5376 
3 872 69 5114 
3 69 1237 289 
3 298 641 4097 
3 5308 5313 7348 
3 7134 1237 69 
3 642 9414 290 
3 3860 6415 5549 
3 6592 9675 2677 
3 5703 2933 5439 
3 5324 7365 5322 
3 8964 10128 10457 
3 5324 9675 9989 
3 7365 9919 8812 
3 10664 10061 9028 
3 6415 68 2879 
3 10579 9950 9244 
3 8223 6593 7587 
3 9867 10728 8879 
3 2936 2860 5526 
3 10641 10061 8223 
3 1675 1790 2677 
3 9443 2879 5541 
3 5637 3239 8223 
3 1630 2826 2860 
3 2936 8147 6650 
3 9884 7479 9229 
3 9229 5494 8111 
3 11017 10461 11220 
3 818 1630 8390 
3 5625 6193 7741 
3 9408 6193 8390 
3 11355 11065 11573 
3 11508 11540 11241 
3 1745 1184 6495 
3 7726 6495 4596 
3 820 4596 17 
3 6931 1867 1789 
3 9950 9058 9244 
3 2936 1848 2860 
3 7301 3476 17 
3 2681 2761 1235 
3 10003 9079 7835 
3 1867 3640 3518 
3 8297 3640 6245 
3 4275 18 1186 
3 6061 3518 8297 
3 3640 1674 3941 
3 3109 821 18 
3 3109 6543 8085 
3 6543 4275 8274 
3 1186 1747 4124 
3 5156 821 3493 
3 3997 8468 4161 
3 5460 2895 9357 
3 2895 1849 1747 
3 1184 3095 17 
3 1632 1849 2678 
3 11178 10600 10879 
3 19 5138 822 
3 5329 5392 7368 
3 2661 1903 1965 
3 5392 5554 7429 
3 19 8578 5138 
3 1748 2590 1938 
3 4182 6027 8317 
3 4730 19 822 
3 2631 7940 2654 
3 9891 10600 9105 
3 8661 4730 822 
3 10234 6975 9193 
3 4413 6751 1904 
3 8822 8808 7940 
3 4523 4304 9493 
3 10879 9891 10456 
3 10665 9891 7941 
3 2744 10234 7435 
3 5413 9285 10912 
3 7435 9930 8822 
3 8175 6064 9032 
3 11178 11160 11489 
3 11555 11247 11455 
3 11169 10358 11240 
3 11470 11202 11362 
3 10775 11450 11266 
3 9778 9780 10363 
3 11249 11065 11038 
3 11240 11428 11545 
3 9285 8175 11175 
3 10048 10370 10842 
3 9193 5413 9795 
3 11385 11175 10415 
3 10028 10415 9032 
3 11573 11450 11355 
3 6736 2742 10577 
3 2589 7089 1966 
3 22 4558 825 
3 10370 11137 10842 
3 4760 949 146 
3 1715 2808 2944 
3 7089 7786 2741 
3 312 3687 6876 
3 6334 5075 3136 
3 5334 7364 9325 
3 1966 7090 2905 
3 2620 5368 2649 
3 1906 1637 3500 
3 8942 5517 7750 
3 7379 8809 7378 
3 9052 10048 10446 
3 9546 5346 2707 
3 8809 10367 10370 
3 10072 10513 10920 
3 9778 9325 7364 
3 5311 5334 2596 
3 6193 5160 8390 
3 3516 1185 5160 
3 11217 7600 8983 
3 311 1409 4102 
3 1746 3516 2853 
3 1407 6652 3998 
3 8983 7600 7452 
3 10644 7508 9291 
3 1941 2589 1966 
3 23 2707 1191 
3 1941 1966 2905 
3 6367 8467 6212 
3 9412 9040 8059 
3 1410 312 6548 
3 9903 9892 10620 
3 1044 1410 8154 
3 2930 9293 5539 
3 2871 7511 6810 
3 1407 3998 310 
3 6652 1407 1041 
3 10673 7495 10584 
3 9871 10445 8906 
3 11193 7453 10106 
3 10939 9871 11223 
3 6652 1041 3248 
3 1046 313 4620 
3 1411 3975 6540 
3 10698 9903 8367 
3 3372 1045 1411 
3 10518 9853 11187 
3 6869 4620 9572 
3 343 1425 4456 
3 343 6290 4283 
3 9954 10644 9208 
3 8467 3923 3791 
3 5817 8059 9011 
3 7606 5612 7508 
3 5605 3145 4345 
3 8644 9725 6186 
3 10644 9291 9208 
3 4015 3282 6055 
3 344 1828 1885 
3 6665 145 1312 
3 8359 1842 6665 
3 3959 1597 1425 
3 1060 343 4283 
3 5020 6319 8750 
3 2955 946 1713 
3 4170 6017 8378 
3 10518 7617 7904 
3 4001 1060 1727 
3 2882 7904 7617 
3 11221 3705 11001 
3 2882 7617 6664 
3 2810 1595 1423 
3 4912 1427 345 
3 10518 10118 7617 
3 10307 5901 3959 
3 9876 10518 11187 
3 10628 5512 8278 
3 1427 144 1313 
3 10893 11187 9853 
3 5512 7904 3936 
3 2939 9441 5964 
3 4485 1596 1058 
3 10013 8970 10500 
3 9859 10638 9876 
3 2000 4030 1986 
3 3782 6164 3666 
3 2024 4288 2012 
3 9633 3892 6243 
3 348 1430 4266 
3 1596 1424 3371 
3 1986 4030 3898 
3 9485 2887 5523 
3 9024 10500 10252 
3 3204 1057 1595 
3 10500 9024 9859 
3 5587 3204 2810 
3 5561 5523 2894 
3 4156 4288 9238 
3 11001 4515 10678 
3 3204 1595 2810 
3 7491 9089 9876 
3 4425 4380 2036 
3 2059 4472 2048 
3 8778 6444 2513 
3 4472 4508 10229 
3 2881 2969 2239 
3 6901 4521 4356 
3 3664 4237 2089 
3 2089 2099 3664 
3 8039 8007 6024 
3 3364 2109 3776 
3 6807 314 654 
3 8007 5841 5923 
3 654 3661 315 
3 6024 5940 3364 
3 10518 9876 9089 
3 10307 4001 9575 
3 8400 5594 4324 
3 6818 1059 342 
3 10118 5901 9575 
3 1597 4874 6869 
3 8477 4841 3526 
3 6869 4456 1425 
3 8527 6818 342 
3 6548 312 1045 
3 3639 9362 6807 
3 7666 9293 6819 
3 3623 8367 9397 
3 5026 4591 4402 
3 8927 10926 11218 
3 6406 3599 1415 
3 1042 319 3012 
3 7841 7706 10087 
3 9908 10493 9929 
3 5650 3189 2969 
3 10493 9908 9883 
3 10651 9883 10283 
3 7706 9127 10087 
3 3255 2892 1415 
3 5617 10087 9127 
3 7478 8951 9030 
3 7453 8960 5850 
3 5617 9127 7527 
3 319 1415 2892 
3 3012 2892 5616 
3 318 6192 6405 
3 8366 9463 6192 
3 9593 6405 6192 
3 7561 5669 2885 
3 6518 655 315 
3 4370 2189 4394 
3 2209 3624 4155 
3 4394 8366 4370 
3 4155 2199 2209 
3 2219 3189 3624 
3 3255 1415 1049 
3 3189 5650 5826 
3 5907 9463 4155 
3 7841 5826 7706 
3 8951 10651 9030 
3 5640 5547 2978 
3 5536 7577 5650 
3 7752 10212 10695 
3 7582 8951 7478 
3 5547 7478 5536 
3 7706 7577 9127 
3 5650 2969 5536 
3 5547 2881 2978 
3 7953 6153 9273 
3 7752 5640 5818 
3 2978 2258 3148 
3 4144 6174 3649 
3 7766 5818 5899 
3 5640 7752 7582 
3 7766 9239 10212 
3 2351 4715 7064 
3 3864 9273 8253 
3 7953 9239 10323 
3 3858 2306 3649 
3 529 777 8384 
3 10212 5664 9050 
3 9050 10975 8951 
3 3729 6202 6153 
3 5899 5818 3452 
3 8137 10493 10975 
3 9050 8951 10695 
3 3100 644 7324 
3 644 4961 7072 
3 647 296 4188 
3 9273 6153 6202 
3 7970 7189 8253 
3 6107 3858 3649 
3 4188 7189 7970 
3 9368 6107 6174 
3 4188 7970 8692 
3 9368 7970 6107 
3 776 5128 5016 
3 4481 6321 8639 
3 297 5124 648 
3 5135 8774 5128 
3 8436 6610 9719 
3 6610 2341 9719 
3 10337 6007 8041 
3 7070 5273 648 
3 7592 3490 7138 
3 6992 8692 6321 
3 297 3490 647 
3 4468 646 296 
3 3490 7202 647 
3 4939 4188 8692 
3 8016 5662 10524 
3 10894 9909 10717 
3 8234 7312 4757 
3 646 3864 296 
3 3248 7245 7452 
3 9908 10705 7583 
3 8983 7452 8896 
3 9884 9229 9866 
3 3248 7600 6652 
3 11217 8983 10931 
3 7433 7946 7004 
3 10720 11218 8930 
3 6953 2864 643 
3 3100 3131 644 
3 4553 293 7324 
3 294 2995 645 
3 4553 7324 7072 
3 8234 4961 7312 
3 10894 10963 10484 
3 7461 6530 10931 
3 5662 7946 8930 
3 10728 10654 10963 
3 6561 4032 4469 
3 8880 10484 9866 
3 8983 8896 9909 
3 8983 10531 10931 
3 9867 10654 10728 
3 10963 9866 10484 
3 10924 10654 10609 
3 9905 10894 10906 
3 9603 3086 5479 
3 5479 3086 2791 
3 2864 7433 7004 
3 7624 8879 7433 
3 6953 9603 7624 
3 5479 7459 9166 
3 3860 1035 291 
3 10741 7912 7592 
3 1868 2541 2607 
3 298 4540 641 
3 6700 3747 8041 
3 7736 9065 5976 
3 9414 6700 8041 
3 11715 289 640 
3 7070 5124 527 
3 5119 526 1137 
3 1503 5016 4009 
3 4487 1137 526 
3 3747 10337 8041 
3 11715 640 3677 
3 297 648 7138 
3 4097 10198 7853 
3 5042 527 1503 
3 5042 4381 8614 
3 6835 73 6567 
3 73 5151 1241 
3 6835 876 73 
3 9099 7612 10011 
3 3470 7000 5151 
3 5040 410 709 
3 6567 73 7032 
3 7241 8457 710 
3 9406 7822 9471 
3 4478 711 412 
3 3489 3383 5883 
3 4478 412 7246 
3 408 4719 1086 
3 5074 5040 709 
3 1452 7032 409 
3 4466 8624 9565 
3 6255 8724 4328 
3 8790 9991 7351 
3 1757 1853 415 
3 1642 2544 830 
3 8702 2595 1757 
3 9013 9809 7352 
3 6450 5397 7610 
3 9809 9013 11207 
3 730 4749 436 
3 2646 5398 5397 
3 831 1643 2646 
3 8817 10056 10463 
3 8306 3850 6211 
3 8249 5891 7822 
3 4973 713 7149 
3 831 4816 1643 
3 9500 4816 8392 
3 4455 831 28 
3 4048 621 261 
3 6978 4816 4455 
3 1909 9500 435 
3 8392 4816 6978 
3 439 5217 732 
3 1092 3669 6745 
3 1457 5102 3886 
3 6461 5102 5068 
3 3573 3628 732 
3 3573 3240 6093 
3 3637 1091 439 
3 732 8491 4317 
3 437 1458 4967 
3 6745 1458 1092 
3 3573 732 438 
3 8491 3886 6461 
3 3850 4783 6211 
3 8399 4783 5111 
3 8399 8238 6211 
3 8306 6708 3850 
3 4808 4815 6324 
3 7048 412 4053 
3 411 3696 7327 
3 2515 7327 6469 
3 10079 9418 8934 
3 5396 2709 2650 
3 7396 5396 5357 
3 1542 1241 3471 
3 7900 3396 6633 
3 1240 72 2650 
3 7900 3285 7551 
3 1793 6708 4815 
3 71 4783 874 
3 6708 8306 9573 
3 4783 71 5111 
3 263 5111 623 
3 5111 11720 623 
3 263 5190 622 
3 5190 3711 622 
3 3577 8238 8399 
3 262 6678 621 
3 7913 10233 9704 
3 9519 10261 5948 
3 3798 7913 9704 
3 6224 3888 6029 
3 3292 3325 629 
3 264 624 4834 
3 9436 5862 10233 
3 619 7076 3572 
3 7284 4318 5198 
3 10744 4318 7284 
3 2354 3663 2353 
3 7710 10171 7702 
3 5862 3292 3572 
3 4788 8436 9719 
3 4711 7082 4144 
3 267 4709 627 
3 268 6626 4957 
3 4909 628 4957 
3 4866 4957 6626 
3 4909 4957 4823 
3 2339 4823 2343 
3 8070 7284 4162 
3 269 4909 4411 
3 4273 8572 4154 
3 4772 2339 2335 
3 4273 4154 619 
3 4526 2326 2318 
3 4403 8572 4526 
3 619 259 7076 
3 6920 4251 6224 
3 618 3798 7076 
3 629 4411 6997 
3 8572 4403 6920 
3 3888 3327 6029 
3 2302 3888 4251 
3 5791 7770 6029 
3 9519 7991 10261 
3 7991 5791 5863 
3 2294 2286 3327 
3 2294 3888 2302 
3 7770 7991 9519 
3 2993 7196 7980 
3 438 731 3240 
3 5948 8272 9519 
3 620 6863 4792 
3 3882 437 7165 
3 7980 7770 8272 
3 8164 7165 4792 
3 4792 8643 261 
3 8672 621 6678 
3 3643 7048 7745 
3 9394 9629 6016 
3 260 620 4497 
3 8643 7165 4967 
3 1458 437 5199 
3 5199 731 4317 
3 732 4317 438 
3 3573 438 3240 
3 1197 434 5039 
3 10900 10056 10596 
3 6771 1854 1759 
3 8984 10675 10054 
3 1759 1854 3984 
3 9189 8200 9051 
3 4332 3984 6527 
3 683 370 4750 
3 9189 3984 6772 
3 3984 9189 6527 
3 5952 9745 7903 
3 1758 1944 7273 
3 5102 729 5068 
3 7226 4453 4452 
3 7273 1944 5248 
3 10064 10633 8998 
3 7972 5814 7796 
3 2234 3415 2244 
3 6093 10261 7991 
3 3415 5814 3612 
3 9399 6093 7991 
3 3517 3367 2278 
3 8984 7559 7540 
3 5614 7556 7550 
3 3060 5585 2929 
3 2224 3141 2234 
3 10718 10064 8998 
3 7550 7796 5740 
3 29 2941 832 
3 8978 10131 9051 
3 8998 7556 9060 
3 8184 10131 9302 
3 9302 8095 5784 
3 5746 5998 8095 
3 6585 8005 6971 
3 3141 5740 3415 
3 3060 3320 5746 
3 4309 2154 4706 
3 4968 6824 7180 
3 7180 4706 4968 
3 2154 2144 4706 
3 3790 6785 1074 
3 4706 7180 4613 
3 1075 1441 4204 
3 4537 5108 4832 
3 9571 9534 8568 
3 4706 4613 7200 
3 10071 9125 7581 
3 6585 1076 1442 
3 9718 3200 5865 
3 371 6309 3105 
3 371 1074 6785 
3 6785 3790 8337 
3 3291 7832 8005 
3 4204 3200 1075 
3 9534 4543 8699 
3 4321 4832 2094 
3 3647 9534 9571 
3 4321 2084 3700 
3 9453 4611 4259 
3 3876 9726 6114 
3 130 1298 8579 
3 3410 1712 2823 
3 8326 1895 4611 
3 6238 3940 3652 
3 2534 5282 2529 
3 8242 2669 6658 
3 1826 8635 1298 
3 6756 2030 2018 
3 3647 9571 6587 
3 4848 6756 8635 
3 2030 6756 4848 
3 6834 370 3555 
3 30 8395 1198 
3 10214 9090 10111 
3 8337 9564 7581 
3 6771 1759 2763 
3 1854 1644 6772 
3 2656 833 1534 
3 4332 1759 3984 
3 9265 11729 6221 
3 6221 8766 4453 
3 6834 9125 11714 
3 1973 6622 1922 
3 1825 1297 2658 
3 4350 5931 7832 
3 1444 4951 376 
3 1711 1923 2546 
3 6231 8610 4350 
3 1957 7092 5148 
3 4951 7056 376 
3 3214 6892 8002 
3 1895 1618 4611 
3 8326 6508 1978 
3 10056 10900 10463 
3 6436 30 833 
3 2606 1534 1199 
3 6873 30 4681 
3 11338 10512 10983 
3 10056 8817 7412 
3 4552 1073 7056 
3 6892 9125 8002 
3 1841 2851 1890 
3 3071 3287 2088 
3 3047 5682 5577 
3 1474 11713 6470 
3 1470 2257 464 
3 3071 2088 2098 
3 3528 3714 5953 
3 3072 3441 2113 
3 3519 3093 2093 
3 970 6979 6674 
3 6572 2163 2153 
3 3946 2083 2073 
3 4894 9638 8346 
3 4579 6886 8713 
3 1617 3595 1894 
3 10263 6456 6188 
3 4844 6572 2153 
3 4793 2041 6836 
3 1335 2317 167 
3 4399 2305 2313 
3 9559 7845 6440 
3 2309 167 2317 
3 3072 2103 3093 
3 3519 2083 3946 
3 6216 3964 3595 
3 6886 1617 805 
3 8976 10658 7608 
3 2113 3441 2123 
3 10116 10658 8976 
3 5635 3093 3519 
3 123 4756 8709 
3 6456 4593 4092 
3 682 4894 4634 
3 4012 6172 3228 
3 5152 970 8173 
3 6441 7911 9381 
3 9987 9340 10640 
3 1818 2655 1703 
3 3817 4255 6407 
3 2203 122 1290 
3 1882 2555 1704 
3 9559 6440 122 
3 5961 8032 6847 
3 2265 464 2257 
3 6286 7607 5633 
3 5152 1335 167 
3 1333 967 4046 
3 7625 8032 5961 
3 5013 2999 6219 
3 3468 1578 1335 
3 7954 6118 7820 
3 3830 1107 1606 
3 8636 6118 3382 
3 8626 4819 6847 
3 3755 6182 3714 
3 977 174 3127 
3 2248 1470 1104 
3 11713 11721 6470 
3 2168 2178 3795 
3 8299 9342 6198 
3 1577 1334 3017 
3 6271 4399 4507 
3 1578 2325 1335 
3 2325 2317 1335 
3 3468 1335 5152 
3 1104 11713 469 
3 2228 8673 2218 
3 1470 464 6778 
3 9520 4819 8626 
3 2108 3047 2942 
3 2148 3714 3528 
3 3755 6209 6182 
3 6851 2035 4929 
3 3071 2098 2942 
3 3071 5555 5717 
3 964 2023 6851 
3 8660 6851 4929 
3 9420 4408 8213 
3 5316 5282 9323 
3 4506 4611 9453 
3 6274 6238 3652 
3 4611 4827 8326 
3 9720 1712 933 
3 3409 6658 1826 
3 8529 933 130 
3 1981 2529 2652 
3 4335 4420 1439 
3 8473 833 6873 
3 1973 4951 7092 
3 1444 3214 4350 
3 2595 2564 1853 
3 407 6998 4195 
3 11112 11301 10789 
3 2656 1534 2606 
3 4135 6835 8431 
3 6255 4328 4195 
3 10784 9791 10789 
3 10463 9791 8817 
3 4964 4552 7056 
3 1600 11714 8471 
3 4005 5521 2658 
3 7347 9142 5295 
3 8908 7533 7442 
3 2823 5596 3410 
3 1853 1642 715 
3 6998 6568 9565 
3 11062 11301 11476 
3 10378 10835 9817 
3 5868 5668 9311 
3 9456 408 4241 
3 5719 4719 408 
3 407 6553 4863 
3 416 8609 708 
3 3402 6089 6019 
3 2544 5289 2543 
3 830 8609 416 
3 7345 7346 5289 
3 2544 2543 830 
3 11265 11463 11062 
3 11301 11041 10789 
3 6827 2542 8448 
3 4774 8606 6555 
3 10923 10563 9259 
3 11044 10823 9761 
3 3209 6361 9682 
3 4054 1171 1732 
3 8847 8908 7442 
3 10563 10765 9769 
3 4054 8290 6274 
3 8648 6274 6114 
3 161 5257 1329 
3 1726 8660 1890 
3 7866 5932 5717 
3 3287 3576 2078 
3 3270 6360 1726 
3 161 1999 2011 
3 2851 3270 1890 
3 8213 6204 9420 
3 7866 5981 10305 
3 5932 6204 3576 
3 5881 5788 3322 
3 9255 7794 7614 
3 4723 9755 6133 
3 1606 1107 3799 
3 3743 175 6265 
3 11725 6097 9120 
3 4836 4385 2198 
3 9342 8302 3814 
3 7765 10035 9682 
3 6361 3209 1840 
3 1841 4408 3658 
3 5981 9420 10305 
3 3270 9590 6360 
3 6361 7765 9682 
3 6360 9590 7765 
3 5571 2851 5441 
3 11410 11031 11659 
3 11083 11354 11421 
3 10528 9833 8847 
3 8847 7392 10000 
3 7345 8789 7346 
3 5289 5303 2543 
3 11324 10823 11044 
3 9542 6623 2550 
3 4755 4886 834 
3 8064 5362 2606 
3 931 4775 1710 
3 4755 31 4774 
3 8990 9542 5294 
3 1988 1956 6582 
3 10617 9323 7336 
3 5316 5429 2652 
3 10981 10481 9863 
3 9904 9863 7360 
3 3569 1296 5168 
3 1710 4775 4964 
3 11430 11044 11291 
3 10413 8851 9935 
3 5362 8064 8798 
3 11340 11420 11058 
3 3569 5168 7182 
3 128 9462 8319 
3 5783 9292 8570 
3 3402 1968 1908 
3 10372 10770 11128 
3 10921 10784 11093 
3 4902 8532 7139 
3 9462 7139 4886 
3 9998 5658 8771 
3 3570 7182 5168 
3 2801 1576 1328 
3 2819 1839 6575 
3 160 7085 1328 
3 11153 11435 10779 
3 8219 4554 3736 
3 8219 5919 9726 
3 7765 9590 10035 
3 11153 8853 10504 
3 2837 5441 2851 
3 1841 1890 4408 
3 977 1343 3193 
3 1343 175 11725 
3 3270 2851 5571 
3 9590 9038 10035 
3 9131 8049 9957 
3 162 3055 958 
3 3302 8754 1343 
3 9140 10201 7657 
3 3799 1107 3994 
3 1345 979 6737 
3 5449 2655 2924 
3 9478 6187 9280 
3 7523 5965 9234 
3 120 4145 923 
3 7523 9234 8832 
3 5444 8843 10634 
3 8032 10119 7683 
3 741 5213 5053 
3 164 1331 4618 
3 165 4084 7131 
3 4287 6685 1105 
3 7143 465 4212 
3 7131 8101 7679 
3 10119 9250 7683 
3 9250 10244 7683 
3 4387 9200 5276 
3 3531 165 7131 
3 8101 4084 6498 
3 1577 968 8350 
3 9447 3531 7679 
3 9458 7687 10185 
3 1334 11719 166 
3 4779 8502 6563 
3 923 1564 2940 
3 8650 2940 5453 
3 11376 11171 10862 
3 9001 7607 10533 
3 5633 3468 6286 
3 1333 165 5013 
3 8173 970 1336 
3 4281 8669 972 
3 168 1336 4126 
3 11376 10634 11171 
3 11269 11453 11546 
3 11171 11499 10862 
3 10870 10070 10571 
3 6727 9437 8191 
3 7529 5642 9195 
3 2979 8191 5581 
3 10096 9067 10707 
3 7608 7521 8976 
3 10116 8976 10096 
3 6812 368 3199 
3 4012 6520 6172 
3 367 681 8450 
3 8600 5753 9068 
3 10023 8503 5852 
3 3756 9662 8605 
3 3756 5944 9662 
3 8775 6216 3595 
3 4509 7133 3985 
3 4518 8393 4483 
3 6329 3595 6886 
3 9035 8152 8950 
3 4123 365 5855 
3 8950 10677 9035 
3 7668 10182 10723 
3 9899 11376 10862 
3 11308 11557 11494 
3 10390 10640 10870 
3 10655 8832 10859 
3 5335 7359 9340 
3 2695 5355 2605 
3 8821 5355 8192 
3 10210 7801 9570 
3 9277 5610 7529 
3 10707 10677 10096 
3 6812 9635 8062 
3 8393 6409 4483 
3 5153 361 1067 
3 3028 5723 5698 
3 7178 5924 1437 
3 4315 986 4436 
3 1431 3275 1065 
3 4977 1432 360 
3 8796 8892 9797 
3 10571 10877 11139 
3 10116 8950 5581 
3 1284 5034 6726 
3 5307 7370 7359 
3 10870 11139 11281 
3 3520 1070 364 
3 1070 6034 7295 
3 10859 11047 10780 
3 10859 11641 11047 
3 10390 10870 11499 
3 11485 11181 10867 
3 4779 6563 4629 
3 8582 6300 4210 
3 4391 1288 4779 
3 8502 1818 1703 
3 3010 170 1338 
3 9001 7687 7607 
3 3424 972 4210 
3 4680 8502 1703 
3 1818 4779 1288 
3 169 6563 4210 
3 7406 5449 7523 
3 2924 2655 1818 
3 10870 10571 11139 
3 11554 11641 11471 
3 11302 10369 11180 
3 9797 9776 8796 
3 8192 2695 6726 
3 1699 6725 918 
3 11554 11047 11641 
3 11375 11423 11077 
3 11308 11453 11557 
3 11423 11453 11572 
3 3010 7006 9994 
3 4034 8582 4680 
3 11269 11572 11453 
3 11557 11453 11423 
3 6352 8264 4078 
3 115 5034 1284 
3 1351 4128 985 
3 2605 1699 1879 
3 7529 10210 9139 
3 3048 7107 115 
3 4571 363 7083 
3 3216 4640 1068 
3 1435 3546 3197 
3 5852 10614 10023 
3 1069 3197 4645 
3 9635 6812 3199 
3 1431 3985 4587 
3 6408 4369 6373 
3 7133 4509 8393 
3 4645 3216 1434 
3 3293 5796 9658 
3 4640 3293 1433 
3 3681 6408 6373 
3 2046 3753 4369 
3 5854 5980 7890 
3 1434 1068 6748 
3 3069 2972 5660 
3 4369 6408 4622 
3 8504 4436 6230 
3 6230 3596 10329 
3 6595 4128 5238 
3 4617 9622 4132 
3 9170 9887 8900 
3 7443 6491 9597 
3 4128 6595 9714 
3 8558 4610 7083 
3 6372 9622 8453 
3 10589 9569 7665 
3 4533 9622 6372 
3 6372 8453 7665 
3 9211 1353 5139 
3 4151 362 7294 
3 9569 6372 7665 
3 10589 10045 9077 
3 584 3758 5117 
3 7638 10589 9077 
3 7977 9077 7681 
3 5723 7594 5698 
3 1349 4983 3011 
3 1350 984 6428 
3 7826 3180 5686 
3 8264 7690 9570 
3 6595 3183 9714 
3 5686 3180 3068 
3 184 8558 987 
3 1353 4132 4533 
3 4132 987 8558 
3 1353 185 5139 
3 9216 9948 10735 
3 10386 11359 10962 
3 1700 6619 919 
3 6523 917 1698 
3 10519 8835 10699 
3 5374 2623 8160 
3 7742 6619 7425 
3 7742 8874 9597 
3 5584 2937 3046 
3 966 7205 170 
3 4354 1702 4804 
3 782 537 5043 
3 7800 9306 9389 
3 8177 4034 7270 
3 4804 6490 4354 
3 6417 9696 7720 
3 4233 6152 8362 
3 6793 541 3566 
3 2639 1881 1817 
3 6490 8315 9641 
3 10519 10771 9789 
3 9789 10565 8804 
3 6619 4566 919 
3 1813 2712 1698 
3 11269 11143 10771 
3 10386 10962 9869 
3 7443 9170 2712 
3 6491 1813 1283 
3 6731 4003 9344 
3 7753 9993 8945 
3 9389 9306 10302 
3 5690 7870 3081 
3 10565 11143 10791 
3 11485 10386 11181 
3 8742 3927 6353 
3 9203 10338 7883 
3 4010 305 652 
3 8364 4500 7154 
3 9118 10306 7795 
3 485 1482 4114 
3 3927 4937 6353 
3 5187 737 453 
3 4395 9348 6946 
3 8685 7795 10306 
3 9606 6400 8040 
3 5221 326 659 
3 7044 8040 6381 
3 4160 7926 5877 
3 653 4267 306 
3 4267 4215 6388 
3 3918 4010 652 
3 7590 5584 9110 
3 8777 4215 305 
3 651 3865 304 
3 4265 307 1040 
3 3866 304 652 
3 2937 5584 5671 
3 7590 9110 10240 
3 5871 7854 9300 
3 657 4637 6381 
3 8777 9203 6343 
3 6225 3918 3865 
3 5035 1341 173 
3 3880 7104 7680 
3 324 4988 1419 
3 9674 9920 10732 
3 452 4044 6313 
3 3360 327 660 
3 5951 8461 7894 
3 1888 7104 1836 
3 3748 9303 1341 
3 155 7174 3400 
3 10475 10961 10964 
3 11505 11501 11570 
3 5009 959 3007 
3 6167 5009 3007 
3 6525 4378 9653 
3 10273 10882 9008 
3 6424 1919 8640 
3 926 2672 4090 
3 3926 1133 1499 
3 11076 11374 10964 
3 1925 5203 1499 
3 10475 10964 9936 
3 8640 1327 6424 
3 5415 10570 9319 
3 1724 2819 2699 
3 2718 6918 158 
3 155 3400 1324 
3 9522 2836 5385 
3 8072 2773 5464 
3 957 155 3594 
3 4016 6177 8764 
3 7105 2609 1888 
3 1341 4365 975 
3 5672 3127 3051 
3 11259 11140 11462 
3 10504 8877 9823 
3 11288 11548 11066 
3 10905 11066 11636 
3 5385 2836 2609 
3 7792 8836 10059 
3 8640 159 1327 
3 5415 9319 2699 
3 11153 10570 8853 
3 6575 1839 1327 
3 6566 8190 2875 
3 1821 2673 2554 
3 7992 2801 7085 
3 8180 6575 1327 
3 11259 11261 11548 
3 2801 7992 5563 
3 5447 7792 2729 
3 1721 2609 2836 
3 10792 11435 11153 
3 10792 10504 9823 
3 10059 10905 10441 
3 9824 11483 7470 
3 3880 1836 7104 
3 7680 3083 8182 
3 9118 9140 10306 
3 7795 8685 9348 
3 9606 7739 6400 
3 657 6381 325 
3 6661 4984 1405 
3 7886 5695 3535 
3 3360 5837 9674 
3 7978 3994 7307 
3 4265 1040 2937 
3 10185 7687 9001 
3 6634 7655 10147 
3 3234 5743 6149 
3 8545 4445 2927 
3 3814 176 1344 
3 5911 3261 5752 
3 176 9755 4585 
3 3193 7655 6634 
3 5653 5672 3051 
3 3193 11725 9120 
3 7655 9120 10201 
3 4043 5911 6097 
3 9120 6097 7657 
3 9289 10191 6099 
3 467 4563 1472 
3 8316 6099 3957 
3 740 5053 5003 
3 6882 456 4564 
3 4247 8385 4504 
3 3302 1343 977 
3 7655 3193 9120 
3 6198 6176 6209 
3 1343 11725 3193 
3 1345 6737 3999 
3 7898 9201 7739 
3 9038 5571 7470 
3 9824 10973 11261 
3 1342 3051 174 
3 3127 5672 10740 
3 10973 9824 9131 
3 5441 9131 7470 
3 3223 5704 8182 
3 7680 8308 6177 
3 11140 10792 9823 
3 7476 5559 10035 
3 11483 9824 11356 
3 11259 11548 11435 
3 10504 10044 8877 
3 9823 8877 9122 
3 9824 11462 11356 
3 9122 5454 7476 
3 11261 11462 9824 
3 9131 9824 7470 
3 11678 11692 11705 
3 11151 10923 9833 
3 11354 11577 11421 
3 10782 11151 9833 
3 11044 11430 11671 
3 11606 11534 11410 
3 11519 11418 11592 
3 11031 10785 10765 
3 10525 9785 10752 
3 7384 9269 10521 
3 10980 10365 9863 
3 11614 11698 11518 
3 11099 10980 10481 
3 927 159 1706 
3 4835 8628 2874 
3 1706 1919 6566 
3 11235 11290 11418 
3 11577 11614 11421 
3 9904 5895 10981 
3 8791 10495 9798 
3 11587 11290 11094 
3 5309 8033 9999 
3 9798 8875 8791 
3 1919 1706 8640 
3 11511 11705 11658 
3 11520 11661 11521 
3 11433 10757 11116 
3 11519 11577 11235 
3 10007 8792 10525 
3 9269 5959 7526 
3 11671 11615 11552 
3 10752 10769 10525 
3 11698 11614 11648 
3 11590 11398 11658 
3 5215 6341 8727 
3 2542 834 2574 
3 10525 8792 9785 
3 11511 11396 11406 
3 6912 5072 1980 
3 2532 1980 2610 
3 5301 8792 10007 
3 9321 7526 5446 
3 9784 7349 9119 
3 9991 10530 10372 
3 11496 11340 10793 
3 11549 11605 11662 
3 11605 11535 11689 
3 11248 11041 11463 
3 5776 7543 7976 
3 2760 1855 3024 
3 11535 11437 11242 
3 11656 11618 11517 
3 9159 10080 7421 
3 11319 11030 11405 
3 1760 1855 7187 
3 2760 2574 1645 
3 1760 7187 7242 
3 5046 4990 1956 
3 10805 11201 11633 
3 9159 5505 7976 
3 5046 7187 4990 
3 1956 1824 2868 
3 10529 10750 9763 
3 11523 11662 11689 
3 11420 11669 11058 
3 10455 10849 10761 
3 8448 8923 8064 
3 9888 10359 11201 
3 4081 7252 7995 
3 829 11724 1194 
3 10542 9860 7555 
3 27 830 2543 
3 9352 3157 5872 
3 7995 5872 4081 
3 10017 5872 10660 
3 4119 7995 7252 
3 10510 10998 9941 
3 10024 5513 7790 
3 8977 7947 10666 
3 6606 4064 7851 
3 101 904 8683 
3 9694 7637 3042 
3 3104 5829 10069 
3 9967 9881 10942 
3 506 4743 8051 
3 6207 4666 3837 
3 7313 7695 4535 
3 9803 10516 10777 
3 1801 6921 4125 
3 3738 6330 6145 
3 10319 3937 9655 
3 8303 8051 6207 
3 7974 8947 10207 
3 11317 11559 11075 
3 8865 10180 10816 
3 8865 10374 10186 
3 6092 6890 4565 
3 8969 7501 8068 
3 1809 1694 3290 
3 5366 5391 2645 
3 904 4565 8683 
3 10650 8969 8068 
3 3056 8068 7501 
3 10026 10477 10436 
3 6100 7879 10310 
3 6958 8386 223 
3 5365 10207 7383 
3 2693 1551 1265 
3 9825 10026 10436 
3 11381 10869 11075 
3 4666 1265 1551 
3 76 1245 3909 
3 2838 2719 5470 
3 5836 10510 9694 
3 904 3319 1695 
3 7100 4539 6499 
3 6796 7932 9996 
3 3144 7102 1007 
3 7797 10706 7932 
3 4921 4050 1510 
3 543 6606 1510 
3 1147 3818 7061 
3 1144 1510 3631 
3 3425 3617 1610 
3 7947 3719 6796 
3 4050 543 1510 
3 10342 10017 7851 
3 9261 3425 6643 
3 8550 1641 829 
3 7984 5721 9346 
3 5721 10994 9346 
3 11535 11664 11239 
3 3533 828 6993 
3 5350 9146 5426 
3 9154 5508 7555 
3 11535 11605 11664 
3 10770 11242 11582 
3 11128 11582 11541 
3 7494 5570 5498 
3 8986 9941 10517 
3 1510 1144 4921 
3 4050 4921 7170 
3 1373 1592 2781 
3 2898 2781 5498 
3 9614 1375 8449 
3 3354 1487 4766 
3 102 6870 905 
3 9555 7879 6499 
3 9157 5731 8986 
3 220 1371 6691 
3 1810 1878 3571 
3 3027 1371 4705 
3 5498 9182 10668 
3 9586 7767 6967 
3 10004 10503 10949 
3 11477 11327 11379 
3 7424 9081 5470 
3 2719 2838 1270 
3 6207 3837 6050 
3 3789 83 3738 
3 11315 11133 10903 
3 11145 11068 10503 
3 1796 1681 3474 
3 6855 3769 1877 
3 3887 1808 3822 
3 10245 1693 3769 
3 10970 9968 9191 
3 11224 10910 11189 
3 11064 11270 11315 
3 11267 11270 11458 
3 7424 5470 5391 
3 102 905 2645 
3 8840 8828 9803 
3 10777 11136 11267 
3 8088 6535 7793 
3 2752 2636 1696 
3 6856 3822 1877 
3 3875 3709 96 
3 11189 10433 9856 
3 11588 10411 11172 
3 897 3642 3614 
3 11189 10910 10433 
3 10979 5874 7844 
3 9838 10501 8890 
3 5874 9025 5574 
3 11172 8868 10696 
3 9861 10541 11194 
3 11133 11315 11576 
3 4705 1006 7099 
3 9697 6870 4428 
3 7103 2857 7790 
3 9182 5498 2781 
3 1270 4099 4428 
3 102 2645 2719 
3 3589 7879 3811 
3 9555 4099 3571 
3 7103 1373 2857 
3 7797 5570 10706 
3 6958 1374 4040 
3 6048 6086 6095 
3 8886 9972 11131 
3 1593 7009 4040 
3 3075 6493 1375 
3 3890 1374 5227 
3 6948 1009 223 
3 9979 10700 10880 
3 766 5210 7322 
3 4768 4752 6669 
3 6437 8427 6396 
3 7256 500 3321 
3 5350 7358 9146 
3 10542 10037 10527 
3 9031 5298 7349 
3 10412 10468 11383 
3 5550 8258 3154 
3 9146 9961 9827 
3 9784 10831 10354 
3 11457 11239 11664 
3 8463 4258 11717 
3 4240 10279 7112 
3 8814 9961 7358 
3 9827 10860 11383 
3 2981 1852 3554 
3 828 2676 25 
3 7984 5735 3554 
3 2782 5430 2676 
3 829 546 8550 
3 10279 7995 4119 
3 2981 3554 5735 
3 1755 4221 1194 
3 10442 9960 9860 
3 5430 5354 2676 
3 10354 11069 11329 
3 11549 11426 11605 
3 11096 11239 10774 
3 9784 11004 10831 
3 10380 10774 11111 
3 10860 11111 11226 
3 11664 11426 11457 
3 11111 11069 10831 
3 9766 10849 11015 
3 11282 11407 11562 
3 930 1709 2915 
3 1921 6912 1980 
3 8818 5293 8107 
3 11135 10944 10080 
3 10295 9017 9646 
3 5776 5489 7543 
3 11692 11592 11702 
3 9123 10076 10927 
3 11628 11587 11237 
3 10757 11094 10495 
3 2532 8143 2629 
3 127 930 4892 
3 11506 11539 11293 
3 11590 11705 11692 
3 2673 1821 1293 
3 5309 8791 8203 
3 11347 10952 11023 
3 11278 11121 11459 
3 4787 1954 6424 
3 8033 7945 9008 
3 6917 9465 8107 
3 2569 1945 1761 
3 10353 10952 11347 
3 11539 11658 11398 
3 5298 9465 2588 
3 4225 6711 10132 
3 3016 5750 5652 
3 2703 1969 6973 
3 930 444 1709 
3 2525 1972 1955 
3 5312 2612 8250 
3 5000 5100 521 
3 7945 2673 7255 
3 5100 5113 772 
3 9777 10763 11390 
3 11459 10398 10843 
3 7945 7255 4090 
3 2672 2612 5312 
3 5959 2915 5446 
3 7283 7943 3353 
3 11042 11459 10843 
3 5292 5281 7341 
3 2530 2525 5281 
3 7283 3353 440 
3 10561 10282 9150 
3 9608 8207 4352 
3 5542 10100 8250 
3 5100 1705 926 
3 5532 2672 5312 
3 3273 6494 5542 
3 10100 5542 7959 
3 8498 4960 6977 
3 8250 2612 2778 
3 2612 1883 2778 
3 5588 5325 2715 
3 1708 2716 929 
3 3752 1292 1820 
3 6840 1820 1883 
3 5701 7659 7776 
3 4352 3942 929 
3 3212 1920 3582 
3 3942 3582 1708 
3 3063 8285 5648 
3 1955 3451 1823 
3 3063 1972 3212 
3 1920 2560 1708 
3 2614 2715 5325 
3 7423 10398 10076 
3 7632 9334 5652 
3 4022 3760 6306 
3 10132 7667 6053 
3 10335 7570 7588 
3 9282 3171 8198 
3 10290 9334 7632 
3 33 1201 3404 
3 6648 3836 8057 
3 4134 6386 5963 
3 9282 6052 3309 
3 3171 1967 1907 
3 1193 5245 4134 
3 2776 1967 1942 
3 3232 3171 1907 
3 5963 7671 5535 
3 7667 7632 5750 
3 7161 8604 4225 
3 733 4416 8721 
3 4872 442 734 
3 8187 7283 4192 
3 4813 5262 736 
3 3451 6317 4437 
3 4437 5112 1295 
3 1459 1093 3308 
3 734 442 5094 
3 7311 733 5112 
3 8682 9269 5445 
3 6386 8258 5963 
3 3102 1942 1754 
3 1201 4062 3404 
3 2556 5331 5298 
3 6053 7161 10132 
3 441 5910 3149 
3 3842 3280 1121 
3 504 5210 766 
3 8967 8972 10010 
3 3842 505 8427 
3 5210 1145 547 
3 224 9614 5242 
3 4978 1490 504 
3 1607 1123 225 
3 10422 11131 10437 
3 226 1011 3561 
3 9979 10712 7989 
3 601 1489 1607 
3 2752 1696 1811 
3 4805 6691 1371 
3 10422 10024 8886 
3 11131 8887 10880 
3 9931 10411 10853 
3 10501 11133 10844 
3 7730 8868 9931 
3 10830 11325 11136 
3 10982 6020 7975 
3 8104 6292 3822 
3 9838 8890 7498 
3 7498 5480 5574 
3 10588 8991 9070 
3 1263 95 898 
3 7975 3660 5603 
3 1263 3545 3504 
3 5480 8890 9279 
3 2634 9279 6949 
3 10136 10853 8961 
3 8868 7730 7482 
3 11194 8961 10853 
3 896 6429 103 
3 4733 4651 1271 
3 8026 5995 6241 
3 1811 4733 1271 
3 9214 8026 3802 
3 10001 10982 8991 
3 8737 5603 95 
3 6094 6110 6088 
3 5480 7498 8890 
3 8991 5603 9070 
3 9240 3504 6010 
3 1807 3718 3545 
3 6060 3559 6031 
3 6072 3718 6101 
3 5480 2634 2870 
3 6101 3718 3614 
3 6110 3635 6088 
3 93 6466 1262 
3 3165 9727 6429 
3 1369 219 6644 
3 3716 3897 6241 
3 10992 9513 7892 
3 8573 6994 3593 
3 10490 9743 5741 
3 220 4539 1006 
3 8878 10624 10838 
3 11156 10490 8894 
3 4388 6533 8100 
3 3625 1123 1607 
3 3154 6386 1638 
3 6386 3154 8258 
3 7549 7936 6451 
3 9981 8878 10418 
3 3787 1010 1376 
3 4076 1010 5090 
3 7545 10592 7669 
3 4363 2494 2496 
3 10624 7549 9879 
3 3023 1369 6644 
3 1011 7078 4904 
3 4076 1376 1010 
3 8620 4201 6419 
3 9513 3023 7892 
3 7563 9513 10992 
3 2465 2463 3697 
3 9512 5995 9731 
3 8773 4484 1550 
3 8620 6294 4201 
3 4703 1005 219 
3 3593 6294 8573 
3 9214 3802 103 
3 4201 3593 1369 
3 1369 3593 219 
3 8097 3859 4341 
3 1549 2872 895 
3 4231 4079 2457 
3 1550 2951 3165 
3 7195 3657 8015 
3 8711 8097 4089 
3 2634 1261 94 
3 3859 895 4341 
3 2429 3097 2431 
3 6072 6101 9651 
3 8617 9651 6031 
3 6031 9651 6060 
3 6060 10316 6088 
3 6110 8015 6257 
3 4626 4371 7062 
3 8454 93 4443 
3 2453 2451 4626 
3 4450 8454 6891 
3 6060 6088 3605 
3 3635 3605 6088 
3 2453 4626 4450 
3 6009 3544 3503 
3 3559 3544 6031 
3 3482 3305 5786 
3 3544 2439 2437 
3 2439 3559 2441 
3 2441 3559 3605 
3 2443 3635 2445 
3 2455 2453 4450 
3 8211 9391 6241 
3 8678 2469 2467 
3 1004 2475 9432 
3 8678 6419 5182 
3 1378 228 8693 
3 7035 4520 4330 
3 4913 7299 7078 
3 2499 4748 4920 
3 1488 4388 1122 
3 2497 4748 2499 
3 4520 4748 2497 
3 4291 4619 7035 
3 4386 226 1376 
3 2493 4330 2495 
3 2501 4641 2503 
3 4641 6600 3867 
3 2934 2502 2504 
3 2500 2502 3073 
3 2468 3948 3685 
3 5649 3272 3004 
3 5972 3379 3580 
3 7588 5649 7605 
3 3004 3272 2476 
3 4363 2496 3796 
3 3348 2498 2500 
3 10292 7762 8198 
3 2476 3272 2474 
3 7567 10158 9331 
3 5758 6000 3348 
3 7717 8057 6000 
3 7669 5758 5602 
3 9331 3874 6739 
3 7467 7985 8967 
3 10117 7717 7669 
3 5758 3348 3073 
3 5910 441 9610 
3 441 3149 1094 
3 3480 3685 6062 
3 3707 8307 9610 
3 3379 3221 2482 
3 2474 3678 2472 
3 8109 5910 8434 
3 3272 5827 3678 
3 3950 5913 6132 
3 5926 6200 8512 
3 3211 3140 5701 
3 8207 6200 3942 
3 3942 6200 3582 
3 5889 3353 7943 
3 1093 4416 440 
3 5761 3307 5906 
3 6074 8512 6200 
3 6074 6200 9580 
3 5328 9150 8030 
3 8397 3486 4253 
3 6344 4199 4981 
3 3445 6074 3762 
3 1884 1707 4883 
3 521 5100 772 
3 9460 4329 3752 
3 6347 3486 8397 
3 8498 6977 928 
3 8397 4253 9497 
3 6199 9497 4094 
3 4933 9497 10301 
3 3140 3307 5761 
3 2466 2468 3685 
3 8239 2784 2614 
3 1822 1294 2715 
3 3307 2464 3480 
3 2460 3211 2458 
3 6074 5856 8512 
3 6488 4812 4820 
3 4138 3762 9580 
3 6766 9568 4698 
3 4094 4933 2430 
3 6199 4094 4037 
3 10301 520 5110 
3 519 7046 1498 
3 5110 1500 5044 
3 519 8594 2422 
3 8594 4871 2420 
3 3873 7135 1498 
3 8594 7135 4871 
3 7127 4871 3873 
3 6773 2414 4980 
3 4338 5261 960 
3 4216 2410 4562 
3 2392 7204 2390 
3 6697 7868 7060 
3 6389 8394 5065 
3 3245 3377 323 
3 3458 2358 2360 
3 320 1416 7018 
3 4989 8353 7212 
3 3983 2352 2356 
3 6150 6701 8425 
3 5005 4884 6915 
3 2384 3267 2382 
3 3377 5832 5684 
3 2382 3676 2380 
3 8943 7514 7505 
3 2374 7065 4993 
3 5095 6988 2370 
3 5158 487 4473 
3 1483 1117 6668 
3 3934 4846 7060 
3 1118 1483 486 
3 4846 4473 7060 
3 6376 4684 3676 
3 320 656 5208 
3 4060 7276 7514 
3 8275 1050 3834 
3 10146 9578 7715 
3 1050 330 3834 
3 3834 9235 6560 
3 2378 4684 5194 
3 1051 5095 4993 
3 6654 3552 1052 
3 7505 7514 7276 
3 2410 4216 2408 
3 10297 10613 7619 
3 4261 1479 483 
3 9695 7291 4114 
3 10344 9736 3862 
3 9736 10344 6333 
3 5158 7204 487 
3 5065 8394 1484 
3 1134 4199 7046 
3 519 1498 7135 
3 4871 7135 3873 
3 3873 4842 7127 
3 3695 6344 4981 
3 7046 4198 1498 
3 1498 4198 1132 
3 4842 4423 7127 
3 157 5261 1325 
3 4782 4444 9450 
3 5142 5087 773 
3 10301 9497 4253 
3 4338 4337 5261 
3 6194 3622 3903 
3 3812 8389 6420 
3 3653 1116 484 
3 1481 4528 484 
3 5073 1116 3824 
3 1722 3665 3534 
3 1323 5009 3006 
3 9424 6311 8645 
3 8394 1118 1484 
3 6364 3695 5080 
3 7321 124 4975 
3 2764 2813 1838 
3 158 4761 961 
3 7097 5169 773 
3 773 5087 522 
3 2764 6918 9421 
3 5142 8691 5087 
3 4761 5169 7097 
3 8615 522 7321 
3 8355 2813 5473 
3 8340 2855 3088 
3 6390 6147 8677 
3 3111 4114 1482 
3 1117 485 4632 
3 9620 8050 5951 
3 9021 8340 6126 
3 2855 5496 3007 
3 3295 4052 1835 
3 9438 4528 6420 
3 4114 7291 485 
3 3832 4682 9424 
3 5781 3552 8647 
3 5639 7854 3235 
3 10951 10703 10661 
3 7926 9674 10732 
3 4632 8476 9562 
3 6365 8461 3318 
3 9022 5639 5684 
3 4988 10246 6683 
3 4024 4000 6297 
3 10272 6099 10191 
3 7025 304 3866 
3 652 304 3918 
3 10951 9920 10642 
3 3915 6138 8194 
3 10259 9180 5599 
3 9644 8531 5724 
3 3046 9558 5584 
3 5671 7590 9151 
3 10639 10703 8943 
3 7490 6990 10721 
3 4989 5005 8353 
3 5599 3096 10259 
3 5793 486 3891 
3 4245 973 3563 
3 6831 3000 7515 
3 9337 3924 6578 
3 1482 4647 3824 
3 5065 487 1114 
3 1483 1118 8394 
3 4522 6389 4647 
3 7791 10146 9235 
3 8425 3983 3536 
3 1404 3317 303 
3 6150 8425 9578 
3 9183 9644 7627 
3 7185 302 4268 
3 1036 3539 1402 
3 3250 4946 5724 
3 299 7308 4972 
3 4582 2312 4999 
3 4263 1142 1508 
3 4972 6371 3539 
3 8630 5043 783 
3 11722 8060 3960 
3 537 782 4491 
3 4803 6672 9671 
3 5809 10341 9668 
3 9668 6672 3717 
3 1508 540 4263 
3 308 3046 1406 
3 9667 4804 921 
3 782 536 8485 
3 7308 299 540 
3 5848 8945 9696 
3 1143 4389 4263 
3 4389 1509 5130 
3 7723 3632 8531 
3 6417 6649 4796 
3 7054 1036 3250 
3 1143 4263 540 
3 6490 4804 8315 
3 9641 8315 1506 
3 4262 7604 6673 
3 1286 6672 4803 
3 6649 1143 6957 
3 5012 782 5043 
3 536 6676 8485 
3 1140 5130 541 
3 3960 5012 11722 
3 11722 5012 5043 
3 3365 1701 6670 
3 8918 10522 9948 
3 9354 6670 10285 
3 117 920 5060 
3 7839 8918 9216 
3 8918 10029 10522 
3 3286 1815 3995 
3 8279 8084 6270 
3 5253 8084 116 
3 1813 1698 9529 
3 10122 6399 7957 
3 5688 3342 7802 
3 180 8084 983 
3 8334 1813 9529 
3 3146 7957 8662 
3 187 8662 585 
3 8566 5146 4361 
3 3717 3365 5809 
3 5809 3365 9354 
3 7826 10276 9130 
3 1348 6955 179 
3 6549 537 4491 
3 3587 117 7027 
3 3484 3286 9401 
3 7935 8281 5792 
3 8349 3301 5789 
3 8281 7935 9685 
3 585 516 187 
3 769 6395 2519 
3 4945 1976 1893 
3 2020 4340 4737 
3 4340 2032 4205 
3 7225 2008 4737 
3 8357 6395 4764 
3 8756 513 7160 
3 8576 514 2519 
3 769 5146 513 
3 4945 1893 4665 
3 804 1 8712 
3 2044 4731 4205 
3 3146 6115 7957 
3 4627 1497 515 
3 6413 4340 4205 
3 7812 5787 5748 
3 4677 7329 6703 
3 4810 4696 6703 
3 7305 6115 5006 
3 3484 9401 7878 
3 5792 6087 3361 
3 8499 1348 1581 
3 982 3067 3222 
3 1036 4972 3539 
3 1402 4440 300 
3 9576 6925 4208 
3 5941 5792 3330 
3 6915 4884 4875 
3 7220 4999 4958 
3 6371 4223 8596 
3 8596 6941 4693 
3 8281 5789 9496 
3 9230 7027 9304 
3 6307 6925 9576 
3 9515 6549 8099 
3 7858 7755 10285 
3 7878 9401 7935 
3 2264 2272 6716 
3 6716 1141 538 
3 538 8327 7002 
3 3330 3361 2156 
3 2304 2312 4582 
3 4069 8595 8596 
3 6371 8596 8595 
3 6941 8726 4910 
3 4839 6925 4189 
3 3551 3330 2166 
3 3551 5941 3330 
3 2146 3913 2136 
3 2166 3330 2156 
3 3913 6087 8135 
3 4966 4810 6940 
3 4965 7001 6955 
3 1497 4627 4361 
3 4658 586 4555 
3 8576 7067 514 
3 514 1131 6866 
3 6887 4577 8357 
3 4665 1616 6887 
3 4919 1926 7067 
3 4577 8712 1168 
3 3894 1604 8523 
3 1098 8580 8523 
3 6303 1614 6895 
3 1891 1614 6303 
3 6914 3894 9751 
3 8580 9751 8523 
3 3894 1464 1604 
3 802 0 8700 
3 6895 8700 4601 
3 1614 802 6895 
3 8700 0 1169 
3 8700 1169 4601 
3 1169 1730 4601 
3 4547 1464 3894 
3 6895 4601 6914 
3 4695 1983 4702 
3 4601 4449 6914 
3 6895 9751 6303 
3 6914 4449 8722 
3 9747 4695 4702 
3 6914 8722 3894 
3 1464 449 3771 
3 6895 6914 9751 
3 6303 8580 1891 
3 8722 4547 3894 
3 8523 1604 1098 
3 9751 3894 8523 
3 9751 8580 6303 
3 7118 1603 3656 
3 6871 5211 1098 
3 1463 5211 3656 
3 9245 10339 8061 
3 1464 3771 3288 
3 1604 3288 6871 
3 6077 8061 10339 
3 3288 10339 6871 
3 6871 10339 9245 
3 7118 9245 8370 
3 4949 6656 1461 
3 1097 1603 7118 
3 4431 1461 8370 
3 4431 8370 9245 
3 4949 8500 6656 
3 447 1097 8370 
3 1463 2002 1990 
3 447 1461 6656 
3 2002 1097 2014 
3 2026 447 6656 
3 1974 1891 8580 
3 448 1098 5211 
3 448 5211 1463 
3 448 1463 1990 
3 1974 8580 448 
3 1974 448 1990 
3 2002 1603 1097 
3 2014 1097 447 
3 2026 2014 447 
3 2038 2026 6656 
3 2061 2051 4791 
3 9687 4940 332 
3 4940 6879 4852 
3 6656 8500 4358 
3 6656 4358 2038 
3 8500 4442 7237 
3 8500 7237 4358 
3 2081 2071 8478 
3 10102 6296 3848 
3 6762 8478 9687 
3 6762 4891 4659 
3 2091 2081 6762 
3 4659 2091 6762 
3 4659 2101 2091 
3 4336 4659 7179 
3 4372 2131 2121 
3 4006 4336 7997 
3 2141 2131 5011 
3 9670 7997 10325 
3 7286 479 5011 
3 4372 5011 2131 
3 663 4573 4891 
3 4659 4336 2101 
3 2121 2111 4006 
3 7997 4336 7179 
3 2111 4336 4006 
3 9670 10325 6235 
3 3885 6235 6134 
3 6166 7997 4573 
3 4372 4006 9670 
3 4372 9670 7286 
3 4217 479 7286 
3 6235 7286 9670 
3 6764 479 1476 
3 3828 5171 8675 
3 4217 6235 3885 
3 5171 1111 3993 
3 3885 1111 4217 
3 6235 4217 7286 
3 6166 4573 331 
3 331 2508 1420 
3 6235 10325 6134 
3 331 4573 2508 
3 4442 333 4852 
3 4891 4573 7179 
3 6547 2508 663 
3 332 4891 9687 
3 664 332 4940 
3 6879 4940 8478 
3 332 663 4891 
3 9687 4891 6762 
3 4442 8500 7091 
3 1095 4949 1461 
3 7237 4442 4852 
3 7237 4852 4791 
3 8500 4949 7091 
3 4442 7091 665 
3 4442 665 333 
3 4852 664 4940 
3 10102 3848 7213 
3 333 664 4852 
3 664 333 3848 
3 4570 1420 6547 
3 333 7213 3848 
3 664 11710 332 
3 8992 6296 10102 
3 3380 10102 7213 
3 664 3848 11710 
3 8670 8992 6021 
3 6021 3692 8670 
3 8670 4570 11710 
3 3692 1054 4570 
3 8670 11710 6296 
3 4570 6547 11710 
3 6296 11710 3848 
3 9484 6704 4111 
3 1054 1420 4570 
3 6704 6166 331 
3 6704 331 1420 
3 10325 6166 6134 
3 6112 8505 9484 
3 3885 6134 4477 
3 3885 1477 1111 
3 3885 4477 1477 
3 1111 1477 3993 
3 1477 4477 480 
3 1477 5235 3993 
3 1478 3968 1112 
3 480 5235 1477 
3 8759 6112 3584 
3 6704 9484 8482 
3 4477 6134 8482 
3 4477 8482 6246 
3 3304 6246 8505 
3 9484 6246 8482 
3 6704 1420 4111 
3 9484 4111 6112 
3 6112 10165 8505 
3 6246 3304 480 
3 5235 480 1112 
3 6696 9190 7473 
3 3968 5235 1112 
3 6696 1112 3304 
3 9923 10585 7473 
3 9190 3304 8505 
3 6923 4753 244 
3 9320 10977 10130 
3 3584 9748 8759 
3 6112 8759 10165 
3 9923 7473 9190 
3 9923 9190 10165 
3 3692 6021 3175 
3 3175 8429 1422 
3 6021 9679 3175 
3 340 1422 9748 
3 3692 3175 340 
3 3692 340 1054 
3 4111 1054 3584 
3 4111 3584 6112 
3 11012 10619 9163 
3 666 335 3436 
3 9679 6021 11012 
3 10619 8992 10102 
3 8992 10619 11012 
3 7737 7602 3436 
3 7714 9163 10231 
3 7737 9163 7602 
3 6021 8992 11012 
3 9679 11012 7714 
3 7737 3436 6646 
3 4207 8601 5902 
3 3436 5267 6646 
3 669 4499 7086 
3 8667 1466 3078 
3 450 8697 1465 
3 7603 10630 9387 
3 8282 667 5267 
3 451 1096 6929 
3 4542 6580 8697 
3 3416 3568 1602 
3 1096 3568 6929 
3 6066 3416 9612 
3 666 3436 6976 
3 1462 1602 335 
3 3436 335 5267 
3 3416 1602 1462 
3 446 1462 666 
3 3380 334 6976 
3 7602 6976 3436 
3 1462 335 666 
3 446 666 334 
3 334 7091 8538 
3 334 8538 446 
3 9612 6077 6066 
3 8024 7268 6580 
3 4431 8061 6464 
3 446 6464 1462 
3 8061 6077 9612 
3 3568 9405 6929 
3 6464 8061 9612 
3 6464 3416 1462 
3 6066 3568 3416 
3 9612 3416 6464 
3 6077 3771 8024 
3 6066 9405 3568 
3 8024 6580 9405 
3 8024 9405 6066 
3 7268 3771 449 
3 4701 9747 4702 
3 8024 3771 7268 
3 1099 4701 4600 
3 4449 1927 4695 
3 8722 9747 4547 
3 8722 4695 9747 
3 4547 9747 449 
3 4729 4702 1997 
3 7268 449 1099 
3 4600 4701 4702 
3 6580 7268 1099 
3 6580 1099 1465 
3 4648 2021 2033 
3 4734 4600 4729 
3 2009 4729 1997 
3 4734 450 1465 
3 4600 1465 1099 
3 1100 4542 8697 
3 1465 8697 6580 
3 3078 6565 7546 
3 450 1100 8697 
3 6929 9405 4542 
3 1466 4542 1100 
3 2009 2021 4736 
3 4736 8522 4734 
3 4600 4734 1465 
3 9487 8522 6226 
3 8522 450 4734 
3 2021 4648 4736 
3 8522 4736 4648 
3 4110 3351 5806 
3 8522 4648 6226 
3 6565 1100 450 
3 4648 4110 6226 
3 6565 3078 1100 
3 6565 9487 8142 
3 6393 3763 7923 
3 1466 1100 3078 
3 10702 10724 9002 
3 6226 8142 9487 
3 8522 9487 450 
3 8142 7546 6565 
3 9487 6565 450 
3 451 1466 8667 
3 8963 3078 10702 
3 8282 451 5165 
3 8963 8667 3078 
3 6646 667 4982 
3 6173 8667 8963 
3 7737 6646 5902 
3 7737 10231 9163 
3 668 4207 4982 
3 336 4982 667 
3 337 7086 4207 
3 4982 4207 5902 
3 10121 10630 8963 
3 10702 3078 7546 
3 336 5165 8283 
3 10630 6173 8963 
3 7603 8283 10630 
3 5165 336 667 
3 8283 6173 10630 
3 9387 10630 10121 
3 5165 6173 8283 
3 7153 4101 9700 
3 336 8283 4049 
3 336 668 4982 
3 4049 4985 668 
3 4049 668 336 
3 7153 9700 4985 
3 668 337 4207 
3 6744 337 8251 
3 4985 337 668 
3 4985 4049 7153 
3 8288 7603 9387 
3 7603 8288 7153 
3 7603 7153 4049 
3 5675 7595 5622 
3 3351 2045 2057 
3 10724 7576 9002 
3 8958 8166 9387 
3 8142 7576 10724 
3 7546 10724 10702 
3 10121 8963 10702 
3 10121 10702 9002 
3 2033 2045 4110 
3 5622 5806 3351 
3 4110 5806 6226 
3 2045 3351 4110 
3 7576 5806 5622 
3 2991 2057 2067 
3 9002 7576 7595 
3 2991 5622 3351 
3 2057 2991 3351 
3 5675 5622 2991 
3 3244 2991 2067 
3 7576 5622 7595 
3 7663 7923 8165 
3 9002 7595 10055 
3 9002 8958 10121 
3 2991 3244 5675 
3 7663 5933 7923 
3 7595 5675 7663 
3 7595 7663 10055 
3 2067 2077 3244 
3 5675 3244 5933 
3 5675 5933 7663 
3 4398 2087 2097 
3 2077 2087 3710 
3 3244 3710 5933 
3 4398 2097 4732 
3 4786 6657 4732 
3 4853 4732 2107 
3 861 58 4786 
3 6657 58 3763 
3 3763 58 1226 
3 5332 8167 2597 
3 3710 4398 6393 
3 5933 6393 7923 
3 10055 7663 8165 
3 5629 3035 3113 
3 1782 3035 6682 
3 3763 6682 7923 
3 6682 1226 1782 
3 1863 2674 2597 
3 6556 8076 2674 
3 1782 2674 1863 
3 4976 9732 6556 
3 1226 6556 1782 
3 10526 10097 10066 
3 2674 5332 2597 
3 10097 8803 5332 
3 8076 5332 2674 
3 10855 9816 10364 
3 5332 8803 8167 
3 9774 10659 8891 
3 8803 8891 8167 
3 10868 10796 11332 
3 8891 9643 7735 
3 10796 9917 10659 
3 8891 9917 9643 
3 8251 57 1225 
3 6550 4699 7735 
3 7735 9643 6550 
3 4699 1225 57 
3 8166 5629 3113 
3 6680 3113 1667 
3 2597 8167 6681 
3 860 6681 4699 
3 10055 8165 5629 
3 8958 9387 10121 
3 10055 5629 8958 
3 10055 8958 9002 
3 8288 9387 8166 
3 8288 8166 6680 
3 9700 57 8251 
3 5123 6759 338 
3 6744 8251 1225 
3 6550 1225 4699 
3 2587 1666 1781 
3 6550 1781 1225 
3 10710 1666 2587 
3 1666 6759 5123 
3 56 4849 859 
3 859 4849 6759 
3 5164 3393 1421 
3 5774 3816 3159 
3 8962 6472 10032 
3 8534 1055 338 
3 3159 3816 1223 
3 3889 859 6472 
3 859 1666 10710 
3 7430 9643 9917 
3 6472 859 10710 
3 10032 2587 7430 
3 10710 2587 10032 
3 10032 7430 11209 
3 6472 10710 10032 
3 11209 7430 9917 
3 8962 10032 10868 
3 11040 11257 11054 
3 10032 11209 10868 
3 11052 11298 11490 
3 9854 10895 11227 
3 5766 7798 3151 
3 5435 9526 2660 
3 5435 2660 3889 
3 56 859 3889 
3 5435 6472 8962 
3 1223 56 3889 
3 5435 3889 6472 
3 3889 2660 1223 
3 56 1223 3816 
3 6629 2660 9526 
3 2660 1779 1223 
3 6628 1862 6629 
3 1779 2841 3159 
3 1664 1862 6628 
3 6628 6629 7503 
3 7686 3684 6628 
3 7503 9526 10636 
3 6628 3684 1664 
3 5511 5774 3159 
3 857 3236 3151 
3 1664 7080 1862 
3 1664 3151 7080 
3 1862 2841 1779 
3 3236 9172 5766 
3 3151 7798 7080 
3 5766 9172 10294 
3 9097 7804 5900 
3 9027 10294 9097 
3 9027 10030 10607 
3 9027 9046 7798 
3 7080 2841 1862 
3 2841 7080 7798 
3 2841 5511 3159 
3 7144 5774 8197 
3 7518 9889 10725 
3 2841 7798 5511 
3 7518 9176 8197 
3 5511 7798 9046 
3 5511 9046 7518 
3 9962 9889 10607 
3 9503 8031 6859 
3 9962 10607 9503 
3 8031 9097 5900 
3 8921 9962 7466 
3 7466 9962 9503 
3 10607 10030 9503 
3 7466 9503 6859 
3 7460 9897 10507 
3 10581 10725 9889 
3 9176 9897 7460 
3 8921 7466 7496 
3 9176 7460 6514 
3 7144 3816 5774 
3 9176 6514 8197 
3 9176 7518 10725 
3 4849 3816 7144 
3 4849 6616 8534 
3 5774 5511 7518 
3 5774 7518 8197 
3 1666 859 6759 
3 1666 5123 1781 
3 1421 1055 6616 
3 4849 8534 6759 
3 1225 1781 6744 
3 337 669 7086 
3 6744 1781 5123 
3 6744 5123 669 
3 5123 338 669 
3 6744 669 337 
3 5691 7086 4499 
3 5691 4499 3393 
3 3393 1055 1421 
3 4250 6616 7144 
3 4849 7144 6616 
3 8534 6616 1055 
3 8197 6514 4250 
3 6616 4250 1421 
3 6581 1422 1056 
3 2997 6514 7460 
3 6581 1056 2997 
3 4250 339 1421 
3 7714 5691 6279 
3 5164 1421 339 
3 6279 3393 5164 
3 1056 5164 339 
3 7737 5902 10231 
3 9163 7714 11012 
3 4207 7086 8601 
3 10231 8601 7714 
3 6279 9679 7714 
3 5691 7714 8601 
3 5691 3393 6279 
3 9679 6279 3175 
3 6279 5164 8429 
3 6279 8429 3175 
3 1056 339 2997 
3 6581 10183 8922 
3 2997 7460 10183 
3 2997 10183 6581 
3 9897 10945 10507 
3 10183 11022 8922 
3 10725 10581 9897 
3 10725 9897 9176 
3 9897 10581 10945 
3 10507 10945 11022 
3 10945 10581 8921 
3 10585 8921 10977 
3 10945 9923 11022 
3 10507 11022 10183 
3 7473 10585 9320 
3 4753 1019 244 
3 10585 10977 9320 
3 7473 9320 2954 
3 10977 7496 10130 
3 9320 8342 2954 
3 6730 1019 4753 
3 10130 8342 9320 
3 4753 10130 6730 
3 1385 245 4944 
3 1384 244 6884 
3 6884 1019 3515 
3 3036 3694 5769 
3 9088 10737 8999 
3 1384 6884 3694 
3 9451 9088 8999 
3 4753 6923 8342 
3 3694 6884 8391 
3 1018 1384 3694 
3 1018 3694 3036 
3 243 3036 7075 
3 7075 7934 7921 
3 5264 9149 242 
3 3547 610 4512 
3 242 9149 3785 
3 242 610 3547 
3 242 3785 610 
3 4512 241 8418 
3 6078 7316 4971 
3 610 241 4512 
3 9600 8418 241 
3 4971 241 610 
3 3694 8391 5769 
3 3036 5769 7934 
3 7075 3036 7934 
3 7075 7921 9149 
3 4971 3785 6078 
3 10225 7921 7934 
3 7961 7641 9504 
3 5782 6529 7658 
3 7921 7641 6078 
3 7921 6078 3785 
3 7961 3125 6038 
3 7641 6038 6078 
3 240 8543 609 
3 7316 609 4971 
3 609 7316 4956 
3 240 4956 1383 
3 3725 1383 2982 
3 3529 2932 1387 
3 7088 2932 9164 
3 7693 9088 7658 
3 3529 7961 5601 
3 10313 9504 10737 
3 3057 7693 7658 
3 5782 9451 8391 
3 10313 10737 9088 
3 10313 9088 7693 
3 5769 8391 9451 
3 9088 9451 7658 
3 7934 5769 8999 
3 10225 8999 10737 
3 1385 6730 2958 
3 6859 2958 7466 
3 1019 1385 3515 
3 8391 3515 5782 
3 6529 4944 612 
3 6859 245 2958 
3 246 612 3525 
3 612 4944 245 
3 3515 4944 5782 
3 9451 5782 7658 
3 9503 10030 8031 
3 6859 3386 245 
3 612 245 3386 
3 5900 3386 8031 
3 3057 6529 246 
3 3525 612 3386 
3 5601 10313 9164 
3 1386 247 5191 
3 3188 3525 5847 
3 5191 7088 9164 
3 3057 1020 6694 
3 3057 6694 7693 
3 6529 612 246 
3 5847 5900 7804 
3 1020 3057 246 
3 1020 3188 2994 
3 10294 9172 7804 
3 5900 5847 3525 
3 246 3525 3188 
3 7697 9207 10058 
3 7804 9172 9207 
3 7804 7697 5847 
3 7539 5608 7697 
3 9207 7697 7804 
3 9359 8246 3460 
3 2994 1386 1020 
3 1021 5191 247 
3 8246 247 3460 
3 1020 246 3188 
3 5608 3188 5847 
3 6694 1020 1386 
3 247 1386 3460 
3 9164 6694 5191 
3 1021 4112 7087 
3 3464 1387 1594 
3 7087 1594 1021 
3 248 3373 1017 
3 3781 3464 6163 
3 3464 7087 7784 
3 3952 1933 1962 
3 7088 5191 1021 
3 7088 1021 1594 
3 1594 7087 3464 
3 1387 3464 3781 
3 9754 6076 6201 
3 5666 7705 5838 
3 248 3781 3373 
3 9754 3781 6163 
3 3373 5666 2982 
3 8196 6201 6076 
3 1017 7215 248 
3 1383 3725 240 
3 6201 8196 5666 
3 5838 8296 3725 
3 1017 3373 2982 
3 3781 248 1387 
3 6201 5666 3373 
3 6201 3373 3781 
3 7961 9504 5601 
3 2932 5601 9164 
3 3125 7961 7215 
3 248 3529 1387 
3 7961 3529 7215 
3 3125 1017 1383 
3 3125 7215 1017 
3 1383 1017 2982 
3 8543 240 7093 
3 3725 2982 5838 
3 240 3725 7093 
3 5067 194 591 
3 7093 8296 3987 
3 8162 7848 6589 
3 1355 8376 989 
3 193 6660 591 
3 3207 195 1355 
3 8376 9673 3674 
3 6001 5673 3134 
3 3987 3134 989 
3 195 9708 1355 
3 3207 1355 3134 
3 2982 5666 5838 
3 7645 3207 5673 
3 8296 5838 6001 
3 8296 6001 3987 
3 5666 8196 7705 
3 5838 7705 6001 
3 7971 9681 5892 
3 7705 10230 6001 
3 7705 8196 9681 
3 5812 5745 7649 
3 8196 10340 9681 
3 10230 9543 5673 
3 5812 7649 7971 
3 9681 7971 10230 
3 9400 9137 9997 
3 7649 7645 9543 
3 7971 7649 9543 
3 7971 9543 10230 
3 7649 9997 7645 
3 9543 7645 5673 
3 9997 5823 9702 
3 7645 9702 3207 
3 5749 3260 8289 
3 10109 9137 7579 
3 8067 9657 9252 
3 11728 9252 10109 
3 9400 7579 9137 
3 9997 9137 5823 
3 7538 11728 10109 
3 9137 10109 8289 
3 11728 5773 8067 
3 11728 8067 9252 
3 10226 9657 8119 
3 3499 6813 430 
3 9657 10226 7768 
3 9252 5749 8289 
3 5839 8119 3499 
3 725 3499 430 
3 9222 10226 8119 
3 9222 5839 10189 
3 9222 8119 5839 
3 6158 10269 8966 
3 5823 8289 3260 
3 195 990 9708 
3 990 3260 3243 
3 7768 5749 9252 
3 195 3260 990 
3 9708 990 4532 
3 7768 5824 5749 
3 5749 3243 3260 
3 5990 3444 10669 
3 5824 3444 3243 
3 10669 3444 5824 
3 10226 5824 7768 
3 3092 3444 5990 
3 9222 10669 10226 
3 5551 5990 7825 
3 7825 9222 10189 
3 3092 5990 5551 
3 7499 7825 9116 
3 2884 3092 5551 
3 2884 5551 5531 
3 8966 10605 9116 
3 10189 9116 7825 
3 3284 4432 991 
3 196 1356 3444 
3 6071 4432 3284 
3 3284 991 1357 
3 1356 4432 4532 
3 9708 8376 1355 
3 991 4432 196 
3 3092 196 3444 
3 3987 989 194 
3 3987 5067 7093 
3 9708 4532 8376 
3 989 3674 194 
3 3725 8296 7093 
3 8543 7093 5067 
3 3987 194 5067 
3 8543 5067 6660 
3 5067 591 6660 
3 609 9600 241 
3 9673 8162 3674 
3 194 6589 591 
3 989 8376 3674 
3 194 3674 6589 
3 9673 6071 8162 
3 3674 8162 6589 
3 4432 6071 9673 
3 4532 9673 8376 
3 591 6589 4767 
3 10334 9094 8769 
3 8162 6071 10320 
3 8162 10320 7848 
3 193 8418 9600 
3 6660 9600 609 
3 7331 193 4767 
3 7848 4767 6589 
3 6612 8418 7331 
3 4767 193 591 
3 3844 6612 590 
3 7045 4767 7848 
3 590 7331 7045 
3 4751 3765 589 
3 7848 9094 10334 
3 5828 8769 3765 
3 3284 7271 8025 
3 10320 8025 9094 
3 3900 4065 988 
3 1357 991 2884 
3 3163 197 2990 
3 5531 5551 7499 
3 8025 6071 3284 
3 7271 3284 1357 
3 197 7271 1357 
3 2990 1357 2884 
3 5802 2990 5531 
3 10733 7499 9955 
3 5802 5531 7670 
3 7670 10555 10141 
3 5531 10733 7670 
3 5802 7670 10141 
3 9939 9063 10141 
3 9020 10141 10555 
3 10188 9020 10555 
3 9955 10555 10733 
3 6752 3163 10321 
3 5802 3163 2990 
3 9939 10488 9063 
3 10141 9063 5802 
3 4065 3900 5887 
3 4065 5887 8025 
3 6752 1354 988 
3 3163 988 197 
3 3032 7509 7497 
3 10321 3163 9063 
3 7509 10321 10488 
3 10488 10321 9063 
3 6752 10321 7509 
3 7534 7628 9333 
3 10141 9020 9939 
3 10488 10941 8940 
3 1354 6752 3032 
3 7497 8940 9061 
3 10488 9939 10941 
3 11198 10156 9000 
3 7598 9061 7483 
3 9000 7536 7483 
3 7497 7509 8940 
3 9061 8940 11198 
3 190 588 5166 
3 588 3675 7330 
3 9061 9297 7497 
3 3032 190 1354 
3 3900 1354 5166 
3 3900 6497 5887 
3 7497 6249 3032 
3 1354 190 5166 
3 6752 7509 3032 
3 190 3032 6249 
3 9677 8098 10298 
3 5798 10333 8012 
3 3186 589 3333 
3 3333 191 3675 
3 589 191 3333 
3 5798 8012 7830 
3 588 3671 3675 
3 3333 6154 10333 
3 7502 8980 8987 
3 7566 9378 7830 
3 3186 3333 5798 
3 8098 9677 6926 
3 10008 9677 10298 
3 8987 9378 7566 
3 6926 3186 8098 
3 9378 5798 7830 
3 9413 3844 7621 
3 7782 5607 3547 
3 192 6926 3844 
3 590 6612 7331 
3 191 3765 7330 
3 191 7330 3675 
3 3900 5166 6497 
3 3765 9290 7330 
3 7045 10334 5828 
3 4751 589 192 
3 3765 8769 6497 
3 9290 6497 5166 
3 4512 6612 9413 
3 4512 7782 3547 
3 192 3844 590 
3 192 590 4751 
3 7045 5828 4751 
3 7045 4751 590 
3 611 9149 5264 
3 3206 242 3547 
3 6811 4121 9693 
3 5607 3206 3547 
3 6028 3206 5607 
3 10008 10298 8987 
3 4512 9413 7782 
3 5607 9047 7596 
3 1018 243 6811 
3 5159 5162 1384 
3 476 6811 4590 
3 8379 9483 7634 
3 6811 243 4121 
3 9693 4121 6028 
3 243 7075 611 
3 4121 611 3206 
3 476 1475 5159 
3 1384 5162 244 
3 1109 5162 1475 
3 6811 5159 1018 
3 1109 481 6923 
3 4753 8342 10130 
3 481 8342 6923 
3 5162 6923 244 
3 481 5014 1478 
3 2954 1478 6696 
3 2954 8342 481 
3 5014 481 1109 
3 4169 1475 9296 
3 5162 1109 6923 
3 4169 1109 1475 
3 5159 1475 5162 
3 753 9296 476 
3 6811 476 5159 
3 753 5051 9296 
3 476 9296 1475 
3 6509 7634 8105 
3 9693 4590 6811 
3 1478 5014 3968 
3 5235 3968 3993 
3 3968 5014 6242 
3 8247 4169 9296 
3 8675 3993 6242 
3 4169 6242 5014 
3 4776 3828 9385 
3 8247 6242 4169 
3 4776 9385 8247 
3 5051 8247 9296 
3 477 753 3418 
3 4590 753 476 
3 5051 753 477 
3 9483 6028 7596 
3 477 3418 6509 
3 10181 9074 7542 
3 8379 6028 9483 
3 10181 7542 8105 
3 4590 9693 8379 
3 3418 8379 7634 
3 4121 3206 6028 
3 9693 6028 8379 
3 5607 7782 9047 
3 7596 10127 10692 
3 7621 9677 10008 
3 9047 10670 10127 
3 7634 9483 10181 
3 8980 10670 8987 
3 7596 9047 10127 
3 10127 8980 9074 
3 9047 10008 10670 
3 10127 9074 10692 
3 10127 10670 8980 
3 7517 7502 5525 
3 7517 8980 7502 
3 5586 7502 7566 
3 5586 2966 5525 
3 5586 5525 7502 
3 3077 5586 5705 
3 5811 5705 7830 
3 5762 8105 7542 
3 5762 7542 5573 
3 3731 5762 3195 
3 3195 2221 2211 
3 9483 10692 10181 
3 7634 10181 8105 
3 10181 10692 9074 
3 7542 9074 7517 
3 754 5051 477 
3 6509 3418 7634 
3 4234 477 6509 
3 4234 6509 9709 
3 9385 3828 8675 
3 9385 8675 6242 
3 1476 3828 1110 
3 754 4776 5051 
3 1476 479 5171 
3 8675 5171 3993 
3 5011 479 6764 
3 5054 4675 2181 
3 6764 1476 5038 
3 478 4776 754 
3 6843 1110 478 
3 4777 478 754 
3 6509 8105 9709 
3 4234 7003 4777 
3 1476 1110 5038 
3 5038 6843 2161 
3 4234 9709 7003 
3 4777 7003 4675 
3 2141 5011 6764 
3 5038 1110 6843 
3 2151 6764 5038 
3 2151 5038 2161 
3 6843 2171 2161 
3 5054 2181 2171 
3 2171 6843 5054 
3 4675 5054 4777 
3 4675 7003 4172 
3 2201 4172 3731 
3 3195 5762 5573 
3 2919 5573 5525 
3 8105 5762 6322 
3 9709 6322 7003 
3 2211 3731 3195 
3 2221 2919 2231 
3 2231 2919 2966 
3 2241 3077 2252 
3 5705 3191 3077 
3 5586 3077 2966 
3 3195 5573 2919 
3 3195 2919 2221 
3 2241 2231 2966 
3 2260 2252 3191 
3 3341 5811 5908 
3 2276 3494 3498 
3 3494 5971 3498 
3 3494 5908 5971 
3 2292 2284 3495 
3 5994 3495 5993 
3 2284 3498 3495 
3 3487 3391 2300 
3 2260 3191 3341 
3 2268 3494 2276 
3 3341 5908 3494 
3 3341 3494 2268 
3 5811 7830 8012 
3 5908 8012 9448 
3 5798 3333 10333 
3 8012 10333 9448 
3 10298 8098 9378 
3 10298 9378 8987 
3 3333 3675 6154 
3 10333 6154 9448 
3 9448 6154 8324 
3 7598 5613 5685 
3 3675 3671 6081 
3 8324 8622 5993 
3 3495 3498 5993 
3 8324 5971 9448 
3 3498 5971 5993 
3 3391 2308 2300 
3 10632 6081 3671 
3 6081 8622 8324 
3 6249 10174 10632 
3 8622 5994 5993 
3 10174 9297 7761 
3 7783 7761 5859 
3 7761 7783 10174 
3 6249 10632 3671 
3 6249 9297 10174 
3 10632 10174 7783 
3 9297 9061 7598 
3 7536 7648 5760 
3 9061 11198 9000 
3 7483 7536 5600 
3 7761 9297 7598 
3 7761 7598 5685 
3 7598 7483 5613 
3 5685 3391 5859 
3 5613 7483 5600 
3 5613 3168 5685 
3 2308 3168 2316 
3 2970 5613 5600 
3 3391 3168 2308 
3 3076 5600 5760 
3 3487 5994 5859 
3 7783 5994 8622 
3 7761 5685 5859 
3 5994 3487 3495 
3 2292 3495 3487 
3 2292 3487 2300 
3 5685 3168 3391 
3 5859 3391 3487 
3 2316 3168 2970 
3 2324 3076 2334 
3 2334 3076 3344 
3 2338 2334 3344 
3 2342 2338 3777 
3 2324 2970 3076 
3 3344 3076 5760 
3 3344 6023 3777 
3 3344 3777 2338 
3 2346 4280 4471 
3 9204 4343 6507 
3 6507 4426 7132 
3 6366 7132 4471 
3 4471 4280 6366 
3 2350 2346 4471 
3 2350 4471 4426 
3 6507 4344 4426 
3 7132 4426 4471 
3 7257 2361 2359 
3 4763 4344 8528 
3 2365 2363 4950 
3 4950 5137 4524 
3 992 200 5004 
3 6720 4763 8528 
3 4109 4950 10168 
3 8300 7875 8663 
3 4343 8528 6507 
3 4343 7323 201 
3 6507 8528 4344 
3 4426 4344 2355 
3 7257 2359 4763 
3 7257 4763 5004 
3 7323 4343 9204 
3 4673 9204 6507 
3 992 5004 6720 
3 992 6720 1358 
3 4524 200 594 
3 199 594 8588 
3 10168 4524 9538 
3 6043 3911 9415 
3 594 6719 8588 
3 199 3947 592 
3 9538 3693 6043 
3 3911 3693 199 
3 4970 595 202 
3 6350 9256 3708 
3 3567 201 7323 
3 595 7323 9204 
3 9256 6350 6023 
3 4673 6507 7132 
3 7315 595 4970 
3 993 202 3708 
3 7132 6366 4673 
3 202 8655 3708 
3 595 9204 4673 
3 8655 4673 6366 
3 3344 5760 6023 
3 3777 6350 4280 
3 3708 8655 6350 
3 6023 6350 3777 
3 9000 9333 7536 
3 5600 7536 5760 
3 9333 7628 7648 
3 5760 7648 6023 
3 6695 3708 9256 
3 7648 9256 6023 
3 7534 9333 10156 
3 10941 10156 11198 
3 7628 3099 6695 
3 7628 6695 9256 
3 3399 4970 993 
3 1359 993 6695 
3 6122 7315 4970 
3 993 4970 202 
3 5116 203 596 
3 1359 3399 993 
3 204 596 3150 
3 3399 6122 4970 
3 203 3099 6478 
3 9080 10941 9939 
3 6478 3254 203 
3 3099 203 1359 
3 3099 7534 6478 
3 7981 9939 9020 
3 7981 3254 6478 
3 9080 6478 7534 
3 6478 9080 7981 
3 5697 9020 10188 
3 5116 596 7210 
3 7210 596 204 
3 7884 9631 7210 
3 4165 204 597 
3 3815 5779 9525 
3 3815 4165 597 
3 1359 203 5116 
3 3399 9631 6122 
3 7884 6122 9631 
3 7210 9631 5116 
3 9616 6122 9992 
3 9525 7884 4165 
3 9069 10304 9992 
3 9525 9992 7884 
3 9616 9992 7616 
3 6146 6935 4728 
3 3155 8443 5779 
3 9525 5779 9992 
3 8146 10304 9069 
3 8443 9069 5779 
3 8118 8146 6146 
3 6137 7121 5084 
3 198 4728 593 
3 4653 4178 6516 
3 10304 8146 8118 
3 8475 3947 8588 
3 3947 4728 592 
3 1454 1088 6675 
3 8475 6146 3947 
3 8588 3947 199 
3 4728 198 592 
3 199 592 3911 
3 8118 7206 7616 
3 10304 7616 9992 
3 7616 10304 8118 
3 4021 8118 8475 
3 7323 595 3567 
3 9616 7315 6122 
3 9616 7616 3567 
3 7315 3567 595 
3 3567 7616 7206 
3 3567 7206 201 
3 8118 6146 8475 
3 4021 8475 6719 
3 6043 3693 3911 
3 9415 3911 4708 
3 592 198 4708 
3 592 4708 3911 
3 7875 6675 3398 
3 6096 3398 3706 
3 7026 1453 420 
3 1088 3398 6675 
3 3338 1087 4133 
3 6284 7026 9686 
3 3233 420 1088 
3 1454 6675 4490 
3 8083 7026 3233 
3 9439 3233 8161 
3 421 1454 4490 
3 4708 4490 9415 
3 8161 1088 1454 
3 5097 421 719 
3 4974 421 7230 
3 198 7230 4708 
3 4490 7230 421 
3 1454 5097 8161 
3 8148 421 4974 
3 593 4974 198 
3 9430 719 8148 
3 4178 3877 8581 
3 7660 9439 9112 
3 422 720 3967 
3 9429 5566 7660 
3 9429 10324 7758 
3 1454 421 5097 
3 8161 5097 6325 
3 7026 420 3233 
3 7026 8083 9686 
3 7660 6015 8083 
3 9439 8083 3233 
3 2980 716 2974 
3 6015 4430 9686 
3 3953 4047 418 
3 716 418 2974 
3 417 716 2980 
3 3419 2980 10271 
3 4295 4572 6463 
3 4572 417 717 
3 716 417 4295 
3 6857 8140 9540 
3 404 8021 6463 
3 6857 6463 4572 
3 418 716 3953 
3 3953 8021 8046 
3 3766 4272 706 
3 1084 4106 6755 
3 716 4295 3953 
3 4047 8046 6175 
3 4295 6463 8021 
3 4295 8021 3953 
3 1087 1453 6284 
3 8426 718 2516 
3 8426 6284 4430 
3 418 4430 2974 
3 419 8426 2516 
3 1453 3338 3706 
3 718 8426 4430 
3 6284 8426 1087 
3 4047 3586 718 
3 8426 419 1087 
3 3586 2516 718 
3 4047 718 418 
3 8193 6175 8348 
3 4272 8046 8021 
3 4066 6232 6136 
3 6175 8313 3586 
3 6175 8046 8348 
3 8138 8348 3766 
3 6232 8313 6136 
3 3485 6136 6049 
3 6049 6136 8193 
3 8138 8193 8348 
3 4133 9384 8212 
3 4313 8212 4375 
3 2516 3586 419 
3 419 4133 1087 
3 1453 1087 3338 
3 6305 4133 9615 
3 9384 4133 419 
3 9384 419 3586 
3 7875 3398 6096 
3 8663 6096 6103 
3 6096 3706 8435 
3 6305 3338 4133 
3 4524 3693 9538 
3 8300 6043 7875 
3 6096 8663 7875 
3 6675 7875 9415 
3 4950 4524 10168 
3 9538 6185 10168 
3 9538 6043 8300 
3 6185 4109 10168 
3 3759 6103 9383 
3 5921 3532 3422 
3 3706 3338 8435 
3 6096 8435 6103 
3 8435 3338 6305 
3 4020 9615 4313 
3 8663 6103 5921 
3 8663 5921 8300 
3 5921 6103 3532 
3 3422 2369 2367 
3 2365 4950 4109 
3 3422 6185 5921 
3 8300 5921 6185 
3 8300 6185 9538 
3 2367 2365 4109 
3 3422 4109 6185 
3 3422 2367 4109 
3 3532 2369 3422 
3 3759 2373 2371 
3 3532 2371 2369 
3 6305 4020 9383 
3 3532 3759 2371 
3 8212 6232 4375 
3 4066 3485 2381 
3 2377 4375 2379 
3 4020 3759 9383 
3 6305 9383 8435 
3 4133 8212 9615 
3 6305 9615 4020 
3 2379 4375 4066 
3 2381 3485 2383 
3 4033 6049 6316 
3 5104 2391 2389 
3 2379 4066 2381 
3 3485 6049 4033 
3 2385 4033 4602 
3 4033 6316 4602 
3 2387 4948 2389 
3 5240 2395 2393 
3 7126 704 3727 
3 6832 3727 402 
3 6897 5030 8664 
3 705 5104 11727 
3 2391 7047 2393 
3 2393 7047 5240 
3 2395 5240 5241 
3 2385 4602 2387 
3 5104 2389 4948 
3 4602 4948 2387 
3 9510 403 11727 
3 9510 11727 6316 
3 402 5104 705 
3 11727 5104 4948 
3 9969 4712 9537 
3 5269 4712 403 
3 402 705 6832 
3 6832 705 4712 
3 3727 6832 9066 
3 10618 6832 4712 
3 7126 3727 9066 
3 7639 10098 7629 
3 7047 5104 402 
3 7047 704 5240 
3 7047 402 704 
3 5030 6897 703 
3 402 3727 704 
3 5240 704 5241 
3 5241 704 401 
3 7639 9501 4129 
3 401 7126 4129 
3 7126 401 704 
3 8665 5768 7084 
3 7639 7126 9066 
3 703 4129 7186 
3 9501 7186 4129 
3 399 7101 4955 
3 702 4511 400 
3 580 4679 799 
3 4511 8406 7314 
3 4511 7314 400 
3 702 400 3638 
3 4955 7209 4511 
3 4955 4511 702 
3 4825 8664 5030 
3 400 703 7186 
3 4511 7209 8406 
3 7314 8406 4825 
3 2397 5241 6897 
3 703 401 4129 
3 6897 401 703 
3 5030 703 400 
3 2399 6897 8664 
3 5241 401 6897 
3 2397 6897 2399 
3 8664 2401 2399 
3 2403 2401 4825 
3 2403 4825 6481 
3 5233 2405 6481 
3 8406 6481 4825 
3 2407 2405 5233 
3 5170 6814 5107 
3 2409 2407 798 
3 4679 6481 8406 
3 2407 580 798 
3 2409 579 2411 
3 2413 2411 579 
3 796 5170 5107 
3 8409 2415 6416 
3 578 796 5107 
3 2413 579 8706 
3 2415 2413 8706 
3 6295 9517 6416 
3 6416 2415 8706 
3 8108 4631 4697 
3 6484 4339 9544 
3 10982 10001 10598 
3 9544 4697 4320 
3 2423 4631 2425 
3 2423 4697 4631 
3 6492 8755 6218 
3 9517 8409 6416 
3 578 6416 796 
3 2417 8409 3980 
3 2419 4320 2421 
3 2419 3980 4320 
3 2421 4320 4697 
3 4320 3980 6484 
3 6295 578 4899 
3 10187 3989 6484 
3 9517 6484 3980 
3 3989 4339 6484 
3 6484 9544 4320 
3 77 9749 8108 
3 9544 8108 4697 
3 4339 77 8108 
3 8108 6492 4631 
3 77 1244 3703 
3 9749 3703 8755 
3 4899 6517 6295 
3 9517 10187 6484 
3 3989 880 4339 
3 9544 4339 8108 
3 4339 880 77 
3 9749 77 3703 
3 797 5107 8730 
3 9584 10166 4279 
3 6416 578 6295 
3 10187 6295 6517 
3 8718 6814 5105 
3 798 5170 579 
3 579 5170 796 
3 8706 796 6416 
3 799 4679 7209 
3 7209 4679 8406 
3 5170 798 5105 
3 4679 580 5233 
3 5105 799 8718 
3 581 800 4814 
3 580 799 5105 
3 8730 583 797 
3 798 580 5105 
3 5170 5105 6814 
3 6814 8718 4814 
3 8115 10218 801 
3 582 5254 800 
3 4814 4784 6814 
3 581 4814 8718 
3 4814 5254 4784 
3 4814 800 5254 
3 8115 881 10218 
3 4784 5254 801 
3 4784 583 8730 
3 801 9659 583 
3 797 5109 4899 
3 6814 4784 8730 
3 6814 8730 5107 
3 9659 5109 583 
3 583 5109 797 
3 1682 6517 1870 
3 6898 2863 7552 
3 880 3989 1682 
3 3524 1870 6898 
3 4722 7024 8758 
3 880 8758 77 
3 8758 7024 1244 
3 8758 1244 77 
3 3618 1795 7024 
3 6447 4722 3524 
3 6787 3618 9299 
3 7024 1795 1244 
3 1246 2863 1797 
3 1870 3524 1682 
3 4822 1797 1870 
3 4822 1870 6517 
3 6447 7024 4722 
3 3524 4722 1682 
3 1246 7167 2863 
3 6898 9467 3524 
3 1797 2863 6898 
3 1797 6898 1870 
3 9299 6447 10989 
3 7552 9467 6898 
3 7024 6447 3618 
3 1680 3645 3477 
3 7469 6787 9299 
3 3618 1869 1795 
3 878 7068 76 
3 2947 2713 1245 
3 10434 11170 10546 
3 7552 10509 9467 
3 6447 9467 10989 
3 9299 10989 10946 
3 2863 7167 7477 
3 6637 881 1683 
3 9858 7477 10546 
3 7431 7477 3316 
3 801 10218 9659 
3 9659 1246 5109 
3 78 7167 1246 
3 5109 1246 1797 
3 10166 6480 4279 
3 5254 582 801 
3 78 1246 9659 
3 78 9659 10218 
3 78 10218 881 
3 1683 9737 4476 
3 6480 9737 8115 
3 582 8115 801 
3 8115 9737 881 
3 78 881 3316 
3 4206 7175 7888 
3 6123 3835 4476 
3 4476 6480 6123 
3 7888 9584 4206 
3 4366 398 701 
3 7041 9533 4668 
3 4726 5768 2961 
3 7084 701 4454 
3 5098 6425 4454 
3 398 4454 701 
3 4955 702 399 
3 4885 700 4206 
3 8451 9584 4279 
3 10166 9584 7888 
3 6480 582 4279 
3 9584 8451 4885 
3 700 4885 399 
3 5098 3638 6425 
3 399 4885 7101 
3 800 8451 4279 
3 4885 8451 7101 
3 4955 7101 7209 
3 8451 800 581 
3 7101 581 7209 
3 3638 9501 6425 
3 10098 10618 7740 
3 399 702 5098 
3 6425 10326 8665 
3 9501 10326 6425 
3 4454 8665 7084 
3 702 3638 5098 
3 4454 6425 8665 
3 700 399 5098 
3 700 5098 4454 
3 9066 10618 10098 
3 3356 7740 7125 
3 8665 10326 7629 
3 5768 5713 2961 
3 7639 9066 10098 
3 5713 7740 3356 
3 4129 7126 7639 
3 10326 7639 7629 
3 7990 706 2514 
3 2514 706 4272 
3 1084 7990 404 
3 706 9537 5269 
3 9537 706 7990 
3 7990 2514 404 
3 9969 9537 7990 
3 6124 7990 1084 
3 7740 10618 9969 
3 6124 9969 7990 
3 1084 6755 1450 
3 7125 405 3356 
3 6124 1450 7125 
3 6124 7125 7740 
3 7629 10098 5713 
3 7629 5713 5768 
3 7084 5768 4726 
3 1451 2961 1085 
3 406 4726 1451 
3 3651 1085 4017 
3 2961 1451 4726 
3 7084 4726 701 
3 404 6463 4106 
3 404 4106 1084 
3 1450 3655 405 
3 1085 3651 1451 
3 3356 405 1085 
3 3356 1085 2961 
3 717 427 4085 
3 4572 4085 6857 
3 6857 4085 8140 
3 9540 8140 7885 
3 7885 8140 9650 
3 7885 9650 6247 
3 405 3655 4017 
3 3651 8432 6383 
3 8140 9550 5949 
3 9650 5949 8245 
3 3651 4017 8432 
3 6383 8432 4041 
3 427 7094 8507 
3 6237 9550 8140 
3 427 8507 6237 
3 4085 6237 8140 
3 5949 9550 4186 
3 5949 3530 8245 
3 6825 8245 3530 
3 4186 3530 5949 
3 2767 2668 838 
3 1649 838 4186 
3 2621 2577 5317 
3 838 35 3530 
3 6825 35 1202 
3 6881 8036 9433 
3 6825 1202 4041 
3 2902 5722 3722 
3 3530 35 6825 
3 9455 6825 4041 
3 1202 1762 4041 
3 9455 4041 8432 
3 4041 1762 6880 
3 4489 7041 4495 
3 4489 1647 4718 
3 4446 34 6421 
3 9533 4718 4446 
3 34 5192 1203 
3 6880 1762 1856 
3 1856 1647 4489 
3 6880 1856 4489 
3 836 1647 3722 
3 4934 34 1203 
3 1763 6699 1946 
3 1871 1683 4476 
3 1247 7239 79 
3 4718 836 4446 
3 4934 1203 7239 
3 6421 34 4934 
3 6421 9684 7779 
3 6421 4934 9684 
3 7779 8023 7888 
3 7239 1247 6521 
3 9684 8023 7779 
3 6383 6880 4489 
3 6383 4495 3651 
3 836 34 4446 
3 9533 4446 8271 
3 4668 406 7041 
3 4489 4495 6383 
3 1451 4495 406 
3 4726 406 701 
3 4718 9533 7041 
3 4718 7041 4489 
3 9684 6521 8023 
3 7888 6123 10166 
3 7888 8023 6123 
3 10166 6123 6480 
3 6521 1798 3835 
3 6521 3835 8023 
3 7431 3316 6637 
3 5484 7998 10062 
3 4476 3835 1871 
3 1683 2745 6637 
3 7431 6637 8141 
3 8141 2745 5484 
3 6637 2745 8141 
3 8850 10062 10954 
3 10863 10911 10434 
3 9840 8850 10954 
3 10546 7477 7431 
3 8867 7431 8141 
3 7552 7477 9858 
3 10434 10546 8867 
3 10509 7552 9858 
3 10509 9858 10485 
3 11170 10911 10485 
3 10509 10946 10989 
3 7469 9299 10946 
3 10485 10946 10509 
3 2835 7068 878 
3 9855 10485 10911 
3 8881 9855 9129 
3 3871 3474 1681 
3 6787 7469 2835 
3 9689 9129 5438 
3 9858 10546 11170 
3 9858 11170 10485 
3 10946 10485 8881 
3 10450 9820 8829 
3 7469 10946 8881 
3 7640 8881 9129 
3 10863 10434 9840 
3 11163 9840 10954 
3 9855 10911 11216 
3 9855 10595 9129 
3 10911 10863 11216 
3 10562 9953 8834 
3 9855 11216 10595 
3 2618 5384 5394 
3 7405 7414 8829 
3 10595 7414 9129 
3 10595 8829 7414 
3 5438 5384 2713 
3 11163 11500 10804 
3 10863 10450 11216 
3 10863 10804 10450 
3 11216 10450 10595 
3 8671 6345 9721 
3 2975 5484 2745 
3 10483 10954 10062 
3 7998 5484 9721 
3 2975 9721 5484 
3 8141 5484 8850 
3 9840 8867 8850 
3 10062 8850 5484 
3 2975 1871 1798 
3 1247 1798 6521 
3 8671 9721 2975 
3 1871 2975 2745 
3 7998 9721 6345 
3 882 79 1946 
3 1247 5205 8671 
3 1798 8671 2975 
3 5747 7998 6345 
3 5205 6345 8671 
3 1946 1684 882 
3 5205 3788 6345 
3 9372 5747 2926 
3 2926 5747 3788 
3 3788 1684 2926 
3 5747 9372 8953 
3 10483 8953 10049 
3 10049 8092 8844 
3 10401 10483 10049 
3 1799 1248 2702 
3 11504 11320 10956 
3 9940 5422 9647 
3 10401 10815 10483 
3 8953 10483 10062 
3 10956 11320 10401 
3 10956 10401 8844 
3 11378 10562 10820 
3 10804 9820 10450 
3 9953 7420 8834 
3 9820 8834 8829 
3 8829 8834 7405 
3 5384 2618 2713 
3 7838 5485 10601 
3 9953 10562 10966 
3 10447 9953 10966 
3 11126 11098 10969 
3 10601 7420 9953 
3 8941 9953 10447 
3 11320 11504 10820 
3 11500 10820 10804 
3 9820 10820 10562 
3 10966 11378 11126 
3 11378 10966 10562 
3 9820 10562 8834 
3 10400 10956 9940 
3 10400 8901 10969 
3 11504 10400 11098 
3 11126 9844 10950 
3 11378 11504 11098 
3 11378 11098 11126 
3 7571 8941 9978 
3 10950 10447 11126 
3 9978 10447 10950 
3 7513 5925 5515 
3 8941 10447 9978 
3 9524 9978 9158 
3 5487 9225 8901 
3 9940 8901 10400 
3 9158 10950 7513 
3 8621 5487 2917 
3 80 7074 3014 
3 8092 10049 9372 
3 8844 8092 5422 
3 9647 5422 3014 
3 3014 5422 2702 
3 1799 1648 837 
3 10401 10049 8844 
3 10956 8844 9940 
3 2557 837 1648 
3 1684 1872 2926 
3 2702 8092 6846 
3 1872 6846 2926 
3 1911 2598 1648 
3 1872 1648 1799 
3 2702 6846 1799 
3 1248 1799 837 
3 5422 8092 2702 
3 3014 2702 1248 
3 7376 9258 10556 
3 11168 10498 10887 
3 11345 11271 11566 
3 10797 10393 11168 
3 10556 10393 10797 
3 10797 11168 11372 
3 10767 10556 10797 
3 11081 10797 11372 
3 11168 10393 10889 
3 11168 10889 10498 
3 7748 8925 10193 
3 8235 10193 9258 
3 8235 9258 5381 
3 8235 5381 2736 
3 2736 5381 2598 
3 1911 1872 1684 
3 2736 2598 1911 
3 2736 1911 1946 
3 3788 5205 882 
3 3788 882 1684 
3 1203 5192 3721 
3 1203 1763 79 
3 1203 3721 1763 
3 79 1763 1946 
3 2621 8036 6881 
3 1762 6881 1856 
3 6881 9433 2902 
3 6881 2902 1856 
3 10025 10498 9152 
3 7371 5317 5363 
3 10889 10714 9976 
3 10498 9976 9152 
3 3722 5722 7300 
3 3722 7300 5192 
3 2668 5416 5363 
3 2577 2621 1202 
3 7371 9152 5317 
3 2577 1202 35 
3 5363 5317 2577 
3 5363 2577 2668 
3 5317 8036 2621 
3 1202 2621 1762 
3 1764 3620 1857 
3 5744 9274 7565 
3 2767 5416 2668 
3 838 2668 35 
3 1649 1857 2989 
3 2767 5510 5416 
3 1649 2989 2767 
3 5416 5510 7444 
3 2989 5510 2767 
3 1649 2767 838 
3 10685 9274 9232 
3 4544 8511 906 
3 7711 7922 8133 
3 3620 5744 2989 
3 8864 8816 7401 
3 7444 7401 5416 
3 11120 10887 10539 
3 8816 7371 7401 
3 10539 10025 8816 
3 8864 7444 8955 
3 10887 10025 10539 
3 10907 10539 9829 
3 7565 9274 10685 
3 10065 9232 7457 
3 8955 7565 10685 
3 7457 7408 8876 
3 10539 8816 9829 
3 11730 10065 8876 
3 3025 1912 1970 
3 2816 2671 5440 
3 9232 9274 7711 
3 5528 2816 5440 
3 9706 6196 8373 
3 7922 7711 9274 
3 9274 5744 7922 
3 6196 839 1650 
3 839 4510 1650 
3 4322 6631 8185 
3 6714 4510 8561 
3 8133 1650 1912 
3 4598 8479 6631 
3 4510 6631 4322 
3 1650 4510 4322 
3 1650 4322 1912 
3 908 5204 105 
3 8479 4326 6631 
3 8479 105 4326 
3 6631 4326 8185 
3 909 106 3841 
3 6632 9370 7528 
3 6645 1556 6632 
3 1556 6236 1274 
3 3841 7173 7924 
3 4916 721 4393 
3 106 2830 1274 
3 7173 1274 6236 
3 1556 8495 6236 
3 3841 5878 3363 
3 9637 8495 4916 
3 6786 908 105 
3 105 8479 6786 
3 8495 6786 4916 
3 6236 8495 9637 
3 6858 3931 8065 
3 6786 8479 424 
3 1089 6714 1455 
3 7173 6236 7924 
3 7924 9637 4393 
3 7924 6236 9637 
3 7924 6858 9390 
3 9637 4916 4393 
3 720 422 4254 
3 4914 423 721 
3 5230 721 424 
3 721 4916 424 
3 1089 424 4598 
3 6624 4914 5230 
3 1089 5230 424 
3 3826 1455 425 
3 425 8561 36 
3 1204 1764 426 
3 6196 1650 8133 
3 8561 1455 6714 
3 4510 6714 6631 
3 425 1455 8561 
3 36 8561 839 
3 8561 4510 839 
3 3620 2989 1857 
3 36 839 9706 
3 7922 6196 8133 
3 839 6196 9706 
3 8373 1764 1204 
3 6196 7922 8373 
3 1204 722 36 
3 7922 5744 3620 
3 8373 3620 1764 
3 723 426 5173 
3 7094 5173 4893 
3 9706 8373 1204 
3 426 1764 5173 
3 3158 425 722 
3 3158 722 4599 
3 36 9706 1204 
3 722 1204 426 
3 3826 425 3158 
3 5936 6264 9429 
3 10271 6264 3419 
3 426 4599 722 
3 1764 1857 5173 
3 426 8506 4599 
3 427 723 7094 
3 8507 7094 4893 
3 8506 426 723 
3 7094 723 5173 
3 717 5076 427 
3 4085 427 6237 
3 717 3419 5076 
3 427 5076 723 
3 417 3419 717 
3 4572 717 4085 
3 5076 3419 6264 
3 9429 10271 5566 
3 10271 9429 6264 
3 5076 8506 723 
3 9532 10258 5967 
3 7758 5967 5936 
3 9429 7758 5936 
3 6264 5936 8506 
3 5936 4599 8506 
3 6264 8506 5076 
3 9112 3347 5969 
3 9532 5969 10258 
3 9429 7660 10324 
3 7758 10324 9532 
3 9112 6325 3347 
3 422 9430 4254 
3 9439 6325 9112 
3 10324 9112 9532 
3 4974 593 4653 
3 8148 6516 9430 
3 8148 4653 6516 
3 9430 10327 4254 
3 6380 4254 10327 
3 8581 10327 6516 
3 5969 3347 3967 
3 4914 6624 7760 
3 3347 422 3967 
3 5969 3967 7760 
3 3931 4254 6380 
3 8065 8056 9605 
3 6858 423 3931 
3 8065 3931 6380 
3 7760 3967 7302 
3 7302 720 423 
3 423 4914 7302 
3 720 7302 3967 
3 10258 7760 3826 
3 1455 6624 1089 
3 7760 6624 3826 
3 10258 3826 5967 
3 7924 4393 6858 
3 9390 6858 8065 
3 4393 721 423 
3 3931 423 720 
3 7760 7302 4914 
3 5230 4914 721 
3 3770 3463 6035 
3 6035 8151 8093 
3 9390 8065 7653 
3 9527 6950 3621 
3 598 3198 3463 
3 9750 8215 6033 
3 6035 5754 8151 
3 6035 8093 6161 
3 5763 5754 3198 
3 206 3463 3770 
3 7121 206 599 
3 3621 3770 6161 
3 9527 9605 6950 
3 207 3877 600 
3 8065 6380 8056 
3 9605 8056 6950 
3 207 6950 3877 
3 600 3877 4178 
3 3362 600 208 
3 6516 4178 8581 
3 6935 8146 3362 
3 6935 208 593 
3 4653 593 208 
3 4178 208 600 
3 7121 8443 3155 
3 598 3815 205 
3 5084 3362 6137 
3 8443 6137 9069 
3 206 3155 598 
3 206 598 3463 
3 3155 206 7121 
3 8443 7121 6137 
3 206 3770 599 
3 7121 599 5084 
3 3150 5628 3018 
3 597 3018 3061 
3 3018 5619 3061 
3 3198 5754 3463 
3 4165 7210 204 
3 597 204 3018 
3 7884 7210 4165 
3 9525 4165 3815 
3 7981 9020 5697 
3 8959 10555 9955 
3 3254 7981 5697 
3 3254 5697 3150 
3 8762 10188 8959 
3 9707 7696 5619 
3 5697 10188 8762 
3 3150 8762 5628 
3 9707 7593 9937 
3 9955 10974 8959 
3 8959 10974 7593 
3 5628 7593 5619 
3 5619 7696 5763 
3 3061 3198 205 
3 3061 5763 3198 
3 205 3198 598 
3 11726 7696 9175 
3 8128 3343 6158 
3 5763 7696 11726 
3 5754 9750 8151 
3 6158 3343 429 
3 9116 10605 9955 
3 10269 9937 8966 
3 10605 9937 10974 
3 9986 7696 9707 
3 9986 9707 9937 
3 9937 10605 8966 
3 9937 10269 9986 
3 7727 9986 10269 
3 3229 6158 429 
3 10189 5839 8128 
3 10189 8128 9116 
3 8966 8128 6158 
3 10269 6158 3229 
3 3508 3229 724 
3 3229 7727 10269 
3 8215 9750 9153 
3 5711 9175 7727 
3 7696 9986 9175 
3 5711 7727 3229 
3 5711 9153 9175 
3 7727 9175 9986 
3 6033 8151 9750 
3 9153 9750 11726 
3 8151 6033 8093 
3 6161 6083 9527 
3 6161 8093 6083 
3 3541 1557 3363 
3 5878 7653 5804 
3 7867 7653 9605 
3 7867 6083 5804 
3 7867 5804 7653 
3 5804 3363 5878 
3 9390 5878 7924 
3 107 6033 3590 
3 3590 6273 4397 
3 6083 8093 3682 
3 6083 3541 5804 
3 3363 5804 3541 
3 1275 3541 3682 
3 3682 6033 107 
3 3682 107 1275 
3 4347 6779 1557 
3 1275 1557 3541 
3 6779 2880 909 
3 1557 909 3363 
3 7924 5878 3841 
3 7173 3841 106 
3 9055 2880 6779 
3 9548 6779 4347 
3 2880 2830 106 
3 2880 106 909 
3 7193 910 4353 
3 9548 4353 7623 
3 107 910 7193 
3 1275 4347 1557 
3 4353 9548 4347 
3 7193 4347 1275 
3 1697 4397 6653 
3 8592 4890 6489 
3 4353 910 1697 
3 1812 6653 8592 
3 1697 910 4397 
3 6653 4397 7014 
3 6033 8215 3590 
3 107 3590 910 
3 8128 5839 3343 
3 429 3343 725 
3 428 7014 3508 
3 5711 8584 9153 
3 5188 6349 724 
3 3229 3508 5711 
3 7014 8584 3508 
3 428 3508 724 
3 3590 8215 6273 
3 4397 6273 7014 
3 8745 6349 9480 
3 7264 8736 4928 
3 8736 6359 9480 
3 8736 9480 6349 
3 431 727 5055 
3 7264 5055 6359 
3 727 432 4612 
3 5055 4612 6359 
3 911 8690 433 
3 8514 7987 7235 
3 9523 6489 1090 
3 8690 1090 433 
3 428 6349 8745 
3 1456 8745 4742 
3 428 1456 4890 
3 428 4890 7014 
3 6662 1697 1812 
3 5499 8956 9505 
3 10057 9548 7623 
3 9505 7623 6662 
3 2880 9055 5466 
3 8956 10057 9505 
3 2830 5466 9370 
3 10057 9055 9548 
3 10057 7623 9505 
3 108 911 2754 
3 9818 10943 8956 
3 10057 9906 9055 
3 2771 1276 108 
3 8690 9523 1090 
3 6662 1812 2938 
3 1276 9523 108 
3 1812 1276 2938 
3 6662 2938 9505 
3 9505 2938 5499 
3 5499 2771 5465 
3 5465 7436 5499 
3 2771 5499 2938 
3 10943 10057 8956 
3 7436 8956 5499 
3 10602 10451 11213 
3 10828 10448 11091 
3 10419 10898 11386 
3 7436 9818 8956 
3 11089 11342 11091 
3 9818 11300 10943 
3 5943 9278 2901 
3 5465 9037 7436 
3 2754 7842 5465 
3 2754 5465 2771 
3 6781 2754 911 
3 433 1090 7157 
3 7842 2754 6781 
3 9278 5943 10277 
3 1558 911 433 
3 728 4612 432 
3 9523 8690 108 
3 2771 108 2754 
3 8509 4612 728 
3 6338 4284 8221 
3 1558 433 6774 
3 4758 7235 109 
3 728 432 8363 
3 8363 6338 8514 
3 432 6338 8363 
3 4758 1277 6774 
3 728 8363 6774 
3 728 6774 433 
3 6338 8221 9729 
3 7987 10206 9308 
3 6338 9729 8514 
3 8363 8514 4758 
3 6774 8363 4758 
3 6774 1277 1558 
3 2901 1558 1277 
3 109 1277 4758 
3 2862 912 1559 
3 109 4850 1277 
3 9278 6781 2901 
3 4850 2901 1277 
3 8514 9729 7987 
3 5726 5939 3408 
3 7235 7987 3389 
3 7235 3389 109 
3 7987 9308 5825 
3 3139 5726 3408 
3 5780 7994 7485 
3 1559 912 3139 
3 7807 7824 5726 
3 5825 3139 3389 
3 5825 5726 3139 
3 3389 3139 912 
3 1278 1559 3408 
3 3408 1559 3139 
3 5780 5462 2913 
3 1560 1279 2777 
3 2901 4850 5943 
3 2913 2862 1559 
3 4850 2862 8728 
3 9100 7485 9835 
3 2862 2913 5462 
3 8728 9100 5943 
3 8728 5462 9100 
3 10277 9100 11204 
3 9880 10277 11204 
3 11386 9826 10828 
3 10898 9835 10471 
3 9980 10471 9835 
3 7486 10909 9272 
3 9272 10909 7456 
3 10631 10448 9257 
3 10909 9826 10471 
3 10448 9826 9257 
3 5452 2829 2750 
3 10861 10419 11122 
3 9826 11386 10471 
3 11091 11122 10828 
3 10448 10828 9826 
3 11300 9818 11342 
3 10828 11122 11386 
3 11351 11174 10795 
3 11350 11091 10448 
3 9100 10277 5943 
3 8728 5943 4850 
3 10419 9880 10898 
3 11386 10898 10471 
3 7842 6781 9278 
3 7842 9278 9880 
3 9278 10277 9880 
3 9037 9880 10419 
3 10861 9037 10419 
3 11122 10419 11386 
3 7436 9037 10861 
3 9818 10861 11342 
3 10814 11300 11089 
3 11091 11342 11122 
3 10795 10544 10814 
3 9832 8888 10602 
3 9832 9091 8888 
3 9091 7512 5493 
3 10814 9832 11213 
3 7701 9091 5493 
3 1555 1273 2701 
3 5493 2701 7701 
3 8973 10544 10795 
3 11174 11351 11350 
3 5028 2977 6189 
3 8132 8973 10727 
3 11300 11342 11089 
3 10814 11089 10795 
3 11091 11350 11351 
3 11089 11351 10795 
3 8973 11174 10727 
3 1563 1282 3041 
3 2740 5428 9407 
3 9882 10727 11174 
3 6868 8176 2750 
3 2740 9407 6868 
3 9882 9407 5428 
3 10727 5428 8132 
3 2725 916 1563 
3 113 6868 1281 
3 9479 4002 6799 
3 2740 2725 5428 
3 3041 6189 8132 
3 3041 8132 2725 
3 8132 5428 2725 
3 3041 2725 1563 
3 907 2977 5028 
3 114 5028 1282 
3 4623 114 7123 
3 6465 6041 3821 
3 114 4405 7123 
3 4876 4482 1858 
3 7123 4405 8508 
3 4482 6465 3821 
3 4690 4876 1651 
3 2531 5286 2538 
3 7123 4876 4690 
3 840 2531 2538 
3 9092 5326 9666 
3 1858 2548 1651 
3 4623 7123 4690 
3 2559 5315 2600 
3 4690 1651 840 
3 4690 8657 6769 
3 4690 840 8657 
3 4624 9618 4549 
3 840 2538 37 
3 4475 8401 6769 
3 2701 2977 1555 
3 4146 4623 6769 
3 907 114 4623 
3 6769 4623 4690 
3 2977 907 1555 
3 1273 1555 4226 
3 1555 907 4146 
3 4226 4146 8401 
3 8657 4475 6769 
3 6769 8401 4146 
3 8657 37 4475 
3 4674 6939 8738 
3 2559 2600 1205 
3 4475 4549 8401 
3 4475 1205 4549 
3 9618 4586 4226 
3 2671 1947 1765 
3 4624 4674 8738 
3 3025 1970 2816 
3 1765 1947 4624 
3 7408 5440 5367 
3 2600 2671 1765 
3 4586 8738 4544 
3 6625 9470 7487 
3 4549 1765 4624 
3 9618 4226 8401 
3 4624 8738 4586 
3 4226 4586 1273 
3 4624 4586 9618 
3 4549 9618 8401 
3 9091 7701 8888 
3 9091 9832 10544 
3 2701 1273 7081 
3 7701 2840 7487 
3 11300 10814 11213 
3 11300 10451 10943 
3 10814 10544 9832 
3 11213 9832 10602 
3 9841 10451 10602 
3 11213 10451 11300 
3 9906 10451 9841 
3 9988 10602 8888 
3 1554 6625 906 
3 7701 7487 8888 
3 104 906 2840 
3 7081 2840 7701 
3 1273 4586 104 
3 7081 104 2840 
3 6645 7528 9470 
3 6625 7487 2840 
3 6630 9470 6625 
3 3991 8185 4326 
3 5466 9906 9841 
3 9988 9841 10602 
3 5466 9841 9370 
3 2830 9370 6632 
3 9055 9906 5466 
3 2880 5466 2830 
3 1274 2830 6632 
3 1274 6632 1556 
3 6630 5204 6645 
3 7528 6645 6632 
3 6645 9470 6630 
3 5204 1272 105 
3 8511 1554 906 
3 6630 1272 5204 
3 8511 3991 1554 
3 6625 1554 6630 
3 6939 8185 3991 
3 1554 3991 1272 
3 104 4544 906 
3 2840 906 6625 
3 6939 3991 8511 
3 6939 8511 4544 
3 4594 6939 4674 
3 4594 4674 1970 
3 4674 1947 1970 
3 5528 7457 9232 
3 8185 6939 4594 
3 1970 1947 2816 
3 1912 4594 1970 
3 1912 3025 8133 
3 7711 8133 3025 
3 7711 5528 9232 
3 3025 2816 5528 
3 3025 5528 7711 
3 8955 10685 10065 
3 8955 11730 8864 
3 9829 8864 11730 
3 10410 11387 11088 
3 8816 8864 9829 
3 10907 10410 11088 
3 11730 8876 10866 
3 11387 10387 11056 
3 11730 10866 10410 
3 9829 10410 10907 
3 5528 5440 7457 
3 10065 7457 8876 
3 9128 9995 7408 
3 5440 7408 7457 
3 9128 7408 5367 
3 2600 5367 2671 
3 10387 10866 9995 
3 7408 9995 8876 
3 5327 5315 2559 
3 2600 5315 5367 
3 5315 7367 9128 
3 5315 9128 5367 
3 8805 11190 9926 
3 9128 9926 9995 
3 9926 11190 10822 
3 9926 10387 9995 
3 10410 10866 11387 
3 10822 10387 9926 
3 10866 10387 11387 
3 11088 11387 11547 
3 11704 11600 11416 
3 11704 11416 11631 
3 11323 11088 11547 
3 11600 11547 11416 
3 11650 11524 11657 
3 11600 11657 11547 
3 11600 11699 11650 
3 11524 11650 11640 
3 11591 11413 11640 
3 11591 11640 11650 
3 11138 10751 11234 
3 11668 11561 11591 
3 10751 9767 11341 
3 11561 11341 11413 
3 10767 11271 11345 
3 11049 11413 11341 
3 10554 11049 10486 
3 10486 11049 11341 
3 10556 10767 9775 
3 11049 11345 11566 
3 10486 9966 10554 
3 8932 5310 7376 
3 10907 11088 11323 
3 11579 11323 11657 
3 10767 11081 11271 
3 11566 11271 11524 
3 11372 10887 11120 
3 11579 11120 11323 
3 11120 11579 11372 
3 10887 11372 11168 
3 11657 11524 11431 
3 11579 11431 11372 
3 10797 11081 10767 
3 10556 9775 7376 
3 11345 10554 9775 
3 11345 9775 10767 
3 9775 10554 8932 
3 9171 9966 10280 
3 5310 8932 9171 
3 5310 9171 2557 
3 10280 9966 7458 
3 10280 2907 7052 
3 10280 7458 2907 
3 1212 80 44 
3 2907 7458 2551 
3 80 1248 44 
3 2907 2551 1212 
3 883 5069 1544 
3 1772 7110 1212 
3 2907 1212 44 
3 1212 7110 80 
3 1248 80 3014 
3 80 883 7074 
3 3014 7074 9647 
3 7074 2789 8006 
3 9647 8006 9940 
3 10950 9844 7513 
3 2917 5487 2789 
3 9844 9225 7513 
3 5925 4877 2904 
3 9158 7513 5515 
3 5797 3901 8679 
3 9158 5515 5797 
3 9158 5830 9524 
3 8006 2789 5487 
3 8006 5487 8901 
3 7513 9225 5925 
3 4877 81 884 
3 9225 8621 5925 
3 5515 5925 2904 
3 2917 1544 1249 
3 4401 846 4023 
3 1544 6878 1249 
3 2917 4877 8621 
3 884 2904 4877 
3 1249 4877 2917 
3 1250 3901 1800 
3 2904 2866 5515 
3 6594 1800 1685 
3 4514 1685 884 
3 550 1250 1800 
3 550 1800 6594 
3 1249 6878 4418 
3 6531 4401 4023 
3 6878 8641 4418 
3 3667 4514 884 
3 1249 4418 81 
3 1249 81 4877 
3 5288 2535 2547 
3 5288 2547 5299 
3 1772 2552 1860 
3 1772 1860 5069 
3 2551 2552 1772 
3 7110 1772 5069 
3 883 7110 5069 
3 6878 5069 4817 
3 9966 10486 8846 
3 7458 8122 2551 
3 9249 5299 8122 
3 8846 8122 7458 
3 10486 11341 9767 
3 8846 9249 8122 
3 9767 10545 9249 
3 9767 9249 8846 
3 8902 5288 7344 
3 8122 5299 2552 
3 11082 10553 10746 
3 7344 5288 5299 
3 10545 9759 7344 
3 10545 7344 9249 
3 2535 5288 9233 
3 11236 11246 11412 
3 9873 10078 9233 
3 8902 9233 5288 
3 43 846 6795 
3 9233 6795 2535 
3 43 4023 846 
3 6795 846 2535 
3 8641 4817 4401 
3 846 1657 2535 
3 1657 846 4401 
3 8641 4401 6531 
3 4418 8641 6531 
3 7917 6531 6047 
3 6531 7917 7227 
3 4418 7227 81 
3 6394 4514 3667 
3 7917 3667 7227 
3 6715 1151 6594 
3 4514 6594 1685 
3 6594 4514 6715 
3 1517 6715 3690 
3 6715 1517 1151 
3 6594 1151 550 
3 6531 4023 6047 
3 10264 7855 9477 
3 7917 6047 10264 
3 7917 6394 3667 
3 6715 4514 6394 
3 9477 6394 10264 
3 6573 9477 7855 
3 4007 10215 10647 
3 3690 9477 6573 
3 470 4007 747 
3 6394 9477 3690 
3 5223 748 7243 
3 1517 3690 551 
3 1517 551 5167 
3 6573 7855 4007 
3 6573 4007 470 
3 7243 551 5223 
3 470 5223 6573 
3 43 1211 3627 
3 10215 6259 10647 
3 9281 6777 10215 
3 9281 10215 4007 
3 6776 1211 2527 
3 7361 10078 10557 
3 9270 5615 6776 
3 9270 6776 7361 
3 3627 4023 43 
3 1211 43 2527 
3 6047 4023 3627 
3 9281 3627 6777 
3 8902 9759 10553 
3 8902 10553 9873 
3 10768 10557 11334 
3 8902 9873 9233 
3 9873 10553 11334 
3 9873 11334 10557 
3 9873 10557 10078 
3 6795 10078 2527 
3 9764 9270 7361 
3 10078 7361 2527 
3 11649 11680 11609 
3 11621 11530 11665 
3 11082 11415 11454 
3 11334 11454 10768 
3 11680 11651 11687 
3 11680 11687 11694 
3 11649 11651 11680 
3 11646 11681 11593 
3 11682 11651 11649 
3 11609 11680 11509 
3 11510 11649 11609 
3 10746 10553 9759 
3 11510 11609 11451 
3 11082 11232 11415 
3 11451 11232 10746 
3 10553 11082 11334 
3 11609 11232 11451 
3 11510 11234 11668 
3 11232 11082 10746 
3 11138 10545 10751 
3 9759 10545 11138 
3 11561 10751 11341 
3 11451 10746 11138 
3 11234 10751 11561 
3 11650 11699 11677 
3 11591 11677 11668 
3 11451 11138 11234 
3 11451 11234 11510 
3 11682 11697 11701 
3 11696 11701 11645 
3 11599 11651 11682 
3 11696 11682 11701 
3 11649 11510 11697 
3 11701 11697 11677 
3 11404 11468 10753 
3 11404 11231 11564 
3 11631 11468 11525 
3 11231 10748 11233 
3 11645 11631 11525 
3 11696 11525 11599 
3 11699 11704 11645 
3 11696 11645 11525 
3 7367 5315 5327 
3 37 2559 1205 
3 2559 2538 5327 
3 7367 5327 7356 
3 840 1651 2531 
3 5286 5287 9073 
3 5326 7339 5287 
3 5286 9073 7356 
3 7356 9073 9927 
3 7356 9927 8805 
3 7339 9073 5287 
3 2548 5287 2531 
3 10753 11394 11225 
3 10345 9758 10873 
3 11404 10753 11231 
3 11231 11225 10748 
3 11599 11404 11564 
3 11599 11602 11651 
3 10753 11225 11231 
3 11564 11231 11397 
3 11647 11687 11602 
3 11512 11602 11397 
3 9760 9073 7339 
3 9758 7339 9092 
3 9927 9073 9760 
3 11097 11233 10748 
3 11225 10350 10748 
3 11333 10755 11461 
3 9760 7339 9758 
3 9760 10345 10350 
3 9760 9758 10345 
3 10350 10345 10748 
3 10748 10345 11097 
3 11233 11263 11400 
3 11231 11233 11397 
3 11564 11397 11602 
3 10873 10813 11086 
3 11097 11263 11233 
3 11538 11400 11263 
3 11461 11263 11086 
3 9912 10693 9092 
3 1766 1206 6579 
3 9758 10693 10873 
3 10345 10873 11097 
3 10873 10693 10813 
3 7876 6579 5718 
3 10373 11333 10914 
3 9912 10813 10693 
3 9912 10560 10914 
3 10813 10914 11333 
3 10549 10755 10373 
3 10813 11333 11086 
3 11594 11538 11399 
3 11255 11025 10747 
3 11538 11025 11399 
3 11594 11652 11693 
3 11538 11594 11670 
3 11400 11670 11512 
3 11644 11703 11693 
3 11693 11703 11594 
3 11617 11644 11589 
3 11652 11594 11399 
3 11706 11647 11679 
3 11703 11679 11670 
3 11647 11681 11694 
3 11589 11652 11686 
3 11679 11703 11644 
3 11695 11617 11537 
3 11695 11644 11617 
3 11408 11629 11036 
3 11593 11412 11688 
3 11448 11665 11246 
3 11507 10749 11434 
3 11530 11612 11688 
3 11537 11236 11412 
3 11537 11593 11695 
3 11104 11448 11246 
3 11412 11665 11688 
3 11612 11593 11688 
3 11415 11530 11454 
3 11454 11530 11621 
3 11246 11665 11412 
3 11681 11695 11593 
3 11695 11706 11644 
3 11706 11695 11681 
3 11646 11593 11612 
3 11687 11647 11694 
3 11680 11646 11509 
3 11647 11706 11681 
3 11694 11681 11646 
3 11680 11694 11646 
3 11509 11612 11415 
3 11509 11646 11612 
3 11415 11612 11530 
3 10768 11454 11621 
3 11665 11530 11688 
3 9764 10768 11563 
3 11448 11621 11665 
3 10557 10768 9764 
3 11563 10827 11165 
3 11563 11621 11448 
3 10827 11448 11104 
3 9270 9764 11165 
3 5527 2793 7682 
3 10827 9893 11165 
3 11563 11165 9764 
3 9270 11165 10580 
3 9270 10580 5615 
3 10580 9312 5615 
3 6776 1771 1211 
3 6776 5615 1771 
3 6777 1771 6259 
3 471 2511 2517 
3 10647 747 4007 
3 6418 4837 747 
3 2517 747 10647 
3 8717 6919 4656 
3 4656 4837 6418 
3 475 7243 748 
3 4923 748 6919 
3 2517 2511 6418 
3 5224 752 4923 
3 4837 4656 6919 
3 4837 6919 748 
3 471 6259 1951 
3 2511 1971 7156 
3 2517 6259 471 
3 2511 471 1971 
3 749 4656 6418 
3 2517 6418 747 
3 9312 2793 1971 
3 472 8717 4656 
3 2511 7156 749 
3 2511 749 6418 
3 4923 6919 5033 
3 750 472 5001 
3 750 473 5033 
3 8717 5033 6919 
3 750 8717 472 
3 6984 845 4576 
3 5033 8717 750 
3 4271 750 5001 
3 1971 2793 1916 
3 7156 5219 749 
3 7156 1916 5219 
3 6984 4576 5001 
3 10459 7636 9243 
3 11104 11246 11113 
3 3054 2793 5527 
3 7636 5527 9243 
3 9312 10580 7682 
3 5527 7682 9243 
3 471 1951 1971 
3 7156 1971 1916 
3 10408 9893 10827 
3 11448 10827 11563 
3 10580 11165 9893 
3 7682 9893 9243 
3 10852 11104 11113 
3 10356 11113 10749 
3 10408 10827 11104 
3 10852 11113 10356 
3 10459 9243 10408 
3 10459 11366 11219 
3 10408 11104 11366 
3 9819 9964 9144 
3 11366 10852 11219 
3 10459 9404 7636 
3 7342 9144 9964 
3 7342 8787 7353 
3 10356 9964 9819 
3 11219 9819 7447 
3 5414 7447 9144 
3 11219 7447 10459 
3 5534 8131 9404 
3 7636 8131 5914 
3 11104 10852 11366 
3 10408 11366 10459 
3 8131 7636 9404 
3 8131 5534 3122 
3 1916 2793 3054 
3 4074 3054 5914 
3 845 6984 1656 
3 4074 1656 3054 
3 5219 1656 6984 
3 472 6984 5001 
3 750 4271 473 
3 474 4807 752 
3 10144 7759 7211 
3 4576 7211 5001 
3 751 473 4530 
3 4530 6544 8294 
3 3054 5527 5914 
3 4074 9723 5236 
3 1210 5236 6412 
3 8131 9723 5914 
3 42 4576 845 
3 5236 845 4074 
3 4460 6234 42 
3 5236 42 845 
3 4460 9345 6234 
3 42 6234 4576 
3 9198 7759 10144 
3 9198 10144 5915 
3 6544 7759 9198 
3 1939 1750 3166 
3 10144 9345 5915 
3 4238 6064 3166 
3 9198 5915 3581 
3 9198 6751 8294 
3 6613 9345 4460 
3 4987 4460 1210 
3 5915 9345 6179 
3 4534 4987 7297 
3 5058 4987 1770 
3 6412 5236 9723 
3 42 5236 1210 
3 42 1210 4460 
3 5321 5414 9144 
3 7447 5534 9404 
3 3122 1770 6412 
3 3122 6412 8131 
3 5534 7447 5414 
3 5321 9144 7342 
3 2809 5534 5414 
3 2648 5414 5321 
3 2565 5321 5291 
3 7353 8787 9925 
3 2562 2565 5291 
3 7353 5291 7342 
3 4692 1859 1655 
3 2648 2809 5414 
3 10428 10773 11391 
3 10891 10449 11191 
3 11036 11275 10773 
3 9925 10773 10428 
3 10404 10925 11043 
3 11487 10891 11391 
3 11036 11629 11275 
3 10773 11275 11391 
3 11629 11526 11452 
3 11487 11452 11336 
3 11589 11574 11617 
3 10918 10773 9925 
3 11295 11036 10918 
3 10346 9964 10356 
3 11295 10918 11507 
3 9964 8787 7342 
3 11434 11574 11295 
3 11507 10918 10346 
3 10918 8787 10346 
3 10749 10346 10356 
3 11537 11617 11434 
3 11236 11434 10749 
3 11434 11295 11507 
3 10749 11507 10346 
3 11589 11693 11652 
3 11686 11652 11526 
3 11644 11693 11589 
3 11574 11408 11295 
3 11408 11686 11629 
3 11275 11629 11452 
3 11589 11686 11408 
3 11295 11408 11036 
3 11589 11408 11574 
3 11617 11574 11434 
3 10955 10404 11580 
3 11440 11452 11526 
3 11316 11580 11440 
3 11316 11440 11255 
3 11399 11025 11255 
3 11626 11440 11526 
3 11399 11255 11626 
3 11399 11626 11652 
3 10755 11333 10373 
3 10549 10373 10053 
3 10755 10549 10747 
3 10755 10747 11025 
3 2537 2536 5279 
3 10047 10404 8920 
3 8220 5279 10053 
3 8845 10053 10373 
3 10053 5279 8784 
3 9765 10955 11316 
3 8784 5279 8205 
3 4211 6442 8440 
3 5279 2536 8205 
3 8824 5389 8920 
3 8784 8205 8824 
3 8784 8824 9765 
3 8824 8920 10955 
3 8824 10955 9765 
3 10047 7410 10925 
3 10925 7410 9813 
3 11440 11580 11043 
3 11452 11043 11336 
3 8205 2536 2561 
3 8205 5389 8824 
3 7999 8920 5389 
3 2561 5389 8205 
3 10955 8920 10404 
3 11580 10404 11043 
3 2561 2536 1767 
3 4650 4351 39 
3 1948 6747 1767 
3 1207 4650 39 
3 1913 4211 1948 
3 6747 4211 8440 
3 3929 4211 1913 
3 2536 1948 1767 
3 3972 8496 6877 
3 6877 8496 8189 
3 5935 8496 6442 
3 3929 6442 4211 
3 6442 8496 3972 
3 9361 6143 3641 
3 4230 670 349 
3 672 350 3043 
3 8971 9640 5767 
3 5767 9640 10308 
3 9288 9640 8971 
3 5201 3740 9617 
3 4646 638 279 
3 5519 2865 2931 
3 1027 279 2931 
3 8000 7806 9640 
3 4942 280 631 
3 3560 2865 5708 
3 279 7277 2931 
3 1027 2865 1393 
3 2931 7277 8000 
3 9288 8000 9640 
3 9910 9288 8971 
3 10288 8971 8189 
3 8496 7709 8189 
3 6877 8189 3043 
3 9611 5708 7560 
3 9611 7560 10993 
3 10610 9896 9910 
3 9288 10993 7560 
3 1027 2931 2865 
3 280 5078 631 
3 9288 7560 5519 
3 8000 5519 2931 
3 1393 2865 3560 
3 6934 3560 6248 
3 9288 9910 10993 
3 2909 1562 3289 
3 3040 7964 5700 
3 10993 9133 9611 
3 7564 10590 9434 
3 9910 9896 10590 
3 3466 3040 5700 
3 7709 10610 10288 
3 841 3040 3466 
3 3929 3466 5935 
3 8189 7709 10288 
3 8971 10288 9910 
3 7709 5700 10610 
3 10288 10610 9910 
3 3466 3929 1652 
3 6746 2537 8220 
3 1948 2536 2537 
3 1913 6746 1652 
3 2950 1652 6746 
3 1913 1652 3929 
3 841 1652 2950 
3 8845 8220 10053 
3 2537 5279 8220 
3 6746 8096 2950 
3 5718 2950 8096 
3 8096 8220 8845 
3 4959 2950 5718 
3 10560 8096 8845 
3 3040 7188 7964 
3 5700 7964 10610 
3 3466 1652 841 
3 3040 841 38 
3 7964 7188 7963 
3 7964 9434 9896 
3 7963 7188 3514 
3 7963 6041 9366 
3 38 4959 1206 
3 1766 1858 4482 
3 9912 7876 10560 
3 10560 5718 8096 
3 9912 9092 7876 
3 5718 6579 4959 
3 9092 9666 7876 
3 10560 7876 5718 
3 6579 2691 1766 
3 1766 4482 3821 
3 2691 9666 5326 
3 2548 5326 5287 
3 8508 4002 6465 
3 8508 6465 4482 
3 4876 8508 4482 
3 1858 1766 2691 
3 3514 3821 6041 
3 3514 6041 7963 
3 9666 2691 6579 
3 1206 1766 3821 
3 7876 9666 6579 
3 4959 6579 1206 
3 8029 3428 5795 
3 9434 7964 7963 
3 3428 8029 6799 
3 4002 9479 6465 
3 2725 2740 916 
3 6799 8029 9479 
3 1563 916 6799 
3 1563 6799 4002 
3 10631 9257 8176 
3 10631 8176 9407 
3 916 2740 113 
3 1281 6868 2750 
3 2750 2829 1562 
3 1281 1562 2909 
3 2740 6868 113 
3 3428 3128 5795 
3 5567 3128 2909 
3 1281 3128 113 
3 5023 1280 1561 
3 2829 915 1562 
3 5795 3128 5567 
3 5567 2909 9286 
3 7564 5795 5567 
3 9133 9286 9611 
3 8029 5795 9366 
3 8029 9366 6041 
3 9366 5795 7564 
3 9366 9434 7963 
3 10590 9896 9434 
3 7564 9434 9366 
3 5078 6934 112 
3 915 4503 3289 
3 6248 9611 9286 
3 3289 9286 2909 
3 10993 10590 9133 
3 9286 9133 5567 
3 5036 271 6996 
3 5790 9283 10300 
3 914 6996 1561 
3 4721 5822 8658 
3 559 8347 5056 
3 558 630 8411 
3 5036 6996 914 
3 4661 5790 10300 
3 4661 2777 1279 
3 111 1279 8347 
3 914 1561 2794 
3 4721 2829 5822 
3 5078 112 1280 
3 1561 1280 2804 
3 4503 915 112 
3 4503 112 6934 
3 2794 2804 5434 
3 9272 8658 5822 
3 915 2829 4721 
3 112 4721 1280 
3 9826 10909 7486 
3 9257 7486 5452 
3 7486 5822 5452 
3 9257 5452 8176 
3 7456 9980 9283 
3 10300 9283 7994 
3 9272 7456 5434 
3 2794 4661 914 
3 2794 5790 4661 
3 111 4661 1279 
3 5434 5790 2794 
3 2804 2794 1561 
3 8658 9272 5434 
3 8658 5434 2804 
3 7994 4918 7095 
3 3962 788 554 
3 4918 913 7095 
3 7994 7095 2777 
3 1278 110 4918 
3 2913 4918 5780 
3 7485 5462 5780 
3 7994 5780 4918 
3 5726 7824 5939 
3 3408 4655 1278 
3 2913 1559 1278 
3 2913 1278 4918 
3 4655 5939 6332 
3 1518 5163 3990 
3 3408 5939 4655 
3 110 5089 5019 
3 4655 6332 5089 
3 5163 554 788 
3 1518 5019 5089 
3 554 5089 6332 
3 110 5019 913 
3 7095 1560 2777 
3 8347 1279 1560 
3 913 1560 7095 
3 1518 3990 1152 
3 1521 1155 6537 
3 913 5019 5056 
3 1560 5056 8347 
3 1518 554 5163 
3 7030 5180 7164 
3 5089 554 1518 
3 5019 1152 5056 
3 5019 1518 1152 
3 5056 1152 559 
3 4862 789 555 
3 788 5180 5163 
3 1152 3990 4249 
3 4249 6374 8564 
3 5163 5180 7030 
3 3990 7030 6542 
3 6542 7164 4243 
3 6542 4025 6374 
3 4249 6542 6374 
3 1521 8347 559 
3 1521 8564 6320 
3 272 3579 630 
3 6374 6320 8564 
3 4249 8564 559 
3 559 8564 1521 
3 8347 6537 111 
3 8347 1521 6537 
3 111 5036 914 
3 6537 8411 5036 
3 6537 5036 111 
3 271 5023 6996 
3 6996 5023 1561 
3 4942 631 9502 
3 5023 5078 1280 
3 630 5091 271 
3 5023 631 5078 
3 1393 3560 280 
3 4942 6131 3172 
3 1521 6320 1155 
3 6537 1155 8411 
3 6320 1520 1155 
3 1155 558 8411 
3 5091 631 271 
3 630 271 8411 
3 1154 6707 1520 
3 8698 1520 6320 
3 9502 631 5091 
3 8587 5091 3579 
3 6131 4942 9502 
3 8587 9502 5091 
3 1393 280 4942 
3 1393 4942 3172 
3 5091 630 3579 
3 7694 10145 7662 
3 5733 3172 6131 
3 7662 6131 8587 
3 273 632 6707 
3 1520 272 558 
3 7017 3579 272 
3 632 272 1520 
3 8587 3579 7694 
3 10332 7017 5133 
3 603 7278 229 
3 1519 557 5136 
3 557 5086 1154 
3 1520 6707 632 
3 1153 1519 4025 
3 6374 5136 8698 
3 5086 6707 1154 
3 557 1154 5136 
3 4700 9440 556 
3 7164 556 4243 
3 6542 4243 4025 
3 6374 4025 5136 
3 7968 9466 4107 
3 556 1153 4243 
3 556 4107 1153 
3 9724 6617 229 
3 8599 1519 1153 
3 8599 1153 4107 
3 7183 4592 4427 
3 6318 4457 8642 
3 4107 9440 7968 
3 604 230 4070 
3 6355 6356 5259 
3 1175 5259 6356 
3 4427 4592 808 
3 4427 808 6 
3 3281 9627 6355 
3 9018 7474 5579 
3 3281 6355 1620 
3 808 6355 5259 
3 1174 1735 4925 
3 4592 1620 808 
3 8748 4592 7183 
3 9440 7183 7968 
3 1620 4592 6821 
3 4862 4700 789 
3 7183 9440 4700 
3 8748 4700 4862 
3 6821 4925 1735 
3 555 789 5180 
3 8705 4862 555 
3 7022 555 4392 
3 7022 7176 4925 
3 6821 8748 4862 
3 7022 4925 8705 
3 7022 8705 555 
3 5557 9627 3281 
3 6821 8705 4925 
3 2802 3281 1735 
3 2802 1735 1174 
3 4592 8748 6821 
3 1620 6821 1735 
3 10082 9026 10719 
3 11637 11070 11488 
3 10082 9627 5557 
3 9026 5443 10730 
3 7448 9830 9085 
3 10040 7474 9018 
3 11110 9026 10730 
3 11361 11488 10388 
3 11211 9928 10847 
3 3265 9625 5579 
3 10349 11035 10846 
3 9864 10846 11110 
3 10865 10014 10388 
3 11488 11361 10846 
3 11110 10846 11361 
3 5450 2856 5579 
3 10014 7402 8873 
3 11361 10040 11110 
3 11361 8873 10040 
3 11110 10719 9026 
3 11110 10040 10719 
3 9026 10082 5557 
3 7724 10082 9625 
3 9625 10082 9018 
3 9627 10082 7724 
3 6356 3265 1736 
3 6355 9627 7724 
3 6356 7724 9625 
3 10014 9034 7402 
3 8873 7474 10040 
3 8873 7402 7474 
3 10040 9018 10719 
3 10082 10719 9018 
3 9625 9018 5579 
3 10348 10067 11141 
3 10014 10458 9034 
3 11141 10458 10865 
3 10388 10014 8873 
3 10067 10458 11141 
3 11601 11515 11403 
3 10458 10014 10865 
3 11141 11479 11306 
3 11578 11482 11311 
3 11029 10876 10348 
3 10876 8782 10348 
3 11029 10348 11306 
3 9845 9310 10558 
3 10876 10558 8782 
3 11157 10558 10876 
3 11311 10876 11029 
3 11497 10857 10368 
3 9779 9251 7375 
3 7375 9043 9772 
3 10357 9845 11157 
3 9796 10857 10933 
3 8949 9951 7689 
3 10933 8854 9796 
3 10368 9779 10904 
3 11142 10832 11149 
3 11279 11149 10857 
3 10357 11037 10904 
3 11497 11464 11279 
3 9772 9779 7375 
3 10368 10904 11053 
3 11427 11037 11482 
3 11311 11482 11157 
3 10876 11311 11157 
3 10558 11157 9845 
3 11279 11581 11475 
3 11676 11598 11411 
3 11497 11053 11464 
3 11581 11464 11292 
3 9219 9805 10472 
3 11581 11279 11464 
3 10857 11497 11279 
3 11149 11279 11475 
3 9148 8842 8075 
3 11581 10790 11475 
3 10790 11581 11292 
3 7390 5375 9219 
3 11292 11464 11584 
3 11292 11584 11050 
3 11037 11427 11280 
3 11037 11280 11053 
3 11676 11655 11683 
3 11402 11029 11403 
3 11311 11402 11578 
3 11691 11514 11653 
3 11655 11427 11578 
3 11655 11402 11515 
3 11655 11578 11402 
3 11515 11402 11403 
3 10348 11141 11306 
3 11029 11306 11403 
3 11141 10865 11479 
3 11306 11635 11403 
3 11691 11601 11635 
3 11479 11635 11306 
3 11070 11637 11514 
3 11479 11514 11635 
3 10388 11488 11070 
3 10388 11070 10865 
3 11403 11635 11601 
3 11683 11685 11598 
3 11635 11514 11691 
3 11601 11691 11700 
3 11691 11653 11700 
3 11660 11683 11515 
3 11276 11432 11513 
3 11700 11596 11660 
3 11028 10878 10355 
3 11515 11601 11660 
3 11531 11598 11551 
3 11596 11700 11684 
3 11660 11685 11683 
3 11515 11683 11655 
3 11596 11685 11660 
3 11700 11660 11601 
3 11280 11427 11550 
3 11280 11441 11584 
3 11411 11550 11676 
3 11598 11676 11683 
3 10790 10776 10472 
3 9768 8842 9773 
3 11550 11411 11441 
3 11550 11441 11280 
3 10776 10464 10472 
3 10790 10472 9805 
3 11292 11050 10776 
3 10472 7390 9219 
3 10854 10464 10776 
3 11292 10776 10790 
3 11531 11310 11502 
3 11312 10854 11050 
3 9773 10854 10355 
3 11411 11312 11441 
3 9768 9773 10355 
3 10854 9773 10464 
3 10878 9768 10355 
3 11312 10355 10854 
3 5352 5375 7390 
3 10464 7390 10472 
3 10464 9773 9148 
3 6526 1625 2601 
3 5352 8075 2575 
3 1740 1179 6689 
3 9148 9773 8842 
3 8075 8168 6689 
3 5297 10019 9476 
3 10352 11027 10888 
3 8872 7439 7773 
3 11028 11411 11531 
3 11114 10878 11502 
3 11551 11685 11401 
3 11114 11502 11310 
3 10888 11027 11272 
3 11312 11411 11028 
3 11312 11028 10355 
3 11411 11598 11531 
3 11028 11531 11502 
3 11401 11685 11596 
3 11401 11522 11272 
3 11513 11432 11613 
3 11596 11522 11401 
3 11598 11685 11551 
3 11027 11401 11272 
3 11310 11551 11027 
3 11310 11027 10352 
3 11254 11522 11630 
3 11613 11522 11596 
3 11522 11613 11630 
3 11522 11254 11480 
3 11630 11432 11583 
3 10841 11357 11199 
3 10841 11575 11484 
3 11583 11484 11286 
3 9928 9830 10385 
3 11063 11484 11583 
3 11488 11035 11637 
3 11276 11063 11432 
3 8806 11211 10349 
3 10847 9928 10385 
3 11513 11620 11276 
3 11432 11063 11583 
3 10385 11484 11063 
3 10847 11063 11276 
3 11684 11653 11513 
3 11684 11513 11613 
3 11513 11653 11620 
3 11466 11211 10847 
3 11653 11514 11637 
3 11035 11488 10846 
3 11620 11637 11035 
3 11466 10847 11276 
3 11620 11035 11466 
3 7404 5336 7372 
3 11110 10730 9864 
3 10846 9864 10349 
3 11035 10349 11466 
3 11620 11466 11276 
3 8806 9928 11211 
3 10349 11211 11466 
3 10349 9864 8806 
3 2643 5339 2576 
3 9928 8806 7372 
3 9928 9085 9830 
3 7404 5443 5336 
3 7372 5336 5339 
3 9864 10730 7404 
3 8806 7404 7372 
3 5557 2802 5443 
3 10730 5443 7404 
3 5443 2802 2682 
3 5336 2682 2576 
3 4925 7176 1174 
3 2802 1174 2682 
3 1174 7176 7 
3 1174 7 2682 
3 9636 6609 4277 
3 7 810 2576 
3 9205 6267 3962 
3 9205 3962 6332 
3 7 4277 810 
3 8110 6267 9205 
3 8110 6609 9636 
3 6267 9636 8356 
3 9928 7372 9085 
3 2643 810 1622 
3 2643 2576 810 
3 6609 810 4277 
3 11357 9830 7448 
3 5339 9085 7372 
3 3170 2822 1845 
3 5339 5418 9085 
3 5418 5339 2643 
3 5418 2822 5546 
3 2822 2643 1622 
3 6609 1622 810 
3 1622 3749 1845 
3 7807 5825 9308 
3 6609 3749 1622 
3 7956 7807 9308 
3 5858 7824 7807 
3 5858 7956 3443 
3 1176 1737 3385 
3 5858 3749 8110 
3 5858 7807 7956 
3 3443 3385 1737 
3 1737 6392 3170 
3 1737 1845 3443 
3 1737 3170 1845 
3 3749 6609 8110 
3 3170 5546 2822 
3 1845 2822 1622 
3 3443 1845 3749 
3 3443 3749 5858 
3 10489 11199 11357 
3 9830 10841 10385 
3 5418 5546 7448 
3 5418 7448 9085 
3 11286 11484 11575 
3 10781 9782 11117 
3 10800 11575 10841 
3 11357 10841 9830 
3 10476 11176 10800 
3 11575 11176 11286 
3 10841 11199 10800 
3 11176 10476 10417 
3 7646 9036 10489 
3 7448 10489 11357 
3 8174 7646 9431 
3 5546 9431 7448 
3 6392 5947 8174 
3 3170 8174 5546 
3 5530 7831 9036 
3 10489 9834 11199 
3 8174 5947 7646 
3 9431 7646 10489 
3 9044 10947 10476 
3 8856 10476 9834 
3 9036 8856 9834 
3 9036 9834 10489 
3 8856 9036 7831 
3 7034 1932 2632 
3 7646 5947 5530 
3 7646 5530 9036 
3 2762 5530 3087 
3 4117 6392 5244 
3 1623 3087 4117 
3 3861 6304 5986 
3 1623 4117 811 
3 4474 9516 6304 
3 4474 8 10303 
3 3527 1176 3385 
3 811 4117 5244 
3 811 8 4474 
3 5244 1176 8 
3 5244 8 811 
3 8 1176 3527 
3 7685 7956 9308 
3 3527 3385 7685 
3 9678 10206 8221 
3 10303 8 3527 
3 9678 3527 7685 
3 4636 9516 6401 
3 8221 6401 9678 
3 9678 7685 10206 
3 9729 10206 7987 
3 727 4636 4284 
3 6401 9516 10303 
3 4636 6401 4284 
3 432 4284 6338 
3 2762 3087 1897 
3 3224 1623 3861 
3 6304 3861 4474 
3 9516 4474 10303 
3 1623 811 3861 
3 3224 3861 5986 
3 8292 8301 3556 
3 8301 6304 9516 
3 8301 9516 4636 
3 4636 727 431 
3 8301 4636 431 
3 5055 727 4612 
3 6304 8301 8292 
3 726 4928 430 
3 3556 8301 431 
3 3556 431 726 
3 5773 3556 3202 
3 5773 3202 8067 
3 5055 7264 726 
3 3556 726 3202 
3 10109 7579 7538 
3 11728 7863 5773 
3 5611 5986 7863 
3 7538 7863 11728 
3 1932 1961 2996 
3 5552 2923 5611 
3 3224 5986 5611 
3 5552 5611 7538 
3 5986 6304 8292 
3 7863 8292 5773 
3 1177 1738 3358 
3 3266 5812 5892 
3 5621 3313 2996 
3 5552 2996 2923 
3 5552 7579 5621 
3 5745 9400 7649 
3 2996 5552 5621 
3 3313 5621 5745 
3 5812 7971 5892 
3 3266 5892 3565 
3 3358 5745 5812 
3 3358 5812 3266 
3 10340 6076 3565 
3 10340 3565 5892 
3 1177 3358 3266 
3 9 3266 3565 
3 8365 4494 5655 
3 9 1177 3266 
3 2768 5655 4494 
3 9 4494 1177 
3 9044 8365 5655 
3 4494 2769 1177 
3 7034 1961 1932 
3 1738 1932 3313 
3 3224 2923 1897 
3 1623 1897 3087 
3 1897 1961 2762 
3 7831 2632 5359 
3 7831 5530 2762 
3 7034 2762 1961 
3 7440 9044 5655 
3 7440 5655 5358 
3 5359 2769 8365 
3 5359 8365 9044 
3 2769 5359 2632 
3 2769 2632 1738 
3 7362 5358 5306 
3 4014 1178 1739 
3 5306 5358 2585 
3 5306 2539 5284 
3 7338 5284 5285 
3 5409 5582 7439 
3 1898 1962 2539 
3 2585 2539 5306 
3 4112 8201 7784 
3 2526 1933 2592 
3 3831 3952 1962 
3 2539 1962 2526 
3 1624 3879 1898 
3 2585 1898 2539 
3 2585 5358 2768 
3 3746 8422 3879 
3 2585 2768 1624 
3 2585 1624 1898 
3 1624 2768 812 
3 1624 3746 3879 
3 6076 9754 8422 
3 6076 3746 3565 
3 6076 8422 3746 
3 3565 3746 812 
3 3831 1962 1898 
3 4112 7784 7087 
3 3831 10163 3952 
3 7784 9347 6163 
3 1739 1933 4227 
3 3831 3879 9347 
3 4227 3952 8201 
3 7784 10163 9347 
3 9347 10163 3831 
3 3879 3831 1898 
3 8246 9359 6208 
3 6208 6165 4014 
3 6208 4014 4227 
3 3952 4227 1933 
3 9359 6165 6208 
3 8201 3952 10163 
3 8246 6208 8201 
3 8246 8201 4112 
3 7697 10058 7539 
3 5608 7539 5764 
3 3543 6165 7881 
3 7539 9395 5764 
3 9206 7882 10073 
3 10058 10073 7539 
3 6165 9395 7881 
3 3820 1625 3511 
3 9628 5937 8368 
3 10073 7882 7881 
3 7881 7882 7258 
3 3543 10 1178 
3 2845 1739 1178 
3 10 3543 7258 
3 6165 3543 4014 
3 4227 4014 1739 
3 1178 4762 2845 
3 5284 2539 2526 
3 1739 2845 2592 
3 1739 2592 1933 
3 1780 2918 1952 
3 7882 3346 7258 
3 10 7258 3346 
3 1625 1846 2601 
3 4762 1178 10 
3 6526 2601 9476 
3 4055 1846 3820 
3 813 10 3346 
3 8520 3820 6111 
3 5937 3511 3346 
3 1740 8331 1179 
3 3820 1846 1625 
3 3346 3511 813 
3 813 1625 6526 
3 8872 11008 9792 
3 8168 8075 8842 
3 8788 8872 9792 
3 9476 7773 6526 
3 4762 10 813 
3 1625 813 3511 
3 4762 813 6526 
3 4762 6526 5582 
3 2592 2845 5409 
3 5285 7366 7338 
3 2592 5409 5285 
3 2592 5285 2526 
3 7343 5306 5284 
3 5285 5284 2526 
3 7440 5358 7362 
3 8794 7343 10093 
3 10967 8794 10093 
3 10520 10093 8785 
3 8794 7362 7343 
3 7338 7343 5284 
3 7773 7439 5582 
3 7773 5582 6526 
3 5285 5409 7366 
3 7338 8785 10093 
3 7338 7366 8785 
3 10520 8785 9762 
3 8872 7773 10019 
3 8788 9762 8785 
3 10888 10520 9762 
3 10888 9762 10352 
3 11286 11176 10781 
3 11286 11254 11630 
3 10476 10947 10417 
3 11176 10417 10781 
3 10781 11117 11254 
3 11522 11480 11272 
3 11117 11480 11254 
3 10781 11254 11286 
3 9768 10878 10508 
3 9792 11114 10352 
3 11114 11310 10352 
3 9792 10352 9762 
3 11272 11480 11364 
3 10888 11364 10520 
3 10878 11114 10508 
3 8811 8168 8842 
3 11114 9792 11008 
3 10019 7773 9476 
3 10508 11008 10019 
3 8811 8842 9768 
3 8788 7439 8872 
3 11008 8872 10019 
3 8168 5297 2553 
3 1846 2553 2601 
3 2601 2553 5297 
3 10019 8811 10508 
3 2575 1179 11 
3 8321 4184 6532 
3 2553 6689 8168 
3 5297 8168 8811 
3 10019 5297 8811 
3 10508 8811 9768 
3 1179 8331 4513 
3 814 4880 1626 
3 8075 6689 2575 
3 11 1179 4513 
3 1846 4055 1740 
3 4513 6532 8591 
3 4055 8331 1740 
3 2553 1740 6689 
3 63 4800 4470 
3 6532 4513 8331 
3 4184 4470 6532 
3 4184 8321 3933 
3 1231 8341 4800 
3 6874 11 4513 
3 4470 4800 8591 
3 4470 8591 6532 
3 8048 9327 5318 
3 7354 8795 7422 
3 10550 9327 9113 
3 7049 8048 2571 
3 8797 9771 8795 
3 11616 11674 11527 
3 9327 10567 7355 
3 5305 2533 2580 
3 10550 10883 11188 
3 10567 11188 10397 
3 9113 9787 10550 
3 9327 10550 10567 
3 8048 7049 9669 
3 8048 9113 9327 
3 63 858 2900 
3 9669 5314 9113 
3 7049 1231 63 
3 7049 63 2900 
3 9113 5314 7363 
3 9787 9781 10362 
3 9669 2900 5314 
3 7363 5314 5342 
3 11188 10883 11392 
3 11188 11095 10397 
3 7363 9787 9113 
3 9669 9113 8048 
3 10362 11326 11033 
3 11392 11033 11532 
3 11298 10818 11182 
3 9781 9787 7363 
3 10818 10896 11182 
3 9104 9781 7363 
3 9104 7363 5342 
3 8404 2641 2637 
3 3933 1917 1665 
3 858 2579 2900 
3 1665 4184 3933 
3 1917 3283 1952 
3 5314 2900 2579 
3 5342 2579 2641 
3 4184 1665 858 
3 4184 858 4470 
3 6532 8331 8321 
3 3933 8321 6128 
3 8321 8331 4055 
3 8321 8520 6128 
3 1917 3933 3283 
3 6111 3820 3511 
3 8321 4055 8520 
3 3283 3575 1952 
3 6128 8520 8405 
3 5937 6111 3511 
3 5984 3575 8405 
3 6111 8405 8520 
3 8368 5984 9628 
3 5937 9628 6111 
3 6128 8405 3283 
3 6128 3283 3933 
3 5984 3401 3575 
3 8405 3575 3283 
3 1224 55 5189 
3 55 6443 3236 
3 5857 3401 5984 
3 3575 3401 1780 
3 3253 3401 5857 
3 9628 5984 8405 
3 10058 8216 9206 
3 7882 8368 5937 
3 9206 8216 5857 
3 8368 5857 5984 
3 5857 8368 9206 
3 10058 9206 10073 
3 9172 3236 6443 
3 8216 3253 5857 
3 55 3253 6443 
3 9172 6443 9207 
3 3236 857 55 
3 5707 5455 2918 
3 1224 3253 55 
3 5189 55 857 
3 2918 3683 5707 
3 7686 7272 3684 
3 5189 7272 3683 
3 1780 3683 2918 
3 1780 3401 1224 
3 3683 1224 5189 
3 10406 9111 11227 
3 10895 9854 10383 
3 5707 7686 9111 
3 7462 9111 10406 
3 6629 9526 7503 
3 9111 10636 11227 
3 7686 6628 7503 
3 7686 7503 9111 
3 8962 10868 10383 
3 9854 11227 10636 
3 8962 10383 9854 
3 8962 9854 5435 
3 11054 11627 11332 
3 10868 11332 10383 
3 10406 11227 10895 
3 11490 10895 11052 
3 11332 11627 11052 
3 11332 11052 10383 
3 10255 7462 10896 
3 9781 10818 10362 
3 10896 7462 10406 
3 11182 10406 11490 
3 3683 7272 5707 
3 5455 5707 7462 
3 10896 9781 9104 
3 10255 9104 8404 
3 9104 5342 8404 
3 10255 8404 5455 
3 11182 11490 11298 
3 11326 11298 11556 
3 11326 10362 10818 
3 11326 10818 11298 
3 10818 9781 10896 
3 11182 10896 10406 
3 11257 11252 11663 
3 11422 11285 11558 
3 11556 11257 11663 
3 11556 11429 11326 
3 9816 9770 10364 
3 11252 11257 11040 
3 11533 11055 11365 
3 11533 11365 11039 
3 8924 10066 7712 
3 10499 9774 8803 
3 8924 8077 9174 
3 10778 11040 10758 
3 10855 11365 11055 
3 10855 10778 10499 
3 11611 11663 11252 
3 11533 11252 11055 
3 10659 9774 10758 
3 10758 11054 10796 
3 11257 11627 11054 
3 10758 10796 10659 
3 9917 8891 10659 
3 9917 10796 11209 
3 10868 11209 10796 
3 11332 10796 11054 
3 10499 8803 10097 
3 8076 10097 5332 
3 10778 10758 9774 
3 8803 9774 8891 
3 9816 10855 10526 
3 7712 8077 8924 
3 10526 10855 10499 
3 10526 10499 10097 
3 10855 11055 10778 
3 10499 10778 9774 
3 8076 9732 10066 
3 8924 9816 10526 
3 9732 7712 10066 
3 8076 10066 10097 
3 8077 6601 2692 
3 58 4976 1226 
3 4976 7712 9732 
3 6556 9732 8076 
3 4976 58 861 
3 4853 4786 4732 
3 7712 4976 6601 
3 1668 861 8280 
3 4853 2107 2117 
3 4853 6763 8280 
3 4786 4853 8280 
3 4786 8280 861 
3 2117 2127 6763 
3 2117 6763 4853 
3 8280 7240 1668 
3 6601 8077 7712 
3 861 1668 6601 
3 861 6601 4976 
3 10526 10066 8924 
3 9816 8924 9174 
3 2613 2692 1864 
3 1864 1668 7240 
3 9816 9174 9770 
3 10364 9770 10858 
3 1864 7240 5049 
3 5106 5049 2137 
3 5340 2692 2613 
3 5106 1864 5049 
3 5338 5340 2613 
3 1783 1864 5106 
3 5106 2137 2147 
3 6845 2147 2157 
3 1227 6845 8469 
3 2157 8469 6845 
3 8469 2157 2167 
3 3246 7151 59 
3 10173 59 8469 
3 8469 59 1227 
3 2582 7891 5338 
3 2582 7151 7891 
3 8907 9783 10616 
3 59 7151 1227 
3 6845 1783 5106 
3 2582 2613 1783 
3 2582 1783 1227 
3 10858 9770 10593 
3 5338 7374 5340 
3 10012 10616 10593 
3 7374 10593 9770 
3 10593 11200 10858 
3 10364 10858 11039 
3 11556 11663 11429 
3 11033 11429 11532 
3 11611 11533 11422 
3 11425 11256 11243 
3 11611 11422 11528 
3 11611 11528 11532 
3 5338 7891 10012 
3 5338 10012 7374 
3 10759 11045 10760 
3 10759 10760 9783 
3 10858 11200 11285 
3 11039 11285 11422 
3 8823 10575 9783 
3 10616 9783 10760 
3 11422 11558 11425 
3 11528 11425 11243 
3 11095 11243 10756 
3 10756 11256 11105 
3 11532 11243 11095 
3 11392 11095 11188 
3 10968 11105 11307 
3 11092 10384 11307 
3 11243 11256 10756 
3 10397 10756 9771 
3 10077 10575 8823 
3 8823 9783 8907 
3 10575 10540 11155 
3 10575 11155 10759 
3 11264 11527 11349 
3 11155 11349 10759 
3 8134 5401 2591 
3 9377 8248 1669 
3 8907 5401 8823 
3 5592 6091 7650 
3 7891 5401 8907 
3 10012 8907 10616 
3 10540 10575 10077 
3 8134 8823 5401 
3 862 59 10173 
3 2167 10173 8469 
3 862 2591 3246 
3 7151 3246 7891 
3 10173 2167 2177 
3 1669 862 9377 
3 8248 2187 2197 
3 1669 2591 862 
3 9377 862 10173 
3 9377 2177 2187 
3 8134 2591 6806 
3 8248 9377 2187 
3 9318 6806 2824 
3 1865 8248 6551 
3 9836 10540 8974 
3 8134 10077 8823 
3 8134 6806 9318 
3 5143 1228 60 
3 10077 8134 9318 
3 8974 5592 7650 
3 1865 1669 8248 
3 6551 8248 2197 
3 6806 1669 1865 
3 2824 1865 1784 
3 1228 3429 1784 
3 6551 1784 1865 
3 5037 1228 5071 
3 2217 5071 2207 
3 4036 60 11718 
3 2227 5037 2217 
3 3429 1228 5143 
3 6091 5143 8291 
3 863 1670 8291 
3 6091 9248 7650 
3 5037 60 1228 
3 5071 1228 1784 
3 2824 1784 3429 
3 2824 3429 5592 
3 10077 9318 8974 
3 6091 5592 3429 
3 2873 5423 9248 
3 8291 9248 6091 
3 10682 9886 9459 
3 5423 10548 9248 
3 2686 2873 1785 
3 1670 2873 8291 
3 10929 9886 10682 
3 2686 5423 2873 
3 3106 6302 5500 
3 7729 10682 9459 
3 2697 8286 2567 
3 2687 7729 7265 
3 11006 8871 9914 
3 5343 7729 2687 
3 10929 11006 11092 
3 9924 8286 5500 
3 11123 10929 11495 
3 9924 7704 8820 
3 10929 8871 11006 
3 10384 11159 11307 
3 5423 9886 10548 
3 9248 10548 7650 
3 11495 10788 11123 
3 10929 11123 9886 
3 9318 5592 8974 
3 10077 8974 10540 
3 11495 11264 10788 
3 11123 10788 9836 
3 11543 11264 11495 
3 11092 11495 10929 
3 11307 11616 11543 
3 11092 11543 11495 
3 11543 11092 11307 
3 10968 8795 9771 
3 11616 11307 11105 
3 11616 11105 11256 
3 11159 8820 10968 
3 11105 10968 9771 
3 10384 9924 11159 
3 11307 11159 10968 
3 10968 8820 8795 
3 9771 8797 10397 
3 5318 7355 5305 
3 2727 3107 1672 
3 7354 7422 5347 
3 7354 5305 7355 
3 10567 10397 8797 
3 10567 8797 7355 
3 7354 5347 5305 
3 5318 5305 2580 
3 8048 5318 2571 
3 7049 2571 1231 
3 4880 814 6874 
3 8591 6874 4513 
3 6689 1179 2575 
3 2625 11 814 
3 9148 8075 5352 
3 2625 2575 11 
3 11 6874 814 
3 2625 814 2664 
3 2575 2625 5352 
3 9148 5352 7390 
3 5305 5347 2533 
3 2580 1953 1787 
3 1672 6830 1918 
3 2533 1953 2580 
3 6768 1626 4880 
3 8341 4880 4800 
3 2854 1899 1934 
3 6830 4861 1918 
3 2698 1626 1899 
3 4861 6768 9474 
3 5375 2625 2664 
3 2698 2664 1626 
3 5352 2625 5375 
3 9219 5402 7418 
3 5402 2698 5458 
3 8447 5992 8982 
3 5458 7418 5402 
3 2698 5402 2664 
3 6641 2854 1934 
3 6830 1934 4861 
3 4861 1934 1899 
3 6768 1899 1626 
3 2698 1899 2854 
3 10217 8982 10432 
3 5500 6302 7704 
3 7422 5509 5347 
3 5061 865 3107 
3 5509 2727 5347 
3 5509 3107 2727 
3 2533 1918 1953 
3 4861 1953 1918 
3 1672 1918 2727 
3 11006 9914 10384 
3 11006 10384 11092 
3 6302 5509 7704 
3 5500 7704 9924 
3 9914 5343 8286 
3 9914 8286 9924 
3 10384 9914 9924 
3 11159 9924 8820 
3 3107 5509 6302 
3 3106 5500 2697 
3 1866 1786 2697 
3 8286 2697 5500 
3 5061 6302 3106 
3 5061 3106 1230 
3 4986 4952 1230 
3 1786 1230 3106 
3 9624 865 62 
3 1230 62 5061 
3 5249 1180 12 
3 815 4821 6981 
3 6830 8408 1741 
3 5249 12 815 
3 8408 865 9624 
3 1180 9624 12 
3 4158 6641 1741 
3 1180 1741 8408 
3 4157 8447 4158 
3 1741 6641 1934 
3 2854 6641 8243 
3 5458 8243 9260 
3 7418 5458 9260 
3 7418 9260 10573 
3 9219 7418 9805 
3 10790 11142 11475 
3 9805 7418 10573 
3 9805 11142 10790 
3 11360 10832 11142 
3 10573 11142 9805 
3 8447 6641 4158 
3 4157 5249 815 
3 4157 5992 8447 
3 6641 8447 8243 
3 8447 8982 10217 
3 8243 10217 9260 
3 1627 4157 815 
3 4821 6894 4797 
3 4158 1180 5249 
3 4158 5249 4157 
3 10897 8982 10208 
3 9511 6651 2724 
3 10573 10432 11360 
3 10573 11360 11142 
3 8982 5992 8022 
3 10208 8022 9511 
3 10439 10832 9951 
3 10439 9951 8949 
3 5992 4157 3120 
3 8611 6981 4895 
3 1900 6651 3120 
3 1627 3120 4157 
3 4895 6981 4797 
3 1584 996 4895 
3 1627 815 6981 
3 1627 6981 8611 
3 6951 8420 4986 
3 1230 4952 62 
3 12 4952 4821 
3 6981 4821 4797 
3 8420 4952 4986 
3 4943 4986 1786 
3 4821 4952 8420 
3 211 8420 6951 
3 6951 8459 997 
3 3110 5556 6252 
3 997 211 6951 
3 4943 6951 4986 
3 8420 211 6894 
3 8420 6894 4821 
3 4962 5027 9579 
3 212 8694 998 
3 2846 2883 1363 
3 1363 1585 9579 
3 212 6477 8694 
3 8396 6462 4058 
3 5027 8501 9579 
3 9579 8501 1363 
3 1785 1229 2686 
3 1229 61 4147 
3 61 6477 9598 
3 8501 6477 212 
3 864 9598 5027 
3 8501 9598 6477 
3 6951 4943 8459 
3 997 8459 1585 
3 864 1671 2687 
3 1671 5027 4962 
3 1866 1671 4962 
3 8459 4962 9579 
3 2567 5343 2687 
3 1671 864 5027 
3 8286 5343 2567 
3 2697 2567 1866 
3 4147 9459 2686 
3 4147 61 7265 
3 8871 10682 7729 
3 8871 7729 5343 
3 4147 2686 1229 
3 6462 6125 8414 
3 1229 4878 61 
3 7265 61 864 
3 61 9598 864 
3 7265 864 2687 
3 2873 1670 1785 
3 6125 4036 8339 
3 1670 3851 4447 
3 1785 6584 1229 
3 3851 1670 863 
3 3851 863 4036 
3 6584 4447 8396 
3 4447 1785 1670 
3 5037 2227 11718 
3 5037 11718 60 
3 863 60 4036 
3 3851 4036 6125 
3 11718 2227 2237 
3 2237 2247 4410 
3 2237 4410 11718 
3 6462 3851 6125 
3 8414 6125 6085 
3 6937 8414 6085 
3 4203 6085 3699 
3 4447 3851 6462 
3 4447 6584 1785 
3 4580 6584 8396 
3 6462 8396 4447 
3 4878 1229 6584 
3 1586 998 6833 
3 6536 213 999 
3 4058 4580 8396 
3 6584 4580 6833 
3 4878 6833 8694 
3 2247 2251 3699 
3 4435 6995 8703 
3 6995 4203 4531 
3 213 4435 999 
3 6937 4058 8414 
3 2251 2242 4203 
3 6995 4531 8703 
3 6765 4531 2232 
3 2242 2232 4531 
3 213 6536 1364 
3 6765 8703 4531 
3 1587 999 4790 
3 6765 4790 8703 
3 4580 4058 1364 
3 3190 999 1587 
3 6085 4203 6995 
3 6937 6995 4435 
3 4058 213 1364 
3 999 4435 4790 
3 1586 4580 1364 
3 3238 7986 5564 
3 6833 4580 1586 
3 3238 1364 6536 
3 2959 6663 998 
3 2959 998 1586 
3 1363 8501 212 
3 1363 2883 1585 
3 212 6663 2846 
3 5507 10084 7507 
3 1363 212 2846 
3 5507 2846 8309 
3 6937 4435 213 
3 6937 213 4058 
3 1586 1364 3238 
3 3190 6536 999 
3 2959 1586 3238 
3 5564 8912 8121 
3 10691 8912 11016 
3 5564 8121 2959 
3 7986 11016 5564 
3 3238 5564 2959 
3 8309 6663 8121 
3 8931 8121 8912 
3 8931 10919 10084 
3 8931 10084 8309 
3 9093 10948 10940 
3 8912 10467 8931 
3 10084 10919 10494 
3 10084 10494 7507 
3 5545 9087 10086 
3 5545 7986 3190 
3 10691 10467 8912 
3 11016 8912 5564 
3 3112 3190 1587 
3 8689 2212 6809 
3 8186 5545 3112 
3 6809 2212 2202 
3 7986 6536 3190 
3 5545 3190 3112 
3 5545 10086 7986 
3 6536 7986 3238 
3 2232 2222 6765 
3 8689 6809 5022 
3 6765 5022 4790 
3 2222 2212 8689 
3 2222 8689 6765 
3 1365 5022 6809 
3 1000 6326 1588 
3 1587 5022 1365 
3 3112 6636 8186 
3 2202 2192 8403 
3 6809 214 1365 
3 1588 3013 1000 
3 8403 214 6809 
3 1000 3013 6636 
3 214 6636 1365 
3 9087 5545 8186 
3 9087 8186 5623 
3 8186 3013 5623 
3 3421 1589 6854 
3 9087 5623 7544 
3 10940 10948 10467 
3 2182 8295 6326 
3 8403 1000 214 
3 8403 6326 1000 
3 214 1000 6636 
3 1366 6686 4727 
3 1366 215 5141 
3 8295 2172 4714 
3 4433 3745 6220 
3 1001 5141 215 
3 8199 215 4727 
3 3421 1001 1589 
3 10137 3636 6571 
3 6206 1367 1589 
3 3421 6913 5141 
3 5623 3013 3329 
3 5623 6913 7544 
3 5623 3329 6913 
3 9464 3421 6854 
3 5141 1001 3421 
3 6913 3421 9464 
3 7544 6913 9464 
3 9093 7488 10948 
3 7544 9464 10713 
3 5529 2893 2858 
3 1367 216 2893 
3 6854 2893 7907 
3 7907 5529 9093 
3 8965 10091 10538 
3 5529 2858 5503 
3 9294 8126 10091 
3 5131 8126 3340 
3 2821 9294 5503 
3 7488 5529 5503 
3 9294 2821 3340 
3 8965 5503 9294 
3 8240 2834 5518 
3 7907 9093 10713 
3 9865 8965 10538 
3 7488 5503 8965 
3 7488 8965 9865 
3 9464 7907 10713 
3 7544 9990 9087 
3 5529 7488 9093 
3 10713 10940 9990 
3 7544 10713 9990 
3 9087 10691 10086 
3 10940 10467 10691 
3 9990 10691 9087 
3 10713 9093 10940 
3 9990 10940 10691 
3 10948 7488 9865 
3 10948 9865 10919 
3 10919 9865 11215 
3 10494 10938 9963 
3 10663 9963 10114 
3 10091 8126 8240 
3 7675 10663 5645 
3 2899 7219 994 
3 5645 7983 2899 
3 3440 5155 7163 
3 1360 1582 3712 
3 994 1582 2899 
3 10114 8910 5518 
3 7983 3607 7219 
3 2899 7983 7219 
3 994 7219 209 
3 10538 10091 8910 
3 10538 8910 10938 
3 10938 8910 10114 
3 10938 10114 9963 
3 8965 9294 10091 
3 3357 1583 2834 
3 8910 10091 8240 
3 8910 8240 5518 
3 5131 3357 8126 
3 3340 8126 9294 
3 217 995 5131 
3 8126 3357 8240 
3 995 6797 1583 
3 2834 1361 3607 
3 1361 1583 3439 
3 209 3548 3906 
3 7983 5518 3607 
3 7219 3607 209 
3 2834 1583 1361 
3 3607 1361 209 
3 5970 6331 3548 
3 3439 3548 1361 
3 3689 5897 8262 
3 10200 8262 6331 
3 8360 10270 7042 
3 5897 9209 8262 
3 5905 8559 9435 
3 3439 5970 3548 
3 8559 10200 6331 
3 3548 6331 3906 
3 9639 685 8646 
3 3689 377 5897 
3 388 685 9639 
3 388 3963 695 
3 685 4219 4269 
3 685 4269 377 
3 4100 4142 6479 
3 4219 6479 4269 
3 10270 5897 8053 
3 2720 5502 3090 
3 1628 4100 4039 
3 7937 9581 6156 
3 4516 6515 4717 
3 8298 3501 5888 
3 8298 9209 8360 
3 816 5057 13 
3 1582 3501 3712 
3 9209 8298 5888 
3 4045 7042 13 
3 10270 8360 9209 
3 10270 8053 7042 
3 1742 1935 5063 
3 8053 6479 4142 
3 5501 2724 3091 
3 6479 6378 4100 
3 816 1628 3090 
3 4142 4100 816 
3 4142 13 7042 
3 7114 1901 4039 
3 4100 1628 816 
3 4142 816 13 
3 4045 6515 8360 
3 816 3090 5057 
3 13 5057 1181 
3 4045 1181 4717 
3 8360 6515 8298 
3 1742 4717 1181 
3 3091 1181 5057 
3 3712 8298 6515 
3 4717 6515 4045 
3 13 1181 4045 
3 7042 4045 8360 
3 210 5155 1360 
3 1582 3440 2899 
3 3501 8298 3712 
3 1360 3712 4516 
3 9963 7675 9351 
3 210 5063 7296 
3 7163 5645 3440 
3 1360 3440 1582 
3 5507 7507 5556 
3 5644 5645 7163 
3 9963 10663 7675 
3 9351 5644 6252 
3 7675 5645 5644 
3 3450 5155 996 
3 3440 1360 5155 
3 1584 3039 3450 
3 4717 5063 4516 
3 6515 4516 3712 
3 7163 5155 3450 
3 7163 3450 5644 
3 3039 1584 1362 
3 996 7296 4895 
3 2883 5507 5556 
3 2883 3110 1585 
3 9351 7675 5644 
3 3039 5644 3450 
3 2846 5507 2883 
3 1585 3110 997 
3 6252 5050 3110 
3 5556 3110 2883 
3 5556 9351 6252 
3 5050 6252 3039 
3 5050 3039 1362 
3 6894 1362 4797 
3 3450 996 1584 
3 1362 1584 4797 
3 7296 8611 4895 
3 1584 4895 4797 
3 4879 1935 1900 
3 8611 1900 1627 
3 1360 4516 210 
3 5155 210 996 
3 5063 1935 4879 
3 7296 4879 8611 
3 3091 2724 1742 
3 4717 1742 5063 
3 5057 3090 6285 
3 5057 6285 3091 
3 1935 2724 6651 
3 3120 6651 8022 
3 8995 10208 9511 
3 8995 9511 5501 
3 7689 8995 5501 
3 6285 5501 3091 
3 10933 10439 8949 
3 10202 8949 5502 
3 8949 10202 10933 
3 10439 10933 10857 
3 8854 5345 9251 
3 9796 9779 10368 
3 9796 9251 9779 
3 10904 9772 10357 
3 9251 5345 5348 
3 9251 5348 7375 
3 5348 5323 7375 
3 9779 9772 10904 
3 7689 6285 5502 
3 10202 5502 7789 
3 10933 10202 8854 
3 9796 8854 9251 
3 7115 7789 2720 
3 1628 2720 3090 
3 5345 7789 2570 
3 1901 2720 1628 
3 1963 7115 1901 
3 7114 4039 7937 
3 2570 1963 1936 
3 2599 5323 5348 
3 1963 3263 1936 
3 1963 2570 7115 
3 1936 3507 1743 
3 1936 2627 2570 
3 7789 7115 2570 
3 5345 2627 5348 
3 1936 1743 2627 
3 2570 2627 5345 
3 1182 2734 2599 
3 2627 2599 5348 
3 5323 2734 9560 
3 2558 817 1629 
3 4360 4635 817 
3 6970 8227 9560 
3 3856 3328 5843 
3 1743 1182 2599 
3 8544 4360 6546 
3 1182 14 2734 
3 6970 817 2558 
3 5290 2528 5280 
3 6501 9705 8361 
3 1744 1183 2549 
3 2558 1629 2528 
3 2558 2528 5290 
3 1847 1744 2524 
3 8233 9556 10296 
3 5280 2524 5283 
3 5280 7337 7340 
3 2524 1744 2549 
3 2524 2549 5283 
3 8227 9043 9560 
3 6970 9560 2734 
3 5290 9310 8227 
3 5290 8227 2558 
3 9845 10357 9772 
3 9043 5323 9560 
3 9845 9772 9043 
3 9845 9043 9310 
3 9310 5290 7340 
3 10558 7340 8782 
3 5280 5283 7337 
3 7340 7337 8782 
3 9034 10458 10296 
3 5283 9309 7337 
3 6964 9556 8233 
3 9309 10296 10458 
3 9034 9556 5351 
3 7402 5450 7474 
3 2549 6964 8233 
3 5283 8233 9309 
3 1621 2663 809 
3 15 2723 6964 
3 6603 1621 809 
3 2723 2663 5351 
3 5450 2663 2856 
3 1844 4887 4713 
3 7402 5351 5450 
3 7474 5450 5579 
3 1844 3265 2856 
3 1621 2856 2663 
3 5579 2856 3265 
3 9625 3265 6356 
3 8590 6190 3829 
3 1175 6 5259 
3 4427 6 6190 
3 7968 6287 9466 
3 7968 6190 6287 
3 9466 6287 4120 
3 3829 6057 8590 
3 6190 6263 6287 
3 8590 6288 6263 
3 9143 5770 10159 
3 2856 1621 1844 
3 1736 4713 4163 
3 1175 1736 4163 
3 7055 4196 6288 
3 6 1175 3829 
3 6 3829 6190 
3 1736 1844 4713 
3 887 5220 92 
3 4163 4713 8516 
3 4163 6057 3829 
3 4163 8516 6057 
3 8590 6057 6288 
3 6287 6263 4070 
3 6287 4070 4120 
3 6288 4196 3921 
3 6263 3921 4070 
3 605 8433 231 
3 3921 604 4070 
3 7236 4704 4529 
3 4908 4710 4457 
3 8516 4529 6318 
3 8516 8642 6057 
3 8516 6318 8642 
3 6057 8642 6288 
3 8442 4856 9549 
3 4676 4704 4887 
3 4676 4887 6603 
3 4713 7236 8516 
3 4887 1621 6603 
3 4856 8442 1802 
3 1844 1621 4887 
3 7236 4887 4704 
3 1744 8361 1183 
3 6964 1183 15 
3 2663 2723 809 
3 9549 15 8442 
3 809 15 9549 
3 1253 6583 84 
3 6603 809 9549 
3 6603 4856 4676 
3 6603 9549 4856 
3 4676 4856 1874 
3 1802 8442 1253 
3 1802 2735 7050 
3 5834 2920 10219 
3 2735 1253 8734 
3 1802 1253 2735 
3 9096 8734 6559 
3 7703 7050 2735 
3 9096 2735 8734 
3 4704 4676 1687 
3 2920 1874 7050 
3 1874 2920 1687 
3 2952 3945 5845 
3 2920 3944 1687 
3 1874 1687 4676 
3 4529 4704 887 
3 4529 92 6318 
3 4529 887 92 
3 6318 92 4457 
3 6288 8642 7055 
3 4963 606 232 
3 7055 4457 4710 
3 7055 4710 4196 
3 4196 4710 605 
3 4196 605 231 
3 1806 4908 1260 
3 4710 232 605 
3 4710 7128 232 
3 605 232 5092 
3 887 3944 5220 
3 92 1260 4457 
3 7128 4908 4901 
3 5220 1260 92 
3 4901 4908 1806 
3 1260 4908 4457 
3 1876 4901 1806 
3 10219 9874 10991 
3 4963 7128 4901 
3 6943 4901 1876 
3 4606 6519 4963 
3 6943 4963 4901 
3 4963 6519 606 
3 5092 606 3306 
3 1691 6943 1876 
3 7938 6944 9594 
3 4606 6943 1691 
3 2721 1691 6944 
3 1876 1806 2952 
3 1876 6944 1691 
3 1876 2952 6944 
3 7938 9945 9048 
3 8701 5834 5845 
3 2952 9594 6944 
3 2952 5845 9594 
3 6944 7938 2721 
3 5220 3944 8701 
3 5220 3945 1260 
3 5220 8701 3945 
3 1260 3945 1806 
3 2920 7050 7703 
3 9874 9096 10623 
3 3944 2920 5834 
3 5845 5834 8897 
3 10219 7703 9874 
3 10811 11164 11395 
3 2920 7703 10219 
3 5834 10219 8897 
3 10219 10991 8897 
3 5845 8897 9594 
3 886 4941 1545 
3 8078 8858 10623 
3 10095 10505 8858 
3 10623 10826 9874 
3 4218 3996 6340 
3 7172 8003 3218 
3 3375 8127 6706 
3 4296 6546 6784 
3 888 6706 85 
3 3996 85 6784 
3 85 6706 1252 
3 4941 6808 4635 
3 6706 8127 3395 
3 886 84 9705 
3 3395 8127 5569 
3 3395 2803 1545 
3 1252 3395 1545 
3 1252 4669 4296 
3 8078 6559 2803 
3 5569 2803 3395 
3 1744 1847 6501 
3 9705 6501 4941 
3 2803 6559 886 
3 2803 886 1545 
3 6546 3856 5843 
3 14 4360 817 
3 4360 8544 4635 
3 817 4635 1629 
3 4669 8544 4296 
3 85 4296 6784 
3 1252 1545 4669 
3 8544 4669 4635 
3 886 9705 4941 
3 1545 4941 4669 
3 8598 6546 5843 
3 5929 3507 8043 
3 4296 8544 6546 
3 6784 6546 8598 
3 1182 1743 3328 
3 1182 3856 14 
3 4360 14 3856 
3 4360 3856 6546 
3 1901 1628 4039 
3 7937 4039 6378 
3 1963 1901 7114 
3 3263 7114 7937 
3 7937 6156 8043 
3 5929 5843 3328 
3 3263 8043 3507 
3 3263 3507 1936 
3 3328 3507 5929 
3 5929 9446 8091 
3 4219 3819 9581 
3 6378 9581 7937 
3 3369 5853 6022 
3 8043 9446 5929 
3 9218 8091 8003 
3 5853 8091 9446 
3 3996 6784 9218 
3 8091 8598 5843 
3 8598 8091 9218 
3 9218 6340 3996 
3 6784 8598 9218 
3 6340 7172 3863 
3 8597 387 3194 
3 388 695 3819 
3 6156 3819 3597 
3 6156 3597 6022 
3 8043 6156 6022 
3 9446 6022 5853 
3 8597 694 387 
3 695 387 3597 
3 3369 387 694 
3 3218 386 7172 
3 9218 8003 6340 
3 3863 7172 386 
3 8003 7172 6340 
3 4224 6433 1254 
3 5144 693 386 
3 694 386 3218 
3 3852 385 692 
3 3863 6387 6340 
3 6261 3673 11003 
3 6293 3194 10597 
3 6293 3673 5144 
3 694 5144 386 
3 11003 3673 6293 
3 3194 5898 10597 
3 385 3673 4694 
3 3673 693 5144 
3 7810 6261 11003 
3 7810 11003 10597 
3 3673 6261 4694 
3 3673 385 693 
3 8417 3852 4461 
3 9495 6272 8270 
3 6433 8417 4461 
3 8094 8263 6098 
3 3863 693 3852 
3 692 385 4694 
3 693 385 3852 
3 3863 3852 6387 
3 4224 6387 8417 
3 4224 8417 6433 
3 6655 1254 86 
3 86 6433 4527 
3 2811 6655 8188 
3 10807 10505 10382 
3 1254 6433 86 
3 2717 2726 5427 
3 6655 86 8619 
3 6655 8619 7833 
3 2717 5427 7833 
3 10095 5569 8127 
3 7833 5427 10564 
3 7833 10036 8188 
3 6655 7833 8188 
3 6655 2811 1254 
3 7833 10564 10036 
3 10826 10623 8858 
3 4224 1254 1546 
3 5576 8188 8862 
3 8188 10036 8862 
3 8188 5576 2811 
3 4218 6387 4224 
3 1546 1254 2811 
3 4218 4224 1546 
3 3996 888 85 
3 6340 6387 4218 
3 3996 4218 888 
3 3375 6706 888 
3 1546 888 4218 
3 5576 8127 3375 
3 2811 3375 1546 
3 3375 2811 5576 
3 8127 5576 10095 
3 5576 8862 10095 
3 5569 10095 8858 
3 10382 10505 8862 
3 8862 10505 10095 
3 10421 11164 10811 
3 10505 10826 8858 
3 10985 11108 10382 
3 9971 10440 10798 
3 10826 10807 11395 
3 11164 10421 10991 
3 11367 11183 11108 
3 11108 10807 10382 
3 9048 10440 9971 
3 11183 10811 11395 
3 10826 11395 11164 
3 10826 11164 9874 
3 8897 10991 10421 
3 8897 9945 9594 
3 10421 10440 9945 
3 10421 9945 8897 
3 9594 9945 7938 
3 5431 5463 2728 
3 1691 2721 894 
3 1013 233 4303 
3 4606 6962 9599 
3 4606 9599 6519 
3 4303 9599 8320 
3 91 894 2728 
3 4311 6896 8320 
3 6962 8320 9599 
3 7437 5431 9048 
3 10440 9048 9945 
3 7938 9048 5431 
3 2721 2728 894 
3 6962 894 91 
3 5463 5431 7437 
3 9847 7441 8885 
3 8885 9971 10913 
3 8320 6962 4311 
3 5463 5456 2753 
3 1259 4319 4311 
3 91 4311 6962 
3 4486 4303 6896 
3 8320 6896 4303 
3 2790 1805 1259 
3 91 1259 4311 
3 6945 6896 4319 
3 1805 4319 1259 
3 2753 2728 5463 
3 7441 5463 7437 
3 2790 2753 5456 
3 5524 5456 10005 
3 11331 10414 10913 
3 10798 10440 10811 
3 7441 7437 8885 
3 9847 8885 10414 
3 11331 10913 11367 
3 11183 10798 10811 
3 8885 7437 9971 
3 10913 9971 10798 
3 11183 10807 11108 
3 10036 10382 8862 
3 11367 11108 10810 
3 10430 11108 10985 
3 10564 10430 10985 
3 10036 10985 10382 
3 11493 10810 9837 
3 10430 10810 11108 
3 10798 11183 11367 
3 10798 11367 10913 
3 9102 10566 9837 
3 7426 9837 10430 
3 11106 11331 11493 
3 10566 11493 9837 
3 8157 8884 9102 
3 5436 9102 7426 
3 10833 11106 11318 
3 8884 10566 9102 
3 11493 10566 11106 
3 11318 10429 11173 
3 10934 11173 10429 
3 9839 11106 10566 
3 11106 10414 11331 
3 11493 11331 10810 
3 10833 10414 11106 
3 11318 11106 9839 
3 8937 5524 10005 
3 10999 10005 9847 
3 1259 2753 2790 
3 10005 5456 7441 
3 3085 1805 2790 
3 5524 2790 5456 
3 1690 1805 3085 
3 6524 3085 8079 
3 9632 6524 8079 
3 8937 8079 5524 
3 4319 1805 4462 
3 4185 893 3720 
3 9847 10414 10833 
3 10999 11173 10444 
3 10429 11318 10959 
3 11318 11173 10833 
3 10734 8079 8937 
3 10444 8937 10999 
3 9632 5869 4116 
3 7859 10031 10587 
3 9632 8079 10734 
3 10031 10734 8937 
3 1690 6524 893 
3 4462 1805 1690 
3 6524 9632 8481 
3 90 3804 6269 
3 3919 2775 1257 
3 9632 4116 8481 
3 9138 6178 6109 
3 4116 1258 8481 
3 10734 10031 5869 
3 4997 3003 1389 
3 10031 7859 5869 
3 10734 5869 9632 
3 10196 8870 10429 
3 5497 3919 7859 
3 10934 8870 10587 
3 10934 10587 10031 
3 2827 8329 2685 
3 9839 10959 11318 
3 8870 10934 10429 
3 7731 6717 8090 
3 2957 7071 9692 
3 8884 5424 8889 
3 2751 2685 5424 
3 8884 8889 9839 
3 8157 7071 2751 
3 8329 10125 8889 
3 8157 2751 5424 
3 8157 5424 8884 
3 5656 10125 8329 
3 8889 10125 10959 
3 2751 7071 890 
3 3839 3932 6098 
3 6148 6113 8419 
3 87 890 7071 
3 6354 4139 6254 
3 6291 8263 3609 
3 1255 3839 4139 
3 3754 1688 890 
3 6291 6254 8263 
3 9561 8263 8094 
3 889 1547 2717 
3 4139 3839 6254 
3 3932 3839 1547 
3 2957 87 7071 
3 2726 1255 2957 
3 9692 7071 8157 
3 1547 1255 2726 
3 5427 2726 5436 
3 5436 2957 9692 
3 5436 9692 9102 
3 3839 1255 1547 
3 3932 1547 889 
3 1547 2726 2717 
3 8619 2717 7833 
3 6433 4461 8270 
3 6272 8094 6098 
3 6433 8270 4527 
3 86 889 8619 
3 6403 4355 4538 
3 8270 6272 4527 
3 3849 8094 9495 
3 4527 6272 3932 
3 4527 3932 889 
3 4527 889 86 
3 6403 8094 3849 
3 384 8270 4461 
3 8094 6272 9495 
3 3849 384 691 
3 383 691 7019 
3 7019 691 692 
3 3849 9495 384 
3 691 384 692 
3 5757 3437 8586 
3 6261 8586 4694 
3 383 7019 3437 
3 8586 7019 4694 
3 11712 4536 5757 
3 9084 5757 7810 
3 690 383 3437 
3 4536 3437 5757 
3 3849 691 4355 
3 690 4536 382 
3 689 944 382 
3 4536 690 3437 
3 8623 383 690 
3 6841 690 382 
3 690 6841 8623 
3 383 4355 691 
3 6860 6403 4538 
3 8623 4355 383 
3 1570 943 6860 
3 4538 4355 8623 
3 3670 6291 140 
3 140 7053 1308 
3 1309 6841 141 
3 6861 7554 3961 
3 1570 6860 4538 
3 1309 4538 6841 
3 3849 4355 6403 
3 9561 6403 6860 
3 381 1310 689 
3 2799 141 944 
3 142 2747 1310 
3 689 1310 944 
3 2730 142 945 
3 7181 381 688 
3 7181 142 381 
3 11712 5757 9084 
3 945 7181 5120 
3 4969 4293 1311 
3 945 142 7181 
3 5120 688 7325 
3 2747 142 2730 
3 2733 1571 2797 
3 5469 2747 8136 
3 2733 2730 945 
3 8008 6504 2910 
3 6504 8008 7949 
3 5432 2733 5461 
3 2797 1571 1311 
3 8492 3910 6770 
3 3813 6770 1301 
3 3813 1301 1567 
3 3813 1567 3247 
3 132 6770 288 
3 281 3691 1028 
3 5842 3910 8492 
3 5777 3813 3247 
3 8492 3813 5777 
3 5678 10615 7626 
3 1567 2910 935 
3 3247 935 3132 
3 4293 4969 4557 
3 5120 1571 945 
3 935 143 3132 
3 10615 11018 7626 
3 143 1311 4293 
3 143 4293 3132 
3 2943 5842 5679 
3 7651 5842 5777 
3 5842 8492 5777 
3 7651 7626 10192 
3 7651 5777 7626 
3 10615 8996 10022 
3 3247 3132 5678 
3 3247 5678 5777 
3 3904 7920 8228 
3 3132 8753 5678 
3 3132 4293 6210 
3 8996 9004 10022 
3 6210 4293 8228 
3 7920 6741 9246 
3 687 3904 4557 
3 5120 4969 1571 
3 7303 4557 4969 
3 1571 4969 1311 
3 5120 7325 7303 
3 5120 7303 4969 
3 10112 9582 688 
3 7181 688 5120 
3 688 381 10112 
3 9582 10112 6905 
3 7325 11709 380 
3 7303 380 4557 
3 11712 9084 6905 
3 9582 6905 11709 
3 689 4536 11712 
3 10112 11712 6905 
3 11709 8381 7217 
3 379 6741 3904 
3 5757 6261 7810 
3 9084 7810 10155 
3 11709 5157 687 
3 11709 687 380 
3 3904 687 379 
3 3723 5157 7217 
3 687 5157 379 
3 6741 3337 8255 
3 6741 379 3337 
3 378 8646 684 
3 3723 7217 7809 
3 6266 8607 8646 
3 11003 6293 10597 
3 5898 8607 7809 
3 3963 9639 8607 
3 7809 8607 6266 
3 10155 10597 5898 
3 10155 5898 7809 
3 387 695 3194 
3 5898 3963 8607 
3 695 3963 3194 
3 8597 3194 6293 
3 685 377 8646 
3 378 686 3723 
3 377 684 8646 
3 9639 8646 8607 
3 5905 8255 3337 
3 686 3337 379 
3 3337 686 4407 
3 9601 4407 684 
3 684 4407 378 
3 6266 378 3723 
3 6741 8255 9246 
3 9004 10074 7568 
3 9601 8559 5905 
3 4407 5905 3337 
3 5970 3439 9298 
3 9435 10074 8255 
3 5970 9298 9435 
3 5970 9435 8559 
3 995 3357 5131 
3 217 1368 3446 
3 1583 3357 995 
3 3192 995 217 
3 7537 3192 6792 
3 3446 1368 6838 
3 3192 217 6792 
3 9305 10192 11018 
3 3439 1583 6797 
3 3439 6797 9298 
3 10192 9305 7684 
3 3446 7684 6792 
3 7537 6792 9305 
3 7537 9305 10022 
3 8255 10074 9246 
3 8996 10615 8753 
3 10074 9004 9246 
3 6741 7920 3904 
3 9246 9004 8996 
3 9246 8996 7920 
3 6210 8228 7920 
3 6210 7920 8996 
3 5842 7651 5679 
3 6051 7895 6308 
3 7684 9276 10192 
3 11018 10192 7626 
3 5678 8753 10615 
3 11018 10615 10022 
3 6308 4209 3691 
3 288 3910 1029 
3 3691 6051 6308 
3 4209 8129 6502 
3 282 6571 1030 
3 1396 8633 283 
3 4209 6502 1394 
3 281 3336 3691 
3 6743 9202 10101 
3 6206 10583 6952 
3 10995 6502 8129 
3 1590 3340 2821 
3 8129 6308 9468 
3 8129 4419 10995 
3 6051 9276 7895 
3 9468 7895 6838 
3 8129 9468 3965 
3 216 1002 2858 
3 7895 3446 6838 
3 1590 1368 3340 
3 3965 6838 1590 
3 3965 1590 1002 
3 217 5131 1368 
3 6838 1368 1590 
3 1367 6206 6952 
3 216 4419 1002 
3 4419 3965 1002 
3 2858 1002 2821 
3 6206 10101 10583 
3 6952 10583 10995 
3 10583 6502 10995 
3 6952 4419 216 
3 8129 3965 4419 
3 10995 4419 6952 
3 8199 7805 3870 
3 10101 9202 6571 
3 3870 9202 6743 
3 1001 6743 1589 
3 9634 6220 8199 
3 215 3870 1001 
3 7805 9202 3870 
3 8199 3870 215 
3 2172 2162 4714 
3 4727 4714 9634 
3 4727 9634 8199 
3 4433 6220 9634 
3 2162 2152 4433 
3 2162 4433 4714 
3 2142 3698 3745 
3 2152 3745 4433 
3 7805 6220 6039 
3 9168 6144 10309 
3 8199 6220 7805 
3 9168 8633 3636 
3 9202 7805 10137 
3 9202 10137 6571 
3 8633 9168 10309 
3 4290 4063 2122 
3 7805 6039 9168 
3 10137 9168 3636 
3 3698 2142 2132 
3 3698 2132 4063 
3 9539 4290 4294 
3 2122 4063 2132 
3 9168 6039 6144 
3 10309 6144 8314 
3 8314 4063 4290 
3 4294 4290 2112 
3 6144 4063 8314 
3 8314 9539 6105 
3 2102 4294 2112 
3 10309 8314 6105 
3 6667 9539 4294 
3 1030 1396 4870 
3 4292 6105 9539 
3 7310 1396 283 
3 6058 3256 10266 
3 1030 3636 1396 
3 283 8633 6105 
3 3636 8633 1396 
3 4498 3256 6058 
3 1394 4870 7222 
3 1394 1028 4209 
3 1394 7222 1028 
3 4209 1028 3691 
3 6051 3691 3336 
3 2943 3910 5842 
3 6051 3336 5679 
3 6051 5679 9276 
3 3540 3045 1395 
3 3336 1395 2943 
3 1029 3910 2943 
3 3336 2943 5679 
3 4870 1396 7310 
3 4870 8183 7222 
3 4870 7310 8183 
3 7222 8183 6991 
3 1395 3336 281 
3 6991 281 1028 
3 8183 6058 8269 
3 6991 8269 3540 
3 8269 5805 3540 
3 6991 3540 281 
3 3540 5805 3045 
3 288 6770 3910 
3 1395 3045 1029 
3 1395 1029 2943 
3 9335 3355 6576 
3 3045 6576 1029 
3 6576 1400 288 
3 6576 288 1029 
3 8269 6058 9410 
3 7877 7029 3278 
3 10266 7877 9410 
3 10266 9410 6058 
3 6032 10094 9124 
3 5805 9335 3045 
3 4498 1031 3256 
3 10266 7029 7877 
3 1397 284 7029 
3 3256 7029 10266 
3 7310 283 4498 
3 3256 1397 7029 
3 283 1031 4498 
3 7310 4498 6058 
3 4292 9539 6667 
3 3905 6684 4299 
3 283 6105 4292 
3 283 4292 1031 
3 6684 6667 4297 
3 4300 6816 8637 
3 3905 6667 6684 
3 4300 2092 2082 
3 3905 4299 1397 
3 1031 1397 3256 
3 2072 4213 2082 
3 4299 6684 8637 
3 6538 4415 4242 
3 4297 4300 8637 
3 6538 8725 4415 
3 1397 4299 284 
3 1032 4242 4415 
3 4299 8637 4242 
3 4299 4242 284 
3 3278 284 1032 
3 8273 3783 10094 
3 6538 6816 4213 
3 4143 4213 2072 
3 4300 4213 6816 
3 8637 6816 4242 
3 2062 4143 2072 
3 6538 4213 4143 
3 6954 4143 4639 
3 2052 4639 2062 
3 8725 6538 6954 
3 4639 4143 2062 
3 1032 4438 3278 
3 6075 3578 4051 
3 1033 6597 8536 
3 285 1398 6889 
3 4143 6954 6538 
3 6816 6538 4242 
3 6889 4415 8725 
3 6889 4424 566 
3 1032 4415 1398 
3 8536 1398 285 
3 7861 10094 3783 
3 1399 6597 1033 
3 639 7861 5266 
3 5266 3783 286 
3 5266 7861 3783 
3 1399 3783 6597 
3 6577 639 287 
3 5266 4931 639 
3 287 639 4867 
3 9547 10222 6339 
3 6906 4867 8345 
3 8345 9547 6339 
3 10250 287 8437 
3 8437 287 6906 
3 1300 1566 8437 
3 1300 6906 133 
3 10094 7861 7728 
3 1034 6577 287 
3 2523 1034 9713 
3 9713 10250 1566 
3 7877 3278 6032 
3 6597 4438 8536 
3 4438 6597 8273 
3 4438 6032 3278 
3 9124 7877 6032 
3 10094 6032 8273 
3 9410 7877 9124 
3 9335 9124 7728 
3 9124 10094 7728 
3 9335 7728 3355 
3 6849 2523 9713 
3 1034 2523 3355 
3 1400 2523 6849 
3 934 9713 1566 
3 288 1400 132 
3 1300 2928 1566 
3 1301 132 6938 
3 1301 3810 1567 
3 132 1400 6849 
3 132 934 6938 
3 6849 9713 934 
3 6849 934 132 
3 8008 5712 8893 
3 2928 1300 8519 
3 10690 8008 8893 
3 11186 8904 10403 
3 6938 8575 3810 
3 1567 3810 2910 
3 10083 8893 10676 
3 3810 5712 2910 
3 10690 7949 8008 
3 5712 8008 2910 
3 2730 2733 5432 
3 10552 11147 9814 
3 2747 2730 8136 
3 7427 9814 9295 
3 2747 5469 2814 
3 1310 2814 944 
3 9236 5469 8136 
3 5432 8136 2730 
3 9009 5476 7446 
3 5469 5476 2814 
3 5461 7949 10051 
3 10872 8893 11186 
3 7949 10690 10051 
3 5461 7427 5432 
3 5461 10051 7427 
3 5432 9295 8136 
3 7427 10051 10552 
3 11147 10552 11343 
3 9814 9828 9295 
3 7427 9295 5432 
3 9295 9828 9236 
3 9295 9236 8136 
3 5469 9236 7446 
3 9009 10466 10235 
3 9236 9828 10523 
3 7446 10523 9822 
3 11115 10806 10824 
3 10806 9822 11344 
3 10405 9828 9814 
3 10552 9814 7427 
3 10523 9828 10937 
3 10425 10845 11371 
3 10676 5775 10083 
3 11186 10403 11343 
3 8893 10083 11186 
3 8893 10872 10690 
3 5712 8575 10676 
3 5712 10676 8893 
3 10051 10690 10872 
3 11343 10872 11186 
3 10250 8437 1566 
3 934 1566 3604 
3 8575 3604 5775 
3 10083 5775 7849 
3 3604 1566 2928 
3 8519 1300 133 
3 5775 3604 2928 
3 5775 2928 7849 
3 2928 8519 7849 
3 10083 7849 8904 
3 7849 8519 6460 
3 7849 7472 8904 
3 2795 7688 7472 
3 6460 7472 7849 
3 133 3907 936 
3 6460 2795 7472 
3 1302 6459 2795 
3 936 2795 6460 
3 2795 6459 7688 
3 9977 10403 8904 
3 9117 10491 9977 
3 9977 8904 7472 
3 11010 10491 9117 
3 7688 9977 7472 
3 10491 11346 10834 
3 11343 10834 11147 
3 11196 10405 11339 
3 11196 11339 11371 
3 9828 10405 10937 
3 10937 10845 11101 
3 10405 11196 10937 
3 11344 11101 11384 
3 10523 10937 11344 
3 10523 11344 9822 
3 10389 11129 11101 
3 10937 11101 11344 
3 10824 11384 11129 
3 10110 11129 10389 
3 11010 9810 11346 
3 9915 8848 10425 
3 11339 11087 11371 
3 11196 10845 10937 
3 10389 11101 10845 
3 11371 10845 11196 
3 11010 7465 9810 
3 11087 10990 11371 
3 5410 9915 9215 
3 9810 10990 11087 
3 8848 10389 10425 
3 10990 10425 11371 
3 8848 10110 10389 
3 10425 10389 10845 
3 7979 10110 5467 
3 9915 10990 9215 
3 2788 2817 5467 
3 10110 10452 11129 
3 135 938 4569 
3 7465 9215 9810 
3 8042 9915 9660 
3 2690 2783 1569 
3 1303 2946 3205 
3 1568 937 2890 
3 5709 2770 4569 
3 9117 9977 7688 
3 2746 5390 9425 
3 2746 9425 6459 
3 7465 11010 9117 
3 9425 9117 7688 
3 6335 9403 8017 
3 6339 4148 3907 
3 4008 134 1302 
3 4148 1302 936 
3 1302 4148 4008 
3 10211 10222 4232 
3 8746 6382 10211 
3 6382 4008 4148 
3 4008 3388 134 
3 1302 134 6459 
3 4011 4232 1162 
3 1162 570 4011 
3 8746 10211 9324 
3 4011 10211 4232 
3 8760 8779 6862 
3 6127 8010 3513 
3 3949 571 1528 
3 8779 1528 6862 
3 5214 1159 571 
3 1528 4873 6862 
3 3949 7158 571 
3 1528 571 4873 
3 10222 9547 3949 
3 4232 3949 1528 
3 6382 6339 10222 
3 4232 10222 3949 
3 7158 3949 4931 
3 8345 6339 3907 
3 4931 9547 8345 
3 4867 6906 287 
3 8345 4867 4931 
3 9547 4931 3949 
3 1300 8437 6906 
3 133 6906 3907 
3 3578 1612 4051 
3 285 1033 8536 
3 3783 1399 286 
3 5266 286 4931 
3 9589 3973 5031 
3 1525 1612 1033 
3 3578 1159 1612 
3 4051 1525 5234 
3 1399 1159 5214 
3 286 5214 7158 
3 4639 8430 4424 
3 566 1525 285 
3 566 1158 5234 
3 1525 4051 1612 
3 4424 1158 566 
3 6889 566 285 
3 566 5234 1525 
3 285 1525 1033 
3 4424 6954 4639 
3 6740 4639 2052 
3 8430 1158 4424 
3 6954 4424 8725 
3 2039 6740 2052 
3 8557 6740 2039 
3 1524 8430 8557 
3 6740 8430 4639 
3 1158 8430 1524 
3 5225 8557 2027 
3 5031 1524 567 
3 5225 567 8557 
3 4051 5234 3973 
3 567 1524 8557 
3 6075 4051 3973 
3 1524 3973 1158 
3 7319 9589 5031 
3 5031 3973 1524 
3 6127 6075 8010 
3 9589 6075 3973 
3 5225 2027 2015 
3 8010 9589 7319 
3 794 5031 567 
3 1160 5032 568 
3 568 794 5176 
3 5225 2015 5176 
3 5032 8010 7319 
3 5225 5176 794 
3 5225 794 567 
3 5176 2015 2003 
3 5115 7269 568 
3 794 5032 7319 
3 1160 3513 5032 
3 568 5032 794 
3 7293 8224 4493 
3 8311 5866 3310 
3 6139 6075 6127 
3 3513 8010 5032 
3 8224 6139 6127 
3 4493 6127 3513 
3 8760 6862 4824 
3 4493 8224 6127 
3 1162 8779 8760 
3 1527 4824 1161 
3 4232 8779 1162 
3 4011 570 8751 
3 6335 8746 9324 
3 9403 9324 8751 
3 9324 4011 8751 
3 3262 5909 8058 
3 5543 9006 8322 
3 9187 9403 5734 
3 4824 8224 7293 
3 3488 3462 6215 
3 6862 8224 4824 
3 8760 4824 1527 
3 1162 8760 570 
3 8751 5734 9403 
3 7293 4493 569 
3 1161 3488 3619 
3 7293 569 1161 
3 7293 1161 4824 
3 570 8760 1527 
3 570 3262 5734 
3 8751 570 5734 
3 9187 8058 10157 
3 1527 3619 3262 
3 8058 5909 10716 
3 5734 3262 8058 
3 5734 8058 9187 
3 1161 569 3488 
3 9411 8102 5909 
3 5815 8102 5890 
3 9411 5890 8102 
3 1160 4200 3310 
3 5866 8375 6215 
3 1526 3310 3462 
3 569 3462 3488 
3 568 4200 1160 
3 3513 1526 4493 
3 3513 1160 1526 
3 4493 1526 569 
3 5176 2003 5115 
3 2003 1991 5115 
3 5176 5115 568 
3 4889 1991 1975 
3 7269 4889 9521 
3 4200 8311 3310 
3 6090 8416 8311 
3 9521 8311 4200 
3 4889 1975 3986 
3 8311 9521 6090 
3 1615 6885 3455 
3 9521 3986 6090 
3 6328 6885 4578 
3 8311 8416 5866 
3 3462 5866 6215 
3 3456 3481 5930 
3 8416 8375 5866 
3 3488 6215 8254 
3 6005 6003 3611 
3 3986 1892 3455 
3 6885 1615 803 
3 6328 6090 3455 
3 1615 3455 1892 
3 8714 4578 6885 
3 8714 6885 803 
3 803 5 8714 
3 8714 1173 4578 
3 5 1173 8714 
3 1173 1734 4578 
3 3455 6885 6328 
3 8416 6328 5930 
3 8375 8416 5930 
3 8375 5930 6003 
3 6005 8668 6003 
3 3481 6003 5930 
3 1987 2001 3611 
3 6005 3611 3537 
3 3414 3537 2013 
3 2001 2013 3537 
3 2013 2025 3414 
3 2025 3315 3414 
3 3225 2049 3116 
3 5699 3116 5565 
3 2025 2037 3315 
3 8102 10716 5909 
3 5699 7713 5815 
3 3315 5890 3414 
3 2037 2049 3225 
3 2037 3225 3315 
3 3315 5815 5890 
3 5975 6005 3537 
3 7713 10716 8102 
3 5890 9411 5975 
3 8254 6005 5975 
3 5975 3537 3414 
3 6008 8254 9411 
3 5890 5975 3414 
3 6215 8668 8254 
3 3488 6008 3619 
3 3488 8254 6008 
3 3619 6008 5909 
3 8254 5975 9411 
3 6008 9411 5909 
3 10716 7713 10157 
3 9049 7584 10242 
3 10157 7713 7578 
3 10157 7578 9049 
3 7850 5864 7778 
3 7850 7778 9145 
3 6014 5962 3521 
3 7778 8374 9275 
3 8489 5928 8551 
3 8374 5973 9275 
3 5928 5973 8551 
3 6011 6014 3523 
3 7850 7725 5765 
3 5864 3478 5962 
3 6014 3521 3523 
3 3478 3297 2090 
3 5634 7584 5565 
3 2985 5565 3116 
3 7725 7584 5634 
3 3114 2985 2070 
3 5765 5634 3114 
3 3297 2080 2090 
3 5765 3114 3297 
3 5765 3297 5864 
3 2985 3116 2060 
3 3114 2070 2080 
3 3114 2080 3297 
3 3521 3478 2100 
3 3510 2120 2130 
3 6014 8374 5962 
3 5864 3297 3478 
3 5962 3478 3521 
3 2110 3523 3521 
3 2110 3521 2100 
3 8551 8374 6014 
3 8551 6014 6011 
3 3510 6011 3523 
3 5996 3510 3506 
3 2110 2120 3523 
3 2130 2140 3506 
3 3496 2140 2150 
3 5833 7840 9254 
3 5894 3407 3326 
3 3506 2140 3496 
3 5894 9254 9355 
3 2150 2160 3407 
3 3496 5958 5989 
3 3496 3407 5958 
3 8530 6079 5954 
3 8549 5958 9355 
3 5833 5756 7840 
3 5996 6011 3510 
3 3506 3510 2130 
3 8551 6011 8489 
3 5989 5996 3506 
3 6011 5996 8489 
3 5928 8489 5954 
3 8549 6079 8530 
3 5989 8530 5996 
3 3505 6079 3459 
3 3459 5985 3591 
3 8530 5989 8549 
3 6079 8549 5985 
3 9254 5904 5985 
3 9355 5985 8549 
3 3591 939 3459 
3 5985 3459 6079 
3 6432 2817 1305 
3 5904 3591 5985 
3 3366 1304 1569 
3 136 939 2788 
3 7033 136 2788 
3 2817 939 1305 
3 4569 2783 8569 
3 3366 3505 1304 
3 2690 1569 1304 
3 7033 1304 136 
3 3376 5928 3366 
3 1304 3505 136 
3 3366 5954 3505 
3 136 3505 3459 
3 7306 3205 9145 
3 7306 9145 9275 
3 1569 938 3376 
3 5928 3376 5973 
3 9187 10157 9049 
3 9187 9049 10328 
3 9006 10242 10205 
3 9006 10205 8322 
3 8017 9187 10328 
3 9006 10328 9049 
3 2946 2890 8322 
3 2946 5667 3205 
3 8322 10205 5667 
3 8322 5667 2946 
3 4569 1303 135 
3 938 135 3522 
3 135 7306 3522 
3 938 3522 3376 
3 3205 135 1303 
3 1568 2746 937 
3 7465 5390 5709 
3 2783 2690 5410 
3 9324 9403 6335 
3 3388 5543 2890 
3 6335 8017 5543 
3 2890 5543 8322 
3 4008 6382 8746 
3 4008 6335 3388 
3 4008 8746 6335 
3 3388 6335 5543 
3 2770 2746 1568 
3 2890 937 3388 
3 2946 1303 1568 
3 2946 1568 2890 
3 5709 5390 2770 
3 4569 2770 1303 
3 9215 7465 5709 
3 9215 8569 5410 
3 9660 9915 5410 
3 2783 4569 938 
3 5709 4569 8569 
3 5709 8569 9215 
3 5410 8569 2783 
3 1569 2783 938 
3 9660 5410 2690 
3 7033 2690 1304 
3 9660 7033 8042 
3 5467 2817 7979 
3 8848 9915 8042 
3 7033 9660 2690 
3 10110 8848 5467 
3 2788 8042 7033 
3 8042 2788 5467 
3 8042 5467 8848 
3 8486 6432 137 
3 940 3079 3855 
3 8486 137 940 
3 6471 9683 7829 
3 137 6432 1305 
3 3271 5904 10625 
3 5821 3855 3079 
3 5844 3079 3271 
3 5821 10190 8013 
3 3855 8013 6468 
3 4152 3213 1448 
3 3686 1448 8149 
3 8013 8149 6468 
3 3855 1306 940 
3 394 8562 1082 
3 1448 1082 8149 
3 8333 6899 3213 
3 5727 4152 7781 
3 10657 10033 9098 
3 9212 7781 9442 
3 5643 5632 2896 
3 9491 7781 9212 
3 9481 8054 10317 
3 10287 10657 9098 
3 7756 10287 7692 
3 3644 9491 9212 
3 9192 7692 8488 
3 9630 697 10150 
3 5727 3213 4152 
3 395 3805 5268 
3 10287 9098 9491 
3 9442 7781 4152 
3 9098 7781 9491 
3 5632 9491 3644 
3 395 3686 7203 
3 3805 9165 10038 
3 1448 3686 395 
3 4152 5268 9442 
3 4152 395 5268 
3 9442 5268 699 
3 2896 5632 3644 
3 4434 8172 6947 
3 1083 3644 396 
3 5274 9212 699 
3 5643 2896 4057 
3 1449 2896 1083 
3 395 7203 3805 
3 5268 3805 699 
3 7287 396 4194 
3 4194 3805 10038 
3 10625 10241 5844 
3 7677 10715 9165 
3 7678 9364 9165 
3 7203 9165 3805 
3 10190 9167 9364 
3 10190 9364 7678 
3 8013 10190 7678 
3 3686 7678 7203 
3 137 1305 3271 
3 137 3271 3079 
3 8013 3855 5821 
3 10190 10743 9167 
3 3271 3591 5904 
3 10625 9254 7840 
3 5821 3079 10743 
3 10743 5844 10241 
3 10241 9167 10743 
3 5844 10743 3079 
3 5985 9355 9254 
3 5904 9254 10625 
3 7644 9167 7764 
3 7840 10241 10625 
3 9364 9167 7644 
3 6214 10038 10715 
3 9364 7644 7677 
3 9364 7677 9165 
3 10241 7840 7764 
3 3161 3252 2180 
3 7840 5756 7764 
3 10241 7764 9167 
3 3326 3407 2160 
3 3407 5894 5958 
3 3161 5756 3252 
3 5894 5833 9254 
3 5756 5833 3252 
3 2170 3326 2160 
3 7764 5756 5681 
3 3121 3161 2190 
3 5833 5894 3326 
3 3252 2170 2180 
3 3252 3326 2170 
3 2200 3121 2190 
3 5710 3121 3368 
3 5756 3161 5681 
3 7764 5681 7644 
3 5681 3121 5710 
3 7677 5988 10715 
3 7677 5710 5988 
3 2210 3368 2200 
3 2210 2220 3633 
3 5988 6214 10715 
3 5988 3633 6214 
3 6453 4346 8172 
3 3633 3368 2210 
3 3943 2230 4346 
3 4439 2240 2250 
3 4439 2250 4545 
3 4502 2275 4191 
3 2230 2240 4346 
3 6947 3955 4434 
3 2250 2259 4545 
3 4439 6947 8172 
3 4439 4545 6947 
3 8172 4434 7287 
3 4630 4588 7166 
3 4545 7166 6947 
3 3368 3633 5988 
3 3368 5988 5710 
3 2240 4439 4346 
3 3943 4346 6453 
3 3943 6453 6214 
3 3943 6214 3633 
3 396 5274 4194 
3 7287 4194 6453 
3 1083 396 4434 
3 3955 6947 7166 
3 2896 3644 1083 
3 1449 1083 3955 
3 1083 4434 3955 
3 1449 3955 4588 
3 389 4556 10150 
3 6802 4588 4630 
3 4222 4568 9613 
3 6422 3912 6130 
3 5663 3227 3084 
3 9613 8398 6422 
3 5851 3626 3227 
3 5851 6130 3626 
3 9317 6422 6130 
3 4502 6802 4630 
3 7916 9317 6130 
3 4191 8398 4502 
3 6802 397 4588 
3 7166 4588 3955 
3 8398 4568 6802 
3 8398 6802 4502 
3 2267 4502 4630 
3 2259 4630 4545 
3 2283 4191 2275 
3 2267 4630 2259 
3 2275 4502 2267 
3 6422 4191 3912 
3 3912 4191 2283 
3 3626 3912 2291 
3 8398 4191 6422 
3 9613 6422 9317 
3 3626 6130 3912 
3 2291 3912 2283 
3 7916 6130 5851 
3 3227 3626 2299 
3 5663 3084 5687 
3 2299 3626 2291 
3 5903 3374 3600 
3 2307 3227 2299 
3 3084 3227 2307 
3 2315 3084 2307 
3 3084 2315 3374 
3 3374 2323 3600 
3 4270 8178 6414 
3 2315 2323 3374 
3 3084 3374 5687 
3 2323 2331 3600 
3 5903 7754 5687 
3 7574 5663 5687 
3 5903 3600 6171 
3 7960 5903 6171 
3 9322 6171 6342 
3 7708 5851 5663 
3 5663 5851 3227 
3 7916 5851 7708 
3 7708 5663 7574 
3 3074 9350 5692 
3 9379 7754 10197 
3 9059 7708 7574 
3 9379 7574 7754 
3 7574 5687 7754 
3 7960 6171 9322 
3 5687 3374 5903 
3 7754 7960 10197 
3 7754 5903 7960 
3 10197 7960 6688 
3 5692 9059 10643 
3 9053 9059 9379 
3 9059 7574 9379 
3 9053 9379 8080 
3 9059 9053 10643 
3 9350 7916 7708 
3 9379 10197 8080 
3 5945 3349 3737 
3 9317 7916 7066 
3 4080 5867 4556 
3 7708 9059 9350 
3 3074 3231 696 
3 389 4222 7066 
3 3074 7066 9350 
3 7066 7916 9350 
3 5692 9350 9059 
3 389 697 4222 
3 4057 2896 1449 
3 10150 697 389 
3 7066 4222 9317 
3 4568 7326 397 
3 4568 397 6802 
3 6908 4057 9630 
3 697 7326 4568 
3 8488 5643 6908 
3 9630 7326 697 
3 1449 397 4057 
3 5643 4057 6908 
3 7692 5643 8488 
3 5867 6908 4556 
3 4057 7326 9630 
3 6908 9630 10150 
3 4556 389 696 
3 3074 389 7066 
3 4080 4556 696 
3 7823 8089 6314 
3 4080 696 390 
3 3231 7847 7262 
3 7756 7692 9192 
3 5867 8488 6908 
3 6908 10150 4556 
3 5867 4080 9481 
3 5665 3133 3050 
3 10317 8488 5867 
3 5738 9192 8054 
3 9481 10317 5867 
3 8654 9481 7012 
3 7012 390 698 
3 696 3231 390 
3 391 4938 1079 
3 10739 7815 7847 
3 5150 6732 8654 
3 7847 7815 7262 
3 3794 698 390 
3 9648 7815 10739 
3 10113 7847 10643 
3 10113 10739 7847 
3 10643 7847 5692 
3 7808 10739 10113 
3 5945 10113 9053 
3 5272 616 3349 
3 6688 3349 8080 
3 10236 616 9185 
3 255 3349 6688 
3 254 7216 3737 
3 3737 7808 5945 
3 7216 7808 3737 
3 616 3737 3349 
3 4083 254 5265 
3 616 5265 3737 
3 3426 7951 7216 
3 7808 9648 10739 
3 4083 1390 254 
3 5265 254 3737 
3 9392 6084 9648 
3 7951 9648 7808 
3 5876 9392 7951 
3 7216 7951 7808 
3 9392 7823 6084 
3 7815 3794 7262 
3 3276 3426 1390 
3 7951 9392 9648 
3 8074 6006 5950 
3 1390 3426 254 
3 7951 3426 5876 
3 3276 1390 1024 
3 6006 3276 3809 
3 1024 1390 2983 
3 3809 3276 1024 
3 253 1024 4997 
3 8217 3701 5950 
3 9138 8729 6178 
3 3809 1024 253 
3 3809 6109 8217 
3 6718 8089 3433 
3 3433 1257 1804 
3 5876 3276 6006 
3 9392 8074 7823 
3 5950 8089 8074 
3 3585 3794 6084 
3 5876 6006 8074 
3 7823 8074 8089 
3 3426 3276 5876 
3 9392 5876 8074 
3 891 88 8583 
3 5738 8054 3208 
3 4938 391 6314 
3 9688 8089 6718 
3 4780 4938 9688 
3 4938 8583 6724 
3 4938 6314 9688 
3 4938 4780 8583 
3 4377 1080 4936 
3 8054 6732 3208 
3 8533 4936 6842 
3 6724 1445 1079 
3 6842 4936 392 
3 6732 5150 1079 
3 6842 392 1445 
3 6842 1445 6724 
3 7756 5738 5665 
3 392 3208 1445 
3 8054 8654 6732 
3 3208 6732 1445 
3 7823 6314 3585 
3 5150 391 1079 
3 6314 391 3585 
3 3794 390 7262 
3 3585 391 698 
3 390 7012 4080 
3 3585 698 3794 
3 6084 3794 7815 
3 9481 8654 8054 
3 10317 8054 9192 
3 698 391 5150 
3 698 5150 7012 
3 9481 4080 7012 
3 8654 7012 5150 
3 10657 8310 10033 
3 5727 8333 3213 
3 5665 8310 10657 
3 7756 10657 10287 
3 10657 7756 5665 
3 8310 3050 3549 
3 7756 9192 5738 
3 5665 5738 3133 
3 1082 6899 394 
3 5103 1447 1081 
3 10033 8310 8552 
3 3780 6930 1081 
3 1082 3213 6899 
3 1447 6899 3780 
3 5727 10033 8333 
3 6899 8333 3780 
3 3855 6468 1306 
3 940 2956 8486 
3 8149 1082 8562 
3 6468 138 1306 
3 10110 7979 10452 
3 9177 2956 7829 
3 940 1306 2956 
3 8486 2956 9177 
3 9177 9843 10452 
3 10204 10452 7979 
3 10452 10204 9177 
3 9843 9177 7829 
3 2956 1306 6471 
3 2888 1307 2908 
3 394 941 138 
3 8562 138 6468 
3 6899 1447 394 
3 8562 394 138 
3 2888 6471 941 
3 7031 394 1447 
3 139 2908 1307 
3 5103 7031 1447 
3 10806 11384 10824 
3 9843 10824 10452 
3 5481 9683 2888 
3 1307 2888 941 
3 10466 9822 10806 
3 11115 10824 9843 
3 10466 10806 11115 
3 5481 2888 2908 
3 7829 9683 10578 
3 9843 10578 11115 
3 11115 10578 9907 
3 7547 6936 4087 
3 10578 9683 5481 
3 9907 9486 10742 
3 5103 11723 139 
3 2908 139 6936 
3 3969 6377 393 
3 1446 393 6930 
3 1307 941 7031 
3 1307 7031 5103 
3 8552 3549 6930 
3 8552 6930 3780 
3 1446 3549 1601 
3 3133 5738 3208 
3 1080 3050 3133 
3 392 3133 3208 
3 4377 6969 1601 
3 3050 1601 3549 
3 8343 6969 7141 
3 7141 4377 4687 
3 4377 1601 1080 
3 4936 1080 392 
3 8014 6148 6377 
3 393 6377 11723 
3 8343 8014 3969 
3 6969 3969 1446 
3 6113 8014 9353 
3 4687 1256 1803 
3 3730 8343 4019 
3 4019 4687 1803 
3 6148 3670 4584 
3 4087 7053 9645 
3 3670 1308 4584 
3 6377 4584 11723 
3 9486 2908 6936 
3 4087 6936 942 
3 1308 4087 942 
3 4584 942 11723 
3 10935 9907 10742 
3 9645 7053 3961 
3 9907 5481 9486 
3 10742 9486 7547 
3 9009 9822 10466 
3 10935 11115 9907 
3 8929 10466 10935 
3 8929 10935 10742 
3 7446 9822 9009 
3 10235 10466 8929 
3 5476 9009 9609 
3 7620 7108 9609 
3 8929 10742 7554 
3 8929 7620 10235 
3 9486 6936 7547 
3 10742 7547 7554 
3 7547 4087 9645 
3 7547 9645 7554 
3 9609 7108 2799 
3 1309 6861 1570 
3 140 943 7053 
3 1308 7053 4087 
3 9009 10235 9609 
3 5476 2799 2814 
3 9609 10235 7620 
3 6861 7620 7554 
3 1309 141 7108 
3 9609 2799 5476 
3 7620 6861 7108 
3 2799 7108 141 
3 6861 3961 1570 
3 1309 1570 4538 
3 3961 7053 943 
3 6860 943 3609 
3 6291 3609 140 
3 3670 140 1308 
3 6254 6291 6354 
3 4139 3869 87 
3 6291 3670 8419 
3 6354 8419 6113 
3 6148 8014 6113 
3 3869 890 87 
3 8014 8343 9353 
3 6113 3754 3869 
3 9353 8343 3730 
3 9353 3730 3754 
3 6354 6113 3869 
3 6354 3869 4139 
3 6113 9353 3754 
3 3869 3754 890 
3 3730 1875 1688 
3 890 1688 2751 
3 1875 2827 2685 
3 1875 2685 1688 
3 10196 10125 7731 
3 2685 8329 5424 
3 10429 10125 10196 
3 8870 10196 8090 
3 7207 3602 7731 
3 8870 5497 10587 
3 891 3602 5175 
3 2827 5656 8329 
3 5656 7207 7731 
3 10196 7731 8090 
3 3601 5656 2827 
3 1803 2827 1875 
3 7731 10125 5656 
3 7207 5656 3601 
3 8343 7141 4019 
3 3730 4019 1875 
3 2827 1803 3601 
3 3601 1256 5175 
3 4019 7141 4687 
3 1256 4687 8533 
3 4687 4936 8533 
3 1256 8533 88 
3 3602 891 1689 
3 6718 4780 9688 
3 6717 3602 1689 
3 6717 1689 1804 
3 5175 7207 3601 
3 1256 3601 1803 
3 1256 88 5175 
3 7207 5175 3602 
3 7731 3602 6717 
3 3919 7214 7859 
3 1689 6718 1804 
3 5497 8870 8090 
3 3433 3701 1257 
3 1804 2775 6717 
3 8089 5950 3433 
3 6718 3433 1804 
3 89 1257 3701 
3 5950 3701 3433 
3 6006 3809 8217 
3 6006 8217 5950 
3 4390 10133 4181 
3 253 6109 3809 
3 89 3701 6178 
3 6109 6178 8217 
3 1548 892 4390 
3 10133 10184 4181 
3 4390 8729 9138 
3 8415 6109 253 
3 7214 3919 89 
3 8729 89 6178 
3 892 1548 3015 
3 1548 4181 1258 
3 1804 1257 2775 
3 6717 2775 8090 
3 1257 89 3919 
3 2775 5497 8090 
3 7859 10587 5497 
3 3919 5497 2775 
3 5869 7859 3015 
3 892 7214 89 
3 7859 7214 3015 
3 5869 3015 4116 
3 89 8729 892 
3 7214 892 3015 
3 1258 4116 1548 
3 1258 4181 3804 
3 10184 9396 3804 
3 90 6269 3720 
3 10184 6301 9396 
3 3804 9396 6269 
3 9396 6301 8018 
3 9396 8018 6269 
3 3184 7967 5694 
3 8018 9062 9223 
3 7967 9062 5694 
3 3704 3896 252 
3 10469 9062 9946 
3 3184 3704 615 
3 10184 3804 4181 
3 4390 4181 1548 
3 7893 10184 10133 
3 10133 4390 9138 
3 6301 10184 7893 
3 1389 8415 253 
3 3896 6301 7893 
3 4150 10133 8415 
3 10133 9138 8415 
3 10133 4150 7893 
3 3896 7893 4150 
3 1023 4150 1389 
3 4150 1023 3896 
3 3896 3704 6301 
3 10314 615 9358 
3 252 9358 615 
3 5694 6301 3704 
3 252 3896 1023 
3 3184 5694 3704 
3 615 3704 252 
3 6496 7967 3184 
3 6496 3184 251 
3 615 5021 251 
3 6496 251 3299 
3 614 3838 3299 
3 6496 8179 9108 
3 251 5021 614 
3 250 613 4364 
3 9287 3838 4364 
3 4809 4608 4628 
3 9287 4364 9445 
3 4235 854 51 
3 4235 9445 4628 
3 854 4628 1661 
3 9287 9445 4235 
3 9287 9602 7933 
3 4235 4628 854 
3 51 854 6608 
3 10708 9179 5657 
3 9602 9287 4235 
3 5657 7933 3187 
3 51 9602 4235 
3 6496 3299 8179 
3 10039 8179 9179 
3 7933 9179 5977 
3 7933 5977 9287 
3 7967 6496 9108 
3 10972 10465 10469 
3 7275 50 530 
3 3187 7933 9602 
3 9602 51 3187 
3 2849 2766 1538 
3 5657 3187 3350 
3 4228 8574 6140 
3 3187 51 1219 
3 8833 7969 9932 
3 3350 1219 1538 
3 1139 535 3381 
3 9444 5482 2849 
3 530 5172 1505 
3 6608 9444 2849 
3 1219 2849 1538 
3 7722 10018 9444 
3 2766 7780 8560 
3 10803 11565 11370 
3 7780 9932 9717 
3 8859 10018 10801 
3 8859 10801 10960 
3 5482 8859 7780 
3 5482 7780 2766 
3 10392 10809 10381 
3 11565 10960 10801 
3 11565 11503 11107 
3 9932 7969 9717 
3 11492 10783 11436 
3 10375 9984 8825 
3 10783 10426 11085 
3 11274 11085 11491 
3 11085 11161 11273 
3 11491 11273 11283 
3 11492 9804 10783 
3 11436 10783 11638 
3 10783 9804 10426 
3 11085 11179 11161 
3 11107 10960 11565 
3 11503 11565 10803 
3 11107 11503 11322 
3 11107 11322 10809 
3 10551 9804 11492 
3 11322 11492 11436 
3 7416 7400 8831 
3 10551 8831 9804 
3 8831 7400 8813 
3 7381 5349 9313 
3 10426 8813 10582 
3 10694 8827 10908 
3 10426 10582 11179 
3 10426 11179 11085 
3 7400 5377 7381 
3 7400 7381 8813 
3 2806 1778 1222 
3 7381 9313 10582 
3 11130 9155 10046 
3 10803 10046 10551 
3 10046 9155 7416 
3 10046 7416 8831 
3 7722 7716 8914 
3 11158 11370 10801 
3 5979 9482 10586 
3 11197 9973 11130 
3 11565 10801 11370 
3 10803 11130 10046 
3 9973 9155 11130 
3 11197 11130 11158 
3 2906 7722 6608 
3 51 6608 1219 
3 10018 5482 9444 
3 7722 9444 6608 
3 6558 7716 2906 
3 854 2906 6608 
3 10586 11197 8914 
3 7722 8914 10018 
3 11130 11370 11158 
3 8914 11158 10018 
3 4809 7147 4608 
3 4628 4608 1661 
3 9752 7716 6558 
3 4140 6558 1776 
3 7147 4638 5017 
3 4608 1776 1661 
3 5017 1220 1776 
3 5017 1776 4608 
3 1662 3066 4141 
3 10586 9973 11197 
3 6904 9482 3066 
3 3066 9482 5979 
3 6558 4140 9752 
3 7716 9752 10586 
3 9752 5979 10586 
3 7716 10586 8914 
3 1777 2779 6904 
3 9482 8004 9973 
3 9155 8004 5442 
3 7416 5442 5407 
3 7381 5377 5349 
3 7464 10694 9141 
3 9313 5349 5382 
3 4633 1222 54 
3 2644 5377 2666 
3 1221 2700 2779 
3 1663 856 8688 
3 856 2666 53 
3 5442 8004 2779 
3 1861 6904 3066 
3 1777 1221 2779 
3 6904 2779 8004 
3 53 2666 2700 
3 2779 2700 5442 
3 2700 1221 53 
3 2666 856 2644 
3 2602 2644 1663 
3 8688 856 495 
3 495 760 8688 
3 856 1663 2644 
3 1778 2602 1663 
3 1778 1663 6679 
3 762 495 6888 
3 53 495 856 
3 760 494 6679 
3 8688 6679 1663 
3 4197 6385 4924 
3 4197 1777 1861 
3 762 6888 8555 
3 4924 6888 1221 
3 6864 488 4334 
3 8277 4664 9375 
3 4141 855 1662 
3 3066 1662 1861 
3 5246 855 4141 
3 4140 4141 9752 
3 4924 1221 1777 
3 1861 1777 6904 
3 52 1220 4664 
3 5017 4664 1220 
3 4141 4140 5246 
3 52 4664 8277 
3 4312 4013 1022 
3 4013 4638 1388 
3 4905 4799 4795 
3 6169 8277 6135 
3 855 5246 52 
3 4795 8277 4905 
3 8465 10336 2925 
3 9016 10953 5674 
3 1388 1022 4013 
3 6135 8231 9664 
3 10953 9911 10502 
3 10249 10930 7522 
3 4312 1022 258 
3 10336 7774 10502 
3 5882 6283 7774 
3 10336 10502 9005 
3 6283 3954 9738 
3 3954 5195 613 
3 1022 1388 8629 
3 1022 8629 5882 
3 4013 9375 4638 
3 249 4638 7147 
3 6283 5195 3954 
3 250 4364 3838 
3 4809 249 7147 
3 4608 7147 5017 
3 3954 613 250 
3 614 250 3838 
3 613 249 4809 
3 9445 4809 4628 
3 9738 5674 10953 
3 5021 3264 614 
3 7774 9738 10953 
3 3264 3954 250 
3 10502 7774 10953 
3 8938 7691 5553 
3 3954 3264 5674 
3 9016 9911 10953 
3 3954 5674 9738 
3 6283 9738 7774 
3 253 4997 1389 
3 2945 7691 9358 
3 9016 8938 9911 
3 5553 7691 2945 
3 3264 5021 7925 
3 7691 10314 9358 
3 10314 7691 7925 
3 10314 7925 5021 
3 4150 8415 1389 
3 1023 3003 2945 
3 3003 5553 2945 
3 1023 2945 252 
3 8752 3003 4997 
3 2983 4997 1024 
3 8752 5553 3003 
3 1389 3003 1023 
3 9409 8752 6106 
3 6106 8752 4997 
3 5575 7586 6106 
3 2983 6106 4997 
3 8938 5553 9409 
3 10928 7522 10930 
3 7925 7691 9016 
3 9911 8938 10511 
3 7691 8938 9016 
3 7925 9016 5674 
3 8938 9409 10511 
3 9911 10511 10930 
3 10224 7522 10928 
3 9911 10930 10502 
3 6106 2983 5575 
3 10236 5265 616 
3 7834 9266 5575 
3 4083 5575 2983 
3 5575 9266 7586 
3 6106 7586 9409 
3 5575 4083 7834 
3 7834 10236 9185 
3 4083 10236 7834 
3 7057 4166 5580 
3 9266 7834 7763 
3 4739 9185 5272 
3 7834 9185 7763 
3 9266 7763 10224 
3 7586 9266 10928 
3 7522 10224 5580 
3 10502 10930 10249 
3 5800 2877 4745 
3 9266 10224 10928 
3 10511 10928 10930 
3 10336 9005 2925 
3 8684 9005 10249 
3 5882 7774 10336 
3 8539 6289 6431 
3 5882 10336 8465 
3 5882 258 1022 
3 258 6431 4312 
3 4013 6135 9375 
3 4013 4312 6135 
3 9375 6135 8277 
3 4312 6431 8231 
3 4312 8231 6135 
3 6135 9664 6169 
3 4799 4905 755 
3 9005 8684 2925 
3 8465 1392 258 
3 1026 3751 1392 
3 2925 1392 8465 
3 1392 6431 258 
3 8465 258 5882 
3 2925 8684 1026 
3 2925 1026 1392 
3 1026 3448 3751 
3 1392 3751 6431 
3 8231 6431 6289 
3 8231 4220 9664 
3 3920 756 4220 
3 6289 4220 8231 
3 8539 7860 6289 
3 6289 3920 4220 
3 7251 490 3920 
3 7860 3920 6289 
3 3751 3448 5997 
3 5991 3432 3928 
3 3751 5997 8539 
3 3751 8539 6431 
3 2877 5580 4166 
3 256 617 4264 
3 1026 4745 257 
3 1026 257 3448 
3 7522 5580 5800 
3 4745 2877 1391 
3 8684 10249 5800 
3 2877 5800 5580 
3 3979 617 255 
3 9185 4739 7763 
3 5580 7763 7057 
3 4166 7057 256 
3 4739 5272 255 
3 4739 255 617 
3 4264 617 3979 
3 9322 3979 7960 
3 1025 4166 256 
3 1025 4164 3956 
3 4164 256 7198 
3 6414 4264 6342 
3 6357 3956 6445 
3 6445 4164 8178 
3 3970 3956 6357 
3 3970 9307 7266 
3 3970 6357 9307 
3 7266 7869 3448 
3 3956 4164 6445 
3 4059 2303 3951 
3 6357 6445 8740 
3 6357 6240 9307 
3 4164 7198 8178 
3 4072 3840 2333 
3 7198 6414 8178 
3 4153 2319 2311 
3 3600 2331 3840 
3 3600 3840 6171 
3 2327 4270 4072 
3 3840 4072 6342 
3 2331 2333 3840 
3 2333 2327 4072 
3 4270 2319 4153 
3 4059 2311 2303 
3 6414 4072 4270 
3 8178 4270 4153 
3 6445 8178 4153 
3 6445 4059 8740 
3 4153 2311 4059 
3 4153 4059 6445 
3 8740 3951 6240 
3 8047 7860 5997 
3 6240 3803 6018 
3 7251 3920 7860 
3 3951 2303 2295 
3 3803 2295 2287 
3 3432 2287 2279 
3 3928 2279 2271 
3 2518 6512 8517 
3 2271 4840 3928 
3 4840 2271 2263 
3 6487 757 2518 
3 6942 5991 3928 
3 3803 3432 6018 
3 6942 4257 8153 
3 4840 6512 6942 
3 5991 8153 8047 
3 6357 8740 6240 
3 7869 8047 5997 
3 3432 5991 6018 
3 6240 7869 9307 
3 6240 6018 7869 
3 9307 7869 7266 
3 6018 5991 8047 
3 6018 8047 7869 
3 5991 6942 8153 
3 8047 8153 7860 
3 4257 490 7251 
3 8153 7251 7860 
3 5271 4257 757 
3 6512 4257 6942 
3 2518 757 6512 
3 6512 757 4257 
3 492 4357 758 
3 8627 4467 5271 
3 4357 492 6961 
3 4316 1119 1485 
3 493 759 4851 
3 4851 6642 8735 
3 4357 9698 758 
3 491 8517 2255 
3 4851 759 6642 
3 492 6642 759 
3 9698 6487 2518 
3 8517 4840 2263 
3 4357 6487 9698 
3 491 2518 8517 
3 9698 2518 491 
3 491 9621 7328 
3 7328 9698 491 
3 9621 2245 10088 
3 8517 2263 2255 
3 491 2255 9621 
3 9621 8780 2245 
3 10088 8772 492 
3 2245 2235 10088 
3 758 9698 7328 
3 758 9621 10088 
3 2255 8780 9621 
3 7328 9621 758 
3 10088 2235 8772 
3 492 8772 6642 
3 2225 2215 8735 
3 2225 8735 6642 
3 2225 6642 8772 
3 2235 2225 8772 
3 2215 2205 4595 
3 2195 2185 4754 
3 7079 498 8634 
3 2185 2175 4932 
3 2185 4932 4754 
3 8634 4932 7079 
3 6258 3592 5840 
3 4932 8634 4754 
3 2195 4754 4359 
3 8413 4404 7079 
3 4662 7079 4932 
3 8735 4595 4851 
3 4838 6698 1119 
3 2205 2195 4359 
3 2205 4359 4595 
3 8351 4838 6528 
3 8407 4851 4595 
3 4298 6528 8407 
3 9518 8407 4359 
3 8351 6528 4298 
3 9518 4298 8407 
3 764 4298 4657 
3 498 4657 8634 
3 3846 765 4404 
3 3846 4404 9536 
3 4947 764 5239 
3 498 764 4657 
3 498 765 5239 
3 764 4947 497 
3 4947 763 497 
3 764 497 4298 
3 5018 4947 6987 
3 6987 4947 4927 
3 4334 1485 6698 
3 496 8555 6385 
3 6972 6698 4838 
3 5255 6961 759 
3 6528 4838 493 
3 6528 493 4851 
3 497 6972 8351 
3 497 8351 4298 
3 4357 6782 9591 
3 8627 5271 757 
3 1119 4316 5255 
3 493 5255 759 
3 4467 490 5271 
3 4467 8627 9591 
3 6487 9591 8627 
3 6487 8627 757 
3 9664 4220 489 
3 4882 4316 1485 
3 489 756 11731 
3 488 1485 4334 
3 11731 6782 4882 
3 11731 755 489 
3 6961 5255 4316 
3 6782 4316 4882 
3 6698 1485 1119 
3 4838 1119 493 
3 11731 4882 755 
3 4795 52 8277 
3 4334 6698 8304 
3 4334 8304 6379 
3 4220 756 489 
3 755 4882 488 
3 6169 489 4905 
3 6169 4905 8277 
3 4799 755 488 
3 755 4905 489 
3 855 52 4795 
3 855 4654 1662 
3 4654 4795 4799 
3 4654 6864 4310 
3 855 4795 4654 
3 4310 6864 6379 
3 4654 4799 6864 
3 6379 6864 4334 
3 496 762 8555 
3 6385 8555 4924 
3 5185 495 762 
3 5185 5018 6987 
3 6972 763 4643 
3 8304 4643 6385 
3 5185 762 5018 
3 763 496 4643 
3 763 4947 5018 
3 5185 6987 5088 
3 5088 6987 4927 
3 499 4927 765 
3 496 763 5018 
3 496 5018 762 
3 495 5185 760 
3 8688 760 6679 
3 5064 6679 494 
3 4560 494 761 
3 7111 4560 8256 
3 9735 6004 565 
3 499 6775 4422 
3 563 8567 792 
3 761 499 4422 
3 761 4422 4560 
3 4246 6798 8037 
3 10315 9536 7862 
3 8256 6798 4400 
3 5229 4305 7037 
3 8001 3715 6004 
3 4246 793 4400 
3 6798 4246 4400 
3 8256 9490 7111 
3 4246 565 793 
3 564 4414 792 
3 4305 8466 7037 
3 793 7037 564 
3 4915 1522 1156 
3 5229 7037 793 
3 1522 560 6627 
3 8466 4992 6999 
3 5125 790 7169 
3 5125 7169 460 
3 3938 8553 5161 
3 460 743 4127 
3 5275 4548 9604 
3 5161 743 460 
3 1156 4305 5229 
3 565 5229 793 
3 1522 4305 1156 
3 3715 1156 565 
3 6627 4305 1522 
3 7007 8686 461 
3 1469 7007 461 
3 9417 2105 2095 
3 7229 8312 4907 
3 461 4907 1469 
3 8312 8553 3938 
3 4907 3938 1469 
3 4548 8553 8421 
3 3237 6982 459 
3 5228 6865 7229 
3 4907 8312 3938 
3 4104 4649 6430 
3 8312 6430 8553 
3 5228 744 462 
3 461 7229 4907 
3 5270 745 5228 
3 744 7229 461 
3 9649 8001 6004 
3 5885 3491 3630 
3 3715 8001 9349 
3 3715 4915 1156 
3 7007 1522 4915 
3 9349 4915 3715 
3 4915 9349 8686 
3 4915 8686 7007 
3 8037 4422 6775 
3 8037 9473 9735 
3 4246 8037 9735 
3 4246 9735 565 
3 7865 9473 7862 
3 9536 10315 3846 
3 6775 10315 9473 
3 9735 9473 6004 
3 6258 5840 7862 
3 9473 7865 6004 
3 9473 10315 7862 
3 7865 5840 5885 
3 6004 7865 9649 
3 8001 9649 6056 
3 9349 8001 6348 
3 6875 2115 2105 
3 8001 6056 6348 
3 9349 6348 4214 
3 5840 3491 5885 
3 9649 5885 6056 
3 6348 6056 8731 
3 6348 4707 4214 
3 9536 4404 8413 
3 9536 8413 6258 
3 3592 3491 5840 
3 7862 5840 7865 
3 3592 6258 4088 
3 2165 4088 4662 
3 2135 3491 2145 
3 2155 3592 4088 
3 2175 2165 4662 
3 2165 2155 4088 
3 2125 3630 2135 
3 3713 2125 2115 
3 3491 3592 2145 
3 3713 3630 2125 
3 6056 3630 3713 
3 8731 3713 6875 
3 3713 2115 6875 
3 744 461 4214 
3 8731 6875 4707 
3 8720 9417 2095 
3 462 8720 5270 
3 5270 8720 8659 
3 8720 2095 8659 
3 4104 6430 8312 
3 463 2075 2065 
3 6760 2043 4954 
3 8659 2095 2085 
3 8659 2085 745 
3 745 2075 463 
3 6430 4649 8421 
3 8659 745 5270 
3 8720 462 9417 
3 463 2065 1102 
3 463 1102 4104 
3 6875 9417 4707 
3 8731 4707 6348 
3 4707 9417 462 
3 4707 462 744 
3 5228 7229 744 
3 4707 744 4214 
3 8312 7229 6865 
3 5270 5228 462 
3 745 463 6865 
3 745 6865 5228 
3 6865 463 4104 
3 6865 4104 8312 
3 1468 6721 4649 
3 1102 4649 4104 
3 1468 2510 6721 
3 4649 6721 8421 
3 9507 8616 6280 
3 458 6280 2921 
3 6280 8616 9661 
3 10281 8917 8926 
3 5597 7475 7589 
3 9661 10281 8063 
3 4954 8616 9507 
3 6760 1468 8526 
3 5597 5934 3403 
3 8616 5934 9661 
3 9507 458 1468 
3 1102 1468 4649 
3 4954 9507 6760 
3 8526 1468 1102 
3 2055 6760 8526 
3 2065 8526 1102 
3 5934 4376 3403 
3 2055 8526 2065 
3 2043 6760 2055 
3 2031 4954 2043 
3 4376 2031 2019 
3 5597 7589 5934 
3 8616 4954 4376 
3 4954 2031 4376 
3 8616 4376 5934 
3 2019 2007 3403 
3 2019 3403 4376 
3 5478 7475 5597 
3 2876 3403 2007 
3 2876 1995 2785 
3 7450 8882 7449 
3 5478 5597 2876 
3 1995 2876 2007 
3 2785 1995 1979 
3 2785 1979 2889 
3 1979 1896 2889 
3 8905 8917 7475 
3 1619 3257 3037 
3 5626 5548 3037 
3 1619 3037 1896 
3 5677 5626 3257 
3 807 3257 1619 
3 7525 5548 5626 
3 3037 5548 2889 
3 5677 7656 5626 
3 3257 5626 3037 
3 2889 5490 2785 
3 2785 5478 2876 
3 2889 5548 5490 
3 5478 7449 7475 
3 8952 8882 7450 
3 5490 7449 5478 
3 7525 8952 7450 
3 5490 7450 7449 
3 9107 8952 7525 
3 7656 7525 5626 
3 9107 7525 7656 
3 10574 7656 5677 
3 11002 10574 7914 
3 7914 5677 3827 
3 10216 8952 9107 
3 7471 5736 2786 
3 7656 10574 10052 
3 9107 7471 10216 
3 7449 8882 8905 
3 10684 8125 8968 
3 8882 8952 9952 
3 8895 7471 7493 
3 9902 9898 10729 
3 9877 8917 8905 
3 9898 10701 9877 
3 9857 8905 8882 
3 7589 7475 8917 
3 8926 5593 8063 
3 9857 9877 8905 
3 7449 8905 7475 
3 458 2921 2510 
3 458 2510 1468 
3 7589 8917 10281 
3 7589 10281 9661 
3 5275 9604 742 
3 742 9604 6721 
3 3237 5275 742 
3 2921 742 2510 
3 8421 9604 4548 
3 8553 4548 5161 
3 743 4548 459 
3 3237 742 2921 
3 459 5275 3237 
3 9126 3237 5593 
3 9947 5593 8926 
3 8926 8063 10281 
3 9126 5593 9947 
3 10701 8926 8917 
3 9701 7813 9947 
3 10701 9947 8926 
3 9947 10701 9898 
3 7524 9902 8968 
3 4548 5275 459 
3 10221 7199 4127 
3 743 459 3958 
3 7816 6982 10179 
3 459 6982 3958 
3 743 3958 4127 
3 10179 8195 7816 
3 6982 7816 3958 
3 3672 8195 5873 
3 5720 5474 2792 
3 9126 9947 7813 
3 5873 5720 3394 
3 9947 9898 9701 
3 7813 5720 5873 
3 10899 11229 9902 
3 9898 9902 7524 
3 10474 11229 10899 
3 9902 11229 8968 
3 9877 9857 10729 
3 9877 10729 9898 
3 9974 11229 10474 
3 8895 9952 10216 
3 8952 10216 9952 
3 9857 9952 10899 
3 9107 10052 7471 
3 10216 7471 8895 
3 8895 10275 10474 
3 8895 10474 9952 
3 8968 11229 10684 
3 10684 7597 9374 
3 10275 8895 7493 
3 10275 7493 10237 
3 7493 6828 10237 
3 10275 9132 9974 
3 10237 6828 3119 
3 10237 5917 9132 
3 9374 8125 10684 
3 9974 10684 11229 
3 3119 5917 10237 
3 10237 9132 10275 
3 5474 8968 8125 
3 5474 2839 2792 
3 1834 6738 3434 
3 7597 9974 9132 
3 6282 9374 7597 
3 6282 5917 8541 
3 3119 3806 5917 
3 9132 5917 7597 
3 6738 9374 3434 
3 8541 5917 3806 
3 4367 6282 8541 
3 4367 5025 154 
3 3434 1322 1834 
3 2667 7929 5364 
3 8541 3806 5025 
3 8541 5025 4367 
3 1834 2619 1719 
3 8009 5568 4236 
3 4367 1322 3434 
3 1719 2619 2705 
3 153 2792 956 
3 956 2839 1719 
3 6738 1834 1719 
3 6738 1719 2839 
3 6282 4367 3434 
3 6282 3434 9374 
3 1719 2705 956 
3 153 1321 3394 
3 2792 2839 956 
3 7285 956 2705 
3 1833 2603 1887 
3 5472 7601 6121 
3 153 4236 1321 
3 3394 1321 3672 
3 5472 6121 2988 
3 955 4995 152 
3 1887 2635 1718 
3 1718 2988 955 
3 2603 2635 1887 
3 3574 9267 7661 
3 2706 2603 1833 
3 3454 1887 3574 
3 1718 955 4028 
3 1718 3574 1887 
3 1321 2706 1833 
3 3672 1833 3454 
3 7285 4236 153 
3 3672 1321 1833 
3 956 7285 153 
3 2792 153 3394 
3 10179 7813 5873 
3 10179 5873 8195 
3 7813 9701 5720 
3 3394 5720 2792 
3 3574 4028 9267 
3 7661 9267 7856 
3 7816 7661 7856 
3 7816 7856 3958 
3 1718 4028 3574 
3 3454 3574 7661 
3 10221 8276 7199 
3 4127 7199 460 
3 9267 6298 10221 
3 9267 10221 7856 
3 4597 7263 5007 
3 561 4992 790 
3 10221 6298 8276 
3 7199 8276 5125 
3 4992 791 6999 
3 8466 6999 7013 
3 562 5174 791 
3 561 790 5125 
3 5007 791 561 
3 790 4992 6627 
3 791 4992 561 
3 5007 561 8276 
3 4400 793 564 
3 4400 9490 8256 
3 7013 5147 4414 
3 7037 4414 564 
3 494 4560 7111 
3 848 4633 54 
3 4400 564 9490 
3 7111 4525 5064 
3 7111 9490 4525 
3 2806 2602 1778 
3 4525 9490 6790 
3 848 2805 4633 
3 4525 6790 54 
3 1658 563 8460 
3 3779 1523 5147 
3 4414 5147 792 
3 6999 3779 7013 
3 8466 7013 7037 
3 6790 8567 54 
3 1222 1778 5064 
3 792 5147 563 
3 8567 563 848 
3 5382 2602 2806 
3 5064 1778 6679 
3 4525 54 1222 
3 4525 1222 5064 
3 5349 2602 5382 
3 9313 5382 9141 
3 9141 5382 8474 
3 4633 2806 1222 
3 2806 4633 8474 
3 2806 8474 5382 
3 8474 4633 5739 
3 5388 2805 2748 
3 54 8567 848 
3 2805 848 1658 
3 3300 1773 1214 
3 562 5024 9457 
3 4953 8571 9457 
3 5024 562 5045 
3 5045 562 8548 
3 1157 8571 6449 
3 8571 1157 562 
3 791 5174 6999 
3 7263 5045 8548 
3 7263 8548 5007 
3 152 7263 4597 
3 955 4597 4028 
3 791 8548 562 
3 5174 562 1157 
3 4765 9457 5024 
3 1717 2749 954 
3 4995 1320 152 
3 955 152 4597 
3 1832 5024 1320 
3 152 1320 5045 
3 2988 6121 4995 
3 2988 4995 955 
3 9680 7407 5468 
3 1832 4765 5024 
3 5468 2616 2987 
3 6121 2987 4995 
3 954 5184 1717 
3 2616 1832 2987 
3 2616 1717 1832 
3 2987 1832 1320 
3 1773 6449 1214 
3 1214 4953 45 
3 4953 9457 4765 
3 5184 4765 1717 
3 1658 1773 2748 
3 6455 3300 5121 
3 6449 4953 1214 
3 3300 1214 5121 
3 9141 8474 5739 
3 5388 5739 2805 
3 5540 5388 2748 
3 3300 2748 1773 
3 10582 9313 9913 
3 10396 10840 11161 
3 7417 8827 7464 
3 9141 10694 9913 
3 8827 10694 7464 
3 5388 7464 5739 
3 7463 6455 9328 
3 6455 5540 3300 
3 4765 5184 45 
3 1214 45 5121 
3 10123 7417 7463 
3 5540 7417 5388 
3 8827 7417 10123 
3 10009 7463 9328 
3 9913 10694 10908 
3 11179 10908 11161 
3 10396 8827 10123 
3 10443 10123 10009 
3 10396 10443 10840 
3 11273 10840 11469 
3 10123 10443 10396 
3 10908 10396 11161 
3 6839 6907 7516 
3 10009 7516 10161 
3 7516 9328 6839 
3 151 3423 7145 
3 6907 6839 1213 
3 953 1536 849 
3 3277 847 1535 
3 1535 151 1319 
3 9328 6455 3277 
3 6839 3277 1535 
3 847 954 151 
3 1535 1319 1213 
3 5475 3423 2749 
3 2616 2749 1717 
3 2749 2616 5386 
3 9680 5468 6121 
3 3423 5475 9710 
3 7145 7915 3064 
3 7428 10656 9226 
3 7915 5846 3064 
3 5468 7407 5386 
3 5468 5386 2616 
3 10162 10569 8849 
3 10162 8849 7407 
3 11348 10799 11309 
3 10377 10107 8819 
3 11560 11330 11078 
3 10850 10377 8819 
3 11185 10875 10473 
3 10850 11330 11073 
3 7419 8819 7385 
3 8916 10569 10162 
3 10988 10107 10377 
3 11073 10377 10850 
3 7403 10107 8916 
3 7601 8916 10162 
3 8916 10107 10988 
3 10569 10988 11309 
3 7385 10107 7403 
3 5353 5472 2635 
3 8819 10107 7385 
3 7419 7385 5361 
3 7403 7601 5472 
3 5353 2603 5361 
3 7403 5472 5353 
3 7403 5353 7385 
3 10286 7419 5568 
3 4236 5568 2706 
3 10286 5568 8009 
3 2705 8009 7285 
3 8819 7419 10547 
3 7388 5364 9181 
3 10547 7419 10286 
3 10547 9852 10850 
3 10286 8009 9184 
3 10286 9184 10547 
3 10547 9184 9852 
3 10850 10371 11330 
3 9852 9184 7388 
3 9852 7388 9794 
3 2705 2619 5371 
3 2705 5371 8009 
3 7929 9181 5364 
3 7929 2667 7254 
3 1834 1322 2667 
3 2619 2667 5364 
3 1322 4367 154 
3 4038 5514 7929 
3 1322 154 7254 
3 1322 7254 2667 
3 4038 2662 5514 
3 7929 10232 9181 
3 7929 7254 4038 
3 2662 4038 947 
3 10875 9794 10473 
3 7393 10473 10232 
3 5514 7393 10232 
3 5514 10232 7929 
3 11078 10371 10875 
3 9794 7388 9181 
3 10875 10371 9794 
3 10473 9794 9181 
3 11330 10371 11078 
3 10416 9846 10478 
3 11078 10875 11297 
3 10416 9808 9846 
3 10416 11185 9808 
3 9380 9808 7393 
3 2708 5506 8066 
3 2653 8066 5369 
3 2861 5506 2708 
3 144 2708 1313 
3 11297 10416 11152 
3 11152 10902 9812 
3 9380 9134 9846 
3 9380 9846 9808 
3 9933 10543 9851 
3 9134 9851 9846 
3 10626 9933 9071 
3 5533 5506 2861 
3 11109 11643 11321 
3 11297 10875 11185 
3 11185 10416 11297 
3 10802 11152 9812 
3 11622 11330 11560 
3 11321 11078 11297 
3 10802 11321 11297 
3 10802 11297 11152 
3 11643 11456 11560 
3 11330 11622 11073 
3 11456 11622 11560 
3 11321 11560 11078 
3 10594 10829 11132 
3 11303 11309 11073 
3 11132 11348 11303 
3 11109 10885 11335 
3 7415 8948 10594 
3 9806 10594 11132 
3 10829 11348 11132 
3 10424 11335 11195 
3 11132 11303 10786 
3 11132 10786 9806 
3 11303 11622 11456 
3 10786 11456 11335 
3 11560 11321 11643 
3 11456 11643 11335 
3 10679 11195 10885 
3 10532 11109 10802 
3 11335 11643 11109 
3 10885 10532 9934 
3 7415 5419 8948 
3 10594 8948 10534 
3 9806 10786 10424 
3 9806 9033 7415 
3 2679 5419 5403 
3 9033 9806 10424 
3 5419 7415 5403 
3 7827 9315 6805 
3 5403 9033 7827 
3 9878 11195 10679 
3 11377 11195 9878 
3 7391 7413 5380 
3 9010 10679 9934 
3 10532 10802 9812 
3 7391 9934 8837 
3 7434 9870 10126 
3 10885 11109 10532 
3 8837 10532 9812 
3 8837 9812 8852 
3 5425 2675 5380 
3 11152 10478 10902 
3 9812 10902 8852 
3 8852 10902 9870 
3 10543 11208 9851 
3 11214 10126 9870 
3 11208 9870 10902 
3 10965 8909 11214 
3 10543 11214 9870 
3 9064 8909 10965 
3 9064 10626 7818 
3 7413 8852 7434 
3 2759 147 2675 
3 8909 9064 5520 
3 4274 5008 1830 
3 9010 9934 7391 
3 9010 5477 8763 
3 8837 8852 7413 
3 8837 7413 7391 
3 7413 7434 5425 
3 7413 5425 5380 
3 2675 5425 2759 
3 2818 5471 8332 
3 10126 8909 8332 
3 10126 8332 5471 
3 8332 5520 2808 
3 2818 1830 1315 
3 6569 4274 4285 
3 2808 1830 2818 
3 7298 4345 146 
3 2808 1715 1830 
3 6692 7232 5008 
3 1830 5008 1315 
3 6569 6692 4274 
3 1715 4274 1830 
3 5010 3026 1316 
3 950 2684 2675 
3 1315 7232 147 
3 950 2522 795 
3 8763 3026 5010 
3 1573 2684 950 
3 2818 1315 2759 
3 2675 147 950 
3 1315 147 2759 
3 5471 2759 5425 
3 951 3001 5010 
3 5477 5380 2684 
3 148 5010 1316 
3 1573 3026 2684 
3 6794 148 5047 
3 1316 3026 1573 
3 5047 148 1316 
3 575 1573 795 
3 10736 7837 5785 
3 3201 5785 3268 
3 148 3164 951 
3 3164 6804 951 
3 6804 3201 1574 
3 3001 1574 6805 
3 6804 1574 951 
3 148 951 5010 
3 3201 3268 1317 
3 2679 2765 5419 
3 6805 1574 1317 
3 6805 1317 2642 
3 9315 9010 6142 
3 9315 6142 3001 
3 5010 6142 8763 
3 3026 5477 2684 
3 7827 11377 9878 
3 9315 9878 9010 
3 9010 7391 5477 
3 8763 5477 3026 
3 2642 149 2679 
3 5403 7415 9033 
3 2642 2679 5403 
3 2642 5403 7827 
3 9033 11377 7827 
3 2642 7827 6805 
3 3176 3728 1831 
3 1886 6639 6638 
3 3176 1831 1886 
3 1716 1886 6638 
3 5696 3728 3176 
3 1831 3728 1318 
3 6037 3728 5696 
3 7063 1886 1716 
3 7676 6037 5696 
3 10209 7673 9336 
3 5696 3176 7721 
3 952 149 6983 
3 7721 7063 3435 
3 7673 9587 9336 
3 1716 2765 952 
3 6983 149 3268 
3 5696 7721 9106 
3 7673 6983 9587 
3 3435 952 6983 
3 3435 6983 7673 
3 7676 9106 10175 
3 6168 3465 8218 
3 7931 9336 9587 
3 5785 9587 3268 
3 9106 10653 10175 
3 6168 40 3465 
3 9106 10209 10653 
3 7931 5794 5819 
3 8305 6037 7676 
3 10671 7676 10175 
3 7721 10209 9106 
3 5696 9106 7676 
3 7673 10209 7721 
3 7063 7721 3176 
3 6749 10081 8171 
3 10148 7738 10671 
3 3467 8305 7738 
3 5918 7738 10148 
3 3359 5918 10081 
3 5755 10153 7836 
3 10081 5918 9242 
3 5912 10148 8218 
3 7864 7274 3117 
3 3178 3117 1216 
3 5715 3178 8171 
3 9535 7836 9115 
3 5604 5400 2828 
3 1216 1774 3178 
3 8171 3178 6749 
3 3359 6749 1659 
3 2828 1216 4720 
3 8765 4720 6591 
3 4720 5604 2828 
3 1216 2828 1774 
3 5400 5537 2774 
3 1774 1659 6749 
3 8204 6742 3241 
3 1659 850 3359 
3 3467 850 47 
3 9566 47 1215 
3 6037 9566 4830 
3 1536 3242 2780 
3 3241 1659 2774 
3 5400 2774 2828 
3 850 1659 3241 
3 850 6742 47 
3 850 3241 6742 
3 47 6742 1215 
3 10470 7395 10149 
3 9984 9054 7432 
3 10470 10409 7395 
3 10149 7395 5604 
3 5400 7395 10060 
3 5537 10060 9210 
3 3241 5537 8204 
3 11205 10443 10161 
3 8204 9210 5538 
3 3242 5538 2780 
3 4190 3064 5846 
3 9398 8988 10161 
3 5537 9210 8204 
3 6742 8204 3242 
3 4830 9566 1215 
3 4830 150 1318 
3 4830 1215 150 
3 1318 7096 4095 
3 1831 1318 4095 
3 1831 6639 1886 
3 9509 6638 7572 
3 9596 6639 4095 
3 10043 8948 9509 
3 6638 9509 2765 
3 6638 6639 7572 
3 9509 7572 10043 
3 10534 8948 10043 
3 10996 10043 10085 
3 150 1215 1536 
3 150 1536 953 
3 1319 1575 1213 
3 46 2647 6907 
3 150 953 7096 
3 4095 7096 9596 
3 1575 953 849 
3 2647 849 2780 
3 1575 849 46 
3 1213 46 6907 
3 7096 953 4190 
3 3064 1319 7145 
3 953 1575 4190 
3 7096 4190 9596 
3 9890 10996 8928 
3 9226 7915 9710 
3 10534 10996 9890 
3 11167 9890 10656 
3 3064 1575 1319 
3 7145 1319 151 
3 4190 1575 3064 
3 5846 7915 8928 
3 9226 8928 7915 
3 9710 7915 7145 
3 11205 10161 8988 
3 5538 5399 2780 
3 2647 5399 9398 
3 6907 9398 7516 
3 2647 2780 5399 
3 9398 5399 8988 
3 46 849 2647 
3 6907 2647 9398 
3 11553 11283 11442 
3 11184 10819 10470 
3 9210 10916 7445 
3 9210 7445 5538 
3 9800 10916 11100 
3 11469 11100 11283 
3 11100 11469 9800 
3 10916 9800 7445 
3 11469 10840 11205 
3 9800 11205 8988 
3 11322 11436 10809 
3 2732 5412 2711 
3 11368 11638 11079 
3 11442 11283 10819 
3 10381 8833 10392 
3 11107 10392 10960 
3 11436 11368 10809 
3 11107 10809 10392 
3 10015 8833 10381 
3 10392 8833 9932 
3 5412 8833 10015 
3 11368 10381 10809 
3 11442 10375 11079 
3 11553 11079 11638 
3 11079 11553 11442 
3 11184 11442 10819 
3 10375 8825 10922 
3 11079 10922 11368 
3 11442 11184 10375 
3 11079 10375 10922 
3 6590 4183 7569 
3 10627 10015 10922 
3 10819 10409 10470 
3 11184 10470 9984 
3 5029 49 6963 
3 5412 7969 8833 
3 4183 7249 9086 
3 10627 10922 8825 
3 2732 2711 1537 
3 9086 10627 7569 
3 9086 5412 10015 
3 10922 10015 10381 
3 9086 10015 10627 
3 7569 10627 8825 
3 1537 5126 1218 
3 853 1538 2766 
3 9086 7249 2711 
3 5412 2732 7969 
3 531 6932 1504 
3 1138 1504 4278 
3 5232 5126 1537 
3 7155 1537 852 
3 1138 4278 5172 
3 535 4922 781 
3 1218 1138 530 
3 1505 5172 3792 
3 1138 5172 530 
3 8113 1139 3381 
3 50 1218 530 
3 6140 5657 3350 
3 8574 8113 9360 
3 1505 4930 530 
3 6475 1218 50 
3 7275 4228 853 
3 1537 1218 2732 
3 9717 8560 7780 
3 6475 7969 2732 
3 6475 2732 1218 
3 6475 50 8560 
3 6475 8560 9717 
3 10960 10392 9932 
3 10960 9932 8859 
3 7275 4930 4228 
3 1538 4228 3350 
3 530 4930 7275 
3 50 853 8560 
3 4228 1538 853 
3 7275 853 50 
3 3350 4228 6140 
3 5657 7575 10708 
3 4228 4930 8574 
3 6140 8574 9360 
3 7575 6140 9360 
3 7573 7942 8975 
3 4930 1505 8113 
3 4930 8113 8574 
3 3381 535 7247 
3 3381 7573 9360 
3 7575 9360 7573 
3 10708 8975 10039 
3 10041 10039 8975 
3 7942 7573 7247 
3 5657 6140 7575 
3 10708 7575 8975 
3 7967 9108 9946 
3 7967 9946 9062 
3 8975 8913 10041 
3 10039 10041 9108 
3 1258 3804 90 
3 1258 90 8481 
3 10469 10006 9223 
3 8018 9223 6269 
3 8481 90 893 
3 8481 893 6524 
3 9223 10006 7821 
3 9223 7821 6269 
3 10041 8913 10972 
3 10006 7484 10265 
3 8913 10465 10972 
3 10041 10972 9946 
3 8913 8975 7942 
3 8913 5982 10016 
3 3720 7821 6275 
3 9147 10265 10311 
3 9147 10006 10265 
3 10311 6474 6275 
3 1690 893 4185 
3 6275 7821 9147 
3 6474 4185 6275 
3 6474 10311 8445 
3 4185 6474 4462 
3 4185 4462 1690 
3 6945 6474 4327 
3 1014 6710 1380 
3 3557 8445 10311 
3 9147 10311 6275 
3 10311 10265 3557 
3 3750 1379 6733 
3 7484 2967 6710 
3 10265 6710 3557 
3 7484 10016 2967 
3 6710 2967 1380 
3 3413 4671 5982 
3 10016 7484 10465 
3 10006 10465 7484 
3 10265 7484 6710 
3 5982 8352 10016 
3 8913 10016 10465 
3 4671 8352 5982 
3 7942 5982 8913 
3 4922 535 1139 
3 1505 1139 8113 
3 781 4671 3413 
3 7247 3413 7942 
3 3413 535 781 
3 534 6867 6933 
3 1139 3792 4922 
3 781 4922 5196 
3 4922 5002 5196 
3 534 6933 4671 
3 3792 8402 6844 
3 3792 6844 4922 
3 5196 5002 780 
3 6867 5081 1381 
3 532 778 4550 
3 6844 4826 5002 
3 236 3550 1381 
3 5243 4061 1380 
3 1380 235 5243 
3 6677 1381 3550 
3 780 6867 534 
3 4671 6933 8352 
3 5196 780 534 
3 781 534 4671 
3 8445 3557 234 
3 8445 4327 6474 
3 234 3557 1014 
3 234 6733 1379 
3 4462 6474 6945 
3 4462 6945 4319 
3 8445 234 4327 
3 6945 4486 6896 
3 1013 4486 1379 
3 4327 4486 6945 
3 3750 1013 1379 
3 234 1379 4327 
3 7747 4061 6677 
3 1014 6733 234 
3 5243 6677 4061 
3 1380 4061 1014 
3 1015 6677 5243 
3 1015 5243 235 
3 10143 9452 7747 
3 4061 9452 6733 
3 7744 9452 10143 
3 3550 7747 6677 
3 3203 233 1013 
3 7744 3750 9452 
3 3203 1013 3750 
3 9452 3750 6733 
3 606 233 3306 
3 3306 3203 5810 
3 10608 7744 10143 
3 7532 7747 3550 
3 9041 10143 7532 
3 6483 9475 7664 
3 4488 7279 236 
3 3550 7279 7532 
3 6910 607 236 
3 1381 6677 1015 
3 9416 7332 607 
3 6910 5081 533 
3 5081 236 1381 
3 6867 1381 1015 
3 9416 6910 5015 
3 780 5081 6867 
3 780 5002 533 
3 780 533 5081 
3 5002 4826 779 
3 1016 237 5179 
3 236 5081 6910 
3 607 6910 9416 
3 533 779 5015 
3 533 5015 6910 
3 6281 6909 4747 
3 5015 6909 9416 
3 6513 6545 4550 
3 532 4747 779 
3 4098 3988 354 
3 4108 7040 4607 
3 3988 676 354 
3 355 4607 677 
3 4979 677 4607 
3 677 11708 355 
3 4667 4550 778 
3 6513 7040 4108 
3 852 49 5029 
3 7040 6963 4607 
3 6545 9739 4550 
3 4826 532 779 
3 4667 6513 4550 
3 532 4550 9739 
3 6932 778 8402 
3 4826 778 532 
3 531 4667 2512 
3 6932 8402 4278 
3 778 4826 8402 
3 778 6932 2512 
3 531 2512 6932 
3 1504 6932 4278 
3 1537 7155 5232 
3 5126 5232 1504 
3 2711 7249 852 
3 7155 852 5029 
3 5232 7155 531 
3 5232 531 1504 
3 5029 7040 4667 
3 2512 4667 778 
3 531 7155 5029 
3 7040 5029 6963 
3 852 7249 49 
3 4979 5222 356 
3 4183 6590 1217 
3 49 4979 6963 
3 9086 7569 4183 
3 7249 4183 49 
3 5222 1217 1775 
3 7432 8825 9984 
3 2688 6590 7432 
3 6591 9054 8765 
3 2688 7432 9054 
3 8765 9054 10149 
3 2688 1660 1775 
3 6590 1775 1217 
3 1775 6590 2688 
3 6591 2688 9054 
3 5222 1775 5260 
3 11716 851 48 
3 357 5260 1660 
3 1660 5260 1775 
3 4720 48 851 
3 6591 851 1660 
3 49 1217 4979 
3 6963 4979 4607 
3 4979 1217 5222 
3 356 5222 678 
3 4108 4607 355 
3 354 7106 675 
3 4979 356 677 
3 677 4368 11708 
3 2509 678 357 
3 5260 678 5222 
3 4368 678 6362 
3 6454 11716 7274 
3 48 7274 11716 
3 851 11716 357 
3 679 6362 2509 
3 679 2509 6454 
3 2509 11716 6454 
3 7020 6454 7803 
3 6362 8383 4368 
3 678 4368 356 
3 4252 679 358 
3 2509 6362 678 
3 676 3210 354 
3 10291 9757 8020 
3 5884 3210 11708 
3 8383 11708 4368 
3 11708 8383 5884 
3 3210 5884 10291 
3 8383 4252 6143 
3 7020 679 6454 
3 680 3641 358 
3 7020 358 679 
3 3430 680 3438 
3 5730 3438 7803 
3 5082 680 359 
3 6853 3430 8540 
3 9213 6256 8540 
3 5730 8540 3430 
3 9563 10308 7806 
3 3043 8189 5767 
3 352 5209 5207 
3 9617 9361 7749 
3 7106 9373 4896 
3 675 4896 353 
3 9361 9757 6143 
3 3641 4252 358 
3 8383 6362 4252 
3 6143 4252 3641 
3 277 7140 5231 
3 9373 10291 8020 
3 10291 9373 7106 
3 10291 7106 3210 
3 353 4896 7304 
3 3542 10308 9563 
3 7304 4896 9373 
3 7304 6315 5070 
3 4308 636 277 
3 5231 7140 353 
3 637 277 5231 
3 674 353 7304 
3 7140 277 636 
3 6909 5015 4747 
3 675 353 4802 
3 6826 8150 6545 
3 7140 636 4384 
3 6545 8150 9739 
3 7140 4384 4802 
3 675 4098 354 
3 11708 3210 676 
3 4108 3988 6513 
3 354 3210 7106 
3 675 7106 4896 
3 6545 6513 3988 
3 6545 4098 6826 
3 4108 355 676 
3 4108 676 3988 
3 4802 4384 6826 
3 9739 8150 4747 
3 6281 8150 6826 
3 4098 6545 3988 
3 4802 6826 4098 
3 4802 4098 675 
3 7332 9416 237 
3 6281 4747 8150 
3 8710 6909 6281 
3 4384 6281 6826 
3 276 5179 8710 
3 237 1016 7332 
3 9416 6909 237 
3 5179 276 635 
3 607 8625 4488 
3 7664 7532 7279 
3 8710 5179 237 
3 8710 237 6909 
3 6483 7664 4488 
3 607 4488 236 
3 7332 1016 8625 
3 7332 8625 607 
3 3203 7744 5810 
3 10138 10608 9041 
3 10711 9041 9475 
3 6483 8625 1016 
3 6299 3306 5810 
3 5810 7744 10608 
3 5092 3306 6299 
3 10138 5810 10608 
3 5810 9382 6299 
3 604 3921 231 
3 9143 10159 9382 
3 10138 9382 5810 
3 10138 9041 10711 
3 10138 7771 9382 
3 9041 7664 9475 
3 3405 238 3185 
3 4488 8625 6483 
3 3405 3185 5729 
3 5729 5728 7771 
3 10711 7771 10138 
3 10711 9475 5729 
3 10711 5729 7771 
3 5092 6299 8433 
3 5092 8433 605 
3 5770 9554 10159 
3 9382 10159 6299 
3 3390 3033 5770 
3 9554 3033 8433 
3 5770 3033 9554 
3 10159 9554 6299 
3 604 3033 3390 
3 3378 608 239 
3 3378 8344 5728 
3 7771 9143 9382 
3 5729 3185 5728 
3 7771 5728 9143 
3 608 3185 238 
3 634 238 275 
3 6351 2507 635 
3 7011 275 1382 
3 1382 238 3405 
3 6483 3405 9475 
3 275 238 1382 
3 7011 1382 1016 
3 8649 2507 6351 
3 5178 635 276 
3 636 5178 276 
3 4384 276 6281 
3 8649 275 2507 
3 635 2507 7011 
3 3606 275 8649 
3 6351 635 5178 
3 8546 8603 9557 
3 8603 6351 5178 
3 9557 4308 7043 
3 7043 278 3384 
3 7043 4308 637 
3 7043 637 278 
3 8603 4308 9557 
3 7734 7043 3384 
3 5209 6713 4691 
3 279 4691 7277 
3 10145 9316 5927 
3 8546 6351 8603 
3 10648 8546 9557 
3 7734 9557 7043 
3 3314 634 3606 
3 5927 3606 8546 
3 3606 8649 8546 
3 5927 8546 10648 
3 239 6427 3378 
3 5728 8344 9143 
3 3185 608 3378 
3 229 602 5183 
3 4120 230 602 
3 8494 9143 8344 
3 6966 3390 8494 
3 6966 8494 6427 
3 3390 230 604 
3 3033 604 231 
3 230 3390 6966 
3 5183 6966 6427 
3 8344 3378 6427 
3 8344 6427 8494 
3 608 634 274 
3 239 633 5129 
3 5927 9316 3314 
3 634 3314 274 
3 5129 5086 603 
3 6427 603 5183 
3 603 239 5129 
3 5086 273 6707 
3 4070 230 4120 
3 9466 6617 8599 
3 229 6617 602 
3 5183 602 6966 
3 9724 8599 6617 
3 602 6617 4120 
3 557 9724 7278 
3 603 229 5183 
3 603 5086 7278 
3 229 7278 9724 
3 633 5133 273 
3 5129 273 5086 
3 3579 7017 7694 
3 9316 7039 3314 
3 7017 10332 7694 
3 8587 7694 7662 
3 239 274 633 
3 5129 633 273 
3 5133 633 7039 
3 10332 7039 9316 
3 7694 9316 10145 
3 7662 10145 9199 
3 10145 5927 10648 
3 7734 10648 9557 
3 6131 7662 5733 
3 8652 9199 7734 
3 1027 3172 4646 
3 8652 5733 9199 
3 5733 8652 4646 
3 5733 4646 3172 
3 9563 7806 6713 
3 278 638 3384 
3 5070 674 7304 
3 7806 10308 9640 
3 359 4621 671 
3 6046 6315 8020 
3 350 672 5201 
3 3542 3043 5767 
3 351 3542 9563 
3 6713 7806 4691 
3 672 3740 5201 
3 6315 7304 9373 
3 8652 3384 638 
3 279 638 4691 
3 673 6713 352 
3 5207 5209 278 
3 352 6713 5209 
3 278 5209 638 
3 9563 6713 673 
3 5070 352 674 
3 5207 5231 674 
3 5207 674 352 
3 673 352 5070 
3 6046 8020 9361 
3 673 5070 3483 
3 8020 6315 9373 
3 3483 6315 6046 
3 9617 3768 5201 
3 351 9563 673 
3 351 3483 3740 
3 5070 6315 3483 
3 673 3483 351 
3 3483 6046 3740 
3 351 672 3542 
3 351 3740 672 
3 349 671 4615 
3 7281 349 3768 
3 5201 670 350 
3 6046 9361 9617 
3 6046 9617 3740 
3 9361 3641 7749 
3 9617 7749 3768 
3 3641 680 5082 
3 7749 7281 3768 
3 3430 6853 359 
3 5082 359 671 
3 5082 671 7281 
3 5082 7281 7749 
3 4615 671 4621 
3 8535 4621 6853 
3 4650 4621 8535 
3 4351 6256 3608 
3 7281 671 349 
3 4642 1207 1767 
3 4615 4621 4650 
3 4615 4642 8510 
3 3043 3542 672 
3 3043 350 6877 
3 5201 3768 670 
3 3972 4230 8440 
3 3972 6877 350 
3 670 3768 349 
3 3972 350 670 
3 3972 670 4230 
3 6747 8440 8510 
3 4615 4230 349 
3 4230 4615 8510 
3 4230 8510 8440 
3 4615 4650 4642 
3 8510 4642 6747 
3 1207 39 3217 
3 2561 3217 5389 
3 1653 2586 842 
3 3217 7999 5389 
3 2561 1767 1207 
3 2561 1207 3217 
3 3217 39 7146 
3 1914 2869 2670 
3 7999 7146 2586 
3 7999 10047 8920 
3 5459 7410 5360 
3 2586 5360 7999 
3 10925 10404 10047 
3 5360 10047 7999 
3 5459 5360 2670 
3 5360 7410 10047 
3 10449 10891 9813 
3 11336 10891 11487 
3 11191 11391 10891 
3 9813 10891 11336 
3 9103 10428 9959 
3 10689 10449 8979 
3 7353 9103 5333 
3 2562 5333 2628 
3 5395 9103 9959 
3 11191 9959 10428 
3 2738 9607 6596 
3 4167 5250 4168 
3 2869 8225 5459 
3 7410 9263 9813 
3 9813 9263 10449 
3 11191 10689 9959 
3 11191 10449 10689 
3 2738 2628 5395 
3 10177 8464 8979 
3 10689 8979 7966 
3 4168 3124 5999 
3 10689 9607 9959 
3 10689 7966 9607 
3 9959 9607 5395 
3 5395 9607 2738 
3 3182 5737 3147 
3 1915 1950 6596 
3 5661 5737 3182 
3 2738 1950 1769 
3 2738 1769 2628 
3 7966 8979 5999 
3 7966 3124 6596 
3 1950 2738 6596 
3 6596 3124 1915 
3 1949 2869 1914 
3 2586 2670 5360 
3 10177 8225 8464 
3 5999 8464 4168 
3 8225 9263 5459 
3 2869 5459 2670 
3 9263 8225 10177 
3 9263 10177 10449 
3 4650 8535 4351 
3 39 842 7146 
3 39 4351 842 
3 7146 842 2586 
3 6853 8540 6256 
3 8535 6256 4351 
3 842 3608 1653 
3 2586 1653 2670 
3 3332 1949 1914 
3 1653 1914 2670 
3 9213 10153 8156 
3 6256 8156 3608 
3 8156 5755 3098 
3 8156 3098 3608 
3 5755 5813 3332 
3 3098 3332 1914 
3 1949 1768 6604 
3 8225 6604 8464 
3 1949 3332 3259 
3 9237 9535 8171 
3 3465 3352 5912 
3 5813 3259 3332 
3 9115 10153 9213 
3 5730 9213 8540 
3 8156 10153 5755 
3 3098 5755 3332 
3 5730 7803 10152 
3 5730 10152 9213 
3 10153 9115 7836 
3 9237 10081 9242 
3 3117 5715 7864 
3 7274 7864 7803 
3 9115 5715 9535 
3 7836 9237 5813 
3 8171 10081 9237 
3 8155 3352 3259 
3 8218 3465 5912 
3 9242 5912 8155 
3 7836 9535 9237 
3 5813 9237 8155 
3 9237 9242 8155 
3 5813 8155 3259 
3 1208 1768 3352 
3 5912 3352 8155 
3 10175 6168 8218 
3 3465 1208 3352 
3 843 40 3387 
3 843 3269 1654 
3 10671 10175 8218 
3 10671 8218 10148 
3 3387 40 6168 
3 10653 6168 10175 
3 10209 9336 7757 
3 10653 7757 3387 
3 7757 9336 5819 
3 7837 7931 5785 
3 3226 5794 5689 
3 5819 3387 7757 
3 5794 3269 5819 
3 7931 5819 9336 
3 1654 3269 3226 
3 5689 5794 7837 
3 3387 3269 843 
3 40 5250 1208 
3 3269 5794 3226 
3 5661 9341 7585 
3 4167 1768 1208 
3 40 1208 3465 
3 843 4168 5250 
3 843 5250 40 
3 1208 5250 4167 
3 6604 4167 8464 
3 4168 1654 3124 
3 5999 3124 7966 
3 3124 1654 1915 
3 2948 5689 5661 
3 1915 1654 3226 
3 1915 2948 1950 
3 1915 3226 2948 
3 1950 3182 1769 
3 2948 5661 3182 
3 9585 7852 6986 
3 9426 7599 7585 
3 5737 5803 3147 
3 6116 9356 7775 
3 3294 9676 6723 
3 6116 7775 3294 
3 574 3294 1166 
3 7613 3164 7591 
3 10267 9676 7775 
3 795 5149 575 
3 1166 3922 7253 
3 9341 10151 7585 
3 5661 7585 5737 
3 9676 10267 7591 
3 7591 9426 7613 
3 10736 10151 9341 
3 5689 9341 5661 
3 9426 10151 7613 
3 3164 7613 6804 
3 9341 7837 10736 
3 10151 9314 7613 
3 10151 10736 9314 
3 6804 9314 3201 
3 3164 148 6794 
3 6723 1532 1166 
3 1316 1573 575 
3 5047 1532 6723 
3 10267 9426 7591 
3 9676 6794 6723 
3 7591 3164 6794 
3 7591 6794 9676 
3 3922 1166 1532 
3 3922 5149 8130 
3 3922 1532 5149 
3 9454 5149 795 
3 6102 4843 4086 
3 576 7168 7232 
3 1167 4843 576 
3 7168 2522 950 
3 4843 2522 576 
3 1167 576 7232 
3 6569 4180 6692 
3 4274 6692 5008 
3 1167 6692 1533 
3 7150 1940 1905 
3 577 5247 1533 
3 1167 4086 4843 
3 5247 4086 1533 
3 4180 1533 6692 
3 6102 4029 3492 
3 1164 5247 577 
3 1533 4180 577 
3 8744 7150 1905 
3 6102 8124 8130 
3 4843 8130 9454 
3 8428 8124 6278 
3 4029 5247 1164 
3 4857 8428 6278 
3 3492 6278 6102 
3 4857 6278 3492 
3 1613 4029 1164 
3 6102 4086 4029 
3 3492 4029 1613 
3 1530 3492 1613 
3 1530 824 21 
3 1164 577 8744 
3 1164 1636 1613 
3 1163 6239 4857 
3 1530 4857 3492 
3 1189 21 5258 
3 1636 8744 1905 
3 1163 1529 6239 
3 4857 6239 8428 
3 21 4683 572 
3 21 572 1530 
3 7297 4686 573 
3 1531 3916 574 
3 4686 3786 1165 
3 1529 6588 6239 
3 1165 1531 6588 
3 8428 3971 8124 
3 1531 3971 6588 
3 1165 6588 573 
3 10267 7775 9356 
3 5803 3461 3147 
3 9585 9356 7852 
3 3916 3294 574 
3 1950 2948 3182 
3 1769 3182 3147 
3 7599 9356 5803 
3 7599 5803 5737 
3 9585 6986 3461 
3 1209 2562 2628 
3 5803 9356 9585 
3 5803 9585 3461 
3 9332 4067 7852 
3 6116 7852 9356 
3 1531 3786 3916 
3 6116 10262 7852 
3 10262 6116 3916 
3 10262 3916 3786 
3 4692 4067 9332 
3 7852 4067 6986 
3 4686 4692 9332 
3 3786 9332 10262 
3 3147 3461 1209 
3 3147 1209 1769 
3 844 2565 41 
3 3461 41 1209 
3 41 6986 844 
3 2565 844 2648 
3 844 4067 1655 
3 2648 1655 2809 
3 5058 1859 4692 
3 5058 4692 4686 
3 9332 3786 4686 
3 5058 7297 4987 
3 5058 4686 7297 
3 4987 4534 4460 
3 3680 6613 4534 
3 1529 4534 573 
3 6179 6613 3680 
3 4683 3680 1163 
3 4686 1165 573 
3 7297 573 4534 
3 3680 1529 1163 
3 4683 1163 572 
3 4683 21 7228 
3 1750 4238 3166 
3 1750 1189 4238 
3 4238 5258 4239 
3 9345 6613 6179 
3 1750 1939 3581 
3 6179 4683 7228 
3 6179 3774 5915 
3 6179 7228 3774 
3 5915 3774 3581 
3 8679 3902 5830 
3 9524 2949 6922 
3 1873 1686 4771 
3 6921 8328 4125 
3 2949 9524 5830 
3 8679 5830 5797 
3 1491 6903 507 
3 1127 6690 1493 
3 6903 4465 8328 
3 4771 8328 6921 
3 3442 6980 1127 
3 785 5096 549 
3 1873 4771 6921 
3 1873 1801 6922 
3 8328 4465 10319 
3 8328 6330 4125 
3 10319 4465 3937 
3 8051 4743 9623 
3 4465 1491 1125 
3 3937 1125 506 
3 6916 1492 506 
3 3937 8051 9655 
3 1608 8733 8330 
3 4743 6635 9623 
3 1608 3702 3411 
3 6789 8257 3449 
3 8330 1492 1608 
3 8733 1608 1126 
3 1491 6980 3767 
3 1125 3767 6916 
3 3702 1492 6916 
3 3702 6916 8487 
3 5946 3702 8487 
3 3767 8487 6916 
3 5886 9740 9419 
3 3442 9419 6980 
3 5886 8230 9740 
3 9419 9740 8487 
3 6789 3411 8257 
3 9740 5946 8487 
3 1126 6789 511 
3 8257 8230 6411 
3 9740 8230 8257 
3 1130 3449 5101 
3 1496 6789 3449 
3 1130 510 3177 
3 3442 4794 5886 
3 3442 5886 9419 
3 3411 5946 8257 
3 3449 8257 6411 
3 1127 5079 6690 
3 1493 6690 548 
3 1516 8521 548 
3 1493 4794 3442 
3 784 6690 549 
3 7073 5079 5066 
3 507 5079 1127 
3 507 1127 6980 
3 3901 1250 5218 
3 8679 5218 3902 
3 6690 5079 549 
3 82 885 5218 
3 550 5181 785 
3 1250 82 5218 
3 549 7073 82 
3 785 82 1250 
3 5096 784 549 
3 785 549 82 
3 4725 5096 8681 
3 6228 4581 553 
3 4725 784 5096 
3 8681 5096 5181 
3 548 784 4725 
3 1150 6815 5277 
3 4725 1516 548 
3 784 548 6690 
3 6820 4833 4282 
3 4725 4282 1516 
3 1516 4282 1150 
3 1516 1150 6621 
3 6815 4833 787 
3 787 4833 552 
3 5167 4833 6820 
3 8681 6820 4725 
3 8525 7129 552 
3 752 475 4923 
3 552 7129 787 
3 4833 6815 4282 
3 786 7243 475 
3 552 475 8525 
3 9365 4807 6397 
3 752 8525 475 
3 7129 9365 4131 
3 553 4581 5277 
3 4523 9493 8073 
3 9365 10343 4131 
3 1150 4282 6815 
3 5277 6815 2521 
3 787 4131 2521 
3 787 2521 6815 
3 4131 10343 553 
3 2521 553 5277 
3 9493 6250 6228 
3 5277 4581 1150 
3 1516 6621 8521 
3 1609 4026 1494 
3 553 10343 6228 
3 4581 6228 6250 
3 5138 4244 6599 
3 6458 7941 8661 
3 6599 10312 4304 
3 8767 4689 4417 
3 4244 10312 6599 
3 5138 6599 822 
3 4244 5138 509 
3 1494 509 5212 
3 6754 8578 9654 
3 9654 19 1187 
3 8521 8484 1128 
3 1128 1609 3152 
3 1609 6837 3152 
3 6837 5212 3883 
3 1128 508 8521 
3 8484 8521 6621 
3 3152 4794 1128 
3 1609 1128 8484 
3 1128 4794 508 
3 8521 508 548 
3 5886 4794 3152 
3 6837 1494 5212 
3 8230 3152 6837 
3 8230 6837 6411 
3 3449 6411 5101 
3 8317 6924 4603 
3 6411 3883 5101 
3 1130 3872 1496 
3 4603 510 1495 
3 1129 1495 3883 
3 6924 3177 510 
3 1495 510 5101 
3 3177 6924 8103 
3 3177 8103 5966 
3 10635 10042 8946 
3 5647 3009 3082 
3 6027 8260 10139 
3 8103 10139 10042 
3 3427 3009 8260 
3 10139 8260 8946 
3 6924 510 4603 
3 4609 1748 4182 
3 3427 8260 6027 
3 8317 6027 6924 
3 8317 4603 4609 
3 8578 6754 1129 
3 4609 6754 9654 
3 19 9654 8578 
3 5554 4730 8661 
3 9105 8661 7941 
3 1748 4609 1187 
3 2831 1187 4730 
3 1938 2590 2583 
3 1633 3126 3082 
3 1938 2583 1965 
3 1938 1965 3427 
3 4182 8317 4609 
3 1187 4609 9654 
3 1938 4182 1748 
3 2590 1748 2831 
3 4182 1938 3427 
3 4182 3427 6027 
3 2583 2661 1965 
3 1965 1903 3009 
3 5451 2850 2661 
3 1903 1633 3082 
3 2583 8261 2661 
3 1903 2850 1633 
3 10020 10399 8903 
3 2661 2850 1903 
3 9357 6162 7700 
3 2850 3493 1633 
3 6162 8369 5156 
3 3493 821 1633 
3 3126 1633 821 
3 3126 821 3109 
3 5683 3126 5654 
3 6160 3005 8214 
3 3126 3109 5654 
3 5683 5654 7674 
3 8085 10680 10604 
3 5654 10604 7674 
3 3427 1965 3009 
3 8260 5647 8946 
3 10635 8946 10050 
3 5683 5647 3082 
3 8957 10042 10635 
3 7674 10604 10986 
3 8957 10635 10318 
3 5609 7819 5820 
3 5647 5683 10050 
3 10635 10050 10318 
3 7674 10986 7819 
3 10318 7819 5609 
3 10050 5683 7674 
3 10050 7674 7819 
3 5820 8747 9746 
3 5820 3089 5609 
3 10629 8915 9916 
3 10986 8954 5820 
3 7313 4535 99 
3 3089 2886 5609 
3 902 99 2998 
3 8747 2998 9746 
3 8957 5609 7788 
3 1553 2581 901 
3 9746 99 3089 
3 2886 1553 7116 
3 2886 7788 5609 
3 5609 8957 10318 
3 1267 2886 3089 
3 9746 3089 5820 
3 10042 10681 5966 
3 3177 3872 1130 
3 10042 8957 10681 
3 8335 511 1496 
3 5101 510 1130 
3 3449 1130 1496 
3 5966 8265 3872 
3 5966 3872 3177 
3 8038 1126 511 
3 8335 1496 3872 
3 9220 8335 6244 
3 3603 7788 7116 
3 7788 3603 8265 
3 10681 8265 5966 
3 8335 8265 6244 
3 3808 7974 7234 
3 10681 8957 7788 
3 10681 7788 8265 
3 7234 1266 98 
3 3603 6244 8265 
3 6244 3603 98 
3 6244 98 1266 
3 1608 3411 1126 
3 8733 1126 8038 
3 8038 511 9220 
3 1266 9220 6244 
3 1552 900 8038 
3 8733 6391 8330 
3 6391 8733 8038 
3 1552 2640 2617 
3 6391 8038 900 
3 97 7122 1265 
3 2617 900 1552 
3 1266 1552 9220 
3 5365 2617 2640 
3 5365 2640 7974 
3 3808 5483 7974 
3 7234 7974 2640 
3 2581 5483 3808 
3 901 3603 7116 
3 2581 3808 901 
3 7117 1553 1267 
3 7787 5483 2581 
3 7117 2581 1553 
3 2886 1267 1553 
3 7116 1553 901 
3 7695 7787 4535 
3 99 4535 1267 
3 7695 8865 7787 
3 7117 7787 2581 
3 5411 10180 7695 
3 2807 902 1268 
3 5411 7695 2807 
3 902 7313 99 
3 10816 10180 11379 
3 2807 7695 7313 
3 7501 9284 6801 
3 9284 10026 9825 
3 3538 1694 903 
3 3345 6605 8259 
3 3538 3290 1694 
3 903 3056 6801 
3 3538 903 3345 
3 8241 9197 10256 
3 8388 5942 9338 
3 5942 3538 3345 
3 2731 5411 2807 
3 2731 1268 100 
3 2731 2807 1268 
3 6605 8241 8259 
3 2807 7313 902 
3 1268 902 3143 
3 902 2998 3143 
3 1268 6605 100 
3 10629 9197 8915 
3 10629 9916 10680 
3 8747 8915 5638 
3 3143 6605 1268 
3 2935 5706 5627 
3 5627 7630 5646 
3 9338 5942 7939 
3 5706 7939 7580 
3 3143 5638 8241 
3 8259 8241 10256 
3 3143 8241 6605 
3 3345 8259 5942 
3 100 6605 3345 
3 100 3345 903 
3 6040 8388 6276 
3 5920 5706 3324 
3 7223 1232 65 
3 6276 8388 9338 
3 9338 7939 5920 
3 3324 5706 2935 
3 6276 9338 5920 
3 3497 5920 3324 
3 1232 3734 65 
3 868 65 3497 
3 7918 2772 7223 
3 7918 3800 5486 
3 3739 1232 1539 
3 3734 1232 3739 
3 5831 3688 3431 
3 2772 1539 1232 
3 6181 6040 9652 
3 3734 6276 3497 
3 9652 3734 8237 
3 6119 3739 3688 
3 6040 3290 8388 
3 6040 6276 9652 
3 3734 9652 6276 
3 3497 6276 5920 
3 3056 1694 6607 
3 6607 1809 6890 
3 5836 3733 8232 
3 8237 3734 3739 
3 8232 6181 8237 
3 8232 8237 6119 
3 3733 6181 8232 
3 9339 8232 6119 
3 8237 3739 6119 
3 9339 5831 7733 
3 10998 7733 8997 
3 7069 2953 64 
3 1233 2891 64 
3 5831 5680 7733 
3 866 64 3431 
3 2615 2820 1540 
3 5680 3431 2891 
3 5680 7769 8997 
3 5373 2953 9690 
3 2891 1233 6783 
3 7769 2891 6783 
3 10069 6783 3104 
3 5680 2891 7769 
3 10722 8977 10957 
3 7769 6783 10069 
3 8977 10069 5829 
3 4897 7282 75 
3 3104 3629 5829 
3 75 7282 3629 
3 3629 6473 5829 
3 4897 6511 8497 
3 4897 8497 4746 
3 4855 1147 544 
3 8452 6511 1543 
3 4688 75 867 
3 7282 4897 4746 
3 544 8497 6511 
3 6511 8452 4855 
3 75 3629 867 
3 2820 867 1540 
3 6511 4897 1243 
3 4688 8382 2844 
3 4897 75 1243 
3 8382 9875 10622 
3 8229 10687 5751 
3 2820 4688 867 
3 2820 5751 4688 
3 75 4688 1243 
3 1243 4688 2844 
3 9790 10535 8801 
3 544 6511 4855 
3 6368 877 74 
3 1543 2844 2638 
3 1543 877 8452 
3 7357 5319 7373 
3 7373 5344 7380 
3 5751 10687 9875 
3 5387 2638 2844 
3 5751 9875 8382 
3 5751 8382 4688 
3 8382 10622 5387 
3 8382 5387 2844 
3 2689 7069 866 
3 2953 5373 2615 
3 10687 8229 8839 
3 9944 5373 9690 
3 1540 1233 2615 
3 7069 2689 8035 
3 5373 8229 2615 
3 2953 2615 1233 
3 3739 1539 3688 
3 6119 3688 5831 
3 2953 1233 64 
3 7069 8035 9690 
3 5433 8035 2689 
3 1539 866 3688 
3 1539 2689 866 
3 3688 866 3431 
3 64 866 7069 
3 2953 7069 9690 
3 9944 8035 8838 
3 8861 5433 7918 
3 10932 8838 9831 
3 10462 8861 10228 
3 9831 8838 8861 
3 10228 8861 7918 
3 9944 8838 10932 
3 10892 9831 10462 
3 10402 10932 11048 
3 10932 11328 11048 
3 11571 11447 11048 
3 10932 10402 9944 
3 5373 9944 8839 
3 10537 8810 9848 
3 9944 10402 8839 
3 5373 8839 8229 
3 8839 10402 10817 
3 10687 10817 9875 
3 10622 9848 7380 
3 5387 5344 2638 
3 5319 5344 7373 
3 7380 5344 5387 
3 2584 5344 5319 
3 8801 7373 8810 
3 7380 9848 8810 
3 7380 8810 7373 
3 5370 7357 9007 
3 10987 10027 10535 
3 10402 11048 11148 
3 10817 10812 9848 
3 11154 11051 11478 
3 11148 10812 10817 
3 9848 10812 10537 
3 8810 10537 9790 
3 11051 11447 11569 
3 11299 11447 11571 
3 11447 11299 11569 
3 11447 11051 10812 
3 10537 10812 11051 
3 10537 11051 11154 
3 10537 11154 9790 
3 8810 9790 8801 
3 11103 10762 11244 
3 11444 11568 11251 
3 10762 11250 11244 
3 11460 11623 11258 
3 11569 11299 11449 
3 11569 11449 11478 
3 11444 11250 11568 
3 11251 11568 11449 
3 10836 9956 10460 
3 11177 11118 10480 
3 11067 10460 11144 
3 11449 10772 11251 
3 10892 10836 11328 
3 11299 11067 11144 
3 11067 11299 11571 
3 11067 11328 10836 
3 11328 9831 10892 
3 10836 10423 9956 
3 10932 9831 11328 
3 11571 11328 11067 
3 10892 10462 10936 
3 11166 9872 9552 
3 7411 9956 9042 
3 2681 2593 5379 
3 10892 10936 10423 
3 10892 10423 10836 
3 9042 11166 7962 
3 6931 1789 2761 
3 11166 9552 7962 
3 9042 5421 7411 
3 4177 869 1674 
3 3640 8297 3518 
3 5252 869 4177 
3 3070 1674 1867 
3 4177 4176 5252 
3 869 66 4113 
3 9756 4177 6002 
3 3070 4177 1674 
3 9872 9756 6002 
3 9552 6002 3070 
3 9850 7955 9872 
3 10936 9872 11166 
3 10228 7918 5486 
3 7955 5486 2911 
3 10462 10228 9850 
3 10936 9850 9872 
3 3800 868 2911 
3 6586 1788 4176 
3 65 868 3800 
3 7223 3800 7918 
3 3324 2935 1673 
3 1673 1788 6586 
3 2911 868 1673 
3 1788 1673 2935 
3 66 1234 3005 
3 3108 1788 2935 
3 7955 2911 6586 
3 7955 6586 9756 
3 6586 4176 9756 
3 7955 9756 9872 
3 9329 9231 8214 
3 3005 6160 66 
3 5646 8214 3005 
3 1234 66 5252 
3 3108 5627 5646 
3 8214 5646 9329 
3 3005 1234 3108 
3 3005 3108 5646 
3 10604 10680 9916 
3 10604 9916 10986 
3 5627 7580 7630 
3 5646 7630 9329 
3 5654 3109 8085 
3 10680 9231 9329 
3 6160 8214 9231 
3 8085 9231 10680 
3 10629 10680 9329 
3 10629 9329 7630 
3 3109 18 6543 
3 8085 6543 9231 
3 6369 4113 8069 
3 6543 8274 9231 
3 8069 4113 6160 
3 8274 6160 9231 
3 869 5252 66 
3 4113 66 6160 
3 3941 4113 6369 
3 9592 4124 4161 
3 869 4113 3941 
3 869 3941 1674 
3 5156 8369 1186 
3 18 4275 6543 
3 8069 8274 4275 
3 4124 1747 4161 
3 6160 8274 8069 
3 6369 8069 4124 
3 1186 8369 1747 
3 1186 4124 4275 
3 8069 4275 4124 
3 6369 4124 9592 
3 6245 6369 9592 
3 6245 9592 8468 
3 3616 1632 820 
3 4161 8468 9592 
3 8081 2678 5460 
3 1747 1849 4161 
3 4161 1849 3997 
3 9079 10104 10621 
3 10108 5460 9357 
3 8369 2895 1747 
3 2678 1849 2895 
3 9357 2895 8369 
3 7726 10514 9842 
3 11362 10958 11080 
3 2678 2895 5460 
3 8869 10108 10958 
3 10514 9715 8081 
3 8869 8081 5460 
3 4596 820 6602 
3 9715 6602 8081 
3 1632 6602 820 
3 3616 6036 6203 
3 9079 6036 7835 
3 7301 17 3095 
3 2678 6602 1632 
3 3997 1632 3616 
3 820 3476 3616 
3 3997 6203 8468 
3 3997 3616 6203 
3 6061 3562 3518 
3 3616 3476 6036 
3 6203 6036 6061 
3 10003 7587 9079 
3 6036 9079 10621 
3 3095 7506 7301 
3 3476 7835 6036 
3 10003 10641 7587 
3 10104 7587 3412 
3 67 7010 3412 
3 870 3412 6593 
3 3239 1675 6593 
3 7587 6593 3412 
3 10104 3412 7010 
3 2681 5421 2761 
3 3562 7010 1235 
3 870 6593 1675 
3 10621 7010 3562 
3 10621 3562 6061 
3 7010 67 1235 
3 1789 1867 3518 
3 8468 6203 8297 
3 8468 8297 6245 
3 6036 10621 6061 
3 6203 6061 8297 
3 3941 6245 3640 
3 1674 3640 1867 
3 9552 3070 6931 
3 1789 3518 3562 
3 3070 1867 6931 
3 1235 1789 3562 
3 7962 9552 6931 
3 2761 1789 1235 
3 7962 6931 2761 
3 5379 7382 7411 
3 7962 2761 5421 
3 7962 5421 9042 
3 11144 10460 9802 
3 11177 10808 11118 
3 7411 5421 5379 
3 67 2681 1235 
3 5322 5379 2593 
3 2681 5379 5421 
3 8826 7382 8812 
3 8826 9802 10460 
3 7365 9989 9919 
3 8812 10480 9802 
3 8826 8812 9802 
3 11144 10772 11449 
3 8812 9919 10480 
3 10772 11118 11251 
3 9802 10480 10772 
3 9802 10772 11144 
3 11498 11304 11610 
3 11444 11529 11244 
3 11623 11244 11529 
3 11610 11529 11444 
3 11445 11667 11585 
3 11258 11623 11445 
3 11268 11445 11585 
3 11610 11667 11529 
3 11586 11258 11445 
3 11060 11445 11268 
3 10457 10808 11177 
3 9919 11177 10480 
3 10915 11305 11134 
3 11304 11443 11610 
3 11445 11623 11667 
3 11585 11667 11443 
3 11585 11443 11305 
3 10376 10808 10457 
3 10915 11119 11305 
3 11134 11305 11443 
3 11102 11481 10787 
3 10787 11481 11119 
3 11102 11060 11268 
3 11481 11268 11305 
3 10559 11119 10915 
3 8799 10915 10376 
3 11150 10394 11353 
3 10568 10787 9801 
3 8964 7451 10128 
3 10457 10128 10376 
3 10915 11134 10376 
3 8799 10376 10128 
3 8964 9989 7927 
3 7927 6592 5703 
3 7927 7451 8964 
3 9989 11011 9919 
3 2677 5324 2572 
3 7382 7365 8812 
3 9989 8964 11011 
3 9919 11011 11177 
3 2681 67 2593 
3 5379 5322 7382 
3 7365 7382 5322 
3 5324 2677 9675 
3 67 3412 870 
3 2593 2572 5322 
3 1675 2677 2572 
3 1675 2572 870 
3 5322 2572 5324 
3 7365 5324 9989 
3 1236 6592 1790 
3 2962 3239 5637 
3 1236 4935 6592 
3 1790 6592 2677 
3 68 4935 1236 
3 2879 1236 2962 
3 2933 4935 871 
3 5177 68 6415 
3 68 871 4935 
3 4935 2933 5703 
3 1791 290 640 
3 2933 2607 5439 
3 5439 7451 5703 
3 6592 7927 9675 
3 6592 4935 5703 
3 7927 5703 7451 
3 7451 5439 7386 
3 5313 2604 8106 
3 8799 7386 7348 
3 8799 10559 10915 
3 9801 11119 10971 
3 7348 10559 8799 
3 10568 9801 7399 
3 9326 7348 5313 
3 5313 8106 9326 
3 10971 9135 9801 
3 5417 10002 7399 
3 5376 7399 9135 
3 5439 2607 5308 
3 5439 5308 7386 
3 2541 2604 5313 
3 7348 9326 10559 
3 9135 10971 9326 
3 9135 9326 8106 
3 5313 5308 2541 
3 2604 1791 1237 
3 8106 2604 7134 
3 8106 3137 5376 
3 7134 69 3137 
3 5376 5417 7399 
3 5376 3137 2651 
3 5522 9619 3038 
3 641 289 11715 
3 640 289 1237 
3 2651 3137 872 
3 2796 8206 5417 
3 3677 640 290 
3 9414 642 10278 
3 640 1237 1791 
3 290 1868 642 
3 291 642 1676 
3 9414 10278 6700 
3 291 10278 642 
3 1676 642 1868 
3 291 1676 871 
3 2933 1676 2607 
3 290 1791 1868 
3 1676 1868 2607 
3 8935 7672 9136 
3 5541 2879 2962 
3 68 5177 871 
3 2933 871 1676 
3 3860 5177 6415 
3 5549 6415 7672 
3 291 5177 3860 
3 2791 3860 5549 
3 1035 10278 291 
3 5177 291 871 
3 7530 9136 5541 
3 10924 9884 10654 
3 7459 5549 7672 
3 8935 9136 11007 
3 7479 9244 5526 
3 7479 5526 5494 
3 8935 11007 10924 
3 7479 10579 9244 
3 3095 6650 7558 
3 9244 8147 5526 
3 6650 8147 7558 
3 9950 10579 11007 
3 10664 9950 7530 
3 5541 2962 5637 
3 9058 9950 10664 
3 9443 9136 7672 
3 9950 9136 7530 
3 10061 7530 5637 
3 9136 9443 5541 
3 7530 5541 5637 
3 10061 5637 8223 
3 10641 8223 7587 
3 2962 1790 3239 
3 8223 3239 6593 
3 7835 3476 7301 
3 7835 7301 7506 
3 9028 10641 10003 
3 7506 10003 7835 
3 7506 3095 7558 
3 7506 9028 10003 
3 7506 7558 9028 
3 10641 9028 10061 
3 9028 9058 10664 
3 10061 10664 7530 
3 10997 10612 8860 
3 9734 8011 6495 
3 4596 6495 1184 
3 3095 1184 6650 
3 4596 9715 7726 
3 9734 9842 10688 
3 6602 9715 4596 
3 17 4596 1184 
3 11253 11540 11508 
3 8869 10514 8081 
3 7726 9715 10514 
3 11202 10514 11362 
3 8860 8011 10688 
3 9734 6495 7726 
3 10764 10688 9842 
3 11202 9842 10514 
3 10688 8011 9734 
3 9842 9734 7726 
3 7741 9921 8993 
3 11542 11249 11038 
3 5457 8011 8860 
3 10997 8860 11146 
3 2878 5457 9408 
3 8011 2680 6495 
3 6495 2680 1745 
3 1184 1745 6650 
3 818 2826 1630 
3 8390 2878 9408 
3 1745 1848 2936 
3 8147 2936 5526 
3 10612 7741 9408 
3 10612 5457 8860 
3 10612 9408 5457 
3 8011 5457 2680 
3 8390 1630 2878 
3 5457 2878 2680 
3 10363 10851 11337 
3 9921 7741 10612 
3 10461 10330 8993 
3 10461 9921 10794 
3 9921 10997 10794 
3 11220 11241 10851 
3 10461 8993 9921 
3 10997 9921 10612 
3 11419 11337 11241 
3 10794 11220 10461 
3 11508 11241 11220 
3 10461 11017 10330 
3 10363 9780 10851 
3 10363 11337 11038 
3 9780 9101 11017 
3 10851 11017 11220 
3 10289 9325 10513 
3 10848 9778 10363 
3 9778 7364 9780 
3 10851 9780 11017 
3 10367 10775 10370 
3 8809 10370 10048 
3 11450 10775 11355 
3 8809 10048 7378 
3 10775 10367 11355 
3 11573 11639 11555 
3 10513 10848 10920 
3 10367 10920 11355 
3 10363 11038 10848 
3 10920 11065 11355 
3 9325 9778 10513 
3 10920 10848 11065 
3 11675 11542 11419 
3 11241 11337 10851 
3 11639 11573 11249 
3 11639 11624 11536 
3 11038 11337 11542 
3 11249 11624 11639 
3 11555 11450 11573 
3 11249 11573 11065 
3 11247 11555 11536 
3 11240 10358 11262 
3 11567 11455 11313 
3 11555 11455 11450 
3 10766 11455 11247 
3 11489 11247 11536 
3 11555 11639 11536 
3 11489 11428 11262 
3 11249 11542 11624 
3 11536 11428 11489 
3 11624 11542 11675 
3 11146 10764 11253 
3 11428 11240 11262 
3 11080 10958 10399 
3 11417 11675 11419 
3 11417 11419 11540 
3 11419 11241 11540 
3 10764 9842 11202 
3 11260 11540 11253 
3 10794 11508 11220 
3 8860 10688 11146 
3 10997 11146 10794 
3 11417 11540 11260 
3 11474 10864 11169 
3 11470 11260 11253 
3 11146 11253 11508 
3 11146 10688 10764 
3 11253 10764 11470 
3 10764 11202 11470 
3 11362 10514 8869 
3 11260 11080 11046 
3 9885 10358 11169 
3 11470 11080 11260 
3 11260 11046 11417 
3 11470 11362 11080 
3 11046 10399 10864 
3 11417 11046 11474 
3 11417 11545 11675 
3 10020 8903 7481 
3 11046 10864 11474 
3 11046 11080 10399 
3 9221 5451 8261 
3 11362 8869 10958 
3 10399 10958 8903 
3 3493 5620 6162 
3 7700 8903 10108 
3 8869 5460 10108 
3 10958 10108 8903 
3 7481 8903 7700 
3 9357 7700 10108 
3 5156 3493 6162 
3 8369 6162 9357 
3 2661 8261 5451 
3 2850 5620 3493 
3 2850 5451 5620 
3 6162 5620 7700 
3 5620 5451 7481 
3 10599 9885 11169 
3 11169 10864 10599 
3 9221 10020 7481 
3 5451 9221 7481 
3 5620 7481 7700 
3 10599 10120 9885 
3 8802 7429 10600 
3 10599 9221 10120 
3 9885 8802 10358 
3 9885 10120 7368 
3 7429 5554 9105 
3 8261 2583 5329 
3 7368 5392 7429 
3 2831 4730 5554 
3 7941 6458 2633 
3 2590 2831 5392 
3 9105 5554 8661 
3 8802 7368 7429 
3 10600 7429 9105 
3 9885 7368 8802 
3 10358 11178 11262 
3 2831 5554 5392 
3 2590 5392 5329 
3 10665 8808 10456 
3 9891 10879 10600 
3 8802 10600 11178 
3 11160 10766 11247 
3 10358 8802 11178 
3 11262 11178 11489 
3 10020 9221 10599 
3 10020 10599 10864 
3 11474 11169 11240 
3 11428 11624 11675 
3 11474 11240 11545 
3 11474 11545 11417 
3 10456 9799 10766 
3 10456 11160 10879 
3 11178 10879 11160 
3 11489 11160 11247 
3 11675 11545 11428 
3 11624 11428 11536 
3 9799 8808 8822 
3 10709 10234 9193 
3 10456 8808 9799 
3 11266 11450 11455 
3 20 2744 1188 
3 9930 10825 10497 
3 2744 2631 1188 
3 7940 7435 8822 
3 2654 7940 5372 
3 2631 2744 7435 
3 6975 10234 2744 
3 6975 2744 20 
3 4071 1188 1749 
3 7940 2631 7435 
3 10456 9891 10665 
3 8808 5372 7940 
3 6599 4304 1634 
3 7941 5372 10665 
3 8808 10665 5372 
3 2654 1749 2631 
3 1850 2633 1634 
3 6599 1634 822 
3 1634 2633 6458 
3 1634 6458 822 
3 1850 4304 4523 
3 8073 9365 6323 
3 1634 4304 1850 
3 2633 2654 5372 
3 1749 4523 4071 
3 4417 4689 20 
3 1850 4523 1749 
3 2631 1749 1188 
3 1850 1749 2654 
3 1850 2654 2633 
3 6323 6397 8767 
3 4672 4546 4689 
3 9365 6397 6323 
3 4417 20 1188 
3 10343 9365 8073 
3 4071 4417 1188 
3 9493 10343 8073 
3 4523 8073 4071 
3 5033 751 5224 
3 5033 5224 4923 
3 9365 7129 4807 
3 6397 4807 474 
3 4672 4530 7177 
3 473 751 5033 
3 8767 6397 4672 
3 751 474 5224 
3 473 6544 4530 
3 751 4672 474 
3 4413 4546 7177 
3 4530 4672 751 
3 6397 474 4672 
3 8767 4672 4689 
3 6323 8767 4417 
3 6323 4417 4071 
3 4546 4413 1635 
3 2683 5413 9193 
3 20 4689 823 
3 6975 2683 9193 
3 6751 4413 8294 
3 9198 8294 6544 
3 7177 8294 4413 
3 1635 4413 1904 
3 1635 823 4546 
3 7177 4546 4672 
3 1939 1904 6751 
3 3581 6751 9198 
3 6751 3581 1939 
3 1904 1939 6750 
3 3774 1189 1750 
3 3774 1750 3581 
3 8175 9285 6750 
3 3166 6750 1939 
3 1904 6750 2722 
3 10912 9285 11175 
3 2722 9285 5413 
3 9193 9795 10709 
3 2683 1635 2722 
3 9285 2722 6750 
3 823 1635 2683 
3 823 2683 6975 
3 7435 10234 9930 
3 9795 5413 10912 
3 10234 10709 9930 
3 8822 10497 9799 
3 8822 9930 10497 
3 9799 11313 10766 
3 9799 10497 11313 
3 10766 11313 11455 
3 10825 11352 11074 
3 10497 11074 11313 
3 11266 11567 11439 
3 11074 11567 11313 
3 10825 10709 9795 
3 10825 9795 11125 
3 9795 10912 11125 
3 11352 11439 11074 
3 9930 10709 10825 
3 10497 10825 11074 
3 11230 11296 10839 
3 11125 11446 11352 
3 11352 11446 11439 
3 11266 11137 10775 
3 10370 10775 11137 
3 10842 11296 11230 
3 11439 11137 11266 
3 11567 11266 11455 
3 7786 9072 5516 
3 11296 10842 11137 
3 10839 11296 11393 
3 11446 11296 11439 
3 8942 10453 11014 
3 11385 10912 11175 
3 10415 11014 11072 
3 11446 11393 11296 
3 9965 11230 10839 
3 10453 10839 11393 
3 10453 11393 11014 
3 9032 10415 11175 
3 10415 10028 11014 
3 10415 11072 11385 
3 11125 10912 11385 
3 11125 11072 11446 
3 11014 11393 11072 
3 11385 11072 11125 
3 8490 9032 6064 
3 8490 4238 4239 
3 9032 11175 8175 
3 6064 8175 3166 
3 5258 824 4239 
3 8490 3167 7611 
3 8490 6064 4238 
3 5258 4238 1189 
3 8942 11014 10028 
3 7611 10028 9032 
3 3167 4239 1636 
3 8744 1636 1164 
3 8490 4239 3167 
3 6736 3167 1905 
3 7150 4845 1940 
3 1905 1940 6736 
3 2742 5517 10577 
3 6736 10577 7611 
3 1751 4382 1190 
3 9072 7786 9052 
3 1751 1190 3135 
3 2742 3135 5517 
3 4180 4845 7150 
3 577 7150 8744 
3 1940 4845 1751 
3 1940 1751 2742 
3 4382 4845 6569 
3 4903 6358 4558 
3 1751 4845 4382 
3 8589 22 6822 
3 4274 1715 4285 
3 22 1190 6822 
3 6569 4285 8638 
3 4382 6822 1190 
3 146 4903 4760 
3 4285 4760 8638 
3 4170 1829 3145 
3 4760 8589 6822 
3 8638 4760 6822 
3 8638 6822 4382 
3 4903 4558 8589 
3 4903 8589 4760 
3 8589 4558 22 
3 1190 5075 3135 
3 22 825 5075 
3 3135 6334 5517 
3 5075 825 3136 
3 5075 6334 3135 
3 8644 6186 6358 
3 4558 3982 825 
3 7785 3500 6186 
3 6358 3982 4558 
3 3982 6358 6186 
3 3500 7785 7090 
3 3982 6186 3500 
3 3982 1637 825 
3 2741 3136 1637 
3 3500 1637 3982 
3 7090 1966 1906 
3 7090 1906 3500 
3 6334 3136 5516 
3 1906 2741 1637 
3 7378 9052 5356 
3 7089 2741 1906 
3 7750 6334 5516 
3 5516 3136 2741 
3 9965 7750 9072 
3 7786 5516 2741 
3 10577 5517 8942 
3 10577 8942 10028 
3 5517 6334 7750 
3 8942 9965 10453 
3 10446 9965 9072 
3 7750 9965 8942 
3 7750 5516 9072 
3 9965 10446 11230 
3 10842 11230 10446 
3 9052 10446 9072 
3 9052 7378 10048 
3 10446 10048 10842 
3 10920 10367 10072 
3 7379 7378 5368 
3 2589 2649 5356 
3 7786 5356 9052 
3 7378 5356 5368 
3 1941 2905 2968 
3 9546 2707 6959 
3 2649 5368 5356 
3 7379 5368 5346 
3 1191 1752 3219 
3 10367 8809 10072 
3 5346 5368 2620 
3 9057 10513 10072 
3 7379 10072 8809 
3 8086 9546 6959 
3 7379 9057 10072 
3 9778 10848 10513 
3 10289 10513 9057 
3 2594 5334 8086 
3 10289 8086 9325 
3 5311 7364 5334 
3 8086 5334 9325 
3 6367 3923 8467 
3 2707 5346 2620 
3 3923 1631 819 
3 6959 2594 8086 
3 9057 7379 5346 
3 9057 9546 10289 
3 23 6959 2707 
3 1191 2707 2620 
3 9057 5346 9546 
3 10289 9546 8086 
3 2594 6959 819 
3 3509 5778 6197 
3 6959 23 819 
3 6120 3687 3472 
3 1631 2594 819 
3 3791 819 23 
3 6367 4082 3923 
3 3791 3923 819 
3 9040 9412 7606 
3 3509 23 1191 
3 6120 6212 8467 
3 6197 8467 3791 
3 7930 5778 7606 
3 5612 2968 5562 
3 3219 5778 3509 
3 23 3509 3791 
3 3219 2968 5612 
3 5562 9291 7508 
3 1752 2968 3219 
3 5778 5612 7606 
3 2620 2649 1752 
3 2620 1752 1191 
3 3509 1191 3219 
3 5778 3219 5612 
3 5356 7786 2589 
3 1966 7089 1906 
3 1941 2649 2589 
3 7089 2589 7786 
3 2905 7090 7785 
3 6055 3282 5714 
3 1752 2649 1941 
3 1752 1941 2968 
3 7508 5612 5562 
3 9291 5562 7785 
3 9291 7785 7751 
3 9291 7751 9208 
3 9656 9954 7814 
3 5714 9208 7751 
3 3049 8750 7814 
3 5714 7814 9208 
3 10662 11021 9954 
3 7814 9954 9208 
3 9011 8059 9040 
3 11021 9040 10644 
3 10034 6290 10227 
3 11021 9011 9040 
3 9040 7508 10644 
3 11021 10644 9954 
3 6197 5778 7930 
3 9040 7606 7508 
3 8467 6197 6120 
3 10243 7930 9412 
3 6197 7930 6120 
3 6876 3169 312 
3 3472 6212 6120 
3 10243 6120 7930 
3 9716 6212 3939 
3 3687 6120 10243 
3 1410 3472 3687 
3 312 3169 1045 
3 1410 3687 312 
3 1410 6548 8154 
3 7930 7606 9412 
3 10243 9412 6876 
3 3975 3169 5817 
3 5817 3169 8059 
3 3687 10243 6876 
3 3169 6876 8059 
3 1045 3169 3975 
3 6290 343 4456 
3 3975 5817 8044 
3 10227 6290 4456 
3 1411 1045 3975 
3 6540 8044 9572 
3 313 1411 6540 
3 4620 6540 9572 
3 10620 7666 9362 
3 6819 313 1046 
3 3372 1411 2930 
3 6819 2930 313 
3 3975 8044 6540 
3 1411 313 2930 
3 1046 4620 6960 
3 4620 313 6540 
3 6319 4283 8209 
3 10227 4456 9572 
3 8209 6290 10034 
3 8044 10227 9572 
3 9954 9656 10662 
3 9011 10034 5817 
3 9011 10662 10034 
3 5817 10034 8044 
3 9712 1828 1312 
3 948 3049 3282 
3 10662 9656 8209 
3 10662 8209 10034 
3 1060 4283 5020 
3 1727 6665 1842 
3 1425 343 5226 
3 1727 1060 5020 
3 8209 9656 6319 
3 4283 6319 5020 
3 2882 1426 7244 
3 1312 6404 9712 
3 5020 145 6665 
3 5020 6665 1727 
3 1842 1426 2882 
3 3296 5636 2955 
3 4035 1885 1828 
3 8359 1828 1426 
3 8378 9712 6404 
3 145 8750 3049 
3 8378 6404 4170 
3 3282 3049 5714 
3 8359 6665 1312 
3 8359 1312 1828 
3 5020 8750 145 
3 1312 948 6404 
3 145 3049 948 
3 1714 1829 4170 
3 6404 948 1714 
3 4015 8644 8266 
3 9725 8644 6055 
3 7751 6055 5714 
3 7785 6186 9725 
3 7751 9725 6055 
3 1314 1829 8266 
3 4903 8266 6358 
3 3282 4015 1714 
3 8266 8644 6358 
3 3145 6017 4170 
3 4015 6055 8644 
3 948 3282 1714 
3 6404 1714 4170 
3 1829 1714 4015 
3 1829 4015 8266 
3 1314 146 4345 
3 8055 2944 5520 
3 5605 6017 3145 
3 4345 3145 1314 
3 1314 4903 146 
3 7298 2944 8055 
3 8266 4903 1314 
3 1829 1314 3145 
3 5605 4345 8055 
3 5520 2944 2808 
3 1715 2944 949 
3 4285 949 4760 
3 949 2944 7298 
3 5605 8055 9064 
3 5605 9064 7818 
3 5605 7818 6017 
3 146 949 7298 
3 4345 7298 8055 
3 10965 9933 10626 
3 10965 10626 9064 
3 9933 7504 9071 
3 10626 9071 7818 
3 6017 9733 6067 
3 4035 3296 1885 
3 4035 9712 8378 
3 6067 8378 6017 
3 1061 1885 1713 
3 1598 946 1427 
3 8378 6067 4035 
3 9712 4035 1828 
3 9071 7504 5533 
3 9071 5636 9733 
3 5533 2955 5636 
3 5533 5636 9071 
3 6067 5636 3296 
3 6067 3296 4035 
3 5964 4912 2939 
3 8770 345 1572 
3 1313 345 1427 
3 1598 1061 1713 
3 1428 2939 1062 
3 8770 1062 345 
3 2912 1427 4912 
3 9441 10013 8898 
3 1598 1427 2912 
3 8278 2912 5964 
3 2912 4912 5964 
3 8278 8898 10628 
3 144 1427 946 
3 144 946 2861 
3 1713 946 1598 
3 1061 2843 3936 
3 7904 7244 3936 
3 1061 344 1885 
3 9853 7904 5512 
3 8278 2843 2912 
3 7904 2882 7244 
3 3936 7244 344 
3 1842 8359 1426 
3 7244 1426 344 
3 10628 9853 5512 
3 8278 5512 2843 
3 9859 10893 10500 
3 8898 8278 5964 
3 5512 3936 2843 
3 2912 2843 1598 
3 8970 10013 10646 
3 6829 10637 3298 
3 10893 9853 10628 
3 10893 10628 8898 
3 10013 9441 10646 
3 6829 4663 9178 
3 10893 8898 10013 
3 10500 8970 10252 
3 10893 10013 10500 
3 10893 9859 11187 
3 9876 11187 9859 
3 7500 9024 5523 
3 9024 10252 9485 
3 7909 4030 4156 
3 10638 9859 7500 
3 5523 9024 9485 
3 8970 10646 10129 
3 8970 7535 7553 
3 10252 8970 7553 
3 6927 348 2887 
3 6829 9178 10637 
3 3298 10637 7510 
3 9441 7148 7510 
3 10646 7510 10129 
3 3298 7510 7148 
3 1062 2939 4912 
3 8898 5964 9441 
3 10646 9441 7510 
3 6893 5025 1428 
3 7148 346 3298 
3 2939 1428 7148 
3 2939 7148 9441 
3 5025 3806 346 
3 1428 346 7148 
3 3806 3119 1063 
3 346 1063 3298 
3 1429 4663 1599 
3 1063 6829 3298 
3 3119 6828 1599 
3 1063 1599 6829 
3 1599 6828 1429 
3 4663 8696 7028 
3 4663 1429 8696 
3 1064 3773 3892 
3 4663 7028 9178 
3 10637 9178 10129 
3 7028 8696 1064 
3 6927 9485 7553 
3 7028 1064 1728 
3 7950 3898 4030 
3 3773 347 5736 
3 10052 5736 7471 
3 11228 6243 3773 
3 11228 3773 8117 
3 10574 11002 8117 
3 5736 8117 3773 
3 10574 5677 7914 
3 8470 6243 11228 
3 3257 807 3827 
3 3257 3827 5677 
3 807 4 3827 
3 4 1172 7231 
3 1172 3666 7231 
3 11002 7914 6164 
3 11002 6164 11228 
3 8470 11228 6164 
3 3666 6164 7914 
3 9633 6243 7950 
3 3782 3666 1733 
3 1728 3878 1843 
3 7909 7950 4030 
3 6243 8470 7950 
3 9633 7950 7909 
3 7950 8470 3898 
3 3898 3782 1930 
3 8470 3782 3898 
3 1733 1930 3782 
3 3898 1930 1986 
3 4030 2000 4156 
3 3892 3878 1728 
3 4137 4266 1430 
3 2012 4156 2000 
3 4137 7909 9238 
3 4288 4156 2012 
3 3878 4137 1843 
3 7028 6735 9178 
3 9633 7909 3878 
3 1843 1430 3044 
3 1064 3892 1728 
3 7028 1728 6735 
3 7909 4137 3878 
3 9633 3878 3892 
3 10129 9178 7535 
3 7535 6735 3044 
3 3044 7553 7535 
3 6735 7535 9178 
3 6927 7553 3044 
3 1843 3044 6735 
3 348 6927 1430 
3 4137 1430 1843 
3 2887 9485 6927 
3 1430 6927 3044 
3 5523 2887 2894 
3 5523 5561 7500 
3 4517 1424 1596 
3 2894 1596 3371 
3 9469 4485 8441 
3 3705 341 11001 
3 3371 1424 6883 
3 7491 9876 10638 
3 4383 1058 348 
3 1058 1596 2894 
3 1596 4485 4517 
3 4508 2069 4541 
3 1058 2887 348 
3 1058 4383 4485 
3 2894 2887 1058 
3 4485 4383 8441 
3 6791 4383 4266 
3 9238 4266 4137 
3 4380 8441 6791 
3 4266 4383 348 
3 4266 9238 6791 
3 4288 2024 4380 
3 8441 4383 6791 
3 4288 6791 9238 
3 6791 4288 4380 
3 4425 8441 4380 
3 2036 4380 2024 
3 4472 9469 4425 
3 2048 4425 2036 
3 10229 9469 4472 
3 4425 9469 8441 
3 4425 2048 4472 
3 9469 10229 4517 
3 1424 4517 4515 
3 4508 4472 2059 
3 4515 10229 10678 
3 1057 3204 6883 
3 2069 4508 2059 
3 10678 10229 4508 
3 10678 4508 4541 
3 4237 4541 2079 
3 4541 2069 2079 
3 10678 4541 6410 
3 5940 3664 3364 
3 4237 2079 2089 
3 6327 11221 6410 
3 4237 6410 4541 
3 6410 4237 6327 
3 3364 3664 2099 
3 4517 10229 4515 
3 1424 341 6883 
3 10678 6410 11001 
3 4515 341 1424 
3 1595 1057 3094 
3 11001 341 4515 
3 3094 1057 3705 
3 11221 11001 6410 
3 5923 3705 11221 
3 6327 4237 3664 
3 3094 3705 5923 
3 5940 5923 6327 
3 5923 11221 6327 
3 5940 6327 3664 
3 8477 3526 5841 
3 6117 8039 3661 
3 8477 5841 6117 
3 8007 5940 6024 
3 1423 3526 4841 
3 4333 8477 6117 
3 5841 8007 6117 
3 4333 3661 654 
3 1595 3526 1423 
3 2810 1423 4324 
3 8477 4333 4841 
3 6818 4874 1059 
3 3526 1595 3094 
3 341 1057 6883 
3 5841 3526 3094 
3 5841 3094 5923 
3 3371 6883 8424 
3 3371 5561 2894 
3 8424 6883 3204 
3 8424 3204 5587 
3 9859 9024 7500 
3 7500 5561 9393 
3 10638 7500 9393 
3 8424 5561 3371 
3 5587 7491 9393 
3 8424 9393 5561 
3 10638 9393 7491 
3 5594 5587 2810 
3 9393 8424 5587 
3 7491 5587 5594 
3 9089 7491 5594 
3 8400 4324 3022 
3 5594 2810 4324 
3 3022 4324 1059 
3 9089 5594 8400 
3 9089 5901 10118 
3 3022 1059 1597 
3 3959 5226 10307 
3 7904 9853 10518 
3 10118 10518 9089 
3 8400 3022 5901 
3 8400 5901 9089 
3 7617 9575 6664 
3 2882 6664 1842 
3 6664 9575 4001 
3 6664 4001 1727 
3 9575 5901 10307 
3 4001 5226 1060 
3 3959 1425 5226 
3 10307 5226 4001 
3 3022 1597 3959 
3 3022 3959 5901 
3 6960 4620 6869 
3 1597 6869 1425 
3 6960 6869 4874 
3 1059 4874 1597 
3 1423 4841 342 
3 1423 342 4324 
3 314 6818 8527 
3 8527 342 4841 
3 6960 6818 1412 
3 4333 8527 4841 
3 6807 1412 314 
3 4333 314 8527 
3 1412 1046 6960 
3 6818 6960 4874 
3 3930 6819 1046 
3 1412 6818 314 
3 3930 1046 1412 
3 3930 1412 6807 
3 8045 8154 6548 
3 8045 6548 3372 
3 2871 8154 9301 
3 11203 10886 10445 
3 6548 1045 3372 
3 8045 3372 5539 
3 9301 8045 8933 
3 9293 2930 6819 
3 8933 10576 11203 
3 10438 11203 10445 
3 8933 11203 10438 
3 10124 11193 10106 
3 8933 10124 9301 
3 8045 9301 8154 
3 8045 5539 8933 
3 10124 8933 10438 
3 9900 8960 7453 
3 10106 7453 9367 
3 8715 4828 5850 
3 7453 5850 5676 
3 3058 8715 8960 
3 10584 8960 9900 
3 309 4828 1408 
3 8960 8715 5850 
3 3599 6406 7495 
3 11223 9900 10939 
3 9082 7495 10673 
3 10673 9871 7561 
3 10939 9900 11193 
3 10438 11193 10124 
3 10438 10445 10939 
3 10438 10939 11193 
3 11223 10584 9900 
3 11193 9900 7453 
3 10445 10886 8906 
3 10445 9871 10939 
3 10584 11223 10673 
3 7561 8267 9082 
3 11223 9871 10673 
3 9082 6620 3599 
3 6620 9082 8267 
3 8267 7561 2885 
3 7495 9082 3599 
3 6620 8267 1414 
3 8267 2885 1048 
3 4379 4187 6928 
3 10698 5669 8906 
3 8906 7561 9871 
3 8906 5669 7561 
3 10673 7561 9082 
3 9892 10576 9293 
3 4342 317 1413 
3 9903 6068 8367 
3 5669 3623 2885 
3 9362 6068 10620 
3 10886 10698 8906 
3 8367 5669 10698 
3 9903 10698 10886 
3 10576 5539 9293 
3 9892 9903 10886 
3 8933 5539 10576 
3 11203 10576 10886 
3 3930 9362 7666 
3 3930 7666 6819 
3 9293 7666 9892 
3 9903 10620 6068 
3 7666 10620 9892 
3 10576 9892 10886 
3 9362 3930 6807 
3 9362 3639 6068 
3 315 3639 654 
3 4333 654 314 
3 6807 654 3639 
3 6068 3639 4429 
3 315 655 4429 
3 6068 9397 8367 
3 3776 6384 6024 
3 4429 9397 6068 
3 4342 4289 6901 
3 655 6444 4429 
3 8039 6518 3661 
3 6117 3661 4333 
3 3661 6518 315 
3 3639 315 4429 
3 6117 8007 8039 
3 3776 2109 2119 
3 6384 3776 4402 
3 3776 6024 3364 
3 3364 2099 2109 
3 8039 6024 6384 
3 6384 4591 6518 
3 3776 2119 4402 
3 1047 8778 8446 
3 4402 2119 2129 
3 6518 8039 6384 
3 6518 4591 655 
3 6384 4402 4591 
3 655 2513 6444 
3 4591 316 2513 
3 4591 2513 655 
3 8778 2513 316 
3 6757 316 5026 
3 8446 316 6757 
3 2129 5026 4402 
3 316 4591 5026 
3 6757 5026 2139 
3 5026 2129 2139 
3 6757 2139 2149 
3 6757 2149 4859 
3 4289 8446 4859 
3 2159 4859 2149 
3 4356 4521 2169 
3 2159 4521 4859 
3 1413 1047 4289 
3 4859 8446 6757 
3 4342 1413 4289 
3 4521 4289 4859 
3 1047 6444 8778 
3 8446 8778 316 
3 9397 6444 1413 
3 4289 1047 8446 
3 4429 6444 9397 
3 8367 3623 5669 
3 1048 2885 317 
3 1413 3623 9397 
3 6444 1047 1413 
3 317 4342 1048 
3 3623 1413 317 
3 3623 317 2885 
3 4187 1048 4342 
3 6901 4289 4521 
3 318 6620 1414 
3 1414 8267 1048 
3 1049 1415 3599 
3 1049 3599 6620 
3 9463 9593 6192 
3 318 1414 4379 
3 1049 6405 3255 
3 3255 10672 5617 
3 10672 6405 9593 
3 4394 2189 2199 
3 10087 10672 7841 
3 5826 5907 3624 
3 1049 6620 318 
3 4379 1414 4187 
3 6405 1049 318 
3 6192 318 4379 
3 4187 4342 6901 
3 4356 2169 2179 
3 1414 1048 4187 
3 6928 4187 6901 
3 4521 2159 2169 
3 6928 6901 4356 
3 6928 4356 4370 
3 4356 2179 4370 
3 6928 8366 4379 
3 4370 2179 2189 
3 6928 4370 8366 
3 4379 8366 6192 
3 9463 8366 4394 
3 4155 4394 2199 
3 5907 9593 9463 
3 4155 9463 4394 
3 7841 9593 5907 
3 3624 5907 4155 
3 7706 5826 5650 
3 7706 5650 7577 
3 3624 2209 2219 
3 2229 2969 3189 
3 3624 3189 5826 
3 3189 2219 2229 
3 2969 2229 2239 
3 2881 2239 2249 
3 2978 2249 2258 
3 2881 2249 2978 
3 5640 2978 3148 
3 3148 2258 2266 
3 5907 5826 7841 
3 9593 7841 10672 
3 7478 7577 5536 
3 2881 5536 2969 
3 5547 7582 7478 
3 9030 10651 10283 
3 5640 7582 5547 
3 2881 5547 5536 
3 5818 3148 3452 
3 3668 3452 2274 
3 3452 2266 2274 
3 3668 2274 2282 
3 3807 2290 2298 
3 3807 2298 3858 
3 3668 2282 3729 
3 6107 7970 8253 
3 2298 2306 3858 
3 3807 6213 6202 
3 3196 9239 7184 
3 6153 5899 3668 
3 6153 3668 3729 
3 6202 3729 3807 
3 6153 10323 5899 
3 3668 5899 3452 
3 3729 2282 2290 
3 7577 7478 9030 
3 7577 9030 9127 
3 5640 3148 5818 
3 7752 5818 7766 
3 5617 2892 3255 
3 10672 3255 6405 
3 10672 10087 5617 
3 2892 5617 5616 
3 7495 6406 10134 
3 7495 10134 10584 
3 8960 10134 8653 
3 319 6406 1415 
3 10975 10651 8951 
3 10695 8951 7582 
3 10323 9239 7766 
3 10695 10212 9050 
3 5899 10323 7766 
3 7752 7766 10212 
3 5624 5616 7583 
3 9722 5616 7527 
3 7527 9883 9722 
3 5616 5624 3012 
3 1042 3058 8653 
3 6406 8653 10134 
3 8653 6406 319 
3 3012 319 2892 
3 319 1042 8653 
3 8653 3058 8960 
3 1408 3053 2971 
3 3053 3012 5624 
3 1042 3012 3053 
3 8016 3131 5662 
3 5616 9722 7583 
3 9958 10717 8896 
3 9722 9883 9908 
3 10705 10926 8989 
3 645 2995 3196 
3 9050 8137 10975 
3 2995 5664 3196 
3 645 295 7312 
3 8137 9330 10493 
3 10975 10493 10651 
3 6574 8137 2995 
3 3196 5664 9239 
3 9273 3797 7953 
3 6153 7953 10323 
3 3807 3858 6213 
3 6202 6213 8253 
3 7953 3797 7184 
3 7953 7184 9239 
3 3864 3797 9273 
3 8253 9273 6202 
3 8253 6213 6107 
3 7970 9368 8692 
3 646 3797 3864 
3 7189 3864 8253 
3 6321 8692 9368 
3 6174 6107 3649 
3 4757 7312 295 
3 4757 295 646 
3 295 3797 646 
3 296 647 7202 
3 4757 646 4468 
3 4757 5893 8234 
3 3864 7189 296 
3 4468 296 7202 
3 296 7189 4188 
3 647 4188 4939 
3 4939 8692 6992 
3 8639 6174 7082 
3 297 647 4939 
3 297 6992 5124 
3 297 4939 6992 
3 776 5016 527 
3 10741 5893 7912 
3 7592 7912 3490 
3 3490 297 7138 
3 7592 10645 10741 
3 2864 293 643 
3 5860 7072 9268 
3 9268 5893 10741 
3 10645 7592 10198 
3 3131 294 644 
3 7072 4961 8234 
3 7072 8234 9268 
3 7072 5860 4553 
3 9268 8234 5893 
3 7912 5893 4468 
3 8989 8927 5606 
3 8911 7433 11019 
3 294 4961 644 
3 7324 644 7072 
3 7433 8911 7946 
3 7004 7946 3100 
3 7946 5662 3100 
3 7004 3100 293 
3 10720 8911 10906 
3 10894 10484 9909 
3 8930 7946 10720 
3 10906 8911 9905 
3 10926 8930 11218 
3 10926 8927 8989 
3 9958 11218 10720 
3 8911 10720 7946 
3 5662 8930 10524 
3 7583 8989 5624 
3 9929 10524 10705 
3 10926 10524 8930 
3 9330 6574 8016 
3 5662 3131 3100 
3 3131 6574 294 
3 4961 294 645 
3 6574 3131 8016 
3 9330 8016 9929 
3 8137 5664 2995 
3 6574 2995 294 
3 10524 10926 10705 
3 5624 5606 3053 
3 8016 10524 9929 
3 7583 10705 8989 
3 10493 9330 9929 
3 9908 9929 10705 
3 3058 1042 1408 
3 5606 5624 8989 
3 309 2971 7245 
3 8927 9958 8896 
3 8896 7452 7843 
3 1408 1042 3053 
3 7843 7245 2971 
3 5606 2971 3053 
3 3080 4828 1041 
3 3080 5085 5676 
3 1408 2971 309 
3 4828 309 1041 
3 9367 7453 5676 
3 3080 5676 5850 
3 8715 3058 1408 
3 8715 1408 4828 
3 9301 7511 2871 
3 311 6810 1409 
3 7511 10106 9367 
3 6810 6457 1409 
3 3472 1410 1044 
3 311 2871 6810 
3 1044 8154 2871 
3 1044 311 3939 
3 3472 1044 3939 
3 3472 3939 6212 
3 1044 2871 311 
3 3939 311 4102 
3 3899 4102 1409 
3 3764 4082 8181 
3 9367 5676 6457 
3 9367 6457 6810 
3 3080 1407 5085 
3 6457 1043 1409 
3 4409 3899 1043 
3 5085 1043 6457 
3 10248 3998 6652 
3 5085 310 1043 
3 8181 6367 9716 
3 4102 9716 3939 
3 1409 1043 3899 
3 4102 8181 9716 
3 8181 4082 6367 
3 9716 6367 6212 
3 3764 8181 6503 
3 3899 8181 4102 
3 4409 6598 6503 
3 3899 6503 8181 
3 1043 310 4409 
3 3899 4409 6503 
3 4496 6598 4469 
3 6561 9188 4032 
3 6598 310 3998 
3 6598 6561 4469 
3 10248 7600 11217 
3 10248 9188 6561 
3 3080 1041 1407 
3 5085 1407 310 
3 7600 10248 6652 
3 7600 3248 7452 
3 2971 5606 7843 
3 7245 7843 7452 
3 7843 5606 8927 
3 7843 8927 8896 
3 309 7245 3248 
3 309 3248 1041 
3 10720 10906 9958 
3 8896 10717 9909 
3 10906 10717 9958 
3 11218 9958 8927 
3 9909 10484 10531 
3 9909 10531 8983 
3 9905 10963 10894 
3 10906 10894 10717 
3 11217 10931 9188 
3 2842 8111 2826 
3 10931 10531 7461 
3 6530 7461 2842 
3 6503 4496 7120 
3 9188 10931 6530 
3 1746 4469 1185 
3 16 2842 818 
3 3998 10248 6561 
3 3998 6561 6598 
3 10248 11217 9188 
3 4032 9188 6530 
3 1631 1902 2596 
3 1937 4496 1746 
3 6503 6598 4496 
3 7120 4496 1937 
3 3923 4082 1631 
3 2594 2596 5334 
3 1631 4082 1902 
3 7120 3764 6503 
3 2545 2596 1902 
3 1631 2596 2594 
3 3764 1964 1902 
3 3764 1902 4082 
3 1937 7119 1964 
3 7120 1964 3764 
3 1746 2853 1937 
3 7120 1937 1964 
3 1185 3516 1746 
3 4469 1746 4496 
3 1937 2853 7119 
3 1964 2545 1902 
3 5625 2853 3516 
3 6193 3516 5160 
3 9780 7364 9101 
3 2545 5311 2596 
3 7777 5311 2545 
3 7119 2545 1964 
3 7364 5311 9101 
3 11017 9101 10330 
3 8993 10330 5625 
3 7119 7777 2545 
3 7777 2853 5625 
3 8993 5625 7741 
3 5625 3516 6193 
3 7741 6193 9408 
3 16 5160 1185 
3 5160 818 8390 
3 4032 6530 16 
3 818 2842 2826 
3 818 5160 16 
3 4032 1185 4469 
3 6530 2842 16 
3 4032 16 1185 
3 8880 9229 8111 
3 7461 8111 2842 
3 10531 10484 8880 
3 7461 8880 8111 
3 9229 7479 5494 
3 8111 5494 2826 
3 10579 7479 9884 
3 9866 9229 8880 
3 11007 10579 10924 
3 10654 9884 9866 
3 10579 9884 10924 
3 10609 10654 9867 
3 8935 10924 10609 
3 8935 7459 7672 
3 8935 10609 7459 
3 5549 5479 2791 
3 3860 2791 1035 
3 10278 1035 6700 
3 9603 5479 9166 
3 7459 5479 5549 
3 2791 3086 1401 
3 1035 1401 6700 
3 9867 8879 9166 
3 9867 9166 10609 
3 292 3086 6953 
3 7624 9603 9166 
3 10654 9866 10963 
3 10728 10963 9905 
3 9166 8879 7624 
3 643 3370 292 
3 11019 10728 9905 
3 11019 9905 8911 
3 8879 11019 7433 
3 7624 7433 2864 
3 643 293 4553 
3 293 2864 7004 
3 3370 4553 5860 
3 10645 10198 9065 
3 7624 2864 6953 
3 9603 6953 3086 
3 292 6953 643 
3 3370 643 4553 
3 292 3370 3747 
3 292 3747 1401 
3 3370 5860 5976 
3 3370 5976 3747 
3 7592 7853 10198 
3 11715 3677 6007 
3 9268 10741 7736 
3 5860 7736 5976 
3 7736 10741 10645 
3 7736 10645 9065 
3 8462 10198 4097 
3 7138 7853 7592 
3 5124 7070 648 
3 7138 648 7853 
3 8472 298 5273 
3 648 5273 7853 
3 8472 8614 298 
3 5273 4097 7853 
3 5042 8614 8472 
3 7070 8472 5273 
3 9065 10198 8462 
3 9065 6007 10337 
3 11715 8462 4097 
3 298 4097 5273 
3 5976 9065 10337 
3 5976 10337 3747 
3 9065 8462 6007 
3 8041 3677 9414 
3 8041 6007 3677 
3 9414 3677 290 
3 5114 289 641 
3 8462 11715 6007 
3 4540 5114 641 
3 4097 641 11715 
3 872 5114 4574 
3 8614 4540 298 
3 5114 4540 4574 
3 872 1677 2651 
3 2578 5319 5370 
3 7357 8801 10027 
3 2584 5319 2578 
3 7612 10674 10011 
3 2696 5370 9161 
3 5151 876 3470 
3 2696 9161 6666 
3 3156 3646 1794 
3 6666 9161 10238 
3 5151 73 876 
3 7612 5618 7000 
3 10238 3470 6666 
3 5370 5319 7357 
3 5370 9007 9161 
3 7357 10027 9007 
3 9161 10674 10238 
3 10027 10987 11000 
3 5357 2665 5448 
3 10987 10496 11000 
3 9007 10674 9161 
3 11460 11258 10837 
3 10674 9007 11000 
3 8815 7394 9943 
3 10837 9943 10496 
3 10496 9943 10011 
3 5618 9099 5448 
3 9942 7396 8815 
3 9943 7394 9099 
3 9943 9099 10011 
3 10496 10011 11000 
3 7000 10238 7612 
3 10011 10674 11000 
3 10238 10674 7612 
3 5618 7612 9099 
3 2665 875 2847 
3 5448 2847 5618 
3 3471 2847 1542 
3 4808 1240 4815 
3 5357 2650 2665 
3 5448 2665 2847 
3 2665 2650 72 
3 6324 411 2515 
3 875 72 7098 
3 3383 3489 709 
3 4808 6324 8457 
3 7098 7241 5048 
3 875 7098 5048 
3 875 1542 2847 
3 7098 8457 7241 
3 5048 7241 5040 
3 1542 5048 5040 
3 5074 709 409 
3 6965 3383 410 
3 7241 410 5040 
3 5040 1241 1542 
3 5048 1542 875 
3 1241 5040 5074 
3 1241 5074 73 
3 10238 7000 3470 
3 6666 3470 1679 
3 3471 1241 5151 
3 3471 5151 7000 
3 73 5074 7032 
3 6567 7032 1452 
3 4719 6567 1086 
3 407 4863 707 
3 1452 409 4466 
3 707 4241 408 
3 8624 6255 9565 
3 4466 6568 1452 
3 5883 8724 6255 
3 9565 6255 4195 
3 409 709 3489 
3 409 3489 4466 
3 5883 6255 8624 
3 3489 8624 4466 
3 8724 5883 9471 
3 8724 5891 7192 
3 8724 9471 5891 
3 713 4644 5099 
3 708 4195 4328 
3 7192 4328 8724 
3 7192 5891 4229 
3 7192 4229 715 
3 4229 415 715 
3 7192 416 4328 
3 2595 1853 1757 
3 415 1853 715 
3 9078 5320 2595 
3 8680 4455 28 
3 9078 2595 8702 
3 9078 6450 7610 
3 6450 8702 1196 
3 714 4229 3845 
3 414 6911 714 
3 1757 1196 8702 
3 4229 5891 3845 
3 4229 714 415 
3 1196 1757 6911 
3 414 713 5099 
3 1757 714 6911 
3 1196 8680 28 
3 8249 4973 7149 
3 3845 414 714 
3 3845 7149 414 
3 6911 414 5099 
3 6911 5099 8680 
3 6911 8680 1196 
3 6978 4455 4644 
3 5099 4455 8680 
3 713 413 4644 
3 5099 4644 4455 
3 8392 6978 4749 
3 8493 4644 413 
3 7246 412 4973 
3 9488 6346 8493 
3 4973 712 713 
3 7149 713 414 
3 6965 9406 3383 
3 7822 4478 7246 
3 412 712 4973 
3 7246 4973 8249 
3 9406 4478 7822 
3 9471 7822 5891 
3 7149 3845 8249 
3 7246 8249 7822 
3 9406 6965 6469 
3 410 3383 709 
3 6469 6965 710 
3 3383 9406 5883 
3 8457 2515 710 
3 7241 710 410 
3 4478 9406 6469 
3 710 6965 410 
3 711 4478 6469 
3 2515 6469 710 
3 8306 8120 6227 
3 7048 712 412 
3 7327 3696 711 
3 7327 711 6469 
3 711 3696 4053 
3 6016 8120 10254 
3 3696 8120 6016 
3 9488 413 3643 
3 3696 6016 4053 
3 9629 7745 7048 
3 7828 7745 9394 
3 8238 8120 6211 
3 6016 9629 4053 
3 711 4053 412 
3 3643 712 7048 
3 9629 7048 4053 
3 713 712 413 
3 9461 6745 8252 
3 712 3643 413 
3 4644 8493 6978 
3 4749 6978 8493 
3 9488 10239 7817 
3 730 8392 4749 
3 436 4749 6346 
3 9488 7817 6346 
3 9461 8643 4967 
3 4749 8493 6346 
3 436 6346 3669 
3 7828 10239 7745 
3 9394 7745 9629 
3 8252 7817 7828 
3 7745 10239 3643 
3 3643 10239 9488 
3 413 9488 8493 
3 7828 5978 6080 
3 9461 4967 6745 
3 7828 6080 8252 
3 7817 3669 6346 
3 7817 8252 3669 
3 436 1092 5127 
3 3669 8252 6745 
3 3669 1092 436 
3 261 8643 4048 
3 6080 9461 8252 
3 3882 7165 8164 
3 4792 7165 8643 
3 3711 6678 262 
3 4048 8643 9461 
3 3502 621 4048 
3 6080 4048 9461 
3 622 3447 3577 
3 3502 262 621 
3 3447 5955 3577 
3 6080 3502 4048 
3 3502 6080 5978 
3 3447 622 262 
3 9394 5978 7828 
3 10239 7828 7817 
3 5955 8238 3577 
3 3577 8399 263 
3 8120 8238 10254 
3 6016 10254 9394 
3 263 622 3577 
3 8238 5955 10254 
3 9394 10254 5955 
3 5978 3447 3502 
3 5978 5955 3447 
3 3502 3447 262 
3 1238 4991 6570 
3 6633 1239 71 
3 5111 263 8399 
3 4783 8399 6211 
3 11013 9985 5522 
3 10079 8934 10431 
3 11013 5522 9015 
3 7551 3285 6709 
3 9015 7900 7551 
3 874 3850 1678 
3 9418 7551 6709 
3 9418 2709 5396 
3 7900 6633 3285 
3 6709 3285 1678 
3 6633 71 874 
3 3285 874 1678 
3 6227 9573 8306 
3 8120 8306 6211 
3 6324 9573 6227 
3 3696 6227 8120 
3 4815 9573 6324 
3 8457 6324 2515 
3 6324 6227 411 
3 2515 411 7327 
3 9573 4815 6708 
3 2709 1240 2650 
3 72 1240 4808 
3 7098 4808 8457 
3 1793 1240 2709 
3 6709 2709 9418 
3 4815 1240 1793 
3 1678 1793 6709 
3 1678 3850 6708 
3 1678 6708 1793 
3 10366 9942 8815 
3 7396 8934 5396 
3 9942 10431 8934 
3 9942 8934 7396 
3 7396 7394 8815 
3 10366 11586 11060 
3 5396 2650 5357 
3 7394 5357 5448 
3 11445 11060 11586 
3 11258 11206 10837 
3 10366 8815 11206 
3 11586 11206 11258 
3 10884 11060 11102 
3 11380 11102 10821 
3 10431 9942 10884 
3 11586 10366 11206 
3 10366 11060 10884 
3 10366 10884 9942 
3 10884 11102 11380 
3 10431 11150 10427 
3 10431 11380 11150 
3 11013 11353 9985 
3 9015 10079 10427 
3 11013 10427 11353 
3 7551 9418 10079 
3 10427 10079 10431 
3 8919 11353 10394 
3 10002 10394 10568 
3 5522 7900 9015 
3 11013 9015 10427 
3 10821 10787 10568 
3 10002 10568 7399 
3 11102 10787 10821 
3 11380 10821 11150 
3 10821 10568 10394 
3 10821 10394 11150 
3 5376 2651 5417 
3 8919 7772 9985 
3 7772 8919 8206 
3 5417 8206 10002 
3 872 4574 1677 
3 2651 2796 5417 
3 6570 8206 2796 
3 1677 2796 2651 
3 6448 4798 8716 
3 4798 1677 4574 
3 9985 7772 9619 
3 1792 6570 2796 
3 10002 8206 8919 
3 10002 8919 10394 
3 9619 7772 4991 
3 6570 7772 8206 
3 1541 3038 873 
3 6570 4991 7772 
3 5522 9985 9619 
3 5522 3038 3396 
3 8542 1541 873 
3 4991 3038 9619 
3 265 8542 4670 
3 3038 1541 3396 
3 6370 4670 7136 
3 873 3038 4991 
3 70 7136 873 
3 5193 11720 1239 
3 6562 70 8707 
3 1792 1238 6570 
3 6562 7136 70 
3 1238 70 4991 
3 7136 8542 873 
3 70 873 4991 
3 6370 7136 6562 
3 4869 526 1502 
3 626 4306 4865 
3 4009 6467 6564 
3 7317 4306 6370 
3 4307 6370 6562 
3 8542 7136 4670 
3 624 264 11720 
3 6370 4307 4349 
3 7109 774 7058 
3 6370 4349 7317 
3 268 628 5198 
3 4463 1136 1502 
3 4307 1136 4349 
3 4307 1502 1136 
3 4865 4306 7317 
3 4487 4798 6534 
3 8707 4869 6562 
3 4307 6562 4869 
3 4307 4869 1502 
3 1238 6448 8707 
3 4869 8716 526 
3 8716 4869 8707 
3 1238 8707 70 
3 6448 1792 4798 
3 4487 4381 1137 
3 1238 1792 6448 
3 8707 6448 8716 
3 4540 8614 6534 
3 4574 6534 4798 
3 1503 1137 4381 
3 1503 4381 5042 
3 526 8716 4487 
3 4381 4487 6534 
3 5128 8774 5016 
3 527 5016 1503 
3 5016 6467 4009 
3 1503 4009 1137 
3 777 5135 5128 
3 5016 8774 6467 
3 1137 4009 5119 
3 526 5119 1502 
3 528 6321 4481 
3 777 4481 8384 
3 4481 777 528 
3 776 527 5124 
3 528 5128 776 
3 6992 776 5124 
3 777 5128 528 
3 6321 528 6992 
3 8639 9368 6174 
3 4144 3649 2314 
3 6321 9368 8639 
3 4481 8639 7082 
3 3649 2306 2314 
3 7082 6174 4144 
3 529 5135 777 
3 4144 2314 2322 
3 4144 2322 4711 
3 2322 2330 4711 
3 7082 8384 4481 
3 4711 6758 8384 
3 4711 8384 7082 
3 8456 529 6758 
3 2330 6758 4711 
3 775 5135 529 
3 8456 6758 2337 
3 4448 5135 775 
3 4193 4789 774 
3 6758 2330 2337 
3 6610 529 8456 
3 6610 8456 2341 
3 8456 2337 2341 
3 9719 2341 2345 
3 775 529 6610 
3 775 6610 8436 
3 4448 775 524 
3 6505 4561 6476 
3 4561 6505 4788 
3 2345 4788 9719 
3 775 8436 524 
3 4448 7109 6564 
3 8436 4788 6505 
3 524 4193 774 
3 7109 4463 6564 
3 4448 6564 6467 
3 7058 4463 7109 
3 524 7109 4448 
3 7058 1136 4463 
3 6564 4463 5119 
3 4349 1136 525 
3 6476 7857 6848 
3 6476 4193 6505 
3 524 774 7109 
3 7197 525 4789 
3 774 2520 7058 
3 7058 2520 525 
3 4349 525 7317 
3 4789 4709 7197 
3 525 7197 7317 
3 267 626 4865 
3 7197 4865 7317 
3 4865 7197 267 
3 626 267 4318 
3 3417 626 4318 
3 7284 5198 4162 
3 4709 4068 627 
3 267 627 4318 
3 4068 6626 268 
3 627 268 5198 
3 2520 774 4789 
3 2520 4789 525 
3 6848 4068 4709 
3 7197 4709 267 
3 4709 4789 6848 
3 6505 4193 524 
3 6848 4193 6476 
3 7857 3663 7064 
3 4788 2345 2349 
3 3663 6476 4561 
3 2349 4561 4788 
3 3663 4561 2353 
3 2349 2353 4561 
3 4789 4193 6848 
3 4068 6848 7857 
3 7857 6476 3663 
3 7064 3663 2354 
3 7064 2354 2351 
3 2347 4866 4715 
3 7064 4715 7857 
3 269 628 4909 
3 4411 4772 4660 
3 4715 2351 2347 
3 4866 2347 2343 
3 4866 2343 4823 
3 4823 2339 4772 
3 4660 2335 2326 
3 4660 2326 4526 
3 4909 4823 4772 
3 4909 4772 4411 
3 7162 4660 4526 
3 7162 4273 6997 
3 7162 4526 8572 
3 4154 8572 6920 
3 2310 4251 4403 
3 2318 4403 4526 
3 269 4162 628 
3 4957 628 268 
3 3325 4162 269 
3 629 269 4411 
3 3417 4318 10744 
3 8070 4162 3325 
3 5816 8070 3325 
3 629 3325 269 
3 4411 7162 6997 
3 629 270 3292 
3 7162 8572 4273 
3 6997 4273 270 
3 4403 4251 6920 
3 4154 7196 259 
3 2993 259 7196 
3 4154 259 619 
3 4154 6920 7196 
3 259 2993 618 
3 260 3798 618 
3 259 618 7076 
3 8272 9489 2993 
3 7980 6224 6029 
3 9436 5816 5862 
3 9704 3572 7076 
3 9704 5862 3572 
3 270 629 6997 
3 5816 3325 3292 
3 3572 3292 270 
3 619 3572 270 
3 619 270 4273 
3 10744 7284 8070 
3 10171 5816 9436 
3 10171 8070 5816 
3 5862 5816 3292 
3 4306 266 625 
3 7710 10744 10171 
3 7059 3417 7710 
3 10171 10744 8070 
3 3417 7059 266 
3 266 4306 626 
3 7059 625 266 
3 3417 266 626 
3 265 625 624 
3 4834 7059 7710 
3 3417 10744 7710 
3 7702 7732 7259 
3 7710 7702 7260 
3 7702 10233 7732 
3 4834 7710 7260 
3 4834 7260 264 
3 10171 9436 7702 
3 7260 7702 3724 
3 4670 625 265 
3 8542 5193 1541 
3 7059 4834 624 
3 265 5193 8542 
3 624 11720 5193 
3 3396 1239 6633 
3 265 624 5193 
3 1541 5193 1239 
3 623 11720 264 
3 623 264 3724 
3 264 7260 3724 
3 623 3724 5190 
3 3724 7259 5190 
3 623 5190 263 
3 7732 6678 3711 
3 7259 3711 5190 
3 4497 6678 7913 
3 10233 7702 9436 
3 7913 7732 10233 
3 9704 10233 5862 
3 6678 7732 7913 
3 4497 7913 3798 
3 260 4497 3798 
3 7076 3798 9704 
3 8164 6863 8272 
3 2993 9489 618 
3 6678 4497 8672 
3 621 8672 261 
3 8672 4497 620 
3 9489 260 618 
3 260 6863 620 
3 8672 620 261 
3 1643 4816 9500 
3 730 436 5127 
3 1909 1643 9500 
3 435 9500 8392 
3 5068 730 5127 
3 3881 5199 9388 
3 435 8392 730 
3 435 730 5068 
3 729 435 5068 
3 6461 5068 8632 
3 5248 435 729 
3 7273 729 434 
3 2963 1944 6614 
3 7273 5248 729 
3 8244 6614 8766 
3 6614 1944 1758 
3 7226 4452 1197 
3 5039 1457 6729 
3 3323 4453 1644 
3 29 1197 5039 
3 5952 2941 29 
3 7226 832 4453 
3 4453 832 1644 
3 3323 1644 1854 
3 5039 9745 29 
3 7226 29 832 
3 5952 8208 2941 
3 832 3142 1644 
3 729 5102 434 
3 7273 434 1758 
3 6729 9745 5039 
3 434 1197 1758 
3 4452 1758 1197 
3 7226 1197 29 
3 7903 6729 3637 
3 5217 3886 8491 
3 7548 7903 3637 
3 1091 3637 6729 
3 29 9745 5952 
3 10718 8998 9060 
3 5952 7903 10064 
3 5952 10064 8208 
3 7556 8998 7550 
3 7548 10633 7903 
3 10247 6310 10195 
3 10633 9588 8998 
3 732 3628 439 
3 5217 439 1091 
3 7972 10195 9402 
3 6310 7548 3637 
3 5199 4317 9388 
3 5199 3881 1458 
3 732 5217 8491 
3 4317 8491 9388 
3 434 5102 1457 
3 1091 3886 5217 
3 3886 1091 1457 
3 434 1457 5039 
3 8632 5127 3881 
3 1458 6745 4967 
3 5068 5127 8632 
3 6461 8632 9388 
3 3881 1092 1458 
3 5199 437 731 
3 3882 731 437 
3 7165 437 4967 
3 5127 1092 3881 
3 8632 3881 9388 
3 8272 5948 8164 
3 6863 8164 4792 
3 3240 731 3882 
3 3240 5948 10261 
3 3882 8164 5948 
3 3882 5948 3240 
3 3628 3573 6069 
3 10268 6093 9399 
3 2278 3367 2286 
3 5791 6029 3327 
3 3573 6093 6069 
3 6030 3558 6065 
3 6863 9489 8272 
3 9519 8272 7770 
3 10268 9399 6030 
3 3367 5791 3327 
3 8272 2993 7980 
3 7770 7980 6029 
3 7196 6920 6224 
3 7196 6224 7980 
3 2318 2310 4403 
3 2310 2302 4251 
3 2294 3327 3888 
3 4251 3888 6224 
3 9399 5863 6030 
3 7991 7770 5791 
3 5863 5791 3367 
3 3517 5863 3367 
3 2286 3367 3327 
3 6030 5863 3517 
3 2270 3517 2278 
3 6065 10268 6030 
3 6069 10268 6065 
3 3615 2262 2254 
3 6030 3517 3558 
3 3517 2270 3558 
3 6065 3615 6042 
3 3558 2270 2262 
3 3615 3612 6042 
3 7972 9402 6042 
3 3558 2262 3615 
3 3558 3615 6065 
3 2254 2244 3612 
3 2254 3612 3615 
3 3415 5740 5814 
3 3612 5814 6042 
3 3141 3415 2234 
3 2244 3415 3612 
3 6093 10268 6069 
3 9402 6065 6042 
3 3628 6069 10195 
3 10247 7548 6310 
3 6069 9402 10195 
3 3628 6310 439 
3 3628 10195 6310 
3 439 6310 3637 
3 7796 10247 7972 
3 5814 7972 6042 
3 9588 7548 10247 
3 7972 10247 10195 
3 7550 9588 7796 
3 5740 7796 5814 
3 8208 10064 10718 
3 8208 10718 10054 
3 10718 9060 10054 
3 8208 5558 2941 
3 7540 8981 8984 
3 10054 8978 5558 
3 7540 7631 8981 
3 10131 8184 9051 
3 7559 5598 5572 
3 5585 5572 2929 
3 5572 5585 7540 
3 5572 7540 7559 
3 7556 5598 7559 
3 8984 8981 10675 
3 9060 7559 8984 
3 9060 8984 10054 
3 8998 9588 7550 
3 7556 5614 5598 
3 5740 5614 7550 
3 2992 2929 5572 
3 5614 5740 3141 
3 3034 2992 5598 
3 5614 3141 3034 
3 3034 2224 2214 
3 3141 2224 3034 
3 5614 3034 5598 
3 3034 2214 2992 
3 5598 2992 5572 
3 2992 2214 2204 
3 2992 2204 2929 
3 7540 5585 7631 
3 3741 2174 2164 
3 3060 2184 3320 
3 3406 5784 8112 
3 2929 2194 3060 
3 5585 3060 5746 
3 3060 2194 2184 
3 3320 2184 2174 
3 3320 2174 3741 
3 5746 3320 5998 
3 6141 4309 7200 
3 3320 3741 5998 
3 5746 8095 7631 
3 2164 2154 4309 
3 3741 6141 5998 
3 3741 4309 6141 
3 5998 6141 8112 
3 2144 2134 4968 
3 2144 4968 4706 
3 5585 5746 7631 
3 8095 5998 8112 
3 8981 7631 9302 
3 8577 9189 9051 
3 7631 8095 9302 
3 8981 10131 10675 
3 4309 4706 7200 
3 6141 6363 8112 
3 7180 1075 4613 
3 372 1440 6363 
3 2134 2124 6824 
3 1441 373 6971 
3 2124 373 6824 
3 2124 2114 373 
3 6824 373 1441 
3 373 2114 5108 
3 4832 2104 2094 
3 1076 373 5108 
3 2104 5108 2114 
3 4321 8699 4832 
3 2104 4832 5108 
3 3790 1074 1440 
3 6363 6141 7200 
3 4613 1075 372 
3 4613 6363 7200 
3 3406 8112 6363 
3 372 6363 4613 
3 7180 6824 1441 
3 7180 1441 1075 
3 8981 9302 10131 
3 10675 10131 8978 
3 3406 3105 5784 
3 8112 5784 8095 
3 8208 10054 5558 
3 3142 8200 6772 
3 10054 10675 8978 
3 5558 8200 3142 
3 2941 5558 3142 
3 2941 3142 832 
3 8978 9051 8200 
3 8978 8200 5558 
3 6309 9051 8184 
3 5784 8184 9302 
3 1440 1074 3406 
3 5784 3105 8184 
3 1074 3105 3406 
3 1440 3406 6363 
3 4204 5865 3200 
3 1075 3200 372 
3 6971 8005 4204 
3 6971 4204 1441 
3 4348 6309 371 
3 3105 6309 8184 
3 7647 3790 7130 
3 3200 7130 372 
3 8577 6527 9189 
3 8200 9189 6772 
3 8593 6527 4348 
3 6309 8577 9051 
3 3105 1074 371 
3 6309 4348 8577 
3 9564 8337 7647 
3 7130 3790 1440 
3 3291 1442 374 
3 1076 6971 373 
3 3291 6585 1442 
3 4543 4537 4832 
3 3291 374 7218 
3 3647 4543 9534 
3 6585 6971 1076 
3 1442 1076 4537 
3 1076 5108 4537 
3 1442 4537 4543 
3 9534 8699 6336 
3 2084 4321 2094 
3 3700 2074 3757 
3 8116 6191 9530 
3 2084 2074 3700 
3 4321 6336 8699 
3 2074 2064 3757 
3 3700 6082 6336 
3 3757 4091 9530 
3 2064 4091 3757 
3 6541 1958 4406 
3 4479 2054 2042 
3 4479 2042 4848 
3 9577 8116 4091 
3 3757 6082 3700 
3 2054 4479 4091 
3 2054 4091 2064 
3 8116 3908 6191 
3 9530 6191 6082 
3 1923 3908 4406 
3 4091 8116 9530 
3 4091 4479 9577 
3 8116 4406 3908 
3 2042 2030 4848 
3 4479 6541 9577 
3 8579 2018 2006 
3 8529 2006 1994 
3 1994 6508 8529 
3 2006 8529 8579 
3 6508 1994 1978 
3 6508 8326 9720 
3 6756 8579 1298 
3 1826 1958 6541 
3 8579 8529 130 
3 933 1712 3410 
3 1958 1923 4406 
3 9577 4406 8116 
3 4848 8635 6541 
3 9577 6541 4406 
3 1298 8635 6756 
3 8579 6756 2018 
3 7218 6231 7832 
3 8568 6260 9571 
3 7051 6587 4559 
3 7051 129 375 
3 1443 6587 7051 
3 129 4005 1297 
3 1923 1711 3908 
3 3908 3588 6191 
3 1443 375 8610 
3 4350 8610 1078 
3 3647 6587 1077 
3 7218 7832 3291 
3 4350 3214 5931 
3 10214 5865 8005 
3 4350 7832 6231 
3 8610 6231 1443 
3 1443 6231 1077 
3 374 1442 4543 
3 374 3647 1077 
3 7218 1077 6231 
3 4559 6587 9571 
3 4559 6260 3588 
3 4559 9571 6260 
3 3588 6260 6191 
3 8568 9534 6336 
3 6082 3757 9530 
3 8568 6336 6082 
3 8568 6082 6191 
3 4204 8005 5865 
3 9718 7647 7130 
3 7832 5931 10214 
3 7832 10214 8005 
3 1077 7218 374 
3 3647 374 4543 
3 8337 3790 7647 
3 10111 5865 10214 
3 7130 3200 9718 
3 7647 10111 9564 
3 8337 7581 3555 
3 683 4348 371 
3 7647 9718 10111 
3 9564 10071 7581 
3 3323 1854 6771 
3 4332 6527 8593 
3 1198 1759 4332 
3 1198 4332 4681 
3 6527 8577 4348 
3 4750 370 4900 
3 8593 4348 4750 
3 3555 683 6785 
3 8244 2963 6614 
3 4452 6614 1758 
3 11729 8244 8766 
3 4453 8766 4452 
3 2646 1643 2737 
3 1944 1909 5248 
3 2737 1909 2963 
3 9262 10596 10056 
3 4455 4816 831 
3 5397 7387 7610 
3 1643 1909 2737 
3 5398 2737 5491 
3 2737 2963 5491 
3 11729 8766 6221 
3 9901 9265 7468 
3 3323 6221 4453 
3 6221 3323 9265 
3 2763 1759 1198 
3 9262 8244 11729 
3 9265 3323 6771 
3 10596 11729 9901 
3 9076 10983 10170 
3 2737 5398 2646 
3 831 3662 28 
3 2963 8244 5491 
3 7412 9262 10056 
3 831 2646 3662 
3 28 3662 1196 
3 3662 2646 5397 
3 3662 5397 6450 
3 5398 5491 7412 
3 5398 7387 5397 
3 5491 8244 9262 
3 5491 9262 7412 
3 11729 9265 9901 
3 10596 9901 11210 
3 9265 6771 7468 
3 9901 10512 11210 
3 7468 6771 2763 
3 7468 10170 10512 
3 4750 4900 4681 
3 8593 4681 4332 
3 4348 683 4750 
3 8593 4750 4681 
3 8002 9125 10071 
3 9090 10071 10111 
3 8002 10071 9090 
3 5931 9090 10214 
3 7581 6834 3555 
3 3555 370 683 
3 7581 9125 6834 
3 370 1438 4900 
3 8471 9125 6892 
3 3214 8002 5931 
3 2669 1958 6658 
3 6872 3410 5596 
3 6541 8635 1826 
3 1958 2669 1923 
3 7051 4559 129 
3 2657 5295 7906 
3 932 3588 1711 
3 932 2657 7248 
3 1444 4350 1078 
3 7280 1078 375 
3 4559 932 129 
3 375 1297 7280 
3 1072 4858 1438 
3 6834 1438 370 
3 376 1073 6892 
3 376 6892 3214 
3 30 6436 8395 
3 2763 10170 7468 
3 6873 833 30 
3 4681 30 1198 
3 1196 3662 6450 
3 8702 6450 9078 
3 5398 7412 7387 
3 9791 10463 10789 
3 11112 10900 11338 
3 10512 9901 7468 
3 11338 11210 10512 
3 10170 2763 8395 
3 10983 10512 10170 
3 10983 9076 9817 
3 8473 6873 4858 
3 4900 6873 4681 
3 1072 5052 4858 
3 1438 4858 4900 
3 10900 11210 11338 
3 10835 10983 9817 
3 369 1072 1439 
3 11714 1438 6834 
3 7387 7412 8817 
3 7387 8863 7610 
3 10596 11210 10900 
3 11112 10835 11476 
3 7387 8817 8863 
3 7610 10140 9078 
3 10170 8395 9076 
3 9817 7902 10105 
3 9076 8395 6436 
3 9076 7902 9817 
3 6436 833 2656 
3 5052 8473 4858 
3 1957 5148 1825 
3 7280 5148 1078 
3 375 129 1297 
3 7280 1297 1825 
3 1439 1072 11714 
3 8471 11714 9125 
3 376 3214 1444 
3 7092 1444 5148 
3 1958 1826 6658 
3 9363 10068 8242 
3 1826 1298 3409 
3 6658 3409 9363 
3 129 932 7248 
3 2658 5521 5294 
3 1711 2546 2657 
3 7248 7906 4005 
3 2546 1923 2669 
3 2546 2669 5337 
3 4519 1732 1929 
3 6360 7765 6361 
3 2023 2035 6851 
3 3287 2078 2088 
3 746 464 9520 
3 5881 3322 3528 
3 4399 2313 11719 
3 1578 3468 3021 
3 8444 6557 4911 
3 5788 9255 5682 
3 1298 130 5140 
3 1298 5140 3409 
3 8529 6508 933 
3 1712 4827 1924 
3 6508 9720 933 
3 130 933 5140 
3 1978 1895 8326 
3 4827 4611 4506 
3 1618 4259 4611 
3 3823 6151 8299 
3 2011 2023 161 
3 4929 2035 2047 
3 4929 2047 4480 
3 9520 464 2265 
3 4847 2301 2293 
3 121 2243 2233 
3 2332 1578 969 
3 1289 5077 5216 
3 4396 1993 1977 
3 4396 1977 3964 
3 5202 2183 2173 
3 3072 2113 2103 
3 3093 2103 2093 
3 4793 4501 2053 
3 1565 2223 2213 
3 805 2 8713 
3 970 167 6979 
3 3817 4096 2285 
3 5216 2253 2243 
3 1565 924 2223 
3 5202 2173 5083 
3 5083 2173 2163 
3 3441 4092 2123 
3 6886 3595 1617 
3 8346 2017 2005 
3 6337 2017 8346 
3 2005 1993 4678 
3 9638 6337 8346 
3 4678 1993 4396 
3 6520 4396 3964 
3 3595 3964 1894 
3 3946 2073 4202 
3 6337 6836 2029 
3 3519 2093 2083 
3 6836 2041 2029 
3 6337 2029 2017 
3 2133 4593 2143 
3 4092 2133 2123 
3 1565 2213 1290 
3 925 2193 2183 
3 5216 2243 121 
3 924 121 2233 
3 6441 121 924 
3 2916 924 1565 
3 7911 2916 5444 
3 1290 2213 2203 
3 2694 1565 1290 
3 7910 6440 10726 
3 925 2183 5202 
3 925 1704 2622 
3 5589 5716 3072 
3 5589 3072 3093 
3 5589 3093 5635 
3 1071 4123 3772 
3 2203 2193 122 
3 6440 7845 10726 
3 6188 5716 7698 
3 5716 3441 3072 
3 4759 5077 1564 
3 6441 924 2916 
3 1882 5083 6572 
3 4844 2153 2143 
3 8513 6572 4844 
3 4593 2133 4092 
3 4756 6456 8709 
3 7698 10658 9437 
3 3772 4589 1437 
3 2053 4501 2063 
3 4501 4793 4589 
3 4829 6836 8450 
3 5635 3519 5974 
3 4202 2073 2063 
3 5974 3946 6446 
3 4501 4202 2063 
3 6329 4579 3610 
3 8713 6886 805 
3 2 1170 8713 
3 6836 6337 8450 
3 367 4894 682 
3 4894 8346 4678 
3 4634 4678 8656 
3 3610 4579 1731 
3 1170 4579 8713 
3 8656 4396 6520 
3 5944 6277 9662 
3 6172 6520 6216 
3 8775 3595 6329 
3 4793 6836 4829 
3 367 8450 9638 
3 4678 4396 8656 
3 4634 4012 368 
3 7608 5589 7521 
3 5855 365 10723 
3 3519 3946 5974 
3 5635 7811 7521 
3 4501 4589 8423 
3 681 367 4458 
3 367 9638 4894 
3 4634 4894 4678 
3 4136 6277 3610 
3 4579 6329 6886 
3 1170 1731 4579 
3 6172 6216 8775 
3 6277 6329 3610 
3 8775 6329 6277 
3 4136 3610 1928 
3 4829 8450 681 
3 4458 367 682 
3 8656 6520 4012 
3 3228 5944 3756 
3 3946 4202 6446 
3 5974 8585 7811 
3 4202 4501 8423 
3 7718 7178 3420 
3 4793 4829 4589 
3 8423 3772 4123 
3 4844 4593 4756 
3 1291 4806 2859 
3 3441 6188 4092 
3 8709 3650 123 
3 3441 5716 6188 
3 9437 10658 8191 
3 5716 5589 7608 
3 5716 7608 7698 
3 5077 1289 1564 
3 9899 8832 9234 
3 9340 10726 7845 
3 2622 9559 925 
3 6572 1819 1882 
3 5083 1704 5202 
3 2555 1882 2566 
3 2859 1819 1291 
3 1289 121 6441 
3 8843 10390 11171 
3 1290 122 6440 
3 1290 6440 2694 
3 2622 7845 9559 
3 925 9559 122 
3 8513 4844 4756 
3 1291 4756 123 
3 4756 4593 6456 
3 8709 6456 10263 
3 6456 4092 6188 
3 10263 6188 7698 
3 2916 1565 2694 
3 7910 2694 6440 
3 925 5202 1704 
3 2566 5406 5307 
3 1819 6572 8513 
3 1291 8513 4756 
3 4126 6674 8438 
3 4847 2293 4096 
3 9280 6407 4145 
3 4759 6761 5077 
3 2329 2332 969 
3 166 969 5041 
3 2332 2325 1578 
3 969 1578 3021 
3 6013 3775 6271 
3 4507 11719 1334 
3 3002 6900 7719 
3 1336 970 6674 
3 1336 6674 4126 
3 6187 3817 6407 
3 4126 8438 9478 
3 9280 6187 6407 
3 4145 8515 4759 
3 1564 1289 2897 
3 923 4759 1564 
3 2940 1564 2897 
3 8438 6187 9478 
3 7208 9280 4145 
3 6407 8515 4145 
3 7208 120 4391 
3 6253 3017 5041 
3 3021 5041 969 
3 8173 3002 9551 
3 7874 4391 7289 
3 8350 6271 4507 
3 1334 166 5041 
3 1577 4507 1334 
3 1577 3017 2999 
3 6286 5152 8173 
3 970 5152 167 
3 6013 7625 5961 
3 3312 2289 2297 
3 2297 3775 3312 
3 9447 8350 3531 
3 6778 464 746 
3 465 1105 4387 
3 8032 7143 4212 
3 8032 4212 6847 
3 468 6398 8410 
3 3823 3795 2178 
3 8524 1473 1108 
3 468 6133 6398 
3 8410 6398 4836 
3 8299 6198 6209 
3 4031 7820 11713 
3 469 11713 1474 
3 2168 3795 3755 
3 6265 8754 9162 
3 3755 3795 6209 
3 6176 3659 3743 
3 4385 6151 3823 
3 3795 8299 6209 
3 7954 4031 6778 
3 9200 6778 746 
3 2265 2273 9520 
3 746 8626 4212 
3 746 9520 8626 
3 4212 8626 6847 
3 6398 6151 4385 
3 2188 3823 2178 
3 8673 1108 6767 
3 6767 4836 2208 
3 2228 469 1474 
3 8673 1474 1108 
3 2158 2168 3755 
3 3714 6182 5953 
3 2198 4385 2188 
3 3795 3823 8299 
3 2138 2148 3528 
3 2138 3322 2128 
3 2158 3755 3714 
3 2158 3714 2148 
3 2248 2257 1470 
3 4031 1470 6778 
3 2281 3854 4819 
3 2273 4819 9520 
3 6398 4385 4836 
3 6767 2218 8673 
3 8410 4836 6767 
3 8410 6767 1108 
3 6847 4819 3854 
3 5961 3854 3312 
3 6013 5961 3312 
3 6013 3312 3775 
3 6271 3775 4399 
3 4507 4399 11719 
3 8515 6407 4255 
3 4255 2269 6761 
3 8515 6761 4759 
3 167 2309 6979 
3 6674 6979 4847 
3 8438 6674 4847 
3 4096 2293 2285 
3 8438 4847 4096 
3 8438 4096 6187 
3 6979 2309 2301 
3 6979 2301 4847 
3 3817 2285 2277 
3 3817 2277 4255 
3 8515 4255 6761 
3 5077 2253 5216 
3 1289 5216 121 
3 4255 2277 2269 
3 6761 2269 2261 
3 6761 2261 5077 
3 11719 2313 2321 
3 11719 2329 166 
3 11719 2321 2329 
3 166 2329 969 
3 4819 2273 2281 
3 3854 2281 2289 
3 3854 2289 3312 
3 2238 1104 469 
3 3775 2297 2305 
3 3775 2305 4399 
3 4385 3823 2188 
3 1470 4031 1104 
3 2248 1104 2238 
3 4836 2198 2208 
3 6767 2208 2218 
3 8673 2228 1474 
3 2238 469 2228 
3 2098 2108 2942 
3 2118 3160 3047 
3 1985 6557 8444 
3 3977 2068 3576 
3 3576 2068 2078 
3 3652 4054 6274 
3 6114 6274 9626 
3 9728 4519 8444 
3 1929 1985 8444 
3 1929 8444 4519 
3 6557 1999 1329 
3 964 161 2023 
3 2058 3977 4480 
3 5932 3576 3287 
3 2138 3528 3322 
3 3160 5788 5682 
3 2108 2118 3047 
3 2942 3047 5577 
3 2128 3322 3160 
3 2128 3160 2118 
3 1985 1999 6557 
3 1840 1329 6361 
3 8660 4929 6615 
3 6204 3977 3576 
3 3 1171 3652 
3 8019 3853 9453 
3 1732 4519 4054 
3 1171 4054 3652 
3 2058 2068 3977 
3 9420 5981 3658 
3 2823 1712 1924 
3 1981 3853 1989 
3 3 3652 3940 
3 4259 8019 9453 
3 10068 9363 7533 
3 5596 7533 6872 
3 4827 4506 1924 
3 1981 1989 2529 
3 6623 1957 2550 
3 5294 2550 2658 
3 4005 7906 5521 
3 8990 10176 9542 
3 7248 2657 7906 
3 5521 10194 7397 
3 2657 2546 5295 
3 7906 9142 10194 
3 2658 2550 1825 
3 7280 1825 5148 
3 5295 2546 5337 
3 7347 10563 9769 
3 5337 2669 8242 
3 9259 10068 10923 
3 10068 7533 8908 
3 7533 9363 6872 
3 806 3940 4259 
3 806 4259 1618 
3 806 3 3940 
3 129 7248 4005 
3 1297 4005 2658 
3 5140 3410 6872 
3 3409 6872 9363 
3 9720 8326 4827 
3 9720 4827 1712 
3 5052 1072 369 
3 1600 8471 1073 
3 4335 1439 1600 
3 4335 1600 4552 
3 6640 5052 369 
3 4420 369 1439 
3 1073 376 7056 
3 1073 4552 1600 
3 10463 10900 11112 
3 10463 11112 10789 
3 11112 11338 10835 
3 11476 10835 10378 
3 7610 8863 10140 
3 9078 9013 5320 
3 8863 8817 9791 
3 10482 11207 10140 
3 1679 876 4135 
3 4719 6835 6567 
3 4466 9565 6568 
3 1086 707 408 
3 74 2584 2578 
3 2696 2578 5370 
3 2696 6666 1794 
3 4135 876 6835 
3 6666 1679 1794 
3 3646 6251 4027 
3 1794 1679 3156 
3 5668 8431 10652 
3 1452 6568 1086 
3 1452 1086 6567 
3 1642 830 416 
3 715 416 7192 
3 1853 2564 1642 
3 715 1642 416 
3 6553 407 708 
3 416 708 4328 
3 9078 10140 9013 
3 5320 7352 5302 
3 2696 1794 1242 
3 2696 1242 2578 
3 9565 4195 6998 
3 707 4863 4241 
3 877 2584 74 
3 4027 74 1242 
3 5668 5868 3156 
3 4135 3156 1679 
3 3156 4135 5668 
3 10652 8431 5719 
3 4195 708 407 
3 6998 407 707 
3 9013 10140 11207 
3 11030 10754 11287 
3 9791 10784 10482 
3 9791 10482 8863 
3 1199 1534 6640 
3 5052 1534 8473 
3 9076 6436 7902 
3 5362 2656 2606 
3 7902 6436 2656 
3 7902 2656 5362 
3 8612 4335 4775 
3 3570 5168 931 
3 1444 7092 4951 
3 7056 4951 4964 
3 1534 5052 6640 
3 8606 4420 6555 
3 6640 369 8606 
3 8612 4420 4335 
3 6622 1973 6623 
3 2550 1957 1825 
3 4335 4552 4775 
3 1922 4951 1973 
3 7092 1957 1973 
3 4951 1922 4964 
3 4774 6640 8606 
3 4420 8606 369 
3 1710 4964 1922 
3 2867 1922 6622 
3 11062 11463 11301 
3 11476 11301 11112 
3 10105 7902 5362 
3 10105 8798 10901 
3 11041 11093 10784 
3 10482 10921 11207 
3 11062 11476 10378 
3 10105 10378 9817 
3 6553 708 8609 
3 27 8609 830 
3 5302 5289 2544 
3 2564 2544 1642 
3 3156 5868 3646 
3 1242 3646 4027 
3 6568 6998 707 
3 6568 707 1086 
3 2638 2584 877 
3 8452 877 6368 
3 4135 8431 5668 
3 5868 9311 8458 
3 8431 4719 5719 
3 8052 6019 9292 
3 7352 7345 5302 
3 5320 5302 2564 
3 9809 10021 7352 
3 9013 7352 5320 
3 10361 10921 11389 
3 10921 9809 11207 
3 10482 10784 10921 
3 9809 10361 10021 
3 8268 4863 6553 
3 27 6553 8609 
3 8268 6553 1195 
3 1195 27 2563 
3 6012 9311 7919 
3 5868 6251 3646 
3 10652 5719 10099 
3 8052 9456 4241 
3 7352 10021 7345 
3 5302 7345 5289 
3 11041 11248 11093 
3 10921 10361 9809 
3 11127 11062 10901 
3 8798 10105 5362 
3 9786 10901 8798 
3 9786 8798 8923 
3 11301 11463 11041 
3 10789 11041 10784 
3 11248 11463 11666 
3 10901 11062 10378 
3 8064 2606 6827 
3 31 1199 4774 
3 4552 4964 4775 
3 4505 931 128 
3 834 31 4755 
3 8319 4505 128 
3 8319 4755 6555 
3 8612 6555 4420 
3 8612 4775 4505 
3 2867 1710 1922 
3 7492 10176 9935 
3 9542 2550 5294 
3 11151 10765 10563 
3 9259 7347 5337 
3 3925 1959 1989 
3 3925 1989 3853 
3 5919 6195 6238 
3 3853 1981 4506 
3 9833 10923 8908 
3 9833 8908 8847 
3 7533 5596 7442 
3 7392 5316 9323 
3 7492 9542 10176 
3 8990 7397 9761 
3 5294 5521 7397 
3 7397 10492 9761 
3 1973 1957 6623 
3 6622 6623 7492 
3 5521 7906 10194 
3 10492 11212 9761 
3 7906 5295 9142 
3 10194 9142 10492 
3 9259 10563 7347 
3 5337 7347 5295 
3 9259 8242 10068 
3 10923 10068 8908 
3 8019 3925 3853 
3 9453 3853 4506 
3 5596 2823 5429 
3 7442 5429 7392 
3 2823 1924 2652 
3 2823 2652 5429 
3 1924 4506 1981 
3 1924 1981 2652 
3 6195 8019 6238 
3 8648 6238 6274 
3 9626 6274 8290 
3 4519 8290 4054 
3 6195 3925 8019 
3 3940 8019 4259 
3 8444 4911 9728 
3 4519 9728 8290 
3 1999 161 1329 
3 6557 1840 4911 
3 4480 3977 8213 
3 10305 6204 5932 
3 3977 6204 8213 
3 4480 6615 4929 
3 9162 7901 7896 
3 3322 5788 3160 
3 9255 5788 7901 
3 5953 5881 3528 
3 7531 7520 5555 
3 3071 5717 3287 
3 2942 5577 5555 
3 2942 5555 3071 
3 161 964 5257 
3 1329 5257 6361 
3 4480 8213 6615 
3 8660 6615 1890 
3 3648 3925 6195 
3 5919 8648 9726 
3 3868 6114 9626 
3 4301 9626 8290 
3 1725 963 4301 
3 4911 4301 9728 
3 6557 1329 1840 
3 4911 1725 4301 
3 5257 964 6360 
3 3270 1726 1890 
3 7531 5577 7614 
3 7794 9255 10293 
3 7901 10293 9255 
3 5682 9255 7614 
3 964 1726 6360 
3 5257 6360 6361 
3 6204 10305 9420 
3 8213 4408 6615 
3 2815 1725 3209 
3 1840 1725 4911 
3 9420 3658 4408 
3 6615 4408 1890 
3 7872 7866 9114 
3 7520 7866 5717 
3 5555 5577 7531 
3 7267 7872 7873 
3 7794 10284 9109 
3 7614 9109 7531 
3 9109 7614 7794 
3 10740 5771 3127 
3 5981 7866 7872 
3 10172 9109 10284 
3 7531 9109 8994 
3 7531 8994 7520 
3 3876 6114 3868 
3 6114 9726 8648 
3 2815 3062 963 
3 4301 3868 9626 
3 3648 6195 5919 
3 3736 5919 8219 
3 963 160 3868 
3 963 3868 4301 
3 1725 1840 3209 
3 5454 9642 3062 
3 5282 5296 7336 
3 3648 1959 3925 
3 2608 1959 1827 
3 3736 3648 5919 
3 9769 10765 10785 
3 10492 7397 10194 
3 1827 1299 2874 
3 1959 2534 1989 
3 10176 10823 9935 
3 6622 9541 2867 
3 10785 11291 11212 
3 10785 10492 9769 
3 5659 7182 3570 
3 2867 3570 1710 
3 3570 2867 5659 
3 5659 9541 8851 
3 5168 128 931 
3 3570 931 1710 
3 9761 10823 8990 
3 9542 7492 6623 
3 11465 10782 11277 
3 10782 10528 11083 
3 8847 7442 7392 
3 10000 10617 11192 
3 10785 11212 10492 
3 9769 10492 9142 
3 2529 5282 5316 
3 5429 5316 7392 
3 4775 931 4505 
3 8612 4505 6555 
3 9541 6622 7492 
3 9541 7492 9935 
3 5294 7397 8990 
3 10176 8990 10823 
3 8923 8798 8064 
3 6827 2606 1199 
3 31 2542 6827 
3 31 6827 1199 
3 11238 11265 11127 
3 11238 11127 10805 
3 9462 4886 8319 
3 6555 4755 4774 
3 11389 11093 11287 
3 11265 11062 11127 
3 11666 11463 11265 
3 11607 11265 11238 
3 8789 10021 10529 
3 11389 10921 11093 
3 10754 10361 11389 
3 10754 11389 11287 
3 5719 9456 10099 
3 6012 9567 8458 
3 6506 4863 4441 
3 1195 2563 2624 
3 6251 5868 8458 
3 7919 10652 10099 
3 10652 7919 9311 
3 10652 9311 5668 
3 7016 7993 9567 
3 6251 7993 4027 
3 10099 9456 8052 
3 10099 8052 9292 
3 4241 4863 6506 
3 4241 6506 8052 
3 6553 27 1195 
3 8268 1756 4441 
3 27 2543 2563 
3 1195 2624 1756 
3 1943 3825 4441 
3 8268 4441 4863 
3 5289 7346 5303 
3 2563 5303 5330 
3 1513 7016 3732 
3 8458 9567 6251 
3 8458 9311 6012 
3 546 7112 1514 
3 4118 1147 4855 
3 6368 4855 8452 
3 1513 1611 7016 
3 7993 4118 6368 
3 3732 9567 6012 
3 3469 1148 545 
3 2704 1943 1756 
3 1195 1756 8268 
3 10021 10361 10529 
3 11287 11093 11248 
3 10750 10754 11030 
3 11603 11662 11523 
3 9763 8790 8789 
3 10021 8789 7345 
3 9763 8789 10529 
3 10754 10529 10361 
3 11127 10901 9786 
3 10606 9786 8923 
3 6555 4505 8319 
3 4755 8319 4886 
3 11287 11248 11517 
3 11607 11666 11265 
3 10160 8923 8448 
3 8448 8064 6827 
3 10606 8923 10160 
3 2542 31 834 
3 10160 8448 5300 
3 5300 2542 2574 
3 8851 8771 5659 
3 9541 5659 2867 
3 5658 3569 7182 
3 8771 7182 5659 
3 9998 8771 8851 
3 9935 8851 9541 
3 11248 11666 11517 
3 8800 10944 10359 
3 11201 10606 9888 
3 5300 8448 2542 
3 11516 11238 11633 
3 10805 11127 9786 
3 11633 11238 10805 
3 10606 10805 9786 
3 5383 2704 2624 
3 5330 2624 2563 
3 11618 11656 11597 
3 11607 11517 11666 
3 1611 4118 7016 
3 1513 3732 545 
3 6012 7919 5783 
3 6089 9292 6019 
3 7016 9567 3732 
3 545 3732 3469 
3 7919 9292 5783 
3 1148 7252 545 
3 1968 3402 3825 
3 4441 3825 6506 
3 5383 2624 5330 
3 7351 5330 5303 
3 9763 10530 8790 
3 7346 8790 7351 
3 10770 10530 11124 
3 10750 10529 10754 
3 10530 9763 11124 
3 11319 10750 11030 
3 4118 1611 1147 
3 544 7061 1512 
3 6852 1968 1943 
3 1756 1943 4441 
3 6012 5783 3469 
3 6012 3469 3732 
3 4173 6089 3402 
3 1968 6852 2960 
3 8082 6852 2704 
3 2624 2704 1756 
3 10527 10442 9860 
3 8857 9196 9815 
3 11607 11238 11516 
3 11438 10359 11058 
3 10805 10606 11201 
3 11201 10359 11438 
3 11405 11597 11523 
3 11618 11030 11287 
3 11287 11517 11618 
3 11405 11414 11319 
3 2868 1824 3569 
3 5168 1296 128 
3 11552 11324 11671 
3 10823 10413 9935 
3 7369 10160 5300 
3 7369 5378 7421 
3 834 1645 2574 
3 5300 5378 7369 
3 4902 1296 1824 
3 2868 3569 5658 
3 11518 11606 11659 
3 11518 11277 11421 
3 10765 11151 11465 
3 11659 11277 11518 
3 2534 1959 2608 
3 8180 1327 159 
3 3736 4554 1299 
3 3736 1827 3648 
3 7392 9323 10000 
3 11192 10881 11354 
3 9323 5282 7336 
3 10617 8783 10881 
3 10413 10823 11324 
3 10413 11632 11222 
3 11421 11277 11083 
3 10528 10782 9833 
3 9761 11212 11044 
3 11430 11410 11534 
3 11465 11659 11031 
3 10785 11031 11291 
3 11031 10765 11465 
3 11659 11465 11277 
3 11465 11151 10782 
3 11277 10782 11083 
3 11192 11083 10528 
3 11192 10528 10000 
3 9323 10617 10000 
3 8847 10000 10528 
3 5282 2534 5296 
3 7336 5296 7360 
3 5296 2534 2608 
3 5296 2608 5420 
3 1959 3648 1827 
3 2608 1827 2874 
3 8219 3876 4860 
3 3062 160 963 
3 5454 2815 5559 
3 10035 5559 9682 
3 8219 9726 3876 
3 8219 4860 4554 
3 3209 5559 2815 
3 1725 2815 963 
3 2837 2851 1841 
3 1330 3658 3334 
3 3658 5981 3334 
3 9014 10167 10667 
3 162 3334 7267 
3 7872 3334 5981 
3 9114 8994 10683 
3 8323 3153 5916 
3 9162 3302 5771 
3 10293 5771 7794 
3 5653 3020 8323 
3 10172 10683 8994 
3 7794 5771 10740 
3 10284 5672 7618 
3 2837 1841 1330 
3 2837 4744 8049 
3 3334 7872 7267 
3 3334 162 1330 
3 3876 1328 4860 
3 4554 5186 131 
3 5563 10044 8114 
3 7085 160 3062 
3 9122 7476 10603 
3 10591 11483 11356 
3 9590 5571 9038 
3 10591 10603 7476 
3 9114 10683 7873 
3 5704 10667 8182 
3 9162 8754 3302 
3 5771 3302 3127 
3 1343 8754 175 
3 3659 6198 3814 
3 11725 175 978 
3 11725 4042 6097 
3 4042 1344 5237 
3 176 3814 8302 
3 5237 1344 176 
3 4585 9755 7982 
3 11721 4563 3830 
3 1107 467 3994 
3 5237 176 979 
3 6737 4585 7982 
3 1606 3799 7113 
3 7982 6375 6737 
3 4564 4287 10244 
3 7954 6778 9200 
3 8101 7131 4084 
3 6498 4084 4046 
3 5695 10103 10533 
3 7719 10533 7607 
3 4391 120 1288 
3 1818 1288 2924 
3 5578 9458 6219 
3 10103 9001 10533 
3 9280 7208 7874 
3 6712 4629 1337 
3 968 5013 165 
3 968 165 3531 
3 7687 9458 5578 
3 2999 5013 968 
3 2976 4996 967 
3 7886 7205 11707 
3 5276 4212 465 
3 10244 4287 7683 
3 10533 7719 9227 
3 971 168 3893 
3 6618 6900 971 
3 1337 4629 169 
3 7874 7289 6712 
3 971 6712 1337 
3 7874 7208 4391 
3 4779 1818 8502 
3 7208 4145 120 
3 1288 4917 2924 
3 8101 9250 10119 
3 7625 10119 8032 
3 5578 6219 2999 
3 3017 1334 5041 
3 11721 7820 8636 
3 4563 8636 3382 
3 4130 4149 6118 
3 9753 6118 7954 
3 6685 740 455 
3 4387 9753 9200 
3 466 7137 1106 
3 6685 4564 740 
3 4723 7982 9755 
3 7982 7113 3799 
3 8524 3830 1606 
3 1473 1606 7113 
3 5953 8163 7896 
3 175 3743 978 
3 1473 7113 4723 
3 8302 9755 176 
3 1108 1473 468 
3 6133 9755 8302 
3 5771 10293 9162 
3 8754 6265 175 
3 6176 3743 8163 
3 7896 6265 9162 
3 6176 6198 3659 
3 3743 3659 978 
3 8636 4563 11721 
3 8524 1606 1473 
3 4130 6118 9753 
3 4130 4387 1105 
3 4130 9753 4387 
3 7143 7683 4287 
3 6470 3830 8524 
3 6470 8524 1108 
3 11713 7820 11721 
3 6470 11721 3830 
3 8163 6265 7896 
3 5953 7896 5881 
3 6182 6209 6176 
3 6182 6176 8163 
3 5788 5881 7901 
3 10293 7901 9162 
3 3743 6265 8163 
3 6182 8163 5953 
3 6133 8302 9342 
3 6151 9342 8299 
3 1473 4723 468 
3 1108 468 8410 
3 468 4723 6133 
3 6398 6133 6151 
3 9200 9753 7954 
3 4031 7954 7820 
3 746 4212 5276 
3 746 5276 9200 
3 8350 4507 1577 
3 968 1577 2999 
3 5578 2999 3017 
3 5578 3017 6253 
3 7625 6013 9447 
3 7625 7679 10119 
3 9447 6271 8350 
3 3531 8350 968 
3 3468 5152 6286 
3 3002 168 6900 
3 168 4126 3893 
3 3893 7874 6712 
3 5041 3021 6253 
3 5578 6253 7687 
3 3021 3468 5633 
3 7607 9551 7719 
3 4145 4759 923 
3 120 923 4917 
3 7687 6253 5633 
3 7687 5633 7607 
3 8173 1336 3002 
3 6900 168 971 
3 4387 5276 465 
3 1105 465 4287 
3 4287 465 7143 
3 7683 7143 8032 
3 3531 7131 7679 
3 9447 7679 7625 
3 6286 8173 9551 
3 6286 9551 7607 
3 1336 168 3002 
3 9551 3002 7719 
3 4126 9478 3893 
3 971 3893 6712 
3 9478 9280 7874 
3 9478 7874 3893 
3 7911 10634 9894 
3 9381 10697 5453 
3 8843 7910 9987 
3 8843 9987 10390 
3 10070 9340 7359 
3 5335 7845 2622 
3 7359 5335 5307 
3 5406 2566 2859 
3 1882 1819 2566 
3 918 6727 1699 
3 10263 7698 9437 
3 10263 3650 8709 
3 2694 7910 5444 
3 9894 10634 11376 
3 5444 7910 8843 
3 10634 8843 11171 
3 2897 6441 9381 
3 2897 5453 2940 
3 2555 5307 5335 
3 7845 5335 9340 
3 6441 2916 7911 
3 9381 7911 9894 
3 2916 2694 5444 
3 7911 5444 10634 
3 2622 1704 2555 
3 2622 2555 5335 
3 5589 5635 7521 
3 8976 9067 10096 
3 1819 2859 2566 
3 2555 2566 5307 
3 5406 2859 5651 
3 3650 10263 9437 
3 4806 123 918 
3 6727 3650 9437 
3 5635 5974 7811 
3 10182 7668 10707 
3 6446 8423 4123 
3 5855 10182 8585 
3 6446 4123 8585 
3 6446 8585 5974 
3 8423 4589 3772 
3 4123 1071 365 
3 4589 4829 366 
3 3420 681 4458 
3 4634 8656 4012 
3 368 4012 1066 
3 681 3420 366 
3 681 366 4829 
3 6812 4458 682 
3 368 682 4634 
3 5944 8775 6277 
3 6409 4136 4483 
3 1731 1928 3610 
3 1071 3772 1437 
3 366 1437 4589 
3 6172 8775 5944 
3 6172 5944 3228 
3 7521 7811 9067 
3 7521 9067 8976 
3 8585 4123 5855 
3 8585 10182 7811 
3 1436 1071 5924 
3 5924 1071 1437 
3 4458 5801 3420 
3 366 7178 1437 
3 9662 6277 6409 
3 4483 4136 1984 
3 3008 1066 1432 
3 360 3756 8605 
3 1066 3228 1432 
3 360 4509 1065 
3 6277 4136 6409 
3 9662 6409 8605 
3 1928 1984 4136 
3 365 1071 1436 
3 7718 3420 5801 
3 5801 4458 6812 
3 10322 10745 5732 
3 5855 10723 10182 
3 7811 10182 9067 
3 6034 7718 9472 
3 3420 7178 366 
3 1291 123 4806 
3 9982 8892 8034 
3 123 3650 918 
3 8892 8796 7438 
3 2897 9381 5453 
3 2940 8650 4917 
3 7370 5307 5406 
3 7438 5406 5651 
3 923 2940 4917 
3 120 4917 1288 
3 2924 4917 5965 
3 9234 8650 5453 
3 9381 9894 10697 
3 5453 10697 9234 
3 10640 9340 10070 
3 7370 5406 7438 
3 918 3650 6727 
3 2979 6727 8191 
3 10070 7359 8793 
3 9776 10369 10877 
3 4806 6725 5651 
3 4806 5651 2859 
3 10697 9894 11376 
3 10859 8832 10379 
3 9987 10640 10390 
3 11499 11471 10862 
3 8650 9234 5965 
3 8650 5965 4917 
3 10697 11376 9899 
3 10697 9899 9234 
3 10870 10640 10070 
3 10571 10070 8793 
3 4806 918 6725 
3 5651 8034 7438 
3 2605 6725 1699 
3 2979 1699 6727 
3 10723 365 3030 
3 1070 7295 364 
3 5801 6812 8062 
3 5801 10614 7718 
3 7668 10723 3030 
3 2964 3030 1436 
3 5924 7178 7718 
3 10614 5801 8062 
3 10745 9635 5732 
3 5732 3199 3008 
3 3228 3756 1432 
3 1066 3008 3199 
3 9635 3199 5732 
3 3275 4977 1065 
3 1432 3756 360 
3 1432 4977 3008 
3 4509 8605 8393 
3 7133 4567 7290 
3 5732 3008 8158 
3 1065 4977 360 
3 1984 1998 4483 
3 9472 10614 5852 
3 8503 4645 3197 
3 8062 9635 10745 
3 8158 3008 4977 
3 10614 8062 10023 
3 10322 8158 5796 
3 10745 10322 9068 
3 9658 8158 3275 
3 360 8605 4509 
3 1065 4509 3985 
3 4567 4518 2010 
3 1998 4518 4483 
3 8393 4518 7133 
3 3985 7133 7290 
3 4518 1998 2010 
3 4518 4567 7133 
3 361 5153 1431 
3 3985 1431 1065 
3 4622 7290 4567 
3 2022 4567 2010 
3 10023 10745 9068 
3 5753 8600 3216 
3 8158 4977 3275 
3 9658 3275 5153 
3 7718 10614 9472 
3 3546 5852 3197 
3 9068 5753 10023 
3 10745 10023 8062 
3 8600 9068 5796 
3 8158 10322 5732 
3 5642 2964 3520 
3 4374 1435 8565 
3 1436 6034 1070 
3 364 7295 3546 
3 3030 2964 5610 
3 6262 6230 10329 
3 6262 4374 8504 
3 6262 3520 4374 
3 7541 3048 3029 
3 5581 8191 10116 
3 5610 5642 7529 
3 11005 7529 9139 
3 7541 3029 8152 
3 8950 10116 10096 
3 10677 9277 11005 
3 9035 9139 7541 
3 1814 1879 3031 
3 3029 3031 8152 
3 2964 5642 5610 
3 9277 7529 11005 
3 2964 1436 1070 
3 2964 1070 3520 
3 5924 7718 6034 
3 7295 9472 3546 
3 7668 5610 9277 
3 7668 9277 10707 
3 1436 5924 6034 
3 7295 6034 9472 
3 3031 2979 5581 
3 3031 5581 8152 
3 8152 5581 8950 
3 9035 10677 11005 
3 10707 9277 10677 
3 10096 10677 8950 
3 5355 9711 2605 
3 6725 8034 5651 
3 8034 6725 9711 
3 2695 1879 1814 
3 9982 8034 9711 
3 2605 9711 6725 
3 2979 3031 1879 
3 2979 1879 1699 
3 11499 11281 11471 
3 10862 10379 9899 
3 7370 7438 8796 
3 9776 10877 10571 
3 10870 11281 11499 
3 10390 11499 11171 
3 7370 8796 8793 
3 7370 8793 7359 
3 6712 7289 4629 
3 169 4629 6563 
3 7289 4391 4779 
3 7289 4779 4629 
3 972 169 4210 
3 6900 9227 7719 
3 4281 6618 8669 
3 1337 6618 971 
3 2903 4685 965 
3 7886 10103 5695 
3 3311 3535 5695 
3 9227 5695 10533 
3 9227 4281 3311 
3 972 8669 169 
3 5449 5965 7523 
3 5393 9160 8537 
3 10862 11471 10379 
3 9899 10379 8832 
3 2924 5965 5449 
3 2655 5393 2833 
3 9160 5393 7406 
3 8832 7406 7523 
3 5695 9227 3311 
3 1338 1579 7006 
3 9227 6618 4281 
3 1579 3424 7006 
3 10103 9253 10185 
3 7205 3535 170 
3 3311 4281 1579 
3 1579 972 3424 
3 5449 7406 5393 
3 5449 5393 2655 
3 11634 11047 11554 
3 11471 11641 10379 
3 11494 11557 11554 
3 11281 11554 11471 
3 11281 11139 11494 
3 11281 11494 11554 
3 9797 10369 9776 
3 11139 11308 11494 
3 8793 8796 9776 
3 8793 9776 10571 
3 7438 8034 8892 
3 9797 8892 10506 
3 8821 9982 5355 
3 5355 9982 9711 
3 10506 9982 8821 
3 2695 2605 1879 
3 8192 5355 2695 
3 6726 1814 1284 
3 6726 2695 1814 
3 3029 1814 3031 
3 11059 11453 11308 
3 10877 11308 11139 
3 9797 11180 10369 
3 10877 11059 11308 
3 10890 10506 9807 
3 6523 1698 2712 
3 9807 8821 8900 
3 8900 8192 7743 
3 5799 8537 9160 
3 9868 10859 10780 
3 11554 11557 11634 
3 11047 11375 10780 
3 7406 8832 10655 
3 9160 9868 7480 
3 10379 11641 10859 
3 10655 10859 9868 
3 4210 6563 8582 
3 922 1703 2833 
3 5393 8537 2833 
3 1703 922 4680 
3 9253 11707 5772 
3 1039 306 5122 
3 4281 972 1579 
3 3311 1338 3535 
3 7886 3535 7205 
3 11707 7205 966 
3 3311 1579 1338 
3 3535 1338 170 
3 9994 7006 3424 
3 6300 3424 4210 
3 8177 8582 4034 
3 4680 8582 6563 
3 4034 4680 922 
3 1287 3512 3081 
3 2832 5405 2639 
3 8537 4738 2833 
3 9868 10686 7480 
3 8537 5799 4738 
3 163 6661 5122 
3 6734 966 4233 
3 6300 8582 8177 
3 7270 4034 119 
3 7633 10738 9993 
3 8945 9983 9696 
3 9994 6300 9083 
3 7870 5690 8944 
3 922 4738 119 
3 1287 1817 3512 
3 2832 4738 5799 
3 7480 5799 9160 
3 11047 11634 11375 
3 10780 10871 10686 
3 11634 11557 11423 
3 11634 11423 11375 
3 10780 10686 9868 
3 10655 9868 9160 
3 10369 11302 11059 
3 10369 11059 10877 
3 9887 9807 8900 
3 10506 10890 11180 
3 10506 8821 9807 
3 10420 10962 11359 
3 11071 11625 11302 
3 10890 11302 11180 
3 8821 8192 8900 
3 9807 9887 10420 
3 5034 6523 7743 
3 6726 7743 8192 
3 115 917 5034 
3 6726 5034 7743 
3 4256 917 115 
3 3048 115 1284 
3 4256 7107 8264 
3 8264 7107 7690 
3 4436 183 6230 
3 7801 6045 9570 
3 8565 6485 4374 
3 3520 6262 5642 
3 4315 6485 8674 
3 1069 1435 3197 
3 3596 6045 7801 
3 10210 9570 9139 
3 8504 6230 6262 
3 9195 10329 7801 
3 3029 3048 1284 
3 3029 1284 1814 
3 7541 9139 7690 
3 3048 7690 7107 
3 8152 9035 7541 
3 3048 7541 7690 
3 9035 11005 9139 
3 7690 9139 9570 
3 9195 7801 10210 
3 9195 10210 7529 
3 4374 364 1435 
3 8565 1435 1069 
3 9195 5642 6262 
3 9195 6262 10329 
3 3520 364 4374 
3 8504 4374 6485 
3 8674 8565 4571 
3 6748 8453 9622 
3 8503 5753 4645 
3 4571 7083 8674 
3 1433 3293 1067 
3 5796 9068 10322 
3 10023 5753 8503 
3 5852 8503 3197 
3 4640 8600 5796 
3 9658 5796 8158 
3 3275 1431 5153 
3 9658 5153 3293 
3 361 1431 4587 
3 7290 4587 3985 
3 4640 5796 3293 
3 1067 3293 5153 
3 1433 1067 2972 
3 3681 361 6408 
3 4567 2022 4622 
3 7290 6408 4587 
3 7290 4622 6408 
3 4587 6408 361 
3 2022 2034 4622 
3 4645 5753 3216 
3 4645 1434 363 
3 3216 8600 4640 
3 362 1433 3069 
3 1069 4645 363 
3 4617 6748 9622 
3 3216 1068 1434 
3 363 4617 7083 
3 362 4640 1433 
3 3069 1433 2972 
3 1067 361 3681 
3 5854 3681 6373 
3 3753 6373 4369 
3 2034 4369 4622 
3 1068 4640 362 
3 4151 7665 8453 
3 1067 3681 2972 
3 3069 5660 8027 
3 2046 2050 3753 
3 5980 5698 7890 
3 2034 2046 4369 
3 8504 6485 4436 
3 4610 8674 7083 
3 4151 8453 6748 
3 1434 4617 363 
3 6485 8565 8674 
3 4315 4610 1352 
3 1069 363 4571 
3 1069 4571 8565 
3 1351 183 5238 
3 4078 3596 1351 
3 6230 183 3596 
3 10329 3596 7801 
3 10890 9807 10420 
3 10890 10420 11071 
3 9570 6045 8264 
3 7107 4256 115 
3 10962 10420 9887 
3 10962 10704 9869 
3 6523 2712 9170 
3 7743 9170 8900 
3 5034 917 6523 
3 7743 6523 9170 
3 1698 917 4625 
3 8354 1350 6428 
3 5238 183 986 
3 4315 4436 6485 
3 8264 6045 4078 
3 8264 6352 4256 
3 9422 4078 985 
3 4128 1351 5238 
3 9597 9869 7443 
3 9170 10704 9887 
3 4625 4256 6352 
3 1350 182 3180 
3 11625 11485 11090 
3 11181 8874 10735 
3 9869 10704 7443 
3 6491 7443 2712 
3 917 4256 4625 
3 8354 182 1350 
3 985 182 9422 
3 4078 9422 6352 
3 4315 8674 4610 
3 184 3342 3183 
3 1352 4610 184 
3 987 4132 1353 
3 4315 1352 986 
3 4436 986 183 
3 1434 6748 4617 
3 7083 4132 8558 
3 1068 362 4151 
3 1068 4151 6748 
3 362 3069 7294 
3 4151 7294 7665 
3 7665 7294 8027 
3 10045 5660 7890 
3 2972 5854 5660 
3 8027 5660 10045 
3 6373 3753 5980 
3 6373 5980 5854 
3 3753 2050 3279 
3 3753 3279 5980 
3 2050 2040 3279 
3 9622 4533 4132 
3 4617 4132 7083 
3 10589 8027 10045 
3 7594 7890 5698 
3 185 6372 3758 
3 7638 9077 5693 
3 7665 8027 10589 
3 9569 7638 6985 
3 9077 10045 7594 
3 7681 5723 5987 
3 3457 5723 3028 
3 2040 3028 3279 
3 7681 7594 5723 
3 5987 5723 3457 
3 2040 2028 3028 
3 9077 7594 7681 
3 9077 7977 5693 
3 3917 3457 2016 
3 2028 3457 3028 
3 9506 6399 10122 
3 3758 9569 6985 
3 7802 9211 9506 
3 5117 517 186 
3 1353 4533 185 
3 186 585 4781 
3 6372 9569 3758 
3 185 584 5139 
3 9569 10589 7638 
3 6985 7638 5693 
3 3068 4128 5957 
3 5957 9714 8293 
3 8293 3183 5688 
3 9211 3342 987 
3 9714 3183 8293 
3 9045 9095 10090 
3 3183 3342 5688 
3 10649 10090 7615 
3 6619 7742 4566 
3 116 4566 1283 
3 10276 7826 5686 
3 182 8354 9422 
3 4566 6491 1283 
3 181 984 4983 
3 5253 1283 181 
3 984 8334 6428 
3 8293 7615 5957 
3 9714 5957 4128 
3 11181 10386 8874 
3 7425 8874 7742 
3 6491 2712 1813 
3 1283 1813 8334 
3 9529 4625 6428 
3 9529 6428 8334 
3 3068 3180 182 
3 3068 182 985 
3 986 1352 6595 
3 986 6595 5238 
3 3183 1352 184 
3 3342 184 987 
3 8874 9869 9597 
3 7742 9597 6491 
3 6352 9422 8354 
3 4625 8354 6428 
3 4128 3068 985 
3 1351 985 4078 
3 11382 10771 10519 
3 10063 5405 7480 
3 10522 10791 10867 
3 11485 11359 10386 
3 7288 2710 9173 
3 2710 921 1702 
3 11382 10519 10395 
3 8866 5341 8226 
3 9975 10519 10699 
3 9975 9173 5341 
3 10519 9789 8835 
3 7604 8160 6673 
3 8835 9789 8804 
3 10029 10565 10522 
3 9948 10867 11181 
3 10735 8874 7425 
3 10867 9948 10522 
3 10791 10522 10565 
3 9948 11181 10735 
3 9948 9216 8918 
3 8160 8835 8804 
3 10029 8804 10565 
3 6671 8159 7839 
3 9216 10735 7425 
3 7288 118 921 
3 4804 9667 8315 
3 2623 6673 8160 
3 5374 10029 8159 
3 2611 5341 2710 
3 1702 921 4804 
3 7604 4262 9173 
3 2710 7288 921 
3 9975 10699 9173 
3 5341 9173 2710 
3 6793 9306 7800 
3 9389 6780 9428 
3 2611 2710 1702 
3 1881 1702 4354 
3 7720 9306 6793 
3 6793 4077 541 
3 9428 4354 6490 
3 9428 6490 4077 
3 6731 1406 1040 
3 965 5122 6554 
3 10302 9306 9983 
3 3744 308 2984 
3 6417 3744 5848 
3 7753 5848 2984 
3 9306 7720 9983 
3 7633 9994 10738 
3 1406 2937 1040 
3 4003 4984 8362 
3 2984 1406 6731 
3 7753 6731 9344 
3 7720 9696 9983 
3 9083 8177 7870 
3 9428 7800 9389 
3 3512 9389 5690 
3 9389 3512 6780 
3 9428 6780 4354 
3 1702 1881 2611 
3 5405 5799 7480 
3 7746 9499 5134 
3 1040 4003 6731 
3 1040 307 4003 
3 1332 11707 966 
3 5848 7753 8945 
3 7633 3010 9994 
3 7753 9344 9993 
3 8945 10092 9983 
3 8945 9993 10092 
3 9983 8944 10302 
3 8554 6734 4984 
3 307 4984 4003 
3 9344 4003 8362 
3 4233 170 3010 
3 9983 10092 8944 
3 10302 5690 9389 
3 2611 1881 2639 
3 2611 8226 5341 
3 10302 8944 5690 
3 3512 5690 3081 
3 6780 3512 1817 
3 6780 1817 1881 
3 11382 11572 10771 
3 9789 11143 10565 
3 11269 11314 11143 
3 10771 11143 9789 
3 11546 11625 11314 
3 10791 11090 10867 
3 11071 11485 11625 
3 11090 11485 10867 
3 11423 11572 11077 
3 10395 8866 10871 
3 10791 11143 11314 
3 11090 11314 11625 
3 2611 2639 8226 
3 5341 8866 9975 
3 10395 9975 8866 
3 10063 8866 8226 
3 10519 9975 10395 
3 11077 10871 11375 
3 119 4738 1287 
3 1817 2832 2639 
3 8226 2639 5405 
3 8226 5405 10063 
3 10771 11572 11269 
3 11314 11269 11546 
3 11359 11485 11071 
3 11302 11546 11059 
3 11302 11625 11546 
3 11059 11546 11453 
3 10420 11359 11071 
3 10890 11071 11302 
3 10871 8866 10063 
3 10686 10063 7480 
3 11077 10395 10871 
3 11375 10871 10780 
3 11382 10395 11077 
3 11382 11077 11572 
3 6300 8177 9083 
3 9994 9083 10738 
3 8177 7270 7870 
3 9083 7870 8944 
3 7270 119 3081 
3 7270 3081 7870 
3 2832 1817 1287 
3 2832 1287 4738 
3 9344 8362 6152 
3 9344 6152 9993 
3 10092 9993 10738 
3 10092 10738 9083 
3 8362 4984 6734 
3 8362 6734 4233 
3 3010 6152 4233 
3 170 4233 966 
3 6152 3010 7633 
3 6152 7633 9993 
3 965 163 5122 
3 8602 306 4267 
3 966 6734 1332 
3 163 8554 6661 
3 8602 5122 306 
3 4267 653 4215 
3 1039 5122 6661 
3 4984 6661 8554 
3 6388 6343 4103 
3 1101 3726 1467 
3 4215 8777 6388 
3 4267 8325 8602 
3 6353 4937 5187 
3 9289 6099 8316 
3 6343 3726 4103 
3 6388 6217 8325 
3 326 4998 659 
3 6823 738 8676 
3 5187 453 738 
3 5187 5062 6353 
3 6753 4174 1346 
3 3261 5911 4801 
3 6381 8040 4260 
3 4093 6400 8071 
3 9140 8545 5670 
3 3583 6223 9508 
3 8040 7044 4174 
3 1346 178 4445 
3 6063 4093 8071 
3 6400 4260 8040 
3 8761 4998 326 
3 3129 657 325 
3 8676 327 6823 
3 738 8708 454 
3 4093 326 658 
3 8936 7635 5877 
3 6823 327 659 
3 6823 659 4998 
3 4314 178 7044 
3 4174 178 1346 
3 4093 658 4260 
3 4093 4260 6400 
3 4445 178 974 
3 1340 3679 171 
3 178 4174 7044 
3 4637 7044 6381 
3 8936 10951 10661 
3 5221 658 326 
3 453 660 8676 
3 4276 7320 5221 
3 7883 4044 9203 
3 3726 4044 1467 
3 8777 4010 9203 
3 3726 9203 4044 
3 660 327 8676 
3 453 8676 738 
3 1467 4044 452 
3 4937 452 737 
3 9203 3726 6343 
3 8777 6343 6388 
3 653 306 5134 
3 1405 1039 6661 
3 9499 653 5134 
3 5134 306 1039 
3 305 653 9499 
3 4265 2937 5671 
3 4984 307 1405 
3 1039 3453 5134 
3 9449 7883 10338 
3 10338 9203 4010 
3 8563 7746 3453 
3 1405 3453 1039 
3 737 7988 5263 
3 737 5263 453 
3 452 6313 7988 
3 328 5059 660 
3 6313 9449 8687 
3 3918 10338 4010 
3 652 305 3096 
3 7746 5134 3453 
3 3096 9499 10259 
3 9151 7746 8563 
3 1405 307 4265 
3 3453 4265 8563 
3 5599 3866 3096 
3 9499 3096 305 
3 5671 9151 8563 
3 5671 8563 4265 
3 7988 8687 4373 
3 8768 6225 3865 
3 7746 9151 10259 
3 7746 10259 9499 
3 328 661 5059 
3 4000 9703 6297 
3 8768 8194 6138 
3 9449 6313 7883 
3 5263 7988 328 
3 661 4373 3915 
3 7988 6313 8687 
3 4373 8687 6138 
3 6138 8687 9449 
3 6225 9449 10338 
3 10164 5837 9665 
3 4276 5221 659 
3 3360 660 5059 
3 661 328 4373 
3 8936 5877 10732 
3 4160 658 7320 
3 9920 9674 5837 
3 9920 10164 10642 
3 325 4160 3129 
3 657 7318 4988 
3 4160 5877 3129 
3 3129 7635 7318 
3 6223 7044 4637 
3 6552 4637 324 
3 10732 5877 7926 
3 9674 4276 3360 
3 7854 9508 6223 
3 6552 6223 4637 
3 7320 7926 4160 
3 658 325 4260 
3 5059 5837 3360 
3 4276 7926 7320 
3 7988 4373 328 
3 5263 328 660 
3 9674 7926 4276 
3 5221 7320 658 
3 327 3360 4276 
3 327 4276 659 
3 7044 6223 4314 
3 1340 171 3251 
3 974 178 4314 
3 3583 4314 6223 
3 658 4160 325 
3 4260 325 6381 
3 6946 3251 171 
3 9303 6070 173 
3 1339 4395 973 
3 3679 3583 9508 
3 1720 957 3335 
3 4016 8764 6205 
3 5960 9620 5808 
3 975 4365 7152 
3 3335 3594 5960 
3 9620 5960 6205 
3 3318 3748 975 
3 172 975 7152 
3 6402 7996 9562 
3 4632 7291 8476 
3 973 171 3563 
3 5871 3679 9508 
3 9695 8461 6365 
3 172 3318 975 
3 172 7152 1339 
3 172 6402 8476 
3 1339 973 4245 
3 7799 3181 5793 
3 171 3679 3563 
3 4245 6268 7996 
3 7174 957 2773 
3 3006 5488 2758 
3 8677 6147 9663 
3 9620 7894 5808 
3 3295 1720 3335 
3 5808 3335 5960 
3 9663 5808 7894 
3 8050 9620 6205 
3 3748 3318 5951 
3 3748 5951 8050 
3 11076 10964 10961 
3 10169 8355 8899 
3 7619 6167 5496 
3 8072 3400 7174 
3 10487 10961 8899 
3 10613 10475 9936 
3 957 1720 2773 
3 6167 3007 5496 
3 1326 5169 158 
3 2718 961 2699 
3 2764 5473 2813 
3 8236 2819 6575 
3 1724 4412 8318 
3 6525 4761 7097 
3 1133 1960 1499 
3 11501 10779 11570 
3 158 961 2718 
3 6918 7519 9421 
3 9936 10964 10479 
3 7455 10115 5464 
3 9699 7455 5488 
3 2773 8072 7174 
3 2758 5464 2773 
3 2758 2773 1720 
3 10479 10964 11374 
3 10479 10984 10115 
3 10984 8939 10115 
3 10479 10115 7455 
3 6918 2718 7519 
3 9421 10976 10487 
3 9421 7519 10976 
3 10487 11294 10961 
3 11501 11505 11294 
3 10976 11294 10487 
3 2699 961 1724 
3 1839 8318 6424 
3 9821 10779 11501 
3 10976 11501 11294 
3 2718 2699 9319 
3 7519 9821 10976 
3 9319 10570 9821 
3 9319 9821 7519 
3 10961 11294 11076 
3 11061 11288 11066 
3 11076 11288 11061 
3 11374 10984 10479 
3 11061 11374 11076 
3 11505 11076 11294 
3 9811 8939 10984 
3 11061 10984 11374 
3 2729 3400 5447 
3 10115 8072 5464 
3 5960 3594 6205 
3 8050 8764 9303 
3 6946 973 4395 
3 9348 4395 4365 
3 3583 3679 1340 
3 974 1340 2927 
3 4395 7152 4365 
3 5743 9118 7795 
3 171 973 6946 
3 3251 8685 5670 
3 10905 8836 9811 
3 10115 8939 8072 
3 957 7174 155 
3 3594 4016 6205 
3 975 3748 1341 
3 5035 976 3234 
3 8050 6205 8764 
3 8308 10167 5916 
3 3748 8050 9303 
3 1341 9303 173 
3 6946 9348 8685 
3 6946 8685 3251 
3 1340 3251 2927 
3 974 2927 4445 
3 8685 10306 5670 
3 3251 5670 2927 
3 7657 5752 9140 
3 5670 8545 2927 
3 9303 8764 6070 
3 976 1580 3234 
3 4365 1341 5035 
3 4365 6149 9348 
3 4365 5035 6149 
3 9348 6149 7795 
3 1324 3400 2729 
3 1888 3083 7104 
3 155 1324 4016 
3 8764 8308 6070 
3 8939 8836 5447 
3 8939 5447 8072 
3 3880 6177 4016 
3 155 4016 3594 
3 11505 11570 11288 
3 11505 11288 11076 
3 8836 8939 9811 
3 10905 9811 11066 
3 8853 5415 8236 
3 1839 2819 1724 
3 8853 10570 5415 
3 2819 5415 2699 
3 11435 11570 10779 
3 11153 10779 10570 
3 5415 2819 8236 
3 8180 159 962 
3 10044 8853 8236 
3 10044 8236 8114 
3 11288 11435 11548 
3 11066 11548 11636 
3 5447 8836 7792 
3 2729 7792 7105 
3 7792 2609 7105 
3 2729 1836 1324 
3 2729 7105 1836 
3 1324 1836 3880 
3 11435 10792 11259 
3 11548 11261 11636 
3 8836 10905 10059 
3 7792 5385 2609 
3 8236 6575 8114 
3 7992 9122 8877 
3 8853 10044 10504 
3 11153 10504 10792 
3 11259 10792 11140 
3 11462 11140 11356 
3 11259 11462 11261 
3 9957 5385 10059 
3 11636 11261 10441 
3 10441 9957 10059 
3 1888 1721 3083 
3 7104 3083 7680 
3 11261 10973 10441 
3 11636 10441 10905 
3 9522 5385 9957 
3 10059 5385 7792 
3 2609 1721 1888 
3 7105 1888 1836 
3 3613 8308 5916 
3 10683 10172 11020 
3 3613 5916 3153 
3 1580 3020 1342 
3 10667 5704 9075 
3 8182 10167 7680 
3 5916 10167 8323 
3 3153 3020 1580 
3 9140 9118 10201 
3 7657 10201 9120 
3 4043 4801 5911 
3 6097 5911 7657 
3 3613 3153 976 
3 3234 3052 5743 
3 174 6634 1342 
3 1580 3052 3234 
3 7657 5911 5752 
3 8545 5752 4445 
3 4445 5752 3261 
3 1346 980 6753 
3 7655 10201 9118 
3 10147 9118 5743 
3 5670 10306 9140 
3 8545 9140 5752 
3 4016 1324 3880 
3 6177 3880 7680 
3 8764 6177 8308 
3 6070 8308 3613 
3 173 6070 3613 
3 976 3153 1580 
3 173 3613 976 
3 173 976 5035 
3 3052 10147 5743 
3 6149 5743 7795 
3 8040 4174 6753 
3 980 1346 3261 
3 6753 3857 9606 
3 6753 9606 8040 
3 3857 6753 980 
3 3857 980 177 
3 6400 7739 8071 
3 4093 6063 326 
3 8761 326 6063 
3 10191 6063 10272 
3 5187 738 5062 
3 5062 454 739 
3 8708 4998 9289 
3 10191 8761 6063 
3 738 6823 8708 
3 454 8708 8287 
3 1467 4937 3927 
3 5062 738 454 
3 1101 1467 3927 
3 1101 5213 457 
3 4267 6388 8325 
3 8602 4618 6554 
3 1332 8554 163 
3 965 6554 1331 
3 4618 1331 6554 
3 8602 6554 5122 
3 4685 11707 1332 
3 8554 1332 6734 
3 5003 6353 5062 
3 5003 5062 739 
3 4103 457 6217 
3 4103 6217 6388 
3 164 4618 7154 
3 8325 4618 8602 
3 4504 457 741 
3 5053 5213 8742 
3 8385 4500 8364 
3 8325 7154 4618 
3 1332 163 4685 
3 5013 8776 2976 
3 163 965 4685 
3 8776 9458 7652 
3 7154 4500 164 
3 1331 4996 2903 
3 965 1331 2903 
3 4685 5772 11707 
3 457 5213 741 
3 4564 10244 6882 
3 6217 457 4504 
3 4500 8385 4046 
3 6217 4504 8364 
3 6217 8364 8325 
3 7137 739 8287 
3 8287 739 454 
3 6353 5003 8742 
3 741 456 4247 
3 7137 8287 4604 
3 8316 8287 9289 
3 5213 3927 8742 
3 5053 8742 5003 
3 6063 8071 10272 
3 7908 7978 7307 
3 4998 8761 9289 
3 8708 9289 8287 
3 980 4801 177 
3 3857 7250 7739 
3 177 3999 7250 
3 177 7250 3857 
3 8071 7739 9201 
3 10272 9201 7908 
3 7908 9201 7978 
3 6375 7982 3799 
3 6099 10272 7908 
3 6099 4004 3957 
3 7898 7250 3999 
3 7898 6375 7978 
3 3799 3994 6375 
3 7898 7978 9201 
3 6099 7908 4004 
3 1472 4563 3382 
3 4130 1471 5256 
3 739 455 5003 
3 1605 3957 1472 
3 3957 4604 8316 
3 455 739 466 
3 466 1106 5256 
3 4504 741 4247 
3 8719 6882 9250 
3 6498 4046 8385 
3 6498 8385 4247 
3 1331 164 4996 
3 2903 6157 5772 
3 4685 2903 5772 
3 11707 9253 7886 
3 2903 4996 6157 
3 8776 6219 9458 
3 10103 7886 9253 
3 10103 10185 9001 
3 5003 455 740 
3 8719 6498 4247 
3 5053 740 456 
3 5053 456 741 
3 4500 4046 967 
3 4996 2976 6157 
3 10244 9250 6882 
3 456 6882 4247 
3 2976 967 1333 
3 165 1333 4084 
3 8776 6157 2976 
3 5013 2976 1333 
3 5772 6157 7652 
3 5772 7652 9253 
3 7652 6157 8776 
3 6219 8776 5013 
3 7652 9458 10185 
3 7652 10185 9253 
3 1105 6685 1471 
3 740 4564 456 
3 4247 6882 8719 
3 6498 8719 8101 
3 4149 4130 5256 
3 1106 7137 4604 
3 4130 1105 1471 
3 5256 1471 466 
3 739 7137 466 
3 455 466 1471 
3 4287 4564 6685 
3 1471 6685 455 
3 3999 6737 6375 
3 7978 6375 3994 
3 4149 5256 1106 
3 1605 1472 3382 
3 3957 4004 1472 
3 4563 467 1107 
3 4004 467 1472 
3 3957 1605 4604 
3 4149 1106 1605 
3 4149 1605 3382 
3 978 1344 4042 
3 979 4585 6737 
3 4043 5237 979 
3 1345 3999 177 
3 10683 11020 9075 
3 5653 3051 3020 
3 10284 10740 5672 
3 7618 5672 5653 
3 7873 10683 9075 
3 7873 9075 5704 
3 5653 9014 11020 
3 7618 11020 10172 
3 3127 3302 977 
3 6634 977 3193 
3 11725 978 4042 
3 6097 4042 4043 
3 977 6634 174 
3 3127 174 3051 
3 1345 4801 4043 
3 5237 4043 4042 
3 3052 1580 1342 
3 3052 1342 6634 
3 4043 979 1345 
3 4801 1345 177 
3 9075 11020 10667 
3 10167 9014 8323 
3 3153 8323 3020 
3 1342 3020 3051 
3 7267 7873 3055 
3 3055 3223 958 
3 10167 8182 10667 
3 9014 10667 11020 
3 11020 7618 5653 
3 9014 5653 8323 
3 1721 2836 958 
3 1721 3223 3083 
3 1721 958 3223 
3 3083 3223 8182 
3 10973 9131 9957 
3 10973 9957 10441 
3 958 2836 4744 
3 8049 9131 5441 
3 1576 2801 3397 
3 962 3397 8180 
3 8114 3397 5563 
3 10044 5563 8877 
3 4860 1328 1576 
3 3397 2801 5563 
3 7085 9642 7992 
3 5563 7992 8877 
3 9642 5454 9122 
3 9823 10603 11140 
3 7992 9642 9122 
3 9823 9122 10603 
3 9038 7470 11483 
3 10591 7476 10035 
3 4744 9522 8049 
3 2837 8049 5441 
3 2837 1330 4744 
3 9522 4744 2836 
3 4744 1330 162 
3 4744 162 958 
3 162 7267 3055 
3 3223 3055 5704 
3 2801 1328 7085 
3 9642 7085 3062 
3 5454 5559 7476 
3 10603 10591 11356 
3 9038 11483 10591 
3 9038 10591 10035 
3 9904 7360 5420 
3 7336 8783 10617 
3 2608 2874 5420 
3 5296 5420 7360 
3 4835 5895 8628 
3 2874 8628 5420 
3 1299 4554 131 
3 1299 4835 2874 
3 11024 11577 11354 
3 11192 11354 11083 
3 10980 9863 10481 
3 10617 10881 11192 
3 11659 11606 11410 
3 11031 11410 11291 
3 10365 8783 9863 
3 9863 8783 7360 
3 11324 11044 11671 
3 11324 11552 11632 
3 11615 11671 11430 
3 11410 11430 11291 
3 1824 4990 4902 
3 1296 4902 9462 
3 11632 10874 11222 
3 10413 11222 8851 
3 1956 4990 1824 
3 3569 1824 1296 
3 9785 8830 10874 
3 8771 5658 7182 
3 2868 5658 8202 
3 10874 9998 11222 
3 11162 11632 11552 
3 11324 11632 10413 
3 10874 11632 11162 
3 10752 11284 11026 
3 8202 9998 8830 
3 9785 10874 11162 
3 11430 11534 11615 
3 11284 11406 11026 
3 4990 7187 8532 
3 4990 8532 4902 
3 8830 8222 8202 
3 9998 8202 5658 
3 9785 8792 8830 
3 10874 8830 9998 
3 10752 9785 11162 
3 10752 11162 11284 
3 11606 11518 11698 
3 11606 11672 11534 
3 11519 11648 11614 
3 11421 11614 11518 
3 11519 11614 11577 
3 11235 11577 11024 
3 10881 10365 11024 
3 10981 5895 8190 
3 11290 11235 11034 
3 10881 11024 11354 
3 10881 8783 10365 
3 11099 11094 11290 
3 2875 4835 927 
3 131 4835 1299 
3 4554 4860 5186 
3 962 159 927 
3 8628 5895 9904 
3 8628 9904 5420 
3 4835 131 927 
3 4835 2875 5895 
3 4860 1576 5186 
3 131 5186 927 
3 9863 9904 10981 
3 10481 10981 8875 
3 1576 3397 962 
3 5186 962 927 
3 11024 10365 11034 
3 11024 11034 11235 
3 11034 10365 10980 
3 11034 11099 11290 
3 11698 11648 11678 
3 11698 11672 11606 
3 11592 11648 11519 
3 11418 11519 11235 
3 8190 5895 2875 
3 6566 2568 8203 
3 159 8640 1706 
3 927 1706 2875 
3 8190 8203 8875 
3 10481 8875 9798 
3 8114 6575 8180 
3 8114 8180 3397 
3 2875 1706 6566 
3 8190 6566 8203 
3 2568 6566 1919 
3 2568 1954 2554 
3 10757 11237 11094 
3 11290 11587 11418 
3 11099 9798 11094 
3 11587 11094 11237 
3 11544 11398 11590 
3 11678 11705 11511 
3 11648 11592 11692 
3 11648 11692 11678 
3 10481 9798 11099 
3 10980 11099 11034 
3 10752 11026 10769 
3 10525 10611 10007 
3 11511 11658 11396 
3 11026 11289 10769 
3 10525 10769 10611 
3 10007 9321 8143 
3 11026 11396 11289 
3 11369 9849 10611 
3 5215 32 835 
3 1980 5072 7334 
3 1921 1980 2532 
3 8143 5301 10007 
3 5301 2532 2610 
3 6582 2868 8202 
3 8143 2532 5301 
3 8792 5301 8222 
3 8727 1760 1200 
3 5072 7242 9371 
3 2610 7334 1988 
3 1956 1988 5046 
3 5301 2610 8222 
3 8792 8222 8830 
3 11672 11678 11511 
3 11534 11406 11615 
3 11672 11511 11406 
3 11615 11406 11284 
3 11698 11678 11672 
3 11534 11672 11406 
3 7242 7187 5046 
3 9371 5046 1988 
3 1956 2868 6582 
3 1988 6582 2610 
3 11552 11615 11284 
3 11552 11284 11162 
3 9970 10080 9159 
3 8800 9888 7369 
3 9730 3024 8727 
3 1760 7242 1200 
3 11032 11407 11282 
3 11420 11604 11669 
3 10944 11135 11340 
3 11496 11282 11562 
3 11032 11549 11407 
3 11662 11605 11689 
3 11420 11496 11562 
3 9970 11135 10080 
3 9970 9159 7543 
3 7976 5505 9730 
3 6341 7976 9730 
3 6341 9730 8727 
3 3024 1760 8727 
3 6341 5215 3847 
3 5215 8727 1200 
3 5072 1200 7242 
3 5489 9017 7543 
3 7976 7543 9159 
3 8695 7005 443 
3 835 32 7005 
3 11426 11329 11069 
3 10849 11032 10761 
3 10454 9788 10793 
3 11135 10793 11340 
3 10761 11032 11282 
3 10761 11496 10793 
3 11420 11340 11496 
3 11282 11496 10761 
3 10454 11135 9970 
3 9017 9970 7543 
3 11096 11437 11239 
3 10774 11239 11457 
3 11426 11664 11605 
3 11549 11662 11407 
3 11388 10856 10442 
3 9960 8814 7409 
3 10856 11541 11096 
3 10856 10360 8814 
3 7984 3554 8749 
3 7984 11724 3479 
3 7555 5508 5735 
3 9346 5735 7984 
3 5430 5508 9154 
3 9346 7555 5735 
3 10856 9960 10442 
3 8082 2704 5383 
3 7984 8749 11724 
3 6705 8570 4173 
3 11541 10856 11388 
3 9991 8790 10530 
3 11128 11541 11388 
3 11128 10917 10372 
3 11582 11242 11437 
3 11582 11437 11541 
3 11414 11689 11535 
3 11437 11535 11239 
3 11562 11407 11603 
3 11516 11438 11669 
3 2960 9386 5721 
3 3479 5721 7984 
3 5721 9386 10994 
3 9346 10542 7555 
3 10037 10542 10994 
3 10994 10542 9346 
3 3479 11724 1641 
3 3479 1908 2960 
3 9860 10542 10527 
3 10442 10917 11388 
3 6852 9386 2960 
3 3479 2960 5721 
3 10994 9386 10037 
3 10527 8857 9815 
3 9991 10372 9815 
3 10917 11128 11388 
3 10917 9815 10372 
3 11128 10770 11582 
3 10527 9815 10917 
3 10527 10917 10442 
3 11319 11242 11124 
3 10530 10770 10372 
3 11407 11662 11603 
3 11405 11030 11618 
3 11562 11603 11604 
3 11562 11604 11420 
3 7421 10080 8800 
3 11058 10944 11340 
3 9159 7421 5505 
3 9730 5505 3024 
3 10080 10944 8800 
3 7421 8800 7369 
3 1760 3024 1855 
3 8532 1855 7139 
3 11242 11319 11414 
3 11242 11414 11535 
3 11689 11414 11523 
3 11603 11673 11604 
3 11603 11523 11673 
3 11604 11690 11669 
3 11517 11607 11656 
3 11673 11690 11604 
3 9888 8800 10359 
3 11201 11438 11633 
3 3024 5505 2760 
3 2574 5378 5300 
3 1645 1855 2760 
3 2574 2760 5378 
3 11516 11633 11438 
3 11669 11438 11058 
3 10160 7369 9888 
3 10160 9888 10606 
3 11673 11523 11597 
3 11673 11656 11690 
3 11673 11597 11656 
3 11690 11656 11516 
3 11656 11607 11516 
3 11690 11516 11669 
3 5330 7351 9196 
3 5383 8857 8082 
3 9196 7351 9991 
3 9196 9991 9815 
3 9763 10750 11124 
3 10770 11124 11242 
3 11523 11414 11405 
3 11597 11405 11618 
3 4173 3402 1908 
3 1641 1908 3479 
3 5383 9196 8857 
3 10037 8857 10527 
3 3825 1943 1968 
3 1908 1968 2960 
3 8082 9386 6852 
3 2704 6852 1943 
3 10037 9386 8082 
3 10037 8082 8857 
3 6705 1514 3475 
3 5783 3475 3469 
3 9292 6089 8570 
3 5783 8570 3475 
3 10017 9352 5872 
3 1147 7061 544 
3 4064 7061 10342 
3 5872 3157 4081 
3 1611 1513 3157 
3 3818 9352 10342 
3 3475 1514 1148 
3 3475 1148 3469 
3 4173 8550 6705 
3 8570 6705 3475 
3 1908 1641 4173 
3 6089 4173 8570 
3 10660 7995 9241 
3 1514 4119 1148 
3 4173 1641 8550 
3 6705 546 1514 
3 1149 4240 7112 
3 1514 7112 4119 
3 1194 26 829 
3 8550 546 6705 
3 9261 10017 5956 
3 10660 5872 7995 
3 5956 10017 10660 
3 10279 4119 7112 
3 4746 1512 1146 
3 4050 7932 6796 
3 7061 3818 10342 
3 4064 10342 7851 
3 3818 3157 9352 
3 10342 9352 10017 
3 10957 10666 10572 
3 10572 10666 9029 
3 1146 6606 543 
3 1510 6606 3631 
3 8977 10666 10957 
3 8985 5498 10668 
3 4064 6606 1146 
3 3719 543 6796 
3 5731 3319 3042 
3 5836 101 3733 
3 10310 9586 9157 
3 9941 7637 10510 
3 8986 7637 9941 
3 10998 10510 7733 
3 10069 8977 10722 
3 9967 10957 9881 
3 9694 3042 101 
3 3733 101 1269 
3 10510 7637 9694 
3 5836 9694 101 
3 8977 5829 7947 
3 10666 7947 9996 
3 1512 4064 1146 
3 3719 1146 543 
3 7947 5829 6473 
3 3719 6473 4746 
3 6473 7282 4746 
3 3719 4746 1146 
3 10942 9941 10998 
3 10942 8997 9967 
3 7733 5680 8997 
3 10998 8997 10942 
3 7769 10069 10722 
3 9967 10722 10957 
3 6607 8068 3056 
3 1694 3056 903 
3 101 8683 1269 
3 3733 1269 3735 
3 6092 8068 6607 
3 1809 6607 1694 
3 1269 8683 6890 
3 1269 6890 1809 
3 7501 10026 9284 
3 5411 9825 10180 
3 8969 10026 7501 
3 3056 7501 6801 
3 8947 5483 10186 
3 8865 10186 7787 
3 2731 6801 9284 
3 2731 9284 5411 
3 4743 8330 6635 
3 9623 6635 4666 
3 3339 5408 9595 
3 10207 5365 7974 
3 1873 6921 1801 
3 6922 1801 2755 
3 3937 506 8051 
3 9655 8051 8303 
3 2755 7838 7571 
3 6922 7571 9524 
3 1251 4125 3738 
3 8303 6330 9655 
3 6391 900 97 
3 6391 97 6635 
3 5408 3339 2617 
3 2617 3339 900 
3 7383 10207 10869 
3 10374 8947 10186 
3 6635 1265 4666 
3 9623 6207 8051 
3 2693 7122 7905 
3 3339 7122 97 
3 1251 7224 2755 
3 6922 2755 7571 
3 1801 4125 1251 
3 7224 1251 83 
3 2755 7224 7838 
3 10601 5485 7420 
3 4125 6330 3738 
3 6183 8371 3871 
3 9691 3789 6145 
3 8303 6145 6330 
3 9623 4666 6207 
3 8303 6050 6145 
3 7122 3339 9595 
3 7122 2693 1265 
3 5408 5365 7383 
3 5408 7383 9191 
3 11381 9793 10869 
3 8947 10869 10207 
3 2617 5365 5408 
3 9595 5408 9191 
3 8865 10816 10374 
3 8947 10374 10869 
3 9825 10436 11379 
3 9825 11379 10180 
3 3331 10650 6092 
3 6890 6092 6607 
3 11317 11075 11327 
3 11379 11327 10816 
3 1878 3331 1695 
3 8683 4565 6890 
3 1695 4565 904 
3 3042 904 101 
3 11379 10436 11477 
3 11327 11477 11068 
3 10026 8969 10477 
3 10004 8840 10503 
3 10436 10477 10949 
3 10436 10949 11477 
3 10477 8969 10220 
3 10477 9081 10004 
3 11559 11057 11381 
3 11075 10869 10374 
3 11145 11317 11068 
3 10503 11068 10949 
3 10970 9191 9793 
3 9793 9191 7383 
3 11559 11381 11075 
3 11327 11075 10374 
3 9595 7905 7122 
3 1551 2798 899 
3 9595 9191 7905 
3 2693 5437 2798 
3 8941 7838 10601 
3 8941 10601 9953 
3 8387 9691 6050 
3 6207 6050 8303 
3 7224 3793 7838 
3 7420 5394 7405 
3 7224 83 3793 
3 5384 7414 7405 
3 3738 6145 3789 
3 879 2714 3793 
3 6145 6050 9691 
3 3789 6183 3871 
3 3709 6050 3837 
3 1551 3837 4666 
3 96 899 7038 
3 3709 8387 6050 
3 9427 8387 3875 
3 899 3837 1551 
3 1681 2714 879 
3 3793 2714 5485 
3 2618 2714 1681 
3 3789 879 83 
3 5485 2714 5394 
3 5485 5394 7420 
3 9427 8371 6183 
3 3789 3871 879 
3 8387 9427 6183 
3 9691 6183 3789 
3 8387 3709 3875 
3 2798 1551 2693 
3 7038 899 2798 
3 11224 8855 10910 
3 7948 2798 5437 
3 7905 5437 2693 
3 10391 9968 10970 
3 9191 9968 7905 
3 10391 10970 11064 
3 11057 10970 9793 
3 11270 11057 11559 
3 11458 11317 11145 
3 11458 11559 11317 
3 11068 11317 11327 
3 10777 11458 11145 
3 10777 11145 9803 
3 7424 8840 10004 
3 10477 10004 10949 
3 7899 5470 9081 
3 10220 9081 10477 
3 10650 6968 7899 
3 10220 7899 9081 
3 6100 9157 7654 
3 10203 9157 8986 
3 7494 5498 8985 
3 9881 10517 10942 
3 3303 5570 7797 
3 9029 7494 10572 
3 9182 2781 7102 
3 10517 9941 10942 
3 10706 5570 9029 
3 10572 7494 9881 
3 2838 6968 1810 
3 3319 5731 9586 
3 3571 1878 6967 
3 3571 6967 7767 
3 3331 4565 1695 
3 1878 1695 6967 
3 6967 1695 3319 
3 6967 3319 9586 
3 8068 6092 10650 
3 10220 10650 7899 
3 1878 6968 3331 
3 4565 3331 6092 
3 5731 7637 8986 
3 10203 8986 10517 
3 10668 10203 10517 
3 10668 10517 8985 
3 3042 7637 5731 
3 9586 5731 9157 
3 9881 7494 8985 
3 9881 8985 10517 
3 5570 7494 9029 
3 10706 9029 9996 
3 6796 543 4050 
3 7170 6958 4040 
3 7851 10017 9261 
3 5278 11717 1515 
3 7947 6796 9996 
3 10666 9996 9029 
3 3631 7851 9261 
3 3631 6643 1144 
3 5956 10660 9241 
3 1145 1610 3617 
3 1149 546 26 
3 11724 829 1641 
3 7995 10279 9241 
3 6669 1511 1610 
3 3617 9241 6800 
3 5278 4240 1149 
3 26 5278 1149 
3 546 1149 7112 
3 1194 11717 26 
3 829 26 546 
3 8463 11717 4221 
3 8749 1194 11724 
3 5956 9241 3617 
3 5956 3425 9261 
3 9241 4240 6800 
3 11717 5278 26 
3 3303 7797 7009 
3 4040 7797 7170 
3 7932 4050 7170 
3 7932 7170 7797 
3 3631 9261 6643 
3 1144 542 8386 
3 5956 3617 3425 
3 6643 1511 542 
3 547 1145 6800 
3 1515 6800 4240 
3 4921 1144 8386 
3 1374 1593 4040 
3 547 6800 1515 
3 5278 1515 4240 
3 7124 1008 7008 
3 4040 7009 7797 
3 4921 8386 6958 
3 4921 6958 7170 
3 1144 6643 542 
3 8386 6948 223 
3 3425 1610 1511 
3 542 6948 8386 
3 504 8336 1145 
3 6800 1145 3617 
3 8463 7322 4258 
3 11717 4258 1515 
3 4258 7322 547 
3 4258 547 1515 
3 8427 4770 8463 
3 4362 3992 6437 
3 766 7322 4770 
3 1145 8336 1610 
3 504 1145 5210 
3 7322 5210 547 
3 4768 8449 4752 
3 1511 4752 542 
3 1610 8336 6669 
3 1511 6669 4752 
3 1008 7009 1593 
3 1374 6958 223 
3 7008 1593 3890 
3 1009 8449 1375 
3 4752 8449 6948 
3 4752 6948 542 
3 2898 3303 222 
3 7124 9056 7489 
3 3303 7009 1008 
3 222 7124 2857 
3 3914 1007 2739 
3 1373 2898 222 
3 2739 1592 7103 
3 2857 1373 222 
3 1372 3589 3811 
3 3589 7100 6499 
3 3914 221 1007 
3 1592 7102 2781 
3 6100 3811 7879 
3 7767 9555 3571 
3 10668 9182 7654 
3 1007 7102 1592 
3 1810 3571 4099 
3 4428 4099 6499 
3 6499 4099 9555 
3 7879 7767 10310 
3 10310 9157 6100 
3 3811 3144 221 
3 5498 5570 2898 
3 2781 2898 1373 
3 10203 10668 7654 
3 3144 9182 7102 
3 2898 5570 3303 
3 222 3303 1008 
3 7879 9555 7767 
3 10310 7767 9586 
3 3144 3811 6100 
3 7654 9157 10203 
3 3144 6100 7654 
3 3144 7654 9182 
3 7899 6968 2838 
3 7899 2838 5470 
3 6968 1878 1810 
3 2838 1810 1270 
3 10503 8840 9803 
3 10503 9803 11145 
3 8828 8840 7398 
3 5391 5470 2719 
3 10970 11057 11064 
3 11473 11315 10903 
3 11064 11057 11270 
3 11576 11270 11267 
3 11473 10910 10391 
3 9968 8855 5437 
3 8855 9968 10391 
3 8855 10391 10910 
3 3059 96 7038 
3 7948 5437 8855 
3 9528 7038 7948 
3 9895 7948 11224 
3 1796 2713 2618 
3 2714 2618 5394 
3 1796 2618 1681 
3 3871 1681 879 
3 7405 5394 5384 
3 7414 5384 5438 
3 1245 1796 3895 
3 3474 3871 8371 
3 3895 1796 3474 
3 3474 8371 6222 
3 8371 9427 8358 
3 9528 7948 9895 
3 3709 899 96 
3 6855 1877 1808 
3 3875 96 1264 
3 1264 2922 1808 
3 3059 7038 9528 
3 3059 5504 2922 
3 9427 3875 8358 
3 6222 3895 3474 
3 96 3059 1264 
3 3875 3887 8358 
3 9129 7414 5438 
3 9129 9689 7640 
3 2713 1796 1245 
3 6222 8371 8358 
3 3909 3895 8338 
3 3822 6856 8104 
3 3875 1264 3887 
3 8358 6292 6222 
3 10515 9895 11189 
3 9856 9838 7498 
3 11270 11576 11315 
3 11064 11473 10391 
3 7948 8855 11224 
3 9895 11224 11189 
3 10433 10910 11473 
3 11315 11473 11064 
3 11467 11576 11267 
3 10777 11267 11458 
3 7398 7424 5391 
3 905 1696 2636 
3 10516 10830 11136 
3 10516 11136 10777 
3 10516 9803 8828 
3 10516 8828 9861 
3 8840 7424 7398 
3 7389 7398 5366 
3 7398 5391 5366 
3 7389 5404 10541 
3 5391 2719 2645 
3 5366 2636 5404 
3 11472 11325 10830 
3 11194 10830 9861 
3 7389 10541 9861 
3 10516 9861 10830 
3 9528 5504 3059 
3 9369 10515 10979 
3 11472 11588 11325 
3 11467 11133 11576 
3 10501 10903 11133 
3 11325 11133 11467 
3 11136 11325 11467 
3 11136 11467 11267 
3 9369 6855 2922 
3 3059 2922 1264 
3 9895 10515 5504 
3 9895 5504 9528 
3 5438 2947 9689 
3 3909 1245 3895 
3 8358 3887 6292 
3 6222 8338 3895 
3 7068 2947 76 
3 2947 5438 2713 
3 7640 9689 7068 
3 76 2947 1245 
3 6222 6292 8338 
3 3909 6312 3778 
3 6292 3887 3822 
3 6292 8104 8338 
3 3887 1264 1808 
3 3822 1808 1877 
3 7844 3769 6855 
3 2922 6855 1808 
3 5504 10515 9369 
3 5504 9369 2922 
3 9689 2947 7068 
3 3778 76 3909 
3 3909 8338 6312 
3 898 3660 3801 
3 2835 7640 7068 
3 3645 6155 6020 
3 6155 3645 3778 
3 6312 8338 8104 
3 6155 3778 6312 
3 10154 8104 6856 
3 6312 8104 10154 
3 6856 1877 1693 
3 10515 9025 10979 
3 9369 7844 6855 
3 10433 10903 9838 
3 10696 7482 9279 
3 10515 11189 9856 
3 9025 9856 7498 
3 10903 10501 9838 
3 10433 9838 9856 
3 8088 5404 2752 
3 2636 5366 2645 
3 2752 5404 2636 
3 1696 905 4864 
3 11133 11325 10844 
3 9938 9279 8890 
3 10844 11325 11588 
3 10844 11588 11172 
3 10411 11588 11472 
3 11194 11472 10830 
3 4868 1696 4864 
3 4864 8518 6691 
3 2757 7099 1591 
3 4539 220 8518 
3 7880 8139 10731 
3 8139 3914 5513 
3 10731 8139 9922 
3 7790 2857 7489 
3 7099 1006 1591 
3 2757 1372 7261 
3 8139 2757 7261 
3 221 1372 3811 
3 8518 4864 6870 
3 2645 905 2636 
3 1591 1006 7100 
3 6499 9697 4428 
3 1270 4428 102 
3 905 6870 4864 
3 1006 4539 7100 
3 1372 221 7261 
3 4428 6870 102 
3 1270 102 2719 
3 8518 6870 9697 
3 4539 9697 6499 
3 6499 7879 3589 
3 7100 3589 1591 
3 3914 7261 221 
3 1007 221 3144 
3 1591 3589 1372 
3 1591 1372 2757 
3 8139 7261 3914 
3 5513 3914 2739 
3 1007 1592 2739 
3 7790 7489 8886 
3 1592 1373 7103 
3 2739 7790 5513 
3 1593 1374 3890 
3 6493 1009 1375 
3 222 1008 7124 
3 2857 7124 7489 
3 1008 1593 7008 
3 7124 7008 9056 
3 1374 223 5227 
3 3890 5227 6493 
3 8704 8336 1490 
3 6095 8412 7309 
3 4175 1490 4978 
3 8336 8704 6669 
3 8427 505 4770 
3 8463 4770 7322 
3 1121 505 3842 
3 1852 1640 3992 
3 4768 8704 1124 
3 4978 766 7309 
3 4994 7309 766 
3 505 766 4770 
3 6948 8449 1009 
3 5227 1009 6493 
3 503 9614 4768 
3 8704 4768 6669 
3 2739 7103 7790 
3 5513 10024 9922 
3 9056 3890 6493 
3 8123 5630 8887 
3 3075 1375 224 
3 4768 9614 8449 
3 4171 8412 6086 
3 1490 1124 8704 
3 504 766 4978 
3 1490 4175 1124 
3 6059 3280 3842 
3 6059 3842 6437 
3 10251 8972 8967 
3 6170 6059 6437 
3 2981 1640 1852 
3 9156 6993 10257 
3 2676 2573 25 
3 3162 5631 2973 
3 5354 5350 2573 
3 7557 10257 3220 
3 9514 7454 10468 
3 10468 7454 9827 
3 9146 7454 5426 
3 1851 3162 2973 
3 10412 9023 10468 
3 11383 10468 9827 
3 10299 11004 9119 
3 11004 10412 11226 
3 7349 5331 9119 
3 9119 11004 9784 
3 9031 9465 5298 
3 1639 3232 1907 
3 733 8721 445 
3 32 5093 7005 
3 4888 6956 8604 
3 2965 5776 3847 
3 8604 6956 5094 
3 1910 2965 1646 
3 11226 10831 11004 
3 10412 11004 10299 
3 6917 8107 2540 
3 6917 2540 1201 
3 4888 1761 1945 
3 6956 1969 5094 
3 8107 9465 10253 
3 10849 9766 10354 
3 9646 6973 7897 
3 2540 2569 1761 
3 6956 1945 1969 
3 5094 1910 5154 
3 734 5094 5154 
3 734 443 8631 
3 1945 2569 6973 
3 1969 2703 1910 
3 734 5154 443 
3 735 5093 444 
3 11015 10455 10253 
3 9031 10253 9465 
3 7897 2569 5293 
3 8107 5293 2540 
3 10380 10860 9827 
3 11383 11226 10412 
3 11111 10831 11226 
3 10860 11226 11383 
3 10380 9827 9961 
3 9146 9827 7454 
3 9031 7349 9766 
3 10354 10831 11069 
3 3842 8427 6437 
3 6170 3992 3533 
3 5354 7358 5350 
3 2573 2659 1192 
3 1640 3533 3992 
3 1755 1194 8749 
3 1640 2782 828 
3 6993 828 25 
3 5354 2573 2676 
3 2782 2676 828 
3 4221 4362 6396 
3 8463 6396 8427 
3 828 3533 1640 
3 2782 2981 5508 
3 7409 7358 5354 
3 5430 2782 5508 
3 10360 9961 8814 
3 7358 9961 9146 
3 11111 10860 10380 
3 10774 10360 11096 
3 9766 9784 10354 
3 10849 11329 11032 
3 3554 1852 1755 
3 6396 4362 6437 
3 7409 5354 5430 
3 9154 7555 9860 
3 8749 3554 1755 
3 4362 1852 3992 
3 2782 1640 2981 
3 5508 2981 5735 
3 11717 1194 4221 
3 8463 4221 6396 
3 4362 4221 1755 
3 4362 1755 1852 
3 7409 5430 9154 
3 9960 9154 9860 
3 11111 10774 11457 
3 11111 11457 11069 
3 8814 7358 7409 
3 9960 7409 9154 
3 10380 9961 10360 
3 10856 8814 9960 
3 10774 10380 10360 
3 11096 10360 10856 
3 5293 8818 8841 
3 9788 10455 10761 
3 10454 10295 8841 
3 9788 8818 10455 
3 11426 11549 11329 
3 10354 11329 10849 
3 10454 8841 9788 
3 10793 9788 10761 
3 9970 9017 10454 
3 11135 10454 10793 
3 10454 9017 10295 
3 8841 7897 5293 
3 9017 5489 9646 
3 10295 9646 7897 
3 9646 5489 2703 
3 1910 1646 5154 
3 3847 5215 835 
3 1921 1709 444 
3 2965 3847 1646 
3 5154 8695 443 
3 8695 835 7005 
3 735 444 5262 
3 9788 8841 8818 
3 10455 8818 10253 
3 5489 2965 2703 
3 9646 2703 6973 
3 7349 9784 9766 
3 9031 11015 10253 
3 10849 10455 11015 
3 9766 11015 9031 
3 6973 2569 7897 
3 10295 7897 8841 
3 2703 2965 1910 
3 1969 1910 5094 
3 1646 835 8695 
3 1646 8695 5154 
3 2532 2629 1921 
3 444 736 5262 
3 11023 10347 11293 
3 11289 11369 10769 
3 11347 11544 11409 
3 11702 11592 11654 
3 11702 11595 11590 
3 11398 11544 11023 
3 10521 9849 11084 
3 11486 11506 11293 
3 10347 11486 11293 
3 11023 11293 11398 
3 32 6912 5093 
3 7005 5093 735 
3 9849 7526 9321 
3 2629 2915 1709 
3 444 5093 1921 
3 1709 1921 2629 
3 10007 10611 9321 
3 8143 9321 5446 
3 1200 5072 32 
3 1200 32 5215 
3 32 5072 6912 
3 5093 6912 1921 
3 11396 11658 11539 
3 11289 11506 11369 
3 11658 11705 11590 
3 11544 11590 11595 
3 10521 7526 9849 
3 11084 9849 11369 
3 11506 11084 11369 
3 10769 11369 10611 
3 11289 11539 11506 
3 11084 11506 11486 
3 11409 11595 11661 
3 11661 11654 11521 
3 11595 11654 11661 
3 11116 11390 11424 
3 11590 11692 11702 
3 11595 11702 11654 
3 11521 11654 11628 
3 11587 11628 11418 
3 8875 8203 8791 
3 10495 9999 10407 
3 1327 1839 6424 
3 1919 1954 2568 
3 11521 11237 11433 
3 10407 10757 10495 
3 9999 8791 5309 
3 2554 5309 2568 
3 4412 961 4761 
3 6424 1954 1919 
3 9653 4787 8318 
3 1724 8318 1839 
3 11642 11520 11424 
3 10757 11433 11237 
3 10495 8791 9999 
3 10407 9999 9008 
3 11544 11595 11409 
3 11520 11521 11433 
3 11608 11661 11520 
3 11278 10763 11121 
3 10407 10882 11116 
3 10407 11116 10757 
3 2673 7945 8033 
3 2554 8033 5309 
3 4378 4787 9653 
3 8318 4787 6424 
3 4975 1293 4378 
3 4787 1821 1954 
3 1821 4787 4378 
3 4378 6525 4975 
3 1293 1821 4378 
3 4975 6525 8615 
3 1724 961 4412 
3 9653 4412 6525 
3 10763 11642 11424 
3 11424 11520 11433 
3 1293 7255 2673 
3 2554 2673 8033 
3 11661 11608 11409 
3 11544 11347 11023 
3 11278 11642 10763 
3 11116 11424 11433 
3 7335 8781 10089 
3 11486 10521 11084 
3 10952 10089 10347 
3 10952 10347 11023 
3 443 7005 735 
3 443 4583 8631 
3 4892 5959 8682 
3 5446 2915 2629 
3 736 444 930 
3 2914 2630 1823 
3 9269 8682 5959 
3 7526 5959 5446 
3 7384 5445 9269 
3 10521 9269 7526 
3 10089 10952 8786 
3 10347 8781 11486 
3 8786 10952 10353 
3 10353 11347 11042 
3 2915 5959 4892 
3 2914 8682 5445 
3 5304 7384 7335 
3 8781 7384 10521 
3 6539 4583 4813 
3 5262 4583 735 
3 4583 5262 4813 
3 4813 736 445 
3 8631 4583 6539 
3 445 736 127 
3 736 930 127 
3 1295 2914 1823 
3 930 2915 4892 
3 127 1295 5112 
3 5445 7384 5304 
3 7341 10089 8786 
3 8781 10347 10089 
3 7335 7341 5281 
3 7350 8786 10075 
3 10843 10353 11042 
3 11608 11642 11278 
3 11608 11459 11042 
3 11409 11608 11042 
3 11409 11042 11347 
3 10536 10763 9777 
3 11390 10763 11424 
3 11121 10763 10536 
3 10882 11390 11116 
3 10273 9008 7945 
3 5532 7945 4090 
3 9228 9777 7377 
3 10882 9777 11390 
3 9777 10882 7377 
3 5532 10273 7945 
3 7097 8615 6525 
3 4761 6525 4412 
3 10273 5532 7377 
3 9777 9228 10536 
3 5113 926 124 
3 4975 124 1293 
3 7377 5532 5312 
3 7377 5312 9228 
3 772 5113 7321 
3 8615 7321 4975 
3 10353 10843 10075 
3 10353 10075 8786 
3 8250 10100 9228 
3 8250 9228 5312 
3 11121 10927 11459 
3 11278 11459 11608 
3 9862 11121 10536 
3 10100 10536 9228 
3 4892 8682 2914 
3 4892 1295 127 
3 2630 5445 5304 
3 2530 1920 1972 
3 4872 6702 1460 
3 8721 4813 445 
3 6539 4813 8721 
3 5112 445 127 
3 4416 6539 8721 
3 440 733 4192 
3 4892 2914 1295 
3 5112 4437 7311 
3 2914 5445 2630 
3 1823 2630 1955 
3 5304 7335 5281 
3 5304 2525 2630 
3 7335 10089 7341 
3 5328 2716 2560 
3 5304 5281 2525 
3 2630 2525 1955 
3 10075 9150 7350 
3 8786 7350 7341 
3 1460 6702 1094 
3 440 4416 733 
3 7311 4192 733 
3 5112 733 445 
3 6317 4192 7311 
3 4437 1295 1823 
3 6317 7311 4437 
3 6317 3451 5648 
3 1972 2525 2530 
3 2560 2530 5292 
3 7341 7350 5292 
3 5281 5292 2530 
3 9150 10075 10561 
3 9123 5544 8239 
3 10536 10100 9862 
3 11121 9862 10927 
3 11459 10927 10398 
3 10843 10398 10561 
3 5532 4090 2672 
3 2612 1705 1883 
3 4090 124 926 
3 5000 6840 1883 
3 5087 772 522 
3 7097 522 8615 
3 2672 926 1705 
3 2672 1705 2612 
3 5100 926 5113 
3 7321 5113 124 
3 5087 5080 772 
3 522 772 7321 
3 1883 1705 5000 
3 1135 4253 3486 
3 6364 5080 5087 
3 5142 1133 3926 
3 10561 10398 7423 
3 7423 5325 5588 
3 10398 10927 10076 
3 7423 10076 5325 
3 8239 10076 9123 
3 7959 9862 10100 
3 5544 9123 7959 
3 5544 7959 6494 
3 1883 1820 2778 
3 8250 2778 5542 
3 1705 5100 5000 
3 6840 4451 6347 
3 772 5080 521 
3 4451 1501 3486 
3 6344 3695 6364 
3 9498 8691 3926 
3 5000 521 4451 
3 5000 4451 6840 
3 5080 3695 1501 
3 521 1501 4451 
3 2784 1884 2614 
3 5588 10282 7423 
3 5118 6494 3273 
3 5544 2784 8239 
3 8239 2614 5325 
3 8239 5325 10076 
3 2784 5544 3274 
3 3273 2778 1820 
3 3274 6494 5118 
3 5118 3273 1292 
3 2716 1708 2560 
3 2560 1920 2530 
3 3942 1708 929 
3 4286 8030 5588 
3 8207 3942 4352 
3 7292 929 2716 
3 929 126 4352 
3 126 1294 4785 
3 6317 7622 8187 
3 7889 5889 7943 
3 8512 8285 5926 
3 6200 5926 3582 
3 8187 7943 7283 
3 6026 8307 3707 
3 1955 1972 3063 
3 8285 3212 5926 
3 9553 7943 8187 
3 4192 7283 440 
3 7622 9553 8187 
3 6317 8187 4192 
3 8030 2716 5328 
3 5328 2560 5292 
3 8030 10282 5588 
3 4286 5588 2715 
3 7292 2716 8030 
3 9150 5328 7350 
3 4286 7292 8030 
3 10282 8030 9150 
3 3063 5648 3451 
3 1823 3451 4437 
3 3212 8285 3063 
3 1955 3063 3451 
3 3212 1972 1920 
3 3582 1920 1708 
3 4062 7161 6053 
3 7667 9224 10335 
3 1460 1094 6711 
3 10132 6711 9224 
3 5742 3232 3118 
3 7887 10299 9119 
3 5652 5742 3118 
3 2556 5298 2588 
3 3171 3309 1967 
3 7887 9119 5331 
3 8198 3171 3232 
3 3118 3232 1639 
3 6702 1459 1094 
3 6711 1094 3149 
3 1459 6702 1093 
3 3353 1093 440 
3 3707 9610 441 
3 3707 1459 3308 
3 441 1094 1459 
3 441 1459 3707 
3 9224 3149 7570 
3 8109 8434 5913 
3 3353 5889 3308 
3 3353 3308 1093 
3 3232 5742 8198 
3 3171 9282 3309 
3 7632 7667 9247 
3 5649 3004 5641 
3 9334 5742 5652 
3 7632 5652 5750 
3 9247 7667 10335 
3 7588 8109 5827 
3 7667 10132 9224 
3 10335 9224 7570 
3 6648 1638 826 
3 6423 4363 3796 
3 3309 3760 1942 
3 2776 5535 9672 
3 7717 8144 8057 
3 6434 4605 4363 
3 826 3836 6648 
3 6159 3833 9531 
3 10117 7669 10592 
3 10978 7545 9019 
3 6648 8144 3162 
3 9003 10592 10010 
3 10117 10592 9003 
3 9039 10257 10251 
3 8144 10117 5631 
3 8972 9003 10010 
3 8145 9003 8972 
3 9003 5631 10117 
3 3220 6993 25 
3 5631 3162 8144 
3 826 1638 6386 
3 5245 6386 4134 
3 4134 5963 3102 
3 4134 3102 1754 
3 1192 3220 25 
3 3162 1851 1638 
3 1942 3102 2776 
3 1967 6989 1907 
3 5631 9003 8145 
3 10213 6170 9156 
3 2973 5631 8145 
3 6647 7557 3220 
3 1753 2973 6647 
3 1192 25 2573 
3 9039 8967 7985 
3 8972 7557 8145 
3 8972 10251 7557 
3 8145 6647 2973 
3 8145 7557 6647 
3 2973 1753 1851 
3 2825 1851 1753 
3 2659 2573 5350 
3 5963 8258 7671 
3 5535 2776 3102 
3 7671 9023 5535 
3 2776 6989 1967 
3 9514 8258 5550 
3 1851 3154 1638 
3 9023 9672 5535 
3 5963 5535 3102 
3 3016 3118 827 
3 2626 1907 6989 
3 5652 3118 3016 
3 5750 3016 3404 
3 5750 3404 6053 
3 5750 6053 7667 
3 6539 4416 9742 
3 9742 6702 4872 
3 8604 442 4225 
3 7161 4225 10132 
3 4225 442 1460 
3 4225 1460 6711 
3 2776 9672 6989 
3 1907 2626 1639 
3 827 1639 2556 
3 5331 2626 7887 
3 3118 1639 827 
3 3016 827 33 
3 1639 2626 2556 
3 2588 9465 6917 
3 2588 6917 33 
3 3016 33 3404 
3 6053 3404 4062 
3 7161 4062 4888 
3 734 8631 4872 
3 6702 9742 4416 
3 5094 442 8604 
3 6956 4888 1945 
3 1460 442 4872 
3 9742 4872 8631 
3 827 2556 2588 
3 827 2588 33 
3 1761 4062 1201 
3 6917 1201 33 
3 4062 1761 4888 
3 7161 4888 8604 
3 7671 8258 9514 
3 7671 9514 10468 
3 9023 10412 10299 
3 9672 10299 7887 
3 7454 9514 5550 
3 5426 2825 2659 
3 6989 9672 7887 
3 6989 7887 2626 
3 7557 10251 10257 
3 6993 9156 3533 
3 3154 1851 2825 
3 5550 2825 5426 
3 10257 6993 3220 
3 6647 1192 1753 
3 6647 3220 1192 
3 1753 2659 2825 
3 1753 1192 2659 
3 5426 2659 5350 
3 6086 8412 6095 
3 4978 8412 4175 
3 6170 3533 9156 
3 6170 10213 6059 
3 5242 9614 503 
3 1124 503 4768 
3 503 1124 5251 
3 8412 4978 7309 
3 3625 1607 4171 
3 4175 5251 1124 
3 5251 4175 4171 
3 4766 11711 6048 
3 505 1121 4994 
3 505 4994 766 
3 3280 6059 5870 
3 9039 10213 9156 
3 6059 10213 5870 
3 3280 3321 1487 
3 5870 10213 9039 
3 5870 7985 3321 
3 500 4766 1487 
3 3280 1487 1121 
3 7256 3321 7985 
3 5870 3321 3280 
3 4175 8412 4171 
3 4766 1120 11711 
3 1121 1487 3354 
3 4994 6095 7309 
3 4171 1607 1489 
3 5251 1489 503 
3 1489 5251 4171 
3 3625 4171 6086 
3 8100 6086 6048 
3 3354 6095 4994 
3 5630 9979 8887 
3 9972 8886 7489 
3 3654 10712 5630 
3 8123 9972 9056 
3 9972 8887 11131 
3 10422 10437 11009 
3 6974 10712 3654 
3 224 1375 9614 
3 2757 7880 7099 
3 10490 11156 10992 
3 11363 11156 11358 
3 9922 8139 5513 
3 3027 4705 5741 
3 8894 7880 10731 
3 2757 8139 7880 
3 8894 10731 11358 
3 220 1006 4705 
3 5741 4705 7880 
3 4705 7099 7880 
3 5741 7880 8894 
3 11358 10731 9922 
3 10435 9922 10024 
3 5145 3654 601 
3 1489 5242 503 
3 8123 6493 3075 
3 5630 3075 3654 
3 3654 3075 224 
3 3654 224 601 
3 10422 10435 10024 
3 8886 10024 7790 
3 8123 8887 9972 
3 9056 9972 7489 
3 3075 5630 8123 
3 6493 8123 9056 
3 10541 5404 8088 
3 1811 4868 4733 
3 4864 6691 4868 
3 1005 4703 4805 
3 1811 1696 4868 
3 1005 6644 219 
3 8518 220 6691 
3 4868 4805 4733 
3 10501 10844 9938 
3 10696 8868 7482 
3 11472 11194 10853 
3 10411 9931 8868 
3 11194 10541 8961 
3 10853 10136 9931 
3 8961 10541 8088 
3 1271 103 6429 
3 6155 6312 10154 
3 3660 95 5603 
3 9271 3769 7844 
3 10979 7844 9369 
3 7469 7640 2835 
3 6788 3215 1795 
3 76 3778 878 
3 2835 1680 6787 
3 878 3778 3645 
3 878 1680 2835 
3 10154 6856 3801 
3 10154 9264 6155 
3 1877 3769 1693 
3 3504 8737 95 
3 1692 3103 897 
3 9025 5874 10979 
3 10844 11172 9938 
3 10501 9938 8890 
3 1263 6510 1807 
3 5874 9271 7844 
3 9025 7498 5574 
3 5874 3103 3935 
3 878 3645 1680 
3 1869 6788 1795 
3 3769 9271 10245 
3 1693 10245 898 
3 3645 6020 3477 
3 1680 1869 6787 
3 10154 3801 9264 
3 6155 7975 6020 
3 3801 1693 898 
3 3801 3660 9264 
3 10245 9271 6510 
3 10245 6510 898 
3 9271 5874 3935 
3 9271 3935 6510 
3 9574 9931 5495 
3 9727 7793 6429 
3 7730 9931 9574 
3 9727 10136 7793 
3 2870 5574 5480 
3 2634 5480 9279 
3 9938 11172 10696 
3 9938 10696 9279 
3 8961 8088 7793 
3 8961 7793 10136 
3 8088 2752 6535 
3 1271 4651 103 
3 2752 1811 6535 
3 7793 6535 6429 
3 4868 6691 4805 
3 4733 4703 4651 
3 6644 1005 3027 
3 4705 1371 220 
3 5495 10136 9727 
3 3165 6429 896 
3 6535 1811 1271 
3 6535 1271 6429 
3 9931 10136 5495 
3 2951 5495 3165 
3 5495 9727 3165 
3 2951 1550 1262 
3 2634 94 2870 
3 1692 1807 3935 
3 94 1261 7195 
3 93 4341 895 
3 3103 5574 2870 
3 897 2870 94 
3 2872 7730 6466 
3 2951 9574 5495 
3 898 95 3660 
3 9264 3660 7975 
3 2870 897 3103 
3 5574 3103 5874 
3 1680 3477 1869 
3 6787 1869 3618 
3 6155 9264 7975 
3 10982 7975 8991 
3 8169 6788 10598 
3 3477 6788 1869 
3 3215 6788 8169 
3 10982 10598 6020 
3 1807 3545 1263 
3 6510 1263 898 
3 1692 3718 1807 
3 3935 1807 6510 
3 3935 3103 1692 
3 3718 1692 3614 
3 7975 5603 8991 
3 10001 9545 8169 
3 3545 6010 3504 
3 1263 3504 95 
3 8169 5938 3215 
3 1795 3215 1244 
3 9545 5938 8169 
3 10001 8169 10598 
3 10001 8991 10588 
3 2435 3482 3503 
3 8737 9240 9070 
3 8737 9070 5603 
3 897 94 3642 
3 3614 6094 6101 
3 3642 94 7195 
3 3642 7195 8015 
3 1261 6949 1549 
3 1549 895 3859 
3 8454 4341 93 
3 1549 3859 3657 
3 2634 6949 1261 
3 7195 1261 3657 
3 7482 7730 2872 
3 7482 2872 6949 
3 9574 2951 6466 
3 2872 6466 895 
3 9214 4651 6994 
3 3593 6994 219 
3 9391 4248 3802 
3 896 1550 3165 
3 896 103 3802 
3 896 4248 1550 
3 8573 9731 9214 
3 4651 9214 103 
3 7563 10992 9879 
3 11156 8894 11358 
3 10838 10624 9879 
3 10838 11156 11363 
3 10624 8878 7936 
3 5560 8883 10700 
3 9979 7989 10700 
3 5560 7989 3561 
3 8883 10880 10700 
3 5560 10700 7989 
3 7989 10712 6974 
3 1010 5145 225 
3 9879 10992 11156 
3 9879 11156 10838 
3 10437 10880 8883 
3 7973 2848 5492 
3 4733 4805 4703 
3 6994 4703 219 
3 7892 6644 9743 
3 7892 10490 10992 
3 9743 6644 3027 
3 1371 1005 4805 
3 1005 1371 3027 
3 9743 3027 5741 
3 9981 10418 10437 
3 10422 11009 10435 
3 5630 10712 9979 
3 8887 9979 10880 
3 5741 8894 10490 
3 9743 10490 7892 
3 10418 10838 11363 
3 11009 11363 10435 
3 11131 10880 10437 
3 11009 10437 10418 
3 6974 3654 5145 
3 6974 5145 3787 
3 3625 6086 8100 
3 3625 6533 1123 
3 224 5242 601 
3 5145 601 225 
3 6095 3354 6048 
3 8100 6048 11711 
3 500 1120 4766 
3 3354 4766 6048 
3 10010 9012 8967 
3 9039 7985 5870 
3 6739 1120 3019 
3 3321 500 1487 
3 1120 500 3019 
3 3019 7567 6739 
3 9039 10251 8967 
3 7985 7467 7256 
3 500 7256 3019 
3 3019 7467 7567 
3 3019 7256 7467 
3 9012 7467 8967 
3 7989 6974 3787 
3 7989 7221 3561 
3 6817 4920 6687 
3 8100 6533 3625 
3 502 6500 5090 
3 1123 5090 225 
3 4291 1488 4619 
3 6533 502 1123 
3 502 6533 1488 
3 7190 4388 11711 
3 1120 6739 1486 
3 7190 501 1122 
3 9331 6739 7567 
3 9012 7567 7467 
3 6533 4388 1488 
3 502 4291 6500 
3 4388 7190 1122 
3 8739 4748 4520 
3 3787 1376 7221 
3 3787 7221 7989 
3 5090 6500 4076 
3 7078 1011 226 
3 7190 1486 501 
3 1122 6687 4619 
3 1486 6739 3874 
3 501 3874 6817 
3 3867 6600 8028 
3 9494 3065 6659 
3 8028 9331 10158 
3 9019 10158 9012 
3 1488 1122 4619 
3 4291 6611 6500 
3 6600 9331 8028 
3 2934 2504 3065 
3 4920 4748 6687 
3 501 6687 1122 
3 3874 6600 6817 
3 501 6817 6687 
3 4076 6500 6426 
3 4330 4520 2495 
3 6426 6500 6611 
3 6426 4115 4464 
3 7221 1376 226 
3 7221 226 3561 
3 4076 6426 4386 
3 4076 4386 1376 
3 7035 6611 4291 
3 1488 4291 502 
3 5492 2848 2800 
3 1377 1011 4904 
3 2787 1377 7077 
3 227 2848 7077 
3 7077 2848 7973 
3 228 1004 6451 
3 3561 1011 2787 
3 7171 2483 2481 
3 7201 5182 218 
3 6452 218 1003 
3 7936 2800 8693 
3 7549 6451 2986 
3 7563 7549 2986 
3 7333 9432 7201 
3 7936 8693 6451 
3 7333 7201 1370 
3 7563 2986 6452 
3 9513 6452 3023 
3 5492 2800 7936 
3 10624 7936 7549 
3 8883 5560 7973 
3 2848 1012 2800 
3 5560 3561 2787 
3 5560 2787 7973 
3 8878 9981 5492 
3 8878 5492 7936 
3 9981 8883 7973 
3 9981 7973 5492 
3 6294 3593 4201 
3 3023 6644 7892 
3 1003 1369 3023 
3 1003 3023 6452 
3 9879 7549 7563 
3 9513 7563 6452 
3 8211 3897 4079 
3 3802 4248 896 
3 9214 6994 8573 
3 9731 8573 6294 
3 8773 4248 9391 
3 6241 9391 8026 
3 9214 9731 8026 
3 3802 8026 9391 
3 7062 4341 8454 
3 8454 4443 6891 
3 1550 4248 8773 
3 4231 2455 4450 
3 1262 4443 93 
3 6466 93 895 
3 4484 4443 1262 
3 2951 1262 6466 
3 3545 3718 6072 
3 10316 6101 6094 
3 3657 6257 8015 
3 6094 6088 10316 
3 8608 5938 9545 
3 8608 9545 7609 
3 6010 3545 6072 
3 6010 6072 8617 
3 9545 10588 7609 
3 5807 5595 3097 
3 10588 9070 7642 
3 5595 5786 3305 
3 9070 9240 7699 
3 7642 5786 5595 
3 3642 8015 6094 
3 3642 6094 3614 
3 6257 3657 3859 
3 6257 3859 8097 
3 9240 6010 10142 
3 3482 2433 3305 
3 10142 6010 8617 
3 10142 8617 6009 
3 3703 5938 8755 
3 9749 6492 8108 
3 8755 5938 8608 
3 5807 8608 7609 
3 7609 7642 5595 
3 7609 5595 5807 
3 7699 5983 5786 
3 7699 5786 7642 
3 3503 3482 5983 
3 10142 5983 7699 
3 6101 10316 9651 
3 6072 9651 8617 
3 4341 7062 8097 
3 4089 2447 3843 
3 4484 6522 6891 
3 4484 6891 4443 
3 8711 3843 6110 
3 8015 6110 6094 
3 4626 7062 8454 
3 4626 8454 4450 
3 4450 6891 4231 
3 3897 2461 2459 
3 6419 4201 1003 
3 1003 4201 1369 
3 8773 9391 8211 
3 4079 2459 2457 
3 9512 3697 5995 
3 9731 5995 8026 
3 4302 9512 8620 
3 6294 9512 9731 
3 3697 9512 4302 
3 6419 1003 218 
3 4302 8620 8678 
3 5182 6419 218 
3 2463 2461 3716 
3 5995 3716 6241 
3 6419 8678 8620 
3 3697 2463 3716 
3 6522 8211 4079 
3 4231 2457 2455 
3 8211 6241 3897 
3 4079 3897 2459 
3 6257 8097 8711 
3 6257 8711 6110 
3 6522 4079 4231 
3 6522 4231 6891 
3 6031 3544 6009 
3 10142 6009 5983 
3 9651 10316 6060 
3 3559 6060 3605 
3 4122 4631 6492 
3 8755 6492 9749 
3 3473 4122 6218 
3 5807 6218 8608 
3 2427 2425 4122 
3 6218 4122 6492 
3 2427 3473 2429 
3 3097 3473 5807 
3 4122 3473 2427 
3 3305 3097 5595 
3 2435 2433 3482 
3 5983 3482 5786 
3 2441 3605 2443 
3 3843 3635 6110 
3 2445 3635 3843 
3 4089 8097 4371 
3 2437 3503 3544 
3 2437 2435 3503 
3 6009 3503 5983 
3 2429 3473 3097 
3 2431 3097 3305 
3 2433 2431 3305 
3 3544 3559 2439 
3 2451 2449 4371 
3 2471 7201 2473 
3 2449 4089 4371 
3 3843 8711 4089 
3 2447 4089 2449 
3 3697 4302 2465 
3 2469 5182 2471 
3 2473 7201 9432 
3 4302 2467 2465 
3 4302 8678 2467 
3 8678 5182 2469 
3 1378 2800 1012 
3 2481 1012 7171 
3 5132 2485 2483 
3 4904 2485 5132 
3 228 6451 8693 
3 5132 2483 7171 
3 227 1012 2848 
3 2471 5182 7201 
3 9432 7333 1004 
3 2475 2473 9432 
3 2477 2475 228 
3 6451 1004 2986 
3 2475 1004 228 
3 2477 1378 2479 
3 6452 2986 1370 
3 6452 1370 218 
3 2986 1004 7333 
3 2986 7333 1370 
3 2481 2479 1012 
3 7171 1012 227 
3 5132 7171 227 
3 1377 227 7077 
3 2477 228 1378 
3 2479 1378 1012 
3 7299 2485 4904 
3 1377 5132 227 
3 7078 7299 4904 
3 1377 4904 5132 
3 4386 6426 8732 
3 4913 2487 7299 
3 6426 6611 4115 
3 4464 2491 2489 
3 4913 7078 8732 
3 4386 7078 226 
3 6426 4464 8732 
3 4386 8732 7078 
3 4115 6611 4330 
3 4520 7035 8739 
3 6687 4748 8739 
3 4619 8739 7035 
3 6611 7035 4330 
3 4115 2493 2491 
3 2499 4920 2501 
3 2503 4641 3867 
3 3867 8028 6659 
3 3867 2505 2503 
3 3867 6659 2505 
3 2505 6659 2506 
3 8732 4464 4913 
3 7299 2487 2485 
3 2495 4520 2497 
3 4913 2489 2487 
3 4913 4464 2489 
3 4464 4115 2491 
3 4115 4330 2493 
3 4920 4641 2501 
3 3348 6000 3796 
3 24 5245 1193 
3 2506 3065 2504 
3 2496 2498 3796 
3 8210 9531 4105 
3 5972 6159 8757 
3 2488 4105 3833 
3 2486 3580 2484 
3 4421 8210 4105 
3 2488 2490 4105 
3 3833 3580 2486 
3 3101 2480 3221 
3 2478 3004 2476 
3 3950 2470 2472 
3 3678 2474 3272 
3 2466 3685 3480 
3 2464 2466 3480 
3 2488 3833 2486 
3 2478 2480 3101 
3 3379 2482 2484 
3 5641 3004 3101 
3 2480 2482 3221 
3 7762 10292 7871 
3 3004 2478 3101 
3 5641 3101 5725 
3 3678 5913 3950 
3 2470 3948 2468 
3 6132 6233 3948 
3 3950 3948 2470 
3 9610 8307 8434 
3 3950 6132 3948 
3 6233 6026 6062 
3 3480 5906 3307 
3 3101 3221 5725 
3 5641 7707 7605 
3 3950 2472 3678 
3 5913 3678 5827 
3 4605 6434 8372 
3 2492 4421 2490 
3 3833 4105 9531 
3 3833 6159 3580 
3 4605 8372 4421 
3 2490 4421 4105 
3 5835 7762 7871 
3 3580 3379 2484 
3 9019 5583 9494 
3 6659 3065 2506 
3 5602 2934 5583 
3 5583 3065 9494 
3 2500 3073 3348 
3 2498 3348 3796 
3 2492 2494 4605 
3 6434 3836 24 
3 2494 4363 4605 
3 2492 4605 4421 
3 6659 8028 9494 
3 3065 5583 2934 
3 3073 2934 5602 
3 7545 5583 9019 
3 7545 7669 5602 
3 7545 5602 5583 
3 7717 6000 5758 
3 5602 5758 3073 
3 4325 4022 8210 
3 8372 8210 4421 
3 1754 3760 4022 
3 8210 6306 9531 
3 3836 6434 6423 
3 6000 6423 3796 
3 4363 6423 6434 
3 4325 1193 4022 
3 9494 10158 9019 
3 7545 10978 10592 
3 10117 8144 7717 
3 7669 7717 5758 
3 10010 10592 10978 
3 10010 10978 9012 
3 8144 6648 8057 
3 6000 8057 6423 
3 826 5245 24 
3 6434 4325 8372 
3 24 1193 4325 
3 8210 4022 6306 
3 826 24 3836 
3 8057 3836 6423 
3 6434 24 4325 
3 8372 4325 8210 
3 3760 3309 6052 
3 6306 6159 9531 
3 3221 5835 5725 
3 10292 5742 9334 
3 5972 7762 5835 
3 7707 9334 10290 
3 8757 6052 9282 
3 7762 9282 8198 
3 9334 7871 10292 
3 5742 10292 8198 
3 7570 3149 5910 
3 7570 5910 8109 
3 3707 3308 6026 
3 3140 2462 3307 
3 9247 10335 7588 
3 9247 7605 10290 
3 7588 7570 8109 
3 5827 8109 5913 
3 6233 8307 6026 
3 6062 6026 8556 
3 9247 7588 7605 
3 10290 7605 7707 
3 5910 9610 8434 
3 5913 8434 6132 
3 9282 7762 8757 
3 6052 6159 6306 
3 5725 7871 7707 
3 5725 7707 5641 
3 5972 3580 6159 
3 8757 6159 6052 
3 3221 3379 5835 
3 7762 5972 8757 
3 3379 5972 5835 
3 5725 5835 7871 
3 5641 7605 5649 
3 3272 5649 5827 
3 6132 8307 6233 
3 3685 6233 6062 
3 7889 5761 5906 
3 6062 5906 3480 
3 6074 3445 5856 
3 7659 9553 7622 
3 9608 4138 8207 
3 8207 9580 6200 
3 9580 8207 4138 
3 126 7292 4286 
3 4575 9608 7036 
3 4926 2440 2442 
3 1294 4820 4785 
3 4785 4769 7036 
3 7659 7889 9553 
3 7889 5906 8556 
3 3211 5701 5856 
3 5856 7776 8512 
3 6026 5889 8556 
3 6062 8556 5906 
3 5856 5701 7776 
3 8512 9492 8285 
3 7659 5761 7889 
3 9553 7889 7943 
3 5701 5761 7659 
3 7776 7659 9492 
3 7659 7622 9492 
3 7776 9492 8512 
3 929 7292 126 
3 1294 1822 4820 
3 7036 9608 4352 
3 7036 4352 126 
3 7036 126 4785 
3 7036 4769 4575 
3 4286 2715 1294 
3 4286 1294 126 
3 8455 1822 1884 
3 2614 1822 2715 
3 1822 2614 1884 
3 1822 8455 4820 
3 5544 6494 3274 
3 4926 6902 4883 
3 1707 3274 928 
3 1292 3273 1820 
3 125 5118 1292 
3 6199 8380 9460 
3 4329 1292 3752 
3 6347 3752 6840 
3 1501 3695 1135 
3 1501 1135 3486 
3 4199 1500 4981 
3 3695 4981 1135 
3 4329 9568 125 
3 5118 928 3274 
3 125 1292 4329 
3 9568 8380 4698 
3 2784 3274 1707 
3 2784 1707 1884 
3 5118 125 928 
3 1707 6977 4883 
3 6902 6488 8455 
3 4883 8455 1884 
3 4960 4926 6977 
3 928 6977 1707 
3 3752 6347 9460 
3 8380 4037 4698 
3 9460 6347 8397 
3 9460 8397 6199 
3 4981 1500 520 
3 4981 520 1135 
3 8397 9497 6199 
3 6199 4037 8380 
3 2428 4933 5110 
3 520 10301 4253 
3 2436 4698 2434 
3 2430 4933 2428 
3 520 1500 5110 
3 10301 5110 4933 
3 2440 4926 4960 
3 8498 125 9568 
3 2440 4960 2438 
3 2436 6766 4698 
3 6766 4960 8498 
3 6766 8498 9568 
3 4329 9460 8380 
3 4329 8380 9568 
3 4785 4812 4769 
3 4785 4820 4812 
3 4769 2448 2450 
3 2460 2462 3140 
3 5701 3140 5761 
3 9608 4575 4138 
3 9580 3762 6074 
3 2460 3140 3211 
3 3445 3211 5856 
3 2456 3445 3762 
3 2454 3762 4138 
3 4820 8455 6488 
3 4812 2448 4769 
3 8455 4883 6902 
3 6488 2444 2446 
3 4883 6977 4926 
3 6902 4926 2442 
3 2452 2454 4138 
3 2446 2448 4812 
3 4769 2450 4575 
3 2462 2464 3307 
3 2454 2456 3762 
3 2458 3211 3445 
3 2456 2458 3445 
3 4575 2450 2452 
3 4575 2452 4138 
3 4812 6488 2446 
3 2438 4960 6766 
3 2436 2438 6766 
3 6488 6902 2444 
3 4698 4037 2434 
3 9497 4933 4094 
3 4037 2432 2434 
3 1134 7233 5044 
3 5110 2426 2428 
3 4037 4094 2432 
3 2432 4094 2430 
3 5044 2424 2426 
3 5044 2426 5110 
3 2418 2420 4871 
3 4616 4871 7127 
3 6773 2412 2414 
3 4980 2414 2416 
3 8389 3862 9736 
3 2416 2418 4616 
3 3622 2406 3903 
3 1722 959 3665 
3 2424 7233 2422 
3 519 7135 8594 
3 2422 8594 2420 
3 1134 7046 519 
3 7233 519 2422 
3 4980 2416 4616 
3 4980 7194 6773 
3 5044 1500 1134 
3 7233 1134 519 
3 4980 4616 7194 
3 4782 157 1325 
3 9450 7965 4216 
3 2408 3903 2406 
3 2408 4216 3903 
3 2404 4831 2402 
3 2410 2412 4562 
3 4782 6773 7194 
3 6773 4782 4562 
3 6773 4562 2412 
3 8439 4831 10344 
3 6333 3622 6194 
3 2400 8439 6850 
3 5197 1113 2396 
3 5197 1479 1113 
3 4261 6311 4682 
3 4831 3622 6333 
3 3862 8389 3812 
3 4831 6333 10344 
3 8439 10344 483 
3 6850 1479 5197 
3 4682 6311 9424 
3 7204 1114 487 
3 4473 487 1484 
3 2394 482 1480 
3 1114 1480 3832 
3 2388 5158 4846 
3 2386 4846 3934 
3 1480 1114 7204 
3 2388 4846 2386 
3 2390 7204 5158 
3 4846 5158 4473 
3 2406 3622 2404 
3 8439 483 6850 
3 2402 4831 8439 
3 2402 8439 2400 
3 3622 4831 2404 
3 2398 2400 5197 
3 2400 6850 5197 
3 2398 5197 2396 
3 1480 7204 2392 
3 2390 5158 2388 
3 2380 4684 2378 
3 1417 4993 7065 
3 2386 3934 2384 
3 2376 5194 7065 
3 322 7065 5194 
3 2378 5194 2376 
3 321 4060 656 
3 2374 2376 7065 
3 2372 2374 4993 
3 8666 2368 6988 
3 3983 2356 3536 
3 2348 4724 2344 
3 2344 4884 2340 
3 2360 4056 3458 
3 4551 4724 2348 
3 2368 2370 6988 
3 1051 3924 321 
3 2364 2366 7018 
3 320 8666 656 
3 7018 2366 320 
3 8666 2366 2368 
3 2360 2362 4056 
3 3458 6184 5879 
3 3458 5879 3536 
3 2358 3536 2356 
3 6701 3983 8425 
3 8425 3536 5879 
3 8741 3173 10223 
3 4724 4884 2344 
3 4551 3983 6701 
3 9578 10146 5875 
3 2352 3983 4551 
3 1038 302 4018 
3 2362 2364 4811 
3 4056 6560 6184 
3 3458 4056 6184 
3 7791 9741 10146 
3 8666 6988 656 
3 5208 656 4060 
3 2366 8666 320 
3 330 7238 3834 
3 2372 4993 5095 
3 6988 5095 656 
3 4811 2364 7018 
3 8275 3834 6560 
3 3934 5968 3267 
3 3934 3267 2384 
3 6376 6654 4684 
3 3676 4684 2380 
3 6376 3552 6654 
3 4684 6654 5194 
3 1052 1417 322 
3 6654 322 5194 
3 1052 6578 1417 
3 322 1417 7065 
3 3267 5968 5861 
3 3267 5861 3676 
3 8647 3552 6376 
3 5861 6376 3676 
3 10178 7643 9194 
3 5861 8647 6376 
3 1418 4735 1052 
3 6654 1052 322 
3 1052 4735 6578 
3 1417 6578 1051 
3 320 5208 1416 
3 7018 8275 4811 
3 4993 1417 1051 
3 321 3924 7276 
3 5095 1051 321 
3 5095 321 656 
3 4056 4811 6560 
3 6184 9235 7715 
3 4724 4551 7191 
3 1404 2852 1038 
3 4551 6701 7191 
3 4724 4875 4884 
3 302 650 4875 
3 7191 4875 4724 
3 7191 6701 4018 
3 3230 5875 3317 
3 3173 650 7185 
3 7185 650 302 
3 7018 1416 8275 
3 4811 8275 6560 
3 5879 6184 7715 
3 5879 9578 8425 
3 5879 7715 9578 
3 5875 10146 8170 
3 6693 3976 1050 
3 1416 1050 8275 
3 3834 7238 9235 
3 6560 9235 6184 
3 6701 6150 4018 
3 7191 302 4875 
3 2852 4268 1038 
3 4018 302 7191 
3 8170 3317 5875 
3 6150 3230 4018 
3 3173 7185 7952 
3 5591 7185 4268 
3 9741 8170 10146 
3 9235 10146 7715 
3 6150 9578 5875 
3 6150 5875 3230 
3 4060 7514 9169 
3 9169 7514 10135 
3 6693 4060 9169 
3 10721 10135 7490 
3 321 7276 4060 
3 5208 4060 6693 
3 1416 5208 6693 
3 3976 6693 9169 
3 7868 5968 7060 
3 5968 9194 5861 
3 9337 7505 3924 
3 6578 3924 1051 
3 7799 10178 3181 
3 9194 7643 8647 
3 9186 10199 9022 
3 7643 5781 8647 
3 1052 3552 1418 
3 4735 1418 6831 
3 6697 3181 7868 
3 7868 10178 9194 
3 9186 10178 7799 
3 3181 6697 1118 
3 3862 3812 1115 
3 4331 1481 5073 
3 4647 6389 8645 
3 3824 6311 5073 
3 10274 6420 3966 
3 1889 2855 1722 
3 3862 1115 483 
3 4261 4682 1113 
3 4522 8394 6389 
3 8645 6389 9424 
3 3181 10178 7868 
3 1118 6697 1484 
3 1484 487 5065 
3 6389 3832 9424 
3 4473 1484 6697 
3 4473 6697 7060 
3 5065 1114 3832 
3 5065 3832 6389 
3 7868 9194 5968 
3 7060 5968 3934 
3 1479 6850 483 
3 483 1115 4261 
3 482 1113 4682 
3 482 4682 1480 
3 6194 3903 7965 
3 6180 9736 6194 
3 1481 4331 1115 
3 1481 1115 3812 
3 1115 4331 4261 
3 1479 4261 1113 
3 8389 9736 6180 
3 4444 4782 1325 
3 6180 6194 6129 
3 3534 3784 1889 
3 4562 4782 9450 
3 4562 9450 4216 
3 9736 6333 6194 
3 6129 6194 7965 
3 1134 1500 4199 
3 4198 6344 4854 
3 4616 7127 4423 
3 7194 4423 157 
3 3873 1132 4842 
3 4423 7015 960 
3 4423 960 157 
3 7194 157 4782 
3 7965 9450 3784 
3 1837 4444 1325 
3 518 5203 7015 
3 4842 7015 4423 
3 4444 1837 3784 
3 4444 3784 9450 
3 7965 3784 3534 
3 6129 3665 6180 
3 6420 8389 3966 
3 959 1722 3007 
3 157 960 5261 
3 1325 4337 1837 
3 6129 3534 3665 
3 4492 9438 10274 
3 4198 4199 6344 
3 9498 6344 6364 
3 1132 4198 4854 
3 1499 4854 3926 
3 4854 1499 518 
3 1132 518 4842 
3 1925 1723 5203 
3 1499 5203 518 
3 3258 4338 1723 
3 5203 1723 7015 
3 523 1133 5142 
3 9498 3926 4854 
3 960 1723 4338 
3 4337 6126 3088 
3 9021 6126 8618 
3 8618 6126 4338 
3 8340 5496 2855 
3 3088 1889 1837 
3 4338 6126 4337 
3 5261 4337 1325 
3 3088 2855 1889 
3 1837 1889 3784 
3 6180 3665 3966 
3 6180 3966 8389 
3 1481 484 5073 
3 6311 3824 8645 
3 4647 8645 3824 
3 1482 3824 1116 
3 9186 7799 10199 
3 486 3181 1118 
3 3653 3111 1116 
3 484 1116 5073 
3 1117 4522 4647 
3 485 4647 1482 
3 2855 3007 1722 
3 1889 1722 3534 
3 3966 3665 959 
3 3966 156 10274 
3 3812 6420 4528 
3 3812 4528 1481 
3 4492 6390 9438 
3 10274 9438 6420 
3 9562 6668 4632 
3 485 1117 4647 
3 3891 486 1483 
3 1117 1483 4522 
3 10199 5793 9376 
3 486 5793 3181 
3 8480 8677 3653 
3 1116 3111 1482 
3 9376 5793 3891 
3 6668 3891 1483 
3 6390 8677 8480 
3 9438 8480 4528 
3 5880 3111 3653 
3 8480 3653 484 
3 156 959 5009 
3 5488 7455 5464 
3 6147 6390 4052 
3 1323 4492 156 
3 10297 5496 8340 
3 6126 8340 3088 
3 3966 959 156 
3 10274 156 4492 
3 6364 5087 8691 
3 6364 8691 9498 
3 2812 1925 1960 
3 1960 1925 1499 
3 3926 8691 5142 
3 773 522 7097 
3 1133 1838 1960 
3 1925 2812 3258 
3 5590 3258 2812 
3 1925 3258 1723 
3 8618 3258 5590 
3 5473 2764 9421 
3 9021 8618 5590 
3 10169 8899 10475 
3 10297 8340 9021 
3 10613 9021 10169 
3 6167 7619 9699 
3 10613 10297 9021 
3 2812 1960 2813 
3 2812 8355 5590 
3 3006 6167 5488 
3 7619 10613 9936 
3 523 5142 773 
3 5169 4761 158 
3 1133 523 1838 
3 1960 1838 2813 
3 523 773 5169 
3 523 5169 1326 
3 1838 523 1326 
3 6918 1326 158 
3 1326 6918 2764 
3 1326 2764 1838 
3 2812 2813 8355 
3 10487 5473 9421 
3 10961 10475 8899 
3 10487 8899 5473 
3 5488 6167 9699 
3 7455 9699 9936 
3 10169 5590 8355 
3 8899 8355 5473 
3 9021 5590 10169 
3 10613 10169 10475 
3 9936 9699 7619 
3 10297 7619 5496 
3 4052 1323 1835 
3 1720 1835 2758 
3 3111 5880 6044 
3 7894 9620 5951 
3 5009 6167 3006 
3 2758 5488 5464 
3 1835 1720 3295 
3 6147 3295 5808 
3 5880 7894 6044 
3 6044 9695 4114 
3 5951 3318 8461 
3 6044 4114 3111 
3 8476 7291 6365 
3 8461 6044 7894 
3 7291 9695 6365 
3 172 6365 3318 
3 1339 4245 6402 
3 1339 6402 172 
3 3891 6668 7996 
3 6402 9562 8476 
3 6402 4245 7996 
3 9562 7996 6668 
3 156 5009 1323 
3 1835 3006 2758 
3 8461 9695 6044 
3 7894 5880 9663 
3 4052 4492 1323 
3 1835 1323 3006 
3 6390 4492 4052 
3 6147 4052 3295 
3 8677 9663 5880 
3 8677 5880 3653 
3 485 7291 4632 
3 1117 4632 6668 
3 5871 7958 6268 
3 7996 9376 3891 
3 5832 3377 3245 
3 9300 9022 7958 
3 1053 3130 1419 
3 5639 9022 9300 
3 3000 1053 6683 
3 7318 657 3129 
3 6683 10246 9217 
3 9949 10661 10703 
3 3130 3235 1419 
3 3130 1053 3377 
3 9918 10703 10951 
3 9920 10951 10732 
3 5871 9300 7958 
3 5871 6268 3563 
3 3235 3130 5639 
3 3235 7854 6552 
3 4245 3563 6268 
3 7996 6268 9376 
3 4637 657 324 
3 1419 4988 6683 
3 6223 6552 7854 
3 9508 7854 5871 
3 1419 3235 324 
3 4988 324 657 
3 10246 4988 7318 
3 10246 7318 7635 
3 3129 5877 7635 
3 10246 7635 10661 
3 10661 7635 8936 
3 10951 8936 10732 
3 9423 9918 10642 
3 10164 9920 5837 
3 9423 10642 10164 
3 9665 5837 5059 
3 4000 329 3915 
3 6138 3915 4373 
3 9703 4000 8194 
3 8768 6138 6225 
3 7944 10164 9665 
3 7944 9665 661 
3 6229 8194 8768 
3 3865 3918 304 
3 7562 8613 9180 
3 3096 3866 652 
3 7025 3866 8613 
3 9180 10259 9151 
3 6229 8768 3865 
3 1404 3230 3317 
3 3866 5599 8613 
3 10240 9180 7590 
3 4741 651 7025 
3 8613 5599 9180 
3 4741 7025 5702 
3 7562 9180 10240 
3 661 3915 329 
3 7944 3138 9423 
3 304 7025 651 
3 3865 3884 6229 
3 7490 3138 6990 
3 7944 9423 10164 
3 3915 8194 4000 
3 330 1050 3976 
3 8087 6297 9703 
3 6229 9703 8194 
3 3865 651 3884 
3 6229 8087 9703 
3 5702 8613 7562 
3 5591 7562 10331 
3 3884 651 303 
3 2852 5702 5591 
3 7025 8613 5702 
3 2852 5591 4268 
3 651 4741 303 
3 7142 3317 8170 
3 7562 10240 10331 
3 5591 7952 7185 
3 329 4000 662 
3 7490 9918 9423 
3 3884 303 7142 
3 3884 8087 6229 
3 329 662 3138 
3 329 3138 7944 
3 9741 6297 8087 
3 7142 8087 3884 
3 10639 9949 10703 
3 9918 10951 10642 
3 10135 10703 9918 
3 10135 9918 7490 
3 7958 9022 10199 
3 7958 10199 9376 
3 3000 323 1053 
3 6683 1053 1419 
3 5832 9186 5684 
3 3130 5684 5639 
3 1053 323 3377 
3 3130 3377 5684 
3 1418 323 6831 
3 7515 3000 9217 
3 7515 9217 9949 
3 8943 10135 7514 
3 9169 10135 10721 
3 3138 7490 9423 
3 7515 9949 10639 
3 7515 9337 6831 
3 10703 10135 8943 
3 10639 8943 7505 
3 7643 10178 9186 
3 10199 7799 5793 
3 5832 7643 9186 
3 5684 9186 9022 
3 5781 7643 5832 
3 5781 5832 3245 
3 3552 5781 3245 
3 1418 3245 323 
3 323 3000 6831 
3 4735 6831 9337 
3 7515 10639 9337 
3 4735 9337 6578 
3 9337 10639 7505 
3 3924 7505 7276 
3 3976 9169 10721 
3 6990 3138 662 
3 4024 7238 330 
3 662 330 6990 
3 3976 10721 6990 
3 3976 6990 330 
3 330 662 4024 
3 7238 4024 7791 
3 7142 8170 9741 
3 6297 7791 4024 
3 4741 5702 2852 
3 4741 1404 303 
3 6297 9741 7791 
3 7238 7791 9235 
3 4018 3230 1038 
3 2852 1404 4741 
3 4268 302 1038 
3 1404 1038 3230 
3 8741 10223 6439 
3 7627 10223 9183 
3 299 4972 1036 
3 4946 6439 5724 
3 9183 10223 7952 
3 10331 7952 5591 
3 299 1036 7054 
3 3632 7021 1037 
3 8060 4179 4263 
3 1143 6649 1509 
3 1506 5012 3960 
3 4179 4075 1507 
3 3981 7308 1508 
3 1142 4263 4179 
3 5043 537 783 
3 6549 4491 8099 
3 1880 3365 3717 
3 10341 5809 7928 
3 10285 6670 3587 
3 117 5060 1285 
3 10285 3587 9230 
3 9304 3484 7878 
3 117 1285 3484 
3 7027 3484 9304 
3 3484 1285 3286 
3 6270 3301 8349 
3 9401 3286 5896 
3 9401 5896 7935 
3 3717 5809 9668 
3 8099 9668 9515 
3 9354 3365 6670 
3 3587 6670 920 
3 3587 920 117 
3 7027 117 3484 
3 2623 1880 1816 
3 6672 8099 9671 
3 3995 8279 9583 
3 5896 9583 8349 
3 919 8084 8279 
3 9583 6270 8349 
3 6270 8084 180 
3 3301 1347 3179 
3 3365 1880 1701 
3 920 1701 6671 
3 2756 1700 1815 
3 3286 3995 5896 
3 8099 4491 9671 
3 8099 6672 9668 
3 1816 6672 1286 
3 6673 1286 4262 
3 9641 1506 1140 
3 8060 11722 4179 
3 536 782 5012 
3 782 8485 4491 
3 4796 6957 8723 
3 7308 540 1508 
3 5130 3960 8060 
3 4389 8060 4263 
3 9110 7723 9644 
3 5724 8531 3250 
3 8723 299 1403 
3 8531 7054 3250 
3 10240 9110 9183 
3 10331 9183 7952 
3 9183 9110 9644 
3 7627 9644 5724 
3 3632 1037 1403 
3 299 8723 540 
3 7054 8531 3632 
3 1403 4796 8723 
3 7054 3632 1403 
3 7054 1403 299 
3 4796 6649 6957 
3 8723 6957 540 
3 540 6957 1143 
3 4389 1143 1509 
3 1506 3960 1140 
3 541 5130 1509 
3 3960 5130 1140 
3 4077 6793 7800 
3 9558 7021 7723 
3 9644 7723 8531 
3 6417 4796 3744 
3 1037 4796 1403 
3 5671 5584 7590 
3 9151 7590 9180 
3 3046 7021 9558 
3 5584 9558 9110 
3 308 7021 3046 
3 1406 3046 2937 
3 1037 7021 308 
3 1037 308 3744 
3 3566 7720 6793 
3 541 4077 1140 
3 9641 1140 4077 
3 9641 4077 6490 
3 2984 5848 3744 
3 1037 3744 4796 
3 3566 6649 6417 
3 9696 6417 5848 
3 6417 7720 3566 
3 6649 3566 1509 
3 3717 6672 1816 
3 4262 118 7288 
3 1816 6673 2623 
3 1880 2743 1701 
3 6676 8315 9667 
3 6676 4803 8485 
3 9667 921 118 
3 9667 118 6676 
3 8160 8804 5374 
3 2623 2743 1880 
3 8159 8918 7839 
3 2756 6619 1700 
3 5060 6671 7839 
3 6482 9216 2756 
3 7839 9216 6482 
3 6482 2756 1815 
3 116 8084 919 
3 116 919 4566 
3 2623 5374 2743 
3 1701 2743 6671 
3 5060 7839 6482 
3 1815 1700 3995 
3 1506 8315 536 
3 8485 4803 9671 
3 1880 3717 1816 
3 6673 1816 1286 
3 8315 6676 536 
3 1506 536 5012 
3 118 1286 4803 
3 118 4803 6676 
3 920 6671 5060 
3 1285 5060 6482 
3 1285 6482 1815 
3 1285 1815 3286 
3 1700 919 8279 
3 9583 8279 6270 
3 8084 1349 983 
3 4898 3634 1347 
3 4898 983 3011 
3 181 8334 984 
3 10260 6025 9130 
3 6104 6025 3011 
3 9045 10122 9095 
3 586 188 5006 
3 9343 7615 10090 
3 9121 8284 5787 
3 5688 7802 9045 
3 7957 6399 8662 
3 7826 9130 6104 
3 3174 4983 984 
3 5686 7615 9343 
3 10276 7812 9130 
3 8084 5253 1349 
3 983 1349 3011 
3 6104 3011 4983 
3 6104 4983 3174 
3 1283 8334 181 
3 5253 181 1349 
3 7826 6104 3174 
3 7826 3174 3180 
3 9343 10276 5686 
3 5957 5686 3068 
3 3342 9211 7802 
3 5688 9045 10649 
3 8293 5688 10649 
3 8293 10649 7615 
3 7802 10122 9045 
3 10649 9045 10090 
3 9211 5139 9506 
3 7802 9506 10122 
3 9506 5139 4781 
3 585 771 516 
3 517 5117 3564 
3 3115 5693 7977 
3 185 3758 584 
3 5139 584 4781 
3 6985 3564 5117 
3 584 186 4781 
3 3564 5693 3115 
3 8377 7681 5987 
3 2028 2016 3457 
3 3115 7977 7159 
3 1992 4773 4323 
3 8377 5987 6486 
3 2004 3917 2016 
3 7159 8377 4159 
3 513 767 4614 
3 6486 3917 4323 
3 517 3564 768 
3 7159 7977 8377 
3 768 3115 512 
3 512 4159 767 
3 771 585 186 
3 5117 186 584 
3 6438 771 517 
3 768 3564 3115 
3 6438 517 768 
3 4906 768 512 
3 8377 6486 4159 
3 513 8756 4764 
3 3917 2004 4323 
3 6486 8651 4159 
3 6486 4323 8651 
3 4773 4945 7160 
3 4323 2004 1992 
3 4323 4773 8651 
3 4159 8651 4614 
3 4159 512 7159 
3 1992 1976 4773 
3 8651 4773 4614 
3 6803 516 770 
3 4627 6438 8566 
3 4159 4614 767 
3 4906 5146 8566 
3 770 516 8743 
3 517 771 186 
3 3115 7159 512 
3 4906 512 767 
3 10090 9095 9121 
3 9343 7812 10276 
3 9095 10122 7957 
3 9095 6115 8284 
3 10260 3634 6025 
3 9130 6025 6104 
3 5787 7812 9121 
3 9121 7812 9343 
3 3011 6025 4898 
3 1347 3634 981 
3 3222 5748 5787 
3 7812 5748 9130 
3 3067 5748 3222 
3 8284 9121 9095 
3 3123 5787 8284 
3 587 6940 6703 
3 6399 4781 585 
3 6399 585 8662 
3 9095 7957 6115 
3 8284 7305 3123 
3 5006 6115 3146 
3 187 3146 8662 
3 10260 6728 3634 
3 6025 3634 4898 
3 5748 3067 10260 
3 5748 10260 9130 
3 180 4898 1347 
3 180 1347 3301 
3 981 3634 5206 
3 1581 6728 3067 
3 1581 3067 982 
3 189 3222 3123 
3 3222 5787 3123 
3 7329 3123 587 
3 8284 6115 7305 
3 586 187 4555 
3 8743 4627 770 
3 770 3974 6803 
3 8743 6438 4627 
3 1131 4740 1497 
3 5006 3146 586 
3 6803 187 516 
3 771 6438 8743 
3 771 8743 516 
3 6438 4906 8566 
3 4627 8566 4361 
3 4665 8756 4945 
3 4773 7160 4614 
3 4906 767 5146 
3 6866 769 2519 
3 4614 7160 513 
3 767 513 5146 
3 4773 1976 4945 
3 7160 4945 8756 
3 770 4627 515 
3 3974 9744 6803 
3 513 4764 769 
3 5146 6866 4361 
3 8547 4555 9744 
3 187 586 3146 
3 187 6803 4555 
3 4658 8547 8483 
3 7305 5006 188 
3 8483 188 4658 
3 3974 6413 9744 
3 6803 9744 4555 
3 4778 7023 3974 
3 515 3974 770 
3 5146 769 6866 
3 4361 6866 1131 
3 4778 1497 4740 
3 6722 1131 514 
3 1893 1616 4665 
3 8756 8357 4764 
3 8357 4919 6395 
3 4764 6395 769 
3 4577 4919 8357 
3 4665 8357 8756 
3 4731 8483 8547 
3 4205 8547 6413 
3 3974 7023 6413 
3 9744 6413 8547 
3 4555 8547 4658 
3 586 4658 188 
3 3974 515 4778 
3 7225 1996 2008 
3 4778 515 1497 
3 1131 1497 4361 
3 3913 8135 4652 
3 6955 1348 8499 
3 2086 2096 4716 
3 4677 4459 982 
3 4881 6955 8499 
3 4459 8499 1581 
3 4966 6940 8483 
3 8483 6940 188 
3 8281 9496 6087 
3 3361 6087 3913 
3 179 6955 7001 
3 179 4073 981 
3 7878 7935 5941 
3 3330 5792 3361 
3 8135 9496 4073 
3 7001 4073 179 
3 8349 5789 9685 
3 5792 8281 6087 
3 6728 1581 1348 
3 6728 1348 5206 
3 4459 1581 982 
3 4677 189 7329 
3 6703 7329 587 
3 6940 587 188 
3 3123 7329 189 
3 3222 189 982 
3 587 3123 7305 
3 587 7305 188 
3 5896 8349 9685 
3 5896 9685 7935 
3 5789 3301 3179 
3 5789 3179 9496 
3 1348 179 5206 
3 6728 5206 3634 
3 9515 10341 7846 
3 3742 3761 2186 
3 7928 7755 5849 
3 9230 3587 7027 
3 7928 5849 5759 
3 6054 9230 9304 
3 6054 9304 6073 
3 5941 7935 5792 
3 6925 8327 4208 
3 9576 4208 6549 
3 6307 9576 7846 
3 7928 7846 10341 
3 4208 537 6549 
3 9576 9515 7846 
3 9576 6549 9515 
3 10341 9515 9668 
3 3981 1508 1142 
3 4223 6941 8596 
3 11722 5043 8630 
3 4075 1141 1507 
3 301 3173 8741 
3 10223 3173 7952 
3 10223 7627 6439 
3 4946 3250 1402 
3 650 3173 301 
3 649 8741 6439 
3 649 6439 4946 
3 649 7220 7212 
3 4179 1507 539 
3 1142 4223 3981 
3 11722 8630 4075 
3 11722 4075 4179 
3 4208 8327 783 
3 4208 783 537 
3 1142 539 4223 
3 3981 4223 6371 
3 538 1141 5200 
3 783 5200 8630 
3 6915 650 301 
3 8353 301 649 
3 4972 3981 6371 
3 8595 4069 4582 
3 4582 4999 4440 
3 1402 300 4946 
3 7220 300 4440 
3 4582 4440 8595 
3 3539 6371 8595 
3 3539 8595 4440 
3 4910 4693 6941 
3 539 6941 4223 
3 1507 6435 8726 
3 1507 8726 539 
3 4839 8327 6925 
3 4189 6925 6307 
3 3249 5759 5849 
3 5759 6307 7846 
3 7846 7928 5759 
3 6307 3598 4189 
3 5922 5849 7755 
3 2236 3598 2226 
3 7928 9354 7755 
3 5922 6108 3553 
3 9230 6108 7858 
3 9230 7858 10285 
3 9230 6054 6108 
3 7858 5922 7755 
3 9304 7878 6073 
3 6054 3742 6108 
3 6073 7878 5941 
3 6073 5941 3551 
3 7858 6108 5922 
3 5849 5922 3392 
3 6054 6073 3761 
3 2176 3551 2166 
3 2206 3392 3553 
3 2196 3553 3742 
3 6054 3761 3742 
3 6108 3742 3553 
3 6716 538 7002 
3 2272 6435 6716 
3 5922 3553 3392 
3 2256 4839 2246 
3 2246 4189 2236 
3 5759 3598 6307 
3 5849 3392 3249 
3 5759 3249 3598 
3 649 300 7220 
3 7212 7220 4958 
3 783 8327 538 
3 1141 6716 6435 
3 4875 650 6915 
3 4884 5005 2340 
3 649 7212 8353 
3 301 8353 6915 
3 2336 2340 5005 
3 8353 5005 6915 
3 4582 4069 2304 
3 4910 8726 6435 
3 4069 2296 2304 
3 7002 8327 4839 
3 4910 2280 2288 
3 2296 4069 4693 
3 4910 2288 4693 
3 2196 3742 2186 
3 2280 4910 6435 
3 2272 2280 6435 
3 2328 2336 4989 
3 4958 4989 7212 
3 4999 2312 2320 
3 4958 2320 2328 
3 4958 2328 4989 
3 2288 2296 4693 
3 2264 6716 7002 
3 4839 2256 7002 
3 4189 2246 4839 
3 3598 2236 4189 
3 2256 2264 7002 
3 3249 2226 3598 
3 2206 3553 2196 
3 2186 3761 2176 
3 3249 2216 2226 
3 3249 3392 2216 
3 2216 3392 2206 
3 2146 3361 3913 
3 2126 2136 4652 
3 4716 4459 4677 
3 2056 4966 4731 
3 4818 4459 4716 
3 4696 4677 6703 
3 2156 3361 2146 
3 4881 4965 6955 
3 2116 2126 4965 
3 7001 8135 4073 
3 4652 7001 4965 
3 2116 4881 2106 
3 3761 6073 3551 
3 3761 3551 2176 
3 6087 9496 8135 
3 4652 8135 7001 
3 8499 4459 4818 
3 2086 4696 2076 
3 2086 4716 4696 
3 4810 6703 6940 
3 2116 4965 4881 
3 2106 4818 2096 
3 2106 4881 4818 
3 2096 4818 4716 
3 2076 4696 4810 
3 2076 4810 2066 
3 2066 4810 4966 
3 2066 4966 2056 
3 8547 4205 4731 
3 8483 4731 4966 
3 7023 4778 4737 
3 1131 6722 4740 
3 4778 4740 4737 
3 7067 6722 514 
3 2519 514 6866 
3 804 8712 6887 
3 4665 6887 8357 
3 6395 4919 8576 
3 6395 8576 2519 
3 1926 4919 1729 
3 8712 4577 6887 
3 1616 804 6887 
3 8576 4919 7067 
3 1982 1996 6722 
3 7023 4737 4340 
3 7023 4340 6413 
3 4740 6722 7225 
3 4740 7225 4737 
3 4205 2032 2044 
3 4731 2044 2056 
3 4737 2008 2020 
3 4340 2020 2032 
3 6722 1996 7225 
3 7067 1926 1982 
3 7067 1982 6722 
3 4577 1168 1729 
3 4577 1729 4919 
3 1090 6489 1456 
3 1456 4742 1090 

CELL_TYPES 22890
 5
 5
 5
 5
 5
 5
 5
 5
 5
 5
 5
 5
 5
 5
 5
 5
 5
 5
 5
 5
 5
 5
 5
 5
 5
 5
 5
 5
 5
 5
 5
 5
 5
 5
 5
 5
 5
 5
 5
 5
 5
 5
 5
 5
 5
 5
 5
 5
 5
 5
 5
 5
 5
 5
 5
 5
 5
 5
 5
 5
 5
 5
 5
 5
 5
 5
 5
 5
 5
 5
 5
 5
 5
 5
 5
 5
 5
 5
 5
 5
 5
 5
 5
 5
 5
 5
 5
 5
 5
 5
 5
 5
 5
 5
 5
 5
 5
 5
 5
 5
 5
 5
 5
 5
 5
 5
 5
 5
 5
 5
 5
 5
 5
 5
 5
 5
 5
 5
 5
 5
 5
 5
 5
 5
 5
 5
 5
 5
 5
 5
 5
 5
 5
 5
 5
 5
 5
 5
 5
 5
 5
 5
 5
 5
 5
 5
 5
 5
 5
 5
 5
 5
 5
 5
 5
 5
 5
 5
 5
 5
 5
 5
 5
 5
 5
 5
 5
 5
 5
 5
 5
 5
 5
 5
 5
 5
 5
 5
 5
 5
 5
 5
 5
 5
 5
 5
 5
 5
 5
 5
 5
 5
 5
 5
 5
 5
 5
 5
 5
 5
 5
 5
 5
 5
 5
 5
 5
 5
 5
 5
 5
 5
 5
 5
 5
 5
 5
 5
 5
 5
 5
 5
 5
 5
 5
 5
 5
 5
 5
 5
 5
 5
 5
 5
 5
 5
 5
 5
 5
 5
 5
 5
 5
 5
 5
 5
 5
 5
 5
 5
 5
 5
 5
 5
 5
 5
 5
 5
 5
 5
 5
 5
 5
 5
 5
 5
 5
 5
 5
 5
 5
 5
 5
 5
 5
 5
 5
 5
 5
 5
 5
 5
 5
 5
 5
 5
 5
 5
 5
 5
 5
 5
 5
 5
 5
 5
 5
 5
 5
 5
 5
 5
 5
 5
 5
 5
 5
 5
 5
 5
 5
 5
 5
 5
 5
 5
 5
 5
 5
 5
 5
 5
 5
 5
 5
 5
 5
 5
 5
 5
 5
 5
 5
 5
 5
 5
 5
 5
 5
 5
 5
 5
 5
 5
 5
 5
 5
 5
 5
 5
 5
 5
 5
 5
 5
 5
 5
 5
 5
 5
 5
 5
 5
 5
 5
 5
 5
 5
 5
 5
 5
 5
 5
 5
 5
 5
 5
 5
 5
 5
 5
 5
 5
 5
 5
 5
 5
 5
 5
 5
 5
 5
 5
 5
 5
 5
 5
 5
 5
 5
 5
 5
 5
 5
 5
 5
 5
 5
 5
 5
 5
 5
 5
 5
 5
 5
 5
 5
 5
 5
 5
 5
 5
 5
 5
 5
 5
 5
 5
 5
 5
 5
 5
 5
 5
 5
 5
 5
 5
 5
 5
 5
 5
 5
 5
 5
 5
 5
 5
 5
 5
 5
 5
 5
 5
 5
 5
 5
 5
 5
 5
 5
 5
 5
 5
 5
 5
 5
 5
 5
 5
 5
 5
 5
 5
 5
 5
 5
 5
 5
 5
 5
 5
 5
 5
 5
 5
 5
 5
 5
 5
 5
 5
 5
 5
 5
 5
 5
 5
 5
 5
 5
 5
 5
 5
 5
 5
 5
 5
 5
 5
 5
 5
 5
 5
 5
 5
 5
 5
 5
 5
 5
 5
 5
 5
 5
 5
 5
 5
 5
 5
 5
 5
 5
 5
 5
 5
 5
 5
 5
 5
 5
 5
 5
 5
 5
 5
 5
 5
 5
 5
 5
 5
 5
 5
 5
 5
 5
 5
 5
 5
 5
 5
 5
 5
 5
 5
 5
 5
 5
 5
 5
 5
 5
 5
 5
 5
 5
 5
 5
 5
 5
 5
 5
 5
 5
 5
 5
 5
 5
 5
 5
 5
 5
 5
 5
 5
 5
 5
 5
 5
 5
 5
 5
 5
 5
 5
 5
 5
 5
 5
 5
 5
 5
 5
 5
 5
 5
 5
 5
 5
 5
 5
 5
 5
 5
 5
 5
 5
 5
 5
 5
 5
 5
 5
 5
 5
 5
 5
 5
 5
 5
 5
 5
 5
 5
 5
 5
 5
 5
 5
 5
 5
 5
 5
 5
 5
 5
 5
 5
 5
 5
 5
 5
 5
 5
 5
 5
 5
 5
 5
 5
 5
 5
 5
 5
 5
 5
 5
 5
 5
 5
 5
 5
 5
 5
 5
 5
 5
 5
 5
 5
 5
 5
 5
 5
 5
 5
 5
 5
 5
 5
 5
 5
 5
 5
 5
 5
 5
 5
 5
 5
 5
 5
 5
 5
 5
 5
 5
 5
 5
 5
 5
 5
 5
 5
 5
 5
 5
 5
 5
 5
 5
 5
 5
 5
 5
 5
 5
 5
 5
 5
 5
 5
 5
 5
 5
 5
 5
 5
 5
 5
 5
 5
 5
 5
 5
 5
 5
 5
 5
 5
 5
 5
 5
 5
 5
 5
 5
 5
 5
 5
 5
 5
 5
 5
 5
 5
 5
 5
 5
 5
 5
 5
 5
 5
 5
 5
 5
 5
 5
 5
 5
 5
 5
 5
 5
 5
 5
 5
 5
 5
 5
 5
 5
 5
 5
 5
 5
 5
 5
 5
 5
 5
 5
 5
 5
 5
 5
 5
 5
 5
 5
 5
 5
 5
 5
 5
 5
 5
 5
 5
 5
 5
 5
 5
 5
 5
 5
 5
 5
 5
 5
 5
 5
 5
 5
 5
 5
 5
 5
 5
 5
 5
 5
 5
 5
 5
 5
 5
 5
 5
 5
 5
 5
 5
 5
 5
 5
 5
 5
 5
 5
 5
 5
 5
 5
 5
 5
 5
 5
 5
 5
 5
 5
 5
 5
 5
 5
 5
 5
 5
 5
 5
 5
 5
 5
 5
 5
 5
 5
 5
 5
 5
 5
 5
 5
 5
 5
 5
 5
 5
 5
 5
 5
 5
 5
 5
 5
 5
 5
 5
 5
 5
 5
 5
 5
 5
 5
 5
 5
 5
 5
 5
 5
 5
 5
 5
 5
 5
 5
 5
 5
 5
 5
 5
 5
 5
 5
 5
 5
 5
 5
 5
 5
 5
 5
 5
 5
 5
 5
 5
 5
 5
 5
 5
 5
 5
 5
 5
 5
 5
 5
 5
 5
 5
 5
 5
 5
 5
 5
 5
 5
 5
 5
 5
 5
 5
 5
 5
 5
 5
 5
 5
 5
 5
 5
 5
 5
 5
 5
 5
 5
 5
 5
 5
 5
 5
 5
 5
 5
 5
 5
 5
 5
 5
 5
 5
 5
 5
 5
 5
 5
 5
 5
 5
 5
 5
 5
 5
 5
 5
 5
 5
 5
 5
 5
 5
 5
 5
 5
 5
 5
 5
 5
 5
 5
 5
 5
 5
 5
 5
 5
 5
 5
 5
 5
 5
 5
 5
 5
 5
 5
 5
 5
 5
 5
 5
 5
 5
 5
 5
 5
 5
 5
 5
 5
 5
 5
 5
 5
 5
 5
 5
 5
 5
 5
 5
 5
 5
 5
 5
 5
 5
 5
 5
 5
 5
 5
 5
 5
 5
 5
 5
 5
 5
 5
 5
 5
 5
 5
 5
 5
 5
 5
 5
 5
 5
 5
 5
 5
 5
 5
 5
 5
 5
 5
 5
 5
 5
 5
 5
 5
 5
 5
 5
 5
 5
 5
 5
 5
 5
 5
 5
 5
 5
 5
 5
 5
 5
 5
 5
 5
 5
 5
 5
 5
 5
 5
 5
 5
 5
 5
 5
 5
 5
 5
 5
 5
 5
 5
 5
 5
 5
 5
 5
 5
 5
 5
 5
 5
 5
 5
 5
 5
 5
 5
 5
 5
 5
 5
 5
 5
 5
 5
 5
 5
 5
 5
 5
 5
 5
 5
 5
 5
 5
 5
 5
 5
 5
 5
 5
 5
 5
 5
 5
 5
 5
 5
 5
 5
 5
 5
 5
 5
 5
 5
 5
 5
 5
 5
 5
 5
 5
 5
 5
 5
 5
 5
 5
 5
 5
 5
 5
 5
 5
 5
 5
 5
 5
 5
 5
 5
 5
 5
 5
 5
 5
 5
 5
 5
 5
 5
 5
 5
 5
 5
 5
 5
 5
 5
 5
 5
 5
 5
 5
 5
 5
 5
 5
 5
 5
 5
 5
 5
 5
 5
 5
 5
 5
 5
 5
 5
 5
 5
 5
 5
 5
 5
 5
 5
 5
 5
 5
 5
 5
 5
 5
 5
 5
 5
 5
 5
 5
 5
 5
 5
 5
 5
 5
 5
 5
 5
 5
 5
 5
 5
 5
 5
 5
 5
 5
 5
 5
 5
 5
 5
 5
 5
 5
 5
 5
 5
 5
 5
 5
 5
 5
 5
 5
 5
 5
 5
 5
 5
 5
 5
 5
 5
 5
 5
 5
 5
 5
 5
 5
 5
 5
 5
 5
 5
 5
 5
 5
 5
 5
 5
 5
 5
 5
 5
 5
 5
 5
 5
 5
 5
 5
 5
 5
 5
 5
 5
 5
 5
 5
 5
 5
 5
 5
 5
 5
 5
 5
 5
 5
 5
 5
 5
 5
 5
 5
 5
 5
 5
 5
 5
 5
 5
 5
 5
 5
 5
 5
 5
 5
 5
 5
 5
 5
 5
 5
 5
 5
 5
 5
 5
 5
 5
 5
 5
 5
 5
 5
 5
 5
 5
 5
 5
 5
 5
 5
 5
 5
 5
 5
 5
 5
 5
 5
 5
 5
 5
 5
 5
 5
 5
 5
 5
 5
 5
 5
 5
 5
 5
 5
 5
 5
 5
 5
 5
 5
 5
 5
 5
 5
 5
 5
 5
 5
 5
 5
 5
 5
 5
 5
 5
 5
 5
 5
 5
 5
 5
 5
 5
 5
 5
 5
 5
 5
 5
 5
 5
 5
 5
 5
 5
 5
 5
 5
 5
 5
 5
 5
 5
 5
 5
 5
 5
 5
 5
 5
 5
 5
 5
 5
 5
 5
 5
 5
 5
 5
 5
 5
 5
 5
 5
 5
 5
 5
 5
 5
 5
 5
 5
 5
 5
 5
 5
 5
 5
 5
 5
 5
 5
 5
 5
 5
 5
 5
 5
 5
 5
 5
 5
 5
 5
 5
 5
 5
 5
 5
 5
 5
 5
 5
 5
 5
 5
 5
 5
 5
 5
 5
 5
 5
 5
 5
 5
 5
 5
 5
 5
 5
 5
 5
 5
 5
 5
 5
 5
 5
 5
 5
 5
 5
 5
 5
 5
 5
 5
 5
 5
 5
 5
 5
 5
 5
 5
 5
 5
 5
 5
 5
 5
 5
 5
 5
 5
 5
 5
 5
 5
 5
 5
 5
 5
 5
 5
 5
 5
 5
 5
 5
 5
 5
 5
 5
 5
 5
 5
 5
 5
 5
 5
 5
 5
 5
 5
 5
 5
 5
 5
 5
 5
 5
 5
 5
 5
 5
 5
 5
 5
 5
 5
 5
 5
 5
 5
 5
 5
 5
 5
 5
 5
 5
 5
 5
 5
 5
 5
 5
 5
 5
 5
 5
 5
 5
 5
 5
 5
 5
 5
 5
 5
 5
 5
 5
 5
 5
 5
 5
 5
 5
 5
 5
 5
 5
 5
 5
 5
 5
 5
 5
 5
 5
 5
 5
 5
 5
 5
 5
 5
 5
 5
 5
 5
 5
 5
 5
 5
 5
 5
 5
 5
 5
 5
 5
 5
 5
 5
 5
 5
 5
 5
 5
 5
 5
 5
 5
 5
 5
 5
 5
 5
 5
 5
 5
 5
 5
 5
 5
 5
 5
 5
 5
 5
 5
 5
 5
 5
 5
 5
 5
 5
 5
 5
 5
 5
 5
 5
 5
 5
 5
 5
 5
 5
 5
 5
 5
 5
 5
 5
 5
 5
 5
 5
 5
 5
 5
 5
 5
 5
 5
 5
 5
 5
 5
 5
 5
 5
 5
 5
 5
 5
 5
 5
 5
 5
 5
 5
 5
 5
 5
 5
 5
 5
 5
 5
 5
 5
 5
 5
 5
 5
 5
 5
 5
 5
 5
 5
 5
 5
 5
 5
 5
 5
 5
 5
 5
 5
 5
 5
 5
 5
 5
 5
 5
 5
 5
 5
 5
 5
 5
 5
 5
 5
 5
 5
 5
 5
 5
 5
 5
 5
 5
 5
 5
 5
 5
 5
 5
 5
 5
 5
 5
 5
 5
 5
 5
 5
 5
 5
 5
 5
 5
 5
 5
 5
 5
 5
 5
 5
 5
 5
 5
 5
 5
 5
 5
 5
 5
 5
 5
 5
 5
 5
 5
 5
 5
 5
 5
 5
 5
 5
 5
 5
 5
 5
 5
 5
 5
 5
 5
 5
 5
 5
 5
 5
 5
 5
 5
 5
 5
 5
 5
 5
 5
 5
 5
 5
 5
 5
 5
 5
 5
 5
 5
 5
 5
 5
 5
 5
 5
 5
 5
 5
 5
 5
 5
 5
 5
 5
 5
 5
 5
 5
 5
 5
 5
 5
 5
 5
 5
 5
 5
 5
 5
 5
 5
 5
 5
 5
 5
 5
 5
 5
 5
 5
 5
 5
 5
 5
 5
 5
 5
 5
 5
 5
 5
 5
 5
 5
 5
 5
 5
 5
 5
 5
 5
 5
 5
 5
 5
 5
 5
 5
 5
 5
 5
 5
 5
 5
 5
 5
 5
 5
 5
 5
 5
 5
 5
 5
 5
 5
 5
 5
 5
 5
 5
 5
 5
 5
 5
 5
 5
 5
 5
 5
 5
 5
 5
 5
 5
 5
 5
 5
 5
 5
 5
 5
 5
 5
 5
 5
 5
 5
 5
 5
 5
 5
 5
 5
 5
 5
 5
 5
 5
 5
 5
 5
 5
 5
 5
 5
 5
 5
 5
 5
 5
 5
 5
 5
 5
 5
 5
 5
 5
 5
 5
 5
 5
 5
 5
 5
 5
 5
 5
 5
 5
 5
 5
 5
 5
 5
 5
 5
 5
 5
 5
 5
 5
 5
 5
 5
 5
 5
 5
 5
 5
 5
 5
 5
 5
 5
 5
 5
 5
 5
 5
 5
 5
 5
 5
 5
 5
 5
 5
 5
 5
 5
 5
 5
 5
 5
 5
 5
 5
 5
 5
 5
 5
 5
 5
 5
 5
 5
 5
 5
 5
 5
 5
 5
 5
 5
 5
 5
 5
 5
 5
 5
 5
 5
 5
 5
 5
 5
 5
 5
 5
 5
 5
 5
 5
 5
 5
 5
 5
 5
 5
 5
 5
 5
 5
 5
 5
 5
 5
 5
 5
 5
 5
 5
 5
 5
 5
 5
 5
 5
 5
 5
 5
 5
 5
 5
 5
 5
 5
 5
 5
 5
 5
 5
 5
 5
 5
 5
 5
 5
 5
 5
 5
 5
 5
 5
 5
 5
 5
 5
 5
 5
 5
 5
 5
 5
 5
 5
 5
 5
 5
 5
 5
 5
 5
 5
 5
 5
 5
 5
 5
 5
 5
 5
 5
 5
 5
 5
 5
 5
 5
 5
 5
 5
 5
 5
 5
 5
 5
 5
 5
 5
 5
 5
 5
 5
 5
 5
 5
 5
 5
 5
 5
 5
 5
 5
 5
 5
 5
 5
 5
 5
 5
 5
 5
 5
 5
 5
 5
 5
 5
 5
 5
 5
 5
 5
 5
 5
 5
 5
 5
 5
 5
 5
 5
 5
 5
 5
 5
 5
 5
 5
 5
 5
 5
 5
 5
 5
 5
 5
 5
 5
 5
 5
 5
 5
 5
 5
 5
 5
 5
 5
 5
 5
 5
 5
 5
 5
 5
 5
 5
 5
 5
 5
 5
 5
 5
 5
 5
 5
 5
 5
 5
 5
 5
 5
 5
 5
 5
 5
 5
 5
 5
 5
 5
 5
 5
 5
 5
 5
 5
 5
 5
 5
 5
 5
 5
 5
 5
 5
 5
 5
 5
 5
 5
 5
 5
 5
 5
 5
 5
 5
 5
 5
 5
 5
 5
 5
 5
 5
 5
 5
 5
 5
 5
 5
 5
 5
 5
 5
 5
 5
 5
 5
 5
 5
 5
 5
 5
 5
 5
 5
 5
 5
 5
 5
 5
 5
 5
 5
 5
 5
 5
 5
 5
 5
 5
 5
 5
 5
 5
 5
 5
 5
 5
 5
 5
 5
 5
 5
 5
 5
 5
 5
 5
 5
 5
 5
 5
 5
 5
 5
 5
 5
 5
 5
 5
 5
 5
 5
 5
 5
 5
 5
 5
 5
 5
 5
 5
 5
 5
 5
 5
 5
 5
 5
 5
 5
 5
 5
 5
 5
 5
 5
 5
 5
 5
 5
 5
 5
 5
 5
 5
 5
 5
 5
 5
 5
 5
 5
 5
 5
 5
 5
 5
 5
 5
 5
 5
 5
 5
 5
 5
 5
 5
 5
 5
 5
 5
 5
 5
 5
 5
 5
 5
 5
 5
 5
 5
 5
 5
 5
 5
 5
 5
 5
 5
 5
 5
 5
 5
 5
 5
 5
 5
 5
 5
 5
 5
 5
 5
 5
 5
 5
 5
 5
 5
 5
 5
 5
 5
 5
 5
 5
 5
 5
 5
 5
 5
 5
 5
 5
 5
 5
 5
 5
 5
 5
 5
 5
 5
 5
 5
 5
 5
 5
 5
 5
 5
 5
 5
 5
 5
 5
 5
 5
 5
 5
 5
 5
 5
 5
 5
 5
 5
 5
 5
 5
 5
 5
 5
 5
 5
 5
 5
 5
 5
 5
 5
 5
 5
 5
 5
 5
 5
 5
 5
 5
 5
 5
 5
 5
 5
 5
 5
 5
 5
 5
 5
 5
 5
 5
 5
 5
 5
 5
 5
 5
 5
 5
 5
 5
 5
 5
 5
 5
 5
 5
 5
 5
 5
 5
 5
 5
 5
 5
 5
 5
 5
 5
 5
 5
 5
 5
 5
 5
 5
 5
 5
 5
 5
 5
 5
 5
 5
 5
 5
 5
 5
 5
 5
 5
 5
 5
 5
 5
 5
 5
 5
 5
 5
 5
 5
 5
 5
 5
 5
 5
 5
 5
 5
 5
 5
 5
 5
 5
 5
 5
 5
 5
 5
 5
 5
 5
 5
 5
 5
 5
 5
 5
 5
 5
 5
 5
 5
 5
 5
 5
 5
 5
 5
 5
 5
 5
 5
 5
 5
 5
 5
 5
 5
 5
 5
 5
 5
 5
 5
 5
 5
 5
 5
 5
 5
 5
 5
 5
 5
 5
 5
 5
 5
 5
 5
 5
 5
 5
 5
 5
 5
 5
 5
 5
 5
 5
 5
 5
 5
 5
 5
 5
 5
 5
 5
 5
 5
 5
 5
 5
 5
 5
 5
 5
 5
 5
 5
 5
 5
 5
 5
 5
 5
 5
 5
 5
 5
 5
 5
 5
 5
 5
 5
 5
 5
 5
 5
 5
 5
 5
 5
 5
 5
 5
 5
 5
 5
 5
 5
 5
 5
 5
 5
 5
 5
 5
 5
 5
 5
 5
 5
 5
 5
 5
 5
 5
 5
 5
 5
 5
 5
 5
 5
 5
 5
 5
 5
 5
 5
 5
 5
 5
 5
 5
 5
 5
 5
 5
 5
 5
 5
 5
 5
 5
 5
 5
 5
 5
 5
 5
 5
 5
 5
 5
 5
 5
 5
 5
 5
 5
 5
 5
 5
 5
 5
 5
 5
 5
 5
 5
 5
 5
 5
 5
 5
 5
 5
 5
 5
 5
 5
 5
 5
 5
 5
 5
 5
 5
 5
 5
 5
 5
 5
 5
 5
 5
 5
 5
 5
 5
 5
 5
 5
 5
 5
 5
 5
 5
 5
 5
 5
 5
 5
 5
 5
 5
 5
 5
 5
 5
 5
 5
 5
 5
 5
 5
 5
 5
 5
 5
 5
 5
 5
 5
 5
 5
 5
 5
 5
 5
 5
 5
 5
 5
 5
 5
 5
 5
 5
 5
 5
 5
 5
 5
 5
 5
 5
 5
 5
 5
 5
 5
 5
 5
 5
 5
 5
 5
 5
 5
 5
 5
 5
 5
 5
 5
 5
 5
 5
 5
 5
 5
 5
 5
 5
 5
 5
 5
 5
 5
 5
 5
 5
 5
 5
 5
 5
 5
 5
 5
 5
 5
 5
 5
 5
 5
 5
 5
 5
 5
 5
 5
 5
 5
 5
 5
 5
 5
 5
 5
 5
 5
 5
 5
 5
 5
 5
 5
 5
 5
 5
 5
 5
 5
 5
 5
 5
 5
 5
 5
 5
 5
 5
 5
 5
 5
 5
 5
 5
 5
 5
 5
 5
 5
 5
 5
 5
 5
 5
 5
 5
 5
 5
 5
 5
 5
 5
 5
 5
 5
 5
 5
 5
 5
 5
 5
 5
 5
 5
 5
 5
 5
 5
 5
 5
 5
 5
 5
 5
 5
 5
 5
 5
 5
 5
 5
 5
 5
 5
 5
 5
 5
 5
 5
 5
 5
 5
 5
 5
 5
 5
 5
 5
 5
 5
 5
 5
 5
 5
 5
 5
 5
 5
 5
 5
 5
 5
 5
 5
 5
 5
 5
 5
 5
 5
 5
 5
 5
 5
 5
 5
 5
 5
 5
 5
 5
 5
 5
 5
 5
 5
 5
 5
 5
 5
 5
 5
 5
 5
 5
 5
 5
 5
 5
 5
 5
 5
 5
 5
 5
 5
 5
 5
 5
 5
 5
 5
 5
 5
 5
 5
 5
 5
 5
 5
 5
 5
 5
 5
 5
 5
 5
 5
 5
 5
 5
 5
 5
 5
 5
 5
 5
 5
 5
 5
 5
 5
 5
 5
 5
 5
 5
 5
 5
 5
 5
 5
 5
 5
 5
 5
 5
 5
 5
 5
 5
 5
 5
 5
 5
 5
 5
 5
 5
 5
 5
 5
 5
 5
 5
 5
 5
 5
 5
 5
 5
 5
 5
 5
 5
 5
 5
 5
 5
 5
 5
 5
 5
 5
 5
 5
 5
 5
 5
 5
 5
 5
 5
 5
 5
 5
 5
 5
 5
 5
 5
 5
 5
 5
 5
 5
 5
 5
 5
 5
 5
 5
 5
 5
 5
 5
 5
 5
 5
 5
 5
 5
 5
 5
 5
 5
 5
 5
 5
 5
 5
 5
 5
 5
 5
 5
 5
 5
 5
 5
 5
 5
 5
 5
 5
 5
 5
 5
 5
 5
 5
 5
 5
 5
 5
 5
 5
 5
 5
 5
 5
 5
 5
 5
 5
 5
 5
 5
 5
 5
 5
 5
 5
 5
 5
 5
 5
 5
 5
 5
 5
 5
 5
 5
 5
 5
 5
 5
 5
 5
 5
 5
 5
 5
 5
 5
 5
 5
 5
 5
 5
 5
 5
 5
 5
 5
 5
 5
 5
 5
 5
 5
 5
 5
 5
 5
 5
 5
 5
 5
 5
 5
 5
 5
 5
 5
 5
 5
 5
 5
 5
 5
 5
 5
 5
 5
 5
 5
 5
 5
 5
 5
 5
 5
 5
 5
 5
 5
 5
 5
 5
 5
 5
 5
 5
 5
 5
 5
 5
 5
 5
 5
 5
 5
 5
 5
 5
 5
 5
 5
 5
 5
 5
 5
 5
 5
 5
 5
 5
 5
 5
 5
 5
 5
 5
 5
 5
 5
 5
 5
 5
 5
 5
 5
 5
 5
 5
 5
 5
 5
 5
 5
 5
 5
 5
 5
 5
 5
 5
 5
 5
 5
 5
 5
 5
 5
 5
 5
 5
 5
 5
 5
 5
 5
 5
 5
 5
 5
 5
 5
 5
 5
 5
 5
 5
 5
 5
 5
 5
 5
 5
 5
 5
 5
 5
 5
 5
 5
 5
 5
 5
 5
 5
 5
 5
 5
 5
 5
 5
 5
 5
 5
 5
 5
 5
 5
 5
 5
 5
 5
 5
 5
 5
 5
 5
 5
 5
 5
 5
 5
 5
 5
 5
 5
 5
 5
 5
 5
 5
 5
 5
 5
 5
 5
 5
 5
 5
 5
 5
 5
 5
 5
 5
 5
 5
 5
 5
 5
 5
 5
 5
 5
 5
 5
 5
 5
 5
 5
 5
 5
 5
 5
 5
 5
 5
 5
 5
 5
 5
 5
 5
 5
 5
 5
 5
 5
 5
 5
 5
 5
 5
 5
 5
 5
 5
 5
 5
 5
 5
 5
 5
 5
 5
 5
 5
 5
 5
 5
 5
 5
 5
 5
 5
 5
 5
 5
 5
 5
 5
 5
 5
 5
 5
 5
 5
 5
 5
 5
 5
 5
 5
 5
 5
 5
 5
 5
 5
 5
 5
 5
 5
 5
 5
 5
 5
 5
 5
 5
 5
 5
 5
 5
 5
 5
 5
 5
 5
 5
 5
 5
 5
 5
 5
 5
 5
 5
 5
 5
 5
 5
 5
 5
 5
 5
 5
 5
 5
 5
 5
 5
 5
 5
 5
 5
 5
 5
 5
 5
 5
 5
 5
 5
 5
 5
 5
 5
 5
 5
 5
 5
 5
 5
 5
 5
 5
 5
 5
 5
 5
 5
 5
 5
 5
 5
 5
 5
 5
 5
 5
 5
 5
 5
 5
 5
 5
 5
 5
 5
 5
 5
 5
 5
 5
 5
 5
 5
 5
 5
 5
 5
 5
 5
 5
 5
 5
 5
 5
 5
 5
 5
 5
 5
 5
 5
 5
 5
 5
 5
 5
 5
 5
 5
 5
 5
 5
 5
 5
 5
 5
 5
 5
 5
 5
 5
 5
 5
 5
 5
 5
 5
 5
 5
 5
 5
 5
 5
 5
 5
 5
 5
 5
 5
 5
 5
 5
 5
 5
 5
 5
 5
 5
 5
 5
 5
 5
 5
 5
 5
 5
 5
 5
 5
 5
 5
 5
 5
 5
 5
 5
 5
 5
 5
 5
 5
 5
 5
 5
 5
 5
 5
 5
 5
 5
 5
 5
 5
 5
 5
 5
 5
 5
 5
 5
 5
 5
 5
 5
 5
 5
 5
 5
 5
 5
 5
 5
 5
 5
 5
 5
 5
 5
 5
 5
 5
 5
 5
 5
 5
 5
 5
 5
 5
 5
 5
 5
 5
 5
 5
 5
 5
 5
 5
 5
 5
 5
 5
 5
 5
 5
 5
 5
 5
 5
 5
 5
 5
 5
 5
 5
 5
 5
 5
 5
 5
 5
 5
 5
 5
 5
 5
 5
 5
 5
 5
 5
 5
 5
 5
 5
 5
 5
 5
 5
 5
 5
 5
 5
 5
 5
 5
 5
 5
 5
 5
 5
 5
 5
 5
 5
 5
 5
 5
 5
 5
 5
 5
 5
 5
 5
 5
 5
 5
 5
 5
 5
 5
 5
 5
 5
 5
 5
 5
 5
 5
 5
 5
 5
 5
 5
 5
 5
 5
 5
 5
 5
 5
 5
 5
 5
 5
 5
 5
 5
 5
 5
 5
 5
 5
 5
 5
 5
 5
 5
 5
 5
 5
 5
 5
 5
 5
 5
 5
 5
 5
 5
 5
 5
 5
 5
 5
 5
 5
 5
 5
 5
 5
 5
 5
 5
 5
 5
 5
 5
 5
 5
 5
 5
 5
 5
 5
 5
 5
 5
 5
 5
 5
 5
 5
 5
 5
 5
 5
 5
 5
 5
 5
 5
 5
 5
 5
 5
 5
 5
 5
 5
 5
 5
 5
 5
 5
 5
 5
 5
 5
 5
 5
 5
 5
 5
 5
 5
 5
 5
 5
 5
 5
 5
 5
 5
 5
 5
 5
 5
 5
 5
 5
 5
 5
 5
 5
 5
 5
 5
 5
 5
 5
 5
 5
 5
 5
 5
 5
 5
 5
 5
 5
 5
 5
 5
 5
 5
 5
 5
 5
 5
 5
 5
 5
 5
 5
 5
 5
 5
 5
 5
 5
 5
 5
 5
 5
 5
 5
 5
 5
 5
 5
 5
 5
 5
 5
 5
 5
 5
 5
 5
 5
 5
 5
 5
 5
 5
 5
 5
 5
 5
 5
 5
 5
 5
 5
 5
 5
 5
 5
 5
 5
 5
 5
 5
 5
 5
 5
 5
 5
 5
 5
 5
 5
 5
 5
 5
 5
 5
 5
 5
 5
 5
 5
 5
 5
 5
 5
 5
 5
 5
 5
 5
 5
 5
 5
 5
 5
 5
 5
 5
 5
 5
 5
 5
 5
 5
 5
 5
 5
 5
 5
 5
 5
 5
 5
 5
 5
 5
 5
 5
 5
 5
 5
 5
 5
 5
 5
 5
 5
 5
 5
 5
 5
 5
 5
 5
 5
 5
 5
 5
 5
 5
 5
 5
 5
 5
 5
 5
 5
 5
 5
 5
 5
 5
 5
 5
 5
 5
 5
 5
 5
 5
 5
 5
 5
 5
 5
 5
 5
 5
 5
 5
 5
 5
 5
 5
 5
 5
 5
 5
 5
 5
 5
 5
 5
 5
 5
 5
 5
 5
 5
 5
 5
 5
 5
 5
 5
 5
 5
 5
 5
 5
 5
 5
 5
 5
 5
 5
 5
 5
 5
 5
 5
 5
 5
 5
 5
 5
 5
 5
 5
 5
 5
 5
 5
 5
 5
 5
 5
 5
 5
 5
 5
 5
 5
 5
 5
 5
 5
 5
 5
 5
 5
 5
 5
 5
 5
 5
 5
 5
 5
 5
 5
 5
 5
 5
 5
 5
 5
 5
 5
 5
 5
 5
 5
 5
 5
 5
 5
 5
 5
 5
 5
 5
 5
 5
 5
 5
 5
 5
 5
 5
 5
 5
 5
 5
 5
 5
 5
 5
 5
 5
 5
 5
 5
 5
 5
 5
 5
 5
 5
 5
 5
 5
 5
 5
 5
 5
 5
 5
 5
 5
 5
 5
 5
 5
 5
 5
 5
 5
 5
 5
 5
 5
 5
 5
 5
 5
 5
 5
 5
 5
 5
 5
 5
 5
 5
 5
 5
 5
 5
 5
 5
 5
 5
 5
 5
 5
 5
 5
 5
 5
 5
 5
 5
 5
 5
 5
 5
 5
 5
 5
 5
 5
 5
 5
 5
 5
 5
 5
 5
 5
 5
 5
 5
 5
 5
 5
 5
 5
 5
 5
 5
 5
 5
 5
 5
 5
 5
 5
 5
 5
 5
 5
 5
 5
 5
 5
 5
 5
 5
 5
 5
 5
 5
 5
 5
 5
 5
 5
 5
 5
 5
 5
 5
 5
 5
 5
 5
 5
 5
 5
 5
 5
 5
 5
 5
 5
 5
 5
 5
 5
 5
 5
 5
 5
 5
 5
 5
 5
 5
 5
 5
 5
 5
 5
 5
 5
 5
 5
 5
 5
 5
 5
 5
 5
 5
 5
 5
 5
 5
 5
 5
 5
 5
 5
 5
 5
 5
 5
 5
 5
 5
 5
 5
 5
 5
 5
 5
 5
 5
 5
 5
 5
 5
 5
 5
 5
 5
 5
 5
 5
 5
 5
 5
 5
 5
 5
 5
 5
 5
 5
 5
 5
 5
 5
 5
 5
 5
 5
 5
 5
 5
 5
 5
 5
 5
 5
 5
 5
 5
 5
 5
 5
 5
 5
 5
 5
 5
 5
 5
 5
 5
 5
 5
 5
 5
 5
 5
 5
 5
 5
 5
 5
 5
 5
 5
 5
 5
 5
 5
 5
 5
 5
 5
 5
 5
 5
 5
 5
 5
 5
 5
 5
 5
 5
 5
 5
 5
 5
 5
 5
 5
 5
 5
 5
 5
 5
 5
 5
 5
 5
 5
 5
 5
 5
 5
 5
 5
 5
 5
 5
 5
 5
 5
 5
 5
 5
 5
 5
 5
 5
 5
 5
 5
 5
 5
 5
 5
 5
 5
 5
 5
 5
 5
 5
 5
 5
 5
 5
 5
 5
 5
 5
 5
 5
 5
 5
 5
 5
 5
 5
 5
 5
 5
 5
 5
 5
 5
 5
 5
 5
 5
 5
 5
 5
 5
 5
 5
 5
 5
 5
 5
 5
 5
 5
 5
 5
 5
 5
 5
 5
 5
 5
 5
 5
 5
 5
 5
 5
 5
 5
 5
 5
 5
 5
 5
 5
 5
 5
 5
 5
 5
 5
 5
 5
 5
 5
 5
 5
 5
 5
 5
 5
 5
 5
 5
 5
 5
 5
 5
 5
 5
 5
 5
 5
 5
 5
 5
 5
 5
 5
 5
 5
 5
 5
 5
 5
 5
 5
 5
 5
 5
 5
 5
 5
 5
 5
 5
 5
 5
 5
 5
 5
 5
 5
 5
 5
 5
 5
 5
 5
 5
 5
 5
 5
 5
 5
 5
 5
 5
 5
 5
 5
 5
 5
 5
 5
 5
 5
 5
 5
 5
 5
 5
 5
 5
 5
 5
 5
 5
 5
 5
 5
 5
 5
 5
 5
 5
 5
 5
 5
 5
 5
 5
 5
 5
 5
 5
 5
 5
 5
 5
 5
 5
 5
 5
 5
 5
 5
 5
 5
 5
 5
 5
 5
 5
 5
 5
 5
 5
 5
 5
 5
 5
 5
 5
 5
 5
 5
 5
 5
 5
 5
 5
 5
 5
 5
 5
 5
 5
 5
 5
 5
 5
 5
 5
 5
 5
 5
 5
 5
 5
 5
 5
 5
 5
 5
 5
 5
 5
 5
 5
 5
 5
 5
 5
 5
 5
 5
 5
 5
 5
 5
 5
 5
 5
 5
 5
 5
 5
 5
 5
 5
 5
 5
 5
 5
 5
 5
 5
 5
 5
 5
 5
 5
 5
 5
 5
 5
 5
 5
 5
 5
 5
 5
 5
 5
 5
 5
 5
 5
 5
 5
 5
 5
 5
 5
 5
 5
 5
 5
 5
 5
 5
 5
 5
 5
 5
 5
 5
 5
 5
 5
 5
 5
 5
 5
 5
 5
 5
 5
 5
 5
 5
 5
 5
 5
 5
 5
 5
 5
 5
 5
 5
 5
 5
 5
 5
 5
 5
 5
 5
 5
 5
 5
 5
 5
 5
 5
 5
 5
 5
 5
 5
 5
 5
 5
 5
 5
 5
 5
 5
 5
 5
 5
 5
 5
 5
 5
 5
 5
 5
 5
 5
 5
 5
 5
 5
 5
 5
 5
 5
 5
 5
 5
 5
 5
 5
 5
 5
 5
 5
 5
 5
 5
 5
 5
 5
 5
 5
 5
 5
 5
 5
 5
 5
 5
 5
 5
 5
 5
 5
 5
 5
 5
 5
 5
 5
 5
 5
 5
 5
 5
 5
 5
 5
 5
 5
 5
 5
 5
 5
 5
 5
 5
 5
 5
 5
 5
 5
 5
 5
 5
 5
 5
 5
 5
 5
 5
 5
 5
 5
 5
 5
 5
 5
 5
 5
 5
 5
 5
 5
 5
 5
 5
 5
 5
 5
 5
 5
 5
 5
 5
 5
 5
 5
 5
 5
 5
 5
 5
 5
 5
 5
 5
 5
 5
 5
 5
 5
 5
 5
 5
 5
 5
 5
 5
 5
 5
 5
 5
 5
 5
 5
 5
 5
 5
 5
 5
 5
 5
 5
 5
 5
 5
 5
 5
 5
 5
 5
 5
 5
 5
 5
 5
 5
 5
 5
 5
 5
 5
 5
 5
 5
 5
 5
 5
 5
 5
 5
 5
 5
 5
 5
 5
 5
 5
 5
 5
 5
 5
 5
 5
 5
 5
 5
 5
 5
 5
 5
 5
 5
 5
 5
 5
 5
 5
 5
 5
 5
 5
 5
 5
 5
 5
 5
 5
 5
 5
 5
 5
 5
 5
 5
 5
 5
 5
 5
 5
 5
 5
 5
 5
 5
 5
 5
 5
 5
 5
 5
 5
 5
 5
 5
 5
 5
 5
 5
 5
 5
 5
 5
 5
 5
 5
 5
 5
 5
 5
 5
 5
 5
 5
 5
 5
 5
 5
 5
 5
 5
 5
 5
 5
 5
 5
 5
 5
 5
 5
 5
 5
 5
 5
 5
 5
 5
 5
 5
 5
 5
 5
 5
 5
 5
 5
 5
 5
 5
 5
 5
 5
 5
 5
 5
 5
 5
 5
 5
 5
 5
 5
 5
 5
 5
 5
 5
 5
 5
 5
 5
 5
 5
 5
 5
 5
 5
 5
 5
 5
 5
 5
 5
 5
 5
 5
 5
 5
 5
 5
 5
 5
 5
 5
 5
 5
 5
 5
 5
 5
 5
 5
 5
 5
 5
 5
 5
 5
 5
 5
 5
 5
 5
 5
 5
 5
 5
 5
 5
 5
 5
 5
 5
 5
 5
 5
 5
 5
 5
 5
 5
 5
 5
 5
 5
 5
 5
 5
 5
 5
 5
 5
 5
 5
 5
 5
 5
 5
 5
 5
 5
 5
 5
 5
 5
 5
 5
 5
 5
 5
 5
 5
 5
 5
 5
 5
 5
 5
 5
 5
 5
 5
 5
 5
 5
 5
 5
 5
 5
 5
 5
 5
 5
 5
 5
 5
 5
 5
 5
 5
 5
 5
 5
 5
 5
 5
 5
 5
 5
 5
 5
 5
 5
 5
 5
 5
 5
 5
 5
 5
 5
 5
 5
 5
 5
 5
 5
 5
 5
 5
 5
 5
 5
 5
 5
 5
 5
 5
 5
 5
 5
 5
 5
 5
 5
 5
 5
 5
 5
 5
 5
 5
 5
 5
 5
 5
 5
 5
 5
 5
 5
 5
 5
 5
 5
 5
 5
 5
 5
 5
 5
 5
 5
 5
 5
 5
 5
 5
 5
 5
 5
 5
 5
 5
 5
 5
 5
 5
 5
 5
 5
 5
 5
 5
 5
 5
 5
 5
 5
 5
 5
 5
 5
 5
 5
 5
 5
 5
 5
 5
 5
 5
 5
 5
 5
 5
 5
 5
 5
 5
 5
 5
 5
 5
 5
 5
 5
 5
 5
 5
 5
 5
 5
 5
 5
 5
 5
 5
 5
 5
 5
 5
 5
 5
 5
 5
 5
 5
 5
 5
 5
 5
 5
 5
 5
 5
 5
 5
 5
 5
 5
 5
 5
 5
 5
 5
 5
 5
 5
 5
 5
 5
 5
 5
 5
 5
 5
 5
 5
 5
 5
 5
 5
 5
 5
 5
 5
 5
 5
 5
 5
 5
 5
 5
 5
 5
 5
 5
 5
 5
 5
 5
 5
 5
 5
 5
 5
 5
 5
 5
 5
 5
 5
 5
 5
 5
 5
 5
 5
 5
 5
 5
 5
 5
 5
 5
 5
 5
 5
 5
 5
 5
 5
 5
 5
 5
 5
 5
 5
 5
 5
 5
 5
 5
 5
 5
 5
 5
 5
 5
 5
 5
 5
 5
 5
 5
 5
 5
 5
 5
 5
 5
 5
 5
 5
 5
 5
 5
 5
 5
 5
 5
 5
 5
 5
 5
 5
 5
 5
 5
 5
 5
 5
 5
 5
 5
 5
 5
 5
 5
 5
 5
 5
 5
 5
 5
 5
 5
 5
 5
 5
 5
 5
 5
 5
 5
 5
 5
 5
 5
 5
 5
 5
 5
 5
 5
 5
 5
 5
 5
 5
 5
 5
 5
 5
 5
 5
 5
 5
 5
 5
 5
 5
 5
 5
 5
 5
 5
 5
 5
 5
 5
 5
 5
 5
 5
 5
 5
 5
 5
 5
 5
 5
 5
 5
 5
 5
 5
 5
 5
 5
 5
 5
 5
 5
 5
 5
 5
 5
 5
 5
 5
 5
 5
 5
 5
 5
 5
 5
 5
 5
 5
 5
 5
 5
 5
 5
 5
 5
 5
 5
 5
 5
 5
 5
 5
 5
 5
 5
 5
 5
 5
 5
 5
 5
 5
 5
 5
 5
 5
 5
 5
 5
 5
 5
 5
 5
 5
 5
 5
 5
 5
 5
 5
 5
 5
 5
 5
 5
 5
 5
 5
 5
 5
 5
 5
 5
 5
 5
 5
 5
 5
 5
 5
 5
 5
 5
 5
 5
 5
 5
 5
 5
 5
 5
 5
 5
 5
 5
 5
 5
 5
 5
 5
 5
 5
 5
 5
 5
 5
 5
 5
 5
 5
 5
 5
 5
 5
 5
 5
 5
 5
 5
 5
 5
 5
 5
 5
 5
 5
 5
 5
 5
 5
 5
 5
 5
 5
 5
 5
 5
 5
 5
 5
 5
 5
 5
 5
 5
 5
 5
 5
 5
 5
 5
 5
 5
 5
 5
 5
 5
 5
 5
 5
 5
 5
 5
 5
 5
 5
 5
 5
 5
 5
 5
 5
 5
 5
 5
 5
 5
 5
 5
 5
 5
 5
 5
 5
 5
 5
 5
 5
 5
 5
 5
 5
 5
 5
 5
 5
 5
 5
 5
 5
 5
 5
 5
 5
 5
 5
 5
 5
 5
 5
 5
 5
 5
 5
 5
 5
 5
 5
 5
 5
 5
 5
 5
 5
 5
 5
 5
 5
 5
 5
 5
 5
 5
 5
 5
 5
 5
 5
 5
 5
 5
 5
 5
 5
 5
 5
 5
 5
 5
 5
 5
 5
 5
 5
 5
 5
 5
 5
 5
 5
 5
 5
 5
 5
 5
 5
 5
 5
 5
 5
 5
 5
 5
 5
 5
 5
 5
 5
 5
 5
 5
 5
 5
 5
 5
 5
 5
 5
 5
 5
 5
 5
 5
 5
 5
 5
 5
 5
 5
 5
 5
 5
 5
 5
 5
 5
 5
 5
 5
 5
 5
 5
 5
 5
 5
 5
 5
 5
 5
 5
 5
 5
 5
 5
 5
 5
 5
 5
 5
 5
 5
 5
 5
 5
 5
 5
 5
 5
 5
 5
 5
 5
 5
 5
 5
 5
 5
 5
 5
 5
 5
 5
 5
 5
 5
 5
 5
 5
 5
 5
 5
 5
 5
 5
 5
 5
 5
 5
 5
 5
 5
 5
 5
 5
 5
 5
 5
 5
 5
 5
 5
 5
 5
 5
 5
 5
 5
 5
 5
 5
 5
 5
 5
 5
 5
 5
 5
 5
 5
 5
 5
 5
 5
 5
 5
 5
 5
 5
 5
 5
 5
 5
 5
 5
 5
 5
 5
 5
 5
 5
 5
 5
 5
 5
 5
 5
 5
 5
 5
 5
 5
 5
 5
 5
 5
 5
 5
 5
 5
 5
 5
 5
 5
 5
 5
 5
 5
 5
 5
 5
 5
 5
 5
 5
 5
 5
 5
 5
 5
 5
 5
 5
 5
 5
 5
 5
 5
 5
 5
 5
 5
 5
 5
 5
 5
 5
 5
 5
 5
 5
 5
 5
 5
 5
 5
 5
 5
 5
 5
 5
 5
 5
 5
 5
 5
 5
 5
 5
 5
 5
 5
 5
 5
 5
 5
 5
 5
 5
 5
 5
 5
 5
 5
 5
 5
 5
 5
 5
 5
 5
 5
 5
 5
 5
 5
 5
 5
 5
 5
 5
 5
 5
 5
 5
 5
 5
 5
 5
 5
 5
 5
 5
 5
 5
 5
 5
 5
 5
 5
 5
 5
 5
 5
 5
 5
 5
 5
 5
 5
 5
 5
 5
 5
 5
 5
 5
 5
 5
 5
 5
 5
 5
 5
 5
 5
 5
 5
 5
 5
 5
 5
 5
 5
 5
 5
 5
 5
 5
 5
 5
 5
 5
 5
 5
 5
 5
 5
 5
 5
 5
 5
 5
 5
 5
 5
 5
 5
 5
 5
 5
 5
 5
 5
 5
 5
 5
 5
 5
 5
 5
 5
 5
 5
 5
 5
 5
 5
 5
 5
 5
 5
 5
 5
 5
 5
 5
 5
 5
 5
 5
 5
 5
 5
 5
 5
 5
 5
 5
 5
 5
 5
 5
 5
 5
 5
 5
 5
 5
 5
 5
 5
 5
 5
 5
 5
 5
 5
 5
 5
 5
 5
 5
 5
 5
 5
 5
 5
 5
 5
 5
 5
 5
 5
 5
 5
 5
 5
 5
 5
 5
 5
 5
 5
 5
 5
 5
 5
 5
 5
 5
 5
 5
 5
 5
 5
 5
 5
 5
 5
 5
 5
 5
 5
 5
 5
 5
 5
 5
 5
 5
 5
 5
 5
 5
 5
 5
 5
 5
 5
 5
 5
 5
 5
 5
 5
 5
 5
 5
 5
 5
 5
 5
 5
 5
 5
 5
 5
 5
 5
 5
 5
 5
 5
 5
 5
 5
 5
 5
 5
 5
 5
 5
 5
 5
 5
 5
 5
 5
 5
 5
 5
 5
 5
 5
 5
 5
 5
 5
 5
 5
 5
 5
 5
 5
 5
 5
 5
 5
 5
 5
 5
 5
 5
 5
 5
 5
 5
 5
 5
 5
 5
 5
 5
 5
 5
 5
 5
 5
 5
 5
 5
 5
 5
 5
 5
 5
 5
 5
 5
 5
 5
 5
 5
 5
 5
 5
 5
 5
 5
 5
 5
 5
 5
 5
 5
 5
 5
 5
 5
 5
 5
 5
 5
 5
 5
 5
 5
 5
 5
 5
 5
 5
 5
 5
 5
 5
 5
 5
 5
 5
 5
 5
 5
 5
 5
 5
 5
 5
 5
 5
 5
 5
 5
 5
 5
 5
 5
 5
 5
 5
 5
 5
 5
 5
 5
 5
 5
 5
 5
 5
 5
 5
 5
 5
 5
 5
 5
 5
 5
 5
 5
 5
 5
 5
 5
 5
 5
 5
 5
 5
 5
 5
 5
 5
 5
 5
 5
 5
 5
 5
 5
 5
 5
 5
 5
 5
 5
 5
 5
 5
 5
 5
 5
 5
 5
 5
 5
 5
 5
 5
 5
 5
 5
 5
 5
 5
 5
 5
 5
 5
 5
 5
 5
 5
 5
 5
 5
 5
 5
 5
 5
 5
 5
 5
 5
 5
 5
 5
 5
 5
 5
 5
 5
 5
 5
 5
 5
 5
 5
 5
 5
 5
 5
 5
 5
 5
 5
 5
 5
 5
 5
 5
 5
 5
 5
 5
 5
 5
 5
 5
 5
 5
 5
 5
 5
 5
 5
 5
 5
 5
 5
 5
 5
 5
 5
 5
 5
 5
 5
 5
 5
 5
 5
 5
 5
 5
 5
 5
 5
 5
 5
 5
 5
 5
 5
 5
 5
 5
 5
 5
 5
 5
 5
 5
 5
 5
 5
 5
 5
 5
 5
 5
 5
 5
 5
 5
 5
 5
 5
 5
 5
 5
 5
 5
 5
 5
 5
 5
 5
 5
 5
 5
 5
 5
 5
 5
 5
 5
 5
 5
 5
 5
 5
 5
 5
 5
 5
 5
 5
 5
 5
 5
 5
 5
 5
 5
 5
 5
 5
 5
 5
 5
 5
 5
 5
 5
 5
 5
 5
 5
 5
 5
 5
 5
 5
 5
 5
 5
 5
 5
 5
 5
 5
 5
 5
 5
 5
 5
 5
 5
 5
 5
 5
 5
 5
 5
 5
 5
 5
 5
 5
 5
 5
 5
 5
 5
 5
 5
 5
 5
 5
 5
 5
 5
 5
 5
 5
 5
 5
 5
 5
 5
 5
 5
 5
 5
 5
 5
 5
 5
 5
 5
 5
 5
 5
 5
 5
 5
 5
 5
 5
 5
 5
 5
 5
 5
 5
 5
 5
 5
 5
 5
 5
 5
 5
 5
 5
 5
 5
 5
 5
 5
 5
 5
 5
 5
 5
 5
 5
 5
 5
 5
 5
 5
 5
 5
 5
 5
 5
 5
 5
 5
 5
 5
 5
 5
 5
 5
 5
 5
 5
 5
 5
 5
 5
 5
 5
 5
 5
 5
 5
 5
 5
 5
 5
 5
 5
 5
 5
 5
 5
 5
 5
 5
 5
 5
 5
 5
 5
 5
 5
 5
 5
 5
 5
 5
 5
 5
 5
 5
 5
 5
 5
 5
 5
 5
 5
 5
 5
 5
 5
 5
 5
 5
 5
 5
 5
 5
 5
 5
 5
 5
 5
 5
 5
 5
 5
 5
 5
 5
 5
 5
 5
 5
 5
 5
 5
 5
 5
 5
 5
 5
 5
 5
 5
 5
 5
 5
 5
 5
 5
 5
 5
 5
 5
 5
 5
 5
 5
 5
 5
 5
 5
 5
 5
 5
 5
 5
 5
 5
 5
 5
 5
 5
 5
 5
 5
 5
 5
 5
 5
 5
 5
 5
 5
 5
 5
 5
 5
 5
 5
 5
 5
 5
 5
 5
 5
 5
 5
 5
 5
 5
 5
 5
 5
 5
 5
 5
 5
 5
 5
 5
 5
 5
 5
 5
 5
 5
 5
 5
 5
 5
 5
 5
 5
 5
 5
 5
 5
 5
 5
 5
 5
 5
 5
 5
 5
 5
 5
 5
 5
 5
 5
 5
 5
 5
 5
 5
 5
 5
 5
 5
 5
 5
 5
 5
 5
 5
 5
 5
 5
 5
 5
 5
 5
 5
 5
 5
 5
 5
 5
 5
 5
 5
 5
 5
 5
 5
 5
 5
 5
 5
 5
 5
 5
 5
 5
 5
 5
 5
 5
 5
 5
 5
 5
 5
 5
 5
 5
 5
 5
 5
 5
 5
 5
 5
 5
 5
 5
 5
 5
 5
 5
 5
 5
 5
 5
 5
 5
 5
 5
 5
 5
 5
 5
 5
 5
 5
 5
 5
 5
 5
 5
 5
 5
 5
 5
 5
 5
 5
 5
 5
 5
 5
 5
 5
 5
 5
 5
 5
 5
 5
 5
 5
 5
 5
 5
 5
 5
 5
 5
 5
 5
 5
 5
 5
 5
 5
 5
 5
 5
 5
 5
 5
 5
 5
 5
 5
 5
 5
 5
 5
 5
 5
 5
 5
 5
 5
 5
 5
 5
 5
 5
 5
 5
 5
 5
 5
 5
 5
 5
 5
 5
 5
 5
 5
 5
 5
 5
 5
 5
 5
 5
 5
 5
 5
 5
 5
 5
 5
 5
 5
 5
 5
 5
 5
 5
 5
 5
 5
 5
 5
 5
 5
 5
 5
 5
 5
 5
 5
 5
 5
 5
 5
 5
 5
 5
 5
 5
 5
 5
 5
 5
 5
 5
 5
 5
 5
 5
 5
 5
 5
 5
 5
 5
 5
 5
 5
 5
 5
 5
 5
 5
 5
 5
 5
 5
 5
 5
 5
 5
 5
 5
 5
 5
 5
 5
 5
 5
 5
 5
 5
 5
 5
 5
 5
 5
 5
 5
 5
 5
 5
 5
 5
 5
 5
 5
 5
 5
 5
 5
 5
 5
 5
 5
 5
 5
 5
 5
 5
 5
 5
 5
 5
 5
 5
 5
 5
 5
 5
 5
 5
 5
 5
 5
 5
 5
 5
 5
 5
 5
 5
 5
 5
 5
 5
 5
 5
 5
 5
 5
 5
 5
 5
 5
 5
 5
 5
 5
 5
 5
 5
 5
 5
 5
 5
 5
 5
 5
 5
 5
 5
 5
 5
 5
 5
 5
 5
 5
 5
 5
 5
 5
 5
 5
 5
 5
 5
 5
 5
 5
 5
 5
 5
 5
 5
 5
 5
 5
 5
 5
 5
 5
 5
 5
 5
 5
 5
 5
 5
 5
 5
 5
 5
 5
 5
 5
 5
 5
 5
 5
 5
 5
 5
 5
 5
 5
 5
 5
 5
 5
 5
 5
 5
 5
 5
 5
 5
 5
 5
 5
 5
 5
 5
 5
 5
 5
 5
 5
 5
 5
 5
 5
 5
 5
 5
 5
 5
 5
 5
 5
 5
 5
 5
 5
 5
 5
 5
 5
 5
 5
 5
 5
 5
 5
 5
 5
 5
 5
 5
 5
 5
 5
 5
 5
 5
 5
 5
 5
 5
 5
 5
 5
 5
 5
 5
 5
 5
 5
 5
 5
 5
 5
 5
 5
 5
 5
 5
 5
 5
 5
 5
 5
 5
 5
 5
 5
 5
 5
 5
 5
 5
 5
 5
 5
 5
 5
 5
 5
 5
 5
 5
 5
 5
 5
 5
 5
 5
 5
 5
 5
 5
 5
 5
 5
 5
 5
 5
 5
 5
 5
 5
 5
 5
 5
 5
 5
 5
 5
 5
 5
 5
 5
 5
 5
 5
 5
 5
 5
 5
 5
 5
 5
 5
 5
 5
 5
 5
 5
 5
 5
 5
 5
 5
 5
 5
 5
 5
 5
 5
 5
 5
 5
 5
 5
 5
 5
 5
 5
 5
 5
 5
 5
 5
 5
 5
 5
 5
 5
 5
 5
 5
 5
 5
 5
 5
 5
 5
 5
 5
 5
 5
 5
 5
 5
 5
 5
 5
 5
 5
 5
 5
 5
 5
 5
 5
 5
 5
 5
 5
 5
 5
 5
 5
 5
 5
 5
 5
 5
 5
 5
 5
 5
 5
 5
 5
 5
 5
 5
 5
 5
 5
 5
 5
 5
 5
 5
 5
 5
 5
 5
 5
 5
 5
 5
 5
 5
 5
 5
 5
 5
 5
 5
 5
 5
 5
 5
 5
 5
 5
 5
 5
 5
 5
 5
 5
 5
 5
 5
 5
 5
 5
 5
 5
 5
 5
 5
 5
 5
 5
 5
 5
 5
 5
 5
 5
 5
 5
 5
 5
 5
 5
 5
 5
 5
 5
 5
 5
 5
 5
 5
 5
 5
 5
 5
 5
 5
 5
 5
 5
 5
 5
 5
 5
 5
 5
 5
 5
 5
 5
 5
 5
 5
 5
 5
 5
 5
 5
 5
 5
 5
 5
 5
 5
 5
 5
 5
 5
 5
 5
 5
 5
 5
 5
 5
 5
 5
 5
 5
 5
 5
 5
 5
 5
 5
 5
 5
 5
 5
 5
 5
 5
 5
 5
 5
 5
 5
 5
 5
 5
 5
 5
 5
 5
 5
 5
 5
 5
 5
 5
 5
 5
 5
 5
 5
 5
 5
 5
 5
 5
 5
 5
 5
 5
 5
 5
 5
 5
 5
 5
 5
 5
 5
 5
 5
 5
 5
 5
 5
 5
 5
 5
 5
 5
 5
 5
 5
 5
 5
 5
 5
 5
 5
 5
 5
 5
 5
 5
 5
 5
 5
 5
 5
 5
 5
 5
 5
 5
 5
 5
 5
 5
 5
 5
 5
 5
 5
 5
 5
 5
 5
 5
 5
 5
 5
 5
 5
 5
 5
 5
 5
 5
 5
 5
 5
 5
 5
 5
 5
 5
 5
 5
 5
 5
 5
 5
 5
 5
 5
 5
 5
 5
 5
 5
 5
 5
 5
 5
 5
 5
 5
 5
 5
 5
 5
 5
 5
 5
 5
 5
 5
 5
 5
 5
 5
 5
 5
 5
 5
 5
 5
 5
 5
 5
 5
 5
 5
 5
 5
 5
 5
 5
 5
 5
 5
 5
 5
 5
 5
 5
 5
 5
 5
 5
 5
 5
 5
 5
 5
 5
 5
 5
 5
 5
 5
 5
 5
 5
 5
 5
 5
 5
 5
 5
 5
 5
 5
 5
 5
 5
 5
 5
 5
 5
 5
 5
 5
 5
 5
 5
 5
 5
 5
 5
 5
 5
 5
 5
 5
 5
 5
 5
 5
 5
 5
 5
 5
 5
 5
 5
 5
 5
 5
 5
 5
 5
 5
 5
 5
 5
 5
 5
 5
 5
 5
 5
 5
 5
 5
 5
 5
 5
 5
 5
 5
 5
 5
 5
 5
 5
 5
 5
 5
 5
 5
 5
 5
 5
 5
 5
 5
 5
 5
 5
 5
 5
 5
 5
 5
 5
 5
 5
 5
 5
 5
 5
 5
 5
 5
 5
 5
 5
 5
 5
 5
 5
 5
 5
 5
 5
 5
 5
 5
 5
 5
 5
 5
 5
 5
 5
 5
 5
 5
 5
 5
 5
 5
 5
 5
 5
 5
 5
 5
 5
 5
 5
 5
 5
 5
 5
 5
 5
 5
 5
 5
 5
 5
 5
 5
 5
 5
 5
 5
 5
 5
 5
 5
 5
 5
 5
 5
 5
 5
 5
 5
 5
 5
 5
 5
 5
 5
 5
 5
 5
 5
 5
 5
 5
 5
 5
 5
 5
 5
 5
 5
 5
 5
 5
 5
 5
 5
 5
 5
 5
 5
 5
 5
 5
 5
 5
 5
 5
 5
 5
 5
 5
 5
 5
 5
 5
 5
 5
 5
 5
 5
 5
 5
 5
 5
 5
 5
 5
 5
 5
 5
 5
 5
 5
 5
 5
 5
 5
 5
 5
 5
 5
 5
 5
 5
 5
 5
 5
 5
 5
 5
 5
 5
 5
 5
 5
 5
 5
 5
 5
 5
 5
 5
 5
 5
 5
 5
 5
 5
 5
 5
 5
 5
 5
 5
 5
 5
 5
 5
 5
 5
 5
 5
 5
 5
 5
 5
 5
 5
 5
 5
 5
 5
 5
 5
 5
 5
 5
 5
 5
 5
 5
 5
 5
 5
 5
 5
 5
 5
 5
 5
 5
 5
 5
 5
 5
 5
 5
 5
 5
 5
 5
 5
 5
 5
 5
 5
 5
 5
 5
 5
 5
 5
 5
 5
 5
 5
 5
 5
 5
 5
 5
 5
 5
 5
 5
 5
 5
 5
 5
 5
 5
 5
 5
 5
 5
 5
 5
 5
 5
 5
 5
 5
 5
 5
 5
 5
 5
 5
 5
 5
 5
 5
 5
 5
 5
 5
 5
 5
 5
 5
 5
 5
 5
 5
 5
 5
 5
 5
 5
 5
 5
 5
 5
 5
 5
 5
 5
 5
 5
 5
 5
 5
 5
 5
 5
 5
 5
 5
 5
 5
 5
 5
 5
 5
 5
 5
 5
 5
 5
 5
 5
 5
 5
 5
 5
 5
 5
 5
 5
 5
 5
 5
 5
 5
 5
 5
 5
 5
 5
 5
 5
 5
 5
 5
 5
 5
 5
 5
 5
 5
 5
 5
 5
 5
 5
 5
 5
 5
 5
 5
 5
 5
 5
 5
 5
 5
 5
 5
 5
 5
 5
 5
 5
 5
 5
 5
 5
 5
 5
 5
 5
 5
 5
 5
 5
 5
 5
 5
 5
 5
 5
 5
 5
 5
 5
 5
 5
 5
 5
 5
 5
 5
 5
 5
 5
 5
 5
 5
 5
 5
 5
 5
 5
 5
 5
 5
 5
 5
 5
 5
 5
 5
 5
 5
 5
 5
 5
 5
 5
 5
 5
 5
 5
 5
 5
 5
 5
 5
 5
 5
 5
 5
 5
 5
 5
 5
 5
 5
 5
 5
 5
 5
 5
 5
 5
 5
 5
 5
 5
 5
 5
 5
 5
 5
 5
 5
 5
 5
 5
 5
 5
 5
 5
 5
 5
 5
 5
 5
 5
 5
 5
 5
 5
 5
 5
 5
 5
 5
 5
 5
 5
 5
 5
 5
 5
 5
 5
 5
 5
 5
 5
 5
 5
 5
 5
 5
 5
 5
 5
 5
 5
 5
 5
 5
 5
 5
 5
 5
 5
 5
 5
 5
 5
 5
 5
 5
 5
 5
 5
 5
 5
 5
 5
 5
 5
 5
 5
 5
 5
 5
 5
 5
 5
 5
 5
 5
 5
 5
 5
 5
 5
 5
 5
 5
 5
 5
 5
 5
 5
 5
 5
 5
 5
 5
 5
 5
 5
 5
 5
 5
 5
 5
 5
 5
 5
 5
 5
 5
 5
 5
 5
 5
 5
 5
 5
 5
 5
 5
 5
 5
 5
 5
 5
 5
 5
 5
 5
 5
 5
 5
 5
 5
 5
 5
 5
 5
 5
 5
 5
 5
 5
 5
 5
 5
 5
 5
 5
 5
 5
 5
 5
 5
 5
 5
 5
 5
 5
 5
 5
 5
 5
 5
 5
 5
 5
 5
 5
 5
 5
 5
 5
 5
 5
 5
 5
 5
 5
 5
 5
 5
 5
 5
 5
 5
 5
 5
 5
 5
 5
 5
 5
 5
 5
 5
 5
 5
 5
 5
 5
 5
 5
 5
 5
 5
 5
 5
 5
 5
 5
 5
 5
 5
 5
 5
 5
 5
 5
 5
 5
 5
 5
 5
 5
 5
 5
 5
 5
 5
 5
 5
 5
 5
 5
 5
 5
 5
 5
 5
 5
 5
 5
 5
 5
 5
 5
 5
 5
 5
 5
 5
 5
 5
 5
 5
 5
 5
 5
 5
 5
 5
 5
 5
 5
 5
 5
 5
 5
 5
 5
 5
 5
 5
 5
 5
 5
 5
 5
 5
 5
 5
 5
 5
 5
 5
 5
 5
 5
 5
 5
 5
 5
 5
 5
 5
 5
 5
 5
 5
 5
 5
 5
 5
 5
 5
 5
 5
 5
 5
 5
 5
 5
 5
 5
 5
 5
 5
 5
 5
 5
 5
 5
 5
 5
 5
 5
 5
 5
 5
 5
 5
 5
 5
 5
 5
 5
 5
 5
 5
 5
 5
 5
 5
 5
 5
 5
 5
 5
 5
 5
 5
 5
 5
 5
 5
 5
 5
 5
 5
 5
 5
 5
 5
 5
 5
 5
 5
 5
 5
 5
 5
 5
 5
 5
 5
 5
 5
 5
 5
 5
 5
 5
 5
 5
 5
 5
 5
 5
 5
 5
 5
 5
 5
 5
 5
 5
 5
 5
 5
 5
 5
 5
 5
 5
 5
 5
 5
 5
 5
 5
 5
 5
 5
 5
 5
 5
 5
 5
 5
 5
 5
 5
 5
 5
 5
 5
 5
 5
 5
 5
 5
 5
 5
 5
 5
 5
 5
 5
 5
 5
 5
 5
 5
 5
 5
 5
 5
 5
 5
 5
 5
 5
 5
 5
 5
 5
 5
 5
 5
 5
 5
 5
 5
 5
 5
 5
 5
 5
 5
 5
 5
 5
 5
 5
 5
 5
 5
 5
 5
 5
 5
 5
 5
 5
 5
 5
 5
 5
 5
 5
 5
 5
 5
 5
 5
 5
 5
 5
 5
 5
 5
 5
 5
 5
 5
 5
 5
 5
 5
 5
 5
 5
 5
 5
 5
 5
 5
 5
 5
 5
 5
 5
 5
 5
 5
 5
 5
 5
 5
 5
 5
 5
 5
 5
 5
 5
 5
 5
 5
 5
 5
 5
 5
 5
 5
 5
 5
 5
 5
 5
 5
 5
 5
 5
 5
 5
 5
 5
 5
 5
 5
 5
 5
 5
 5
 5
 5
 5
 5
 5
 5
 5
 5
 5
 5
 5
 5
 5
 5
 5
 5
 5
 5
 5
 5
 5
 5
 5
 5
 5
 5
 5
 5
 5
 5
 5
 5
 5
 5
 5
 5
 5
 5
 5
 5
 5
 5
 5
 5
 5
 5
 5
 5
 5
 5
 5
 5
 5
 5
 5
 5
 5
 5
 5
 5
 5
 5
 5
 5
 5
 5
 5
 5
 5
 5
 5
 5
 5
 5
 5
 5
 5
 5
 5
 5
 5
 5
 5
 5
 5
 5
 5
 5
 5
 5
 5
 5
 5
 5
 5
 5
 5
 5
 5
 5
 5
 5
 5
 5
 5
 5
 5
 5
 5
 5
 5
 5
 5
 5
 5
 5
 5
 5
 5
 5
 5
 5
 5
 5
 5
 5
 5
 5
 5
 5
 5
 5
 5
 5
 5
 5
 5
 5
 5
 5
 5
 5
 5
 5
 5
 5
 5
 5
 5
 5
 5
 5
 5
 5
 5
 5
 5
 5
 5
 5
 5
 5
 5
 5
 5
 5
 5
 5
 5
 5
 5
 5
 5
 5
 5
 5
 5
 5
 5
 5
 5
 5
 5
 5
 5
 5
 5
 5
 5
 5
 5
 5
 5
 5
 5
 5
 5
 5
 5
 5
 5
 5
 5
 5
 5
 5
 5
 5
 5
 5
 5
 5
 5
 5
 5
 5
 5
 5
 5
 5
 5
 5
 5
 5
 5
 5
 5
 5
 5
 5
 5
 5
 5
 5
 5
 5
 5
 5
 5
 5
 5
 5
 5
 5
 5
 5
 5
 5
 5
 5
 5
 5
 5
 5
 5
 5
 5
 5
 5
 5
 5
 5
 5
 5
 5
 5
 5
 5
 5
 5
 5
 5
 5
 5
 5
 5
 5
 5
 5
 5
 5
 5
 5
 5
 5
 5
 5
 5
 5
 5
 5
 5
 5
 5
 5
 5
 5
 5
 5
 5
 5
 5
 5
 5
 5
 5
 5
 5
 5
 5
 5
 5
 5
 5
 5
 5
 5
 5
 5
 5
 5
 5
 5
 5
 5
 5
 5
 5
 5
 5
 5
 5
 5
 5
 5
 5
 5
 5
 5
 5
 5
 5
 5
 5
 5
 5
 5
 5
 5
 5
 5
 5
 5
 5
 5
 5
 5
 5
 5
 5
 5
 5
 5
 5
 5
 5
 5
 5
 5
 5
 5
 5
 5
 5
 5
 5
 5
 5
 5
 5
 5
 5
 5
 5
 5
 5
 5
 5
 5
 5
 5
 5
 5
 5
 5
 5
 5
 5
 5
 5
 5
 5
 5
 5
 5
 5
 5
 5
 5
 5
 5
 5
 5
 5
 5
 5
 5
 5
 5
 5
 5
 5
 5
 5
 5
 5
 5
 5
 5
 5
 5
 5
 5
 5
 5
 5
 5
 5
 5
 5
 5
 5
 5
 5
 5
 5
 5
 5
 5
 5
 5
 5
 5
 5
 5
 5
 5
 5
 5
 5
 5
 5
 5
 5
 5
 5
 5
 5
 5
 5
 5
 5
 5
 5
 5
 5
 5
 5
 5
 5
 5
 5
 5
 5
 5
 5
 5
 5
 5
 5
 5
 5
 5
 5
 5
 5
 5
 5
 5
 5
 5
 5
 5
 5
 5
 5
 5
 5
 5
 5
 5
 5
 5
 5
 5
 5
 5
 5
 5
 5
 5
 5
 5
 5
 5
 5
 5
 5
 5
 5
 5
 5
 5
 5
 5
 5
 5
 5
 5
 5
 5
 5
 5
 5
 5
 5
 5
 5
 5
 5
 5
 5
 5
 5
 5
 5
 5
 5
 5
 5
 5
 5
 5
 5
 5
 5
 5
 5
 5
 5
 5
 5
 5
 5
 5
 5
 5
 5
 5
 5
 5
 5
 5
 5
 5
 5
 5
 5
 5
 5
 5
 5
 5
 5
 5
 5
 5
 5
 5
 5
 5
 5
 5
 5
 5
 5
 5
 5
 5
 5
 5
 5
 5
 5
 5
 5
 5
 5
 5
 5
 5
 5
 5
 5
 5
 5
 5
 5
 5
 5
 5
 5
 5
 5
 5
 5
 5
 5
 5
 5
 5
 5
 5
 5
 5
 5
 5
 5
 5
 5
 5
 5
 5
 5
 5
 5
 5
 5
 5
 5
 5
 5
 5
 5
 5
 5
 5
 5
 5
 5
 5
 5
 5
 5
 5
 5
 5
 5
 5
 5
 5
 5
 5
 5
 5
 5
 5
 5
 5
 5
 5
 5
 5
 5
 5
 5
 5
 5
 5
 5
 5
 5
 5
 5
 5
 5
 5
 5
 5
 5
 5
 5
 5
 5
 5
 5
 5
 5
 5
 5
 5
 5
 5
 5
 5
 5
 5
 5
 5
 5
 5
 5
 5
 5
 5
 5
 5
 5
 5
 5
 5
 5
 5
 5
 5
 5
 5
 5
 5
 5
 5
 5
 5
 5
 5
 5
 5
 5
 5
 5
 5
 5
 5
 5
 5
 5
 5
 5
 5
 5
 5
 5
 5
 5
 5
 5
 5
 5
 5
 5
 5
 5
 5
 5
 5
 5
 5
 5
 5
 5
 5
 5
 5
 5
 5
 5
 5
 5
 5
 5
 5
 5
 5
 5
 5
 5
 5
 5
 5
 5
 5
 5
 5
 5
 5
 5
 5
 5
 5
 5
 5
 5
 5
 5
 5
 5
 5
 5
 5
 5
 5
 5
 5
 5
 5
 5
 5
 5
 5
 5
 5
 5
 5
 5
 5
 5
 5
 5
 5
 5
 5
 5
 5
 5
 5
 5
 5
 5
 5
 5
 5
 5
 5
 5
 5
 5
 5
 5
 5
 5
 5
 5
 5
 5
 5
 5
 5
 5
 5
 5
 5
 5
 5
 5
 5
 5
 5
 5
 5
 5
 5
 5
 5
 5
 5
 5
 5
 5
 5
 5
 5
 5
 5
 5
 5
 5
 5
 5
 5
 5
 5
 5
 5
 5
 5
 5
 5
 5
 5
 5
 5
 5
 5
 5
 5
 5
 5
 5
 5
 5
 5
 5
 5
 5
 5
 5
 5
 5
 5
 5
 5
 5
 5
 5
 5
 5
 5
 5
 5
 5
 5
 5
 5
 5
 5
 5
 5
 5
 5
 5
 5
 5
 5
 5
 5
 5
 5
 5
 5
 5
 5
 5
 5
 5
 5
 5
 5
 5
 5
 5
 5
 5
 5
 5
 5
 5
 5
 5
 5
 5
 5
 5
 5
 5
 5
 5
 5
 5
 5
 5
 5
 5
 5
 5
 5
 5
 5
 5
 5
 5
 5
 5
 5
 5
 5
 5
 5
 5
 5
 5
 5
 5
 5
 5
 5
 5
 5
 5
 5
 5
 5
 5
 5
 5
 5
 5
 5
 5
 5
 5
 5
 5
 5
 5
 5
 5
 5
 5
 5
 5
 5
 5
 5
 5
 5
 5
 5
 5
 5
 5
 5
 5
 5
 5
 5
 5
 5
 5
 5
 5
 5
 5
 5
 5
 5
 5
 5
 5
 5
 5
 5
 5
 5
 5
 5
 5
 5
 5
 5
 5
 5
 5
 5
 5
 5
 5
 5
 5
 5
 5
 5
 5
 5
 5
 5
 5
 5
 5
 5
 5
 5
 5
 5
 5
 5
 5
 5
 5
 5
 5
 5
 5
 5
 5
 5
 5
 5
 5
 5
 5
 5
 5
 5
 5
 5
 5
 5
 5
 5
 5
 5
 5
 5
 5
 5
 5
 5
 5
 5
 5
 5
 5
 5
 5
 5
 5
 5
 5
 5
 5
 5
 5
 5
 5
 5
 5
 5
 5
 5
 5
 5
 5
 5
 5
 5
 5
 5
 5
 5
 5
 5
 5
 5
 5
 5
 5
 5
 5
 5
 5
 5
 5
 5
 5
 5
 5
 5
 5
 5
 5
 5
 5
 5
 5
 5
 5
 5
 5
 5
 5
 5
 5
 5
 5
 5
 5
 5
 5
 5
 5
 5
 5
 5
 5
 5
 5
 5
 5
 5
 5
 5
 5
 5
 5
 5
 5
 5
 5
 5
 5
 5
 5
 5
 5
 5
 5
 5
 5
 5
 5
 5
 5
 5
 5
 5
 5
 5
 5
 5
 5
 5
 5
 5
 5
 5
 5
 5
 5
 5
 5
 5
 5
 5
 5
 5
 5
 5
 5
 5
 5
 5
 5
 5
 5
 5
 5
 5
 5
 5
 5
 5
 5
 5
 5
 5
 5
 5
 5
 5
 5
 5
 5
 5
 5
 5
 5
 5
 5
 5
 5
 5
 5
 5
 5
 5
 5
 5
 5
 5
 5
 5
 5
 5
 5
 5
 5
 5
 5
 5
 5
 5
 5
 5
 5
 5
 5
 5
 5
 5
 5
 5
 5
 5
 5
 5
 5
 5
 5
 5
 5
 5
 5
 5
 5
 5
 5
 5
 5
 5
 5
 5
 5
 5
 5
 5
 5
 5
 5
 5
 5
 5
 5
 5
 5
 5
 5
 5
 5
 5
 5
 5
 5
 5
 5
 5
 5
 5
 5
 5
 5
 5
 5
 5
 5
 5
 5
 5
 5
 5
 5
 5
 5
 5
 5
 5
 5
 5
 5
 5
 5
 5
 5
 5
 5
 5
 5
 5
 5
 5
 5
 5
 5
 5
 5
 5
 5
 5
 5
 5
 5
 5
 5
 5
 5
 5
 5
 5
 5
 5
 5
 5
 5
 5
 5
 5
 5
 5
 5
 5
 5
 5
 5
 5
 5
 5
 5
 5
 5
 5
 5
 5
 5
 5
 5
 5
 5
 5
 5
 5
 5
 5
 5
 5
 5
 5
 5
 5
 5
 5
 5
 5
 5
 5
 5
 5
 5
 5
 5
 5
 5
 5
 5
 5
 5
 5
 5
 5
 5
 5
 5
 5
 5
 5
 5
 5
 5
 5
 5
 5
 5
 5
 5
 5
 5
 5
 5
 5
 5
 5
 5
 5
 5
 5
 5
 5
 5
 5
 5
 5
 5
 5
 5
 5
 5
 5
 5
 5
 5
 5
 5
 5
 5
 5
 5
 5
 5
 5
 5
 5
 5
 5
 5
 5
 5
 5
 5
 5
 5
 5
 5
 5
 5
 5
 5
 5
 5
 5
 5
 5
 5
 5
 5
 5
 5
 5
 5
 5
 5
 5
 5
 5
 5
 5
 5
 5
 5
 5
 5
 5
 5
 5
 5
 5
 5
 5
 5
 5
 5
 5
 5
 5
 5
 5
 5
 5
 5
 5
 5
 5
 5
 5
 5
 5
 5
 5
 5
 5
 5
 5
 5
 5
 5
 5
 5
 5
 5
 5
 5
 5
 5
 5
 5
 5
 5
 5
 5
 5
 5
 5
 5
 5
 5
 5
 5
 5
 5
 5
 5
 5
 5
 5
 5
 5
 5
 5
 5
 5
 5
 5
 5
 5
 5
 5
 5
 5
 5
 5
 5
 5
 5
 5
 5
 5
 5
 5
 5
 5
 5
 5
 5
 5
 5
 5
 5
 5
 5
 5
 5
 5
 5
 5
 5
 5
 5
 5
 5
 5
 5
 5
 5
 5
 5
 5
 5
 5
 5
 5
 5
 5
 5
 5
 5
 5
 5
 5
 5
 5
 5
 5
 5
 5
 5
 5
 5
 5
 5
 5
 5
 5
 5
 5
 5
 5
 5
 5
 5
 5
 5
 5
 5
 5
 5
 5
 5
 5
 5
 5
 5
 5
 5
 5
 5
 5
 5
 5
 5
 5
 5
 5
 5
 5
 5
 5
 5
 5
 5
 5
 5
 5
 5
 5
 5
 5
 5
 5
 5
 5
 5
 5
 5
 5
 5
 5
 5
 5
 5
 5
 5
 5
 5
 5
 5
 5
 5
 5
 5
 5
 5
 5
 5
 5
 5
 5
 5
 5
 5
 5
 5
 5
 5
 5
 5
 5
 5
 5
 5
 5
 5
 5
 5
 5
 5
 5
 5
 5
 5
 5
 5
 5
 5
 5
 5
 5
 5
 5
 5
 5
 5
 5
 5
 5
 5
 5
 5
 5
 5
 5
 5
 5
 5
 5
 5
 5
 5
 5
 5
 5
 5
 5
 5
 5
 5
 5
 5
 5
 5
 5
 5
 5
 5
 5
 5
 5
 5
 5
 5
 5
 5
 5
 5
 5
 5
 5
 5
 5
 5
 5
 5
 5
 5
 5
 5
 5
 5
 5
 5
 5
 5
 5
 5
 5
 5
 5
 5
 5
 5
 5
 5
 5
 5
 5
 5
 5
 5
 5
 5
 5
 5
 5
 5
 5
 5
 5
 5
 5
 5
 5
 5
 5
 5
 5
 5
 5
 5
 5
 5
 5
 5
 5
 5
 5
 5
 5
 5
 5
 5
 5
 5
 5
 5
 5
 5
 5
 5
 5
 5
 5
 5
 5
 5
 5
 5
 5
 5
 5
 5
 5
 5
 5
 5
 5
 5
 5
 5
 5
 5
 5
 5
 5
 5
 5
 5
 5
 5
 5
 5
 5
 5
 5
 5
 5
 5
 5
 5
 5
 5
 5
 5
 5
 5
 5
 5
 5
 5
 5
 5
 5
 5
 5
 5
 5
 5
 5
 5
 5
 5
 5
 5
 5
 5
 5
 5
 5
 5
 5
 5
 5
 5
 5
 5
 5
 5
 5
 5
 5
 5
 5
 5
 5
 5
 5
 5
 5
 5
 5
 5
 5
 5
 5
 5
 5
 5
 5
 5
 5
 5
 5
 5
 5
 5
 5
 5
 5
 5
 5
 5
 5
 5
 5
 5
 5
 5
 5
 5
 5
 5
 5
 5
 5
 5
 5
 5
 5
 5
 5
 5
 5
 5
 5
 5
 5
 5
 5
 5
 5
 5
 5
 5
 5
 5
 5
 5
 5
 5
 5
 5
 5
 5
 5
 5
 5
 5
 5
 5
 5
 5
 5
 5
 5
 5
 5
 5
 5
 5
 5
 5
 5
 5
 5
 5
 5
 5
 5
 5
 5
 5
 5
 5
 5
 5
 5
 5
 5
 5
 5
 5
 5
 5
 5
 5
 5
 5
 5
 5
 5
 5
 5
 5
 5
 5
 5
 5
 5
 5
 5
 5
 5
 5
 5
 5
 5
 5
 5
 5
 5
 5
 5
 5
 5
 5
 5
 5
 5
 5
 5
 5
 5
 5
 5
 5
 5
 5
 5
 5
 5
 5
 5
 5
 5
 5
 5
 5
 5
 5
 5
 5
 5
 5
 5
 5
 5
 5
 5
 5
 5
 5
 5
 5
 5
 5
 5
 5
 5
 5
 5
 5
 5
 5
 5
 5
 5
 5
 5
 5
 5
 5
 5
 5
 5
 5
 5
 5
 5
 5
 5
 5
 5
 5
 5
 5
 5
 5
 5
 5
 5
 5
 5
 5
 5
 5
 5
 5
 5
 5
 5
 5
 5
 5
 5
 5
 5
 5
 5
 5
 5
 5
 5
 5
 5
 5
 5
 5
 5
 5
 5
 5
 5
 5
 5
 5
 5
 5
 5
 5
 5
 5
 5
 5
 5
 5
 5
 5
 5
 5
 5
 5
 5
 5
 5
 5
 5
 5
 5
 5
 5
 5
 5
 5
 5
 5
 5
 5
 5
 5
 5
 5
 5
 5
 5
 5
 5
 5
 5
 5
 5
 5
 5
 5
 5
 5
 5
 5
 5
 5
 5
 5
 5
 5
 5
 5
 5
 5
 5
 5
 5
 5
 5
 5
 5
 5
 5
 5
 5
 5
 5
 5
 5
 5
 5
 5
 5
 5
 5
 5
 5
 5
 5
 5
 5
 5
 5
 5
 5
 5
 5
 5
 5
 5
 5
 5
 5
 5
 5
 5
 5
 5
 5
 5
 5
 5
 5
 5
 5
 5
 5
 5
 5
 5
 5
 5
 5
 5
 5
 5
 5
 5
 5
 5
 5
 5
 5
 5
 5
 5
 5
 5
 5
 5
 5
 5
 5
 5
 5
 5
 5
 5
 5
 5
 5
 5
 5
 5
 5
 5
 5
 5
 5
 5
 5
 5
 5
 5
 5
 5
 5
 5
 5
 5
 5
 5
 5
 5
 5
 5
 5
 5
 5
 5
 5
 5
 5
 5
 5
 5
 5
 5
 5
 5
 5
 5
 5
 5
 5
 5
 5
 5
 5
 5
 5
 5
 5
 5
 5
 5
 5
 5
 5
 5
 5
 5
 5
 5
 5
 5
 5
 5
 5
 5
 5
 5
 5
 5
 5
 5
 5
 5
 5
 5
 5
 5
 5
 5
 5
 5
 5
 5
 5
 5
 5
 5
 5
 5
 5
 5
 5
 5
 5
 5
 5
 5
 5
 5
 5
 5
 5
 5
 5
 5
 5
 5
 5
 5
 5
 5
 5
 5
 5
 5
 5
 5
 5
 5
 5
 5
 5
 5
 5
 5
 5
 5
 5
 5
 5
 5
 5
 5
 5
 5
 5
 5
 5
 5
 5
 5
 5
 5
 5
 5
 5
 5
 5
 5
 5
 5
 5
 5
 5
 5
 5
 5
 5
 5
 5
 5
 5
 5
 5
 5
 5
 5
 5
 5
 5
 5
 5
 5
 5
 5
 5
 5
 5
 5
 5
 5
 5
 5
 5
 5
 5
 5
 5
 5
 5
 5
 5
 5
 5
 5
 5
 5
 5
 5
 5
 5
 5
 5
 5
 5
 5
 5
 5
 5
 5
 5
 5
 5
 5
 5
 5
 5
 5
 5
 5
 5
 5
 5
 5
 5
 5
 5
 5
 5
 5
 5
 5
 5
 5
 5
 5
 5
 5
 5
 5
 5
 5
 5
 5
 5
 5
 5
 5
 5
 5
 5
 5
 5
 5
 5
 5
 5
 5
 5
 5
 5
 5
 5
 5
 5
 5
 5
 5
 5
 5
 5
 5
 5
 5
 5
 5
 5
 5
 5
 5
 5
 5
 5
 5
 5
 5
 5
 5
 5
 5
 5
 5
 5
 5
 5
 5
 5
 5
 5
 5
 5
 5
 5
 5
 5
 5
 5
 5
 5
 5
 5
 5
 5
 5
 5
 5
 5
 5
 5
 5
 5
 5
 5
 5
 5
 5
 5
 5
 5
 5
 5
 5
 5
 5
 5
 5
 5
 5
 5
 5
 5
 5
 5
 5
 5
 5
 5
 5
 5
 5
 5
 5
 5
 5
 5
 5
 5
 5
 5
 5
 5
 5
 5
 5
 5
 5
 5
 5
 5
 5
 5
 5
 5
 5
 5
 5
 5
 5
 5
 5
 5
 5
 5
 5
 5
 5
 5
 5
 5
 5
 5
 5
 5
 5
 5
 5
 5
 5
 5
 5
 5
 5
 5
 5
 5
 5
 5
 5
 5
 5
 5
 5
 5
 5
 5
 5
 5
 5
 5
 5
 5
 5
 5
 5
 5
 5
 5
 5
 5
 5
 5
 5
 5
 5
 5
 5
 5
 5
 5
 5
 5
 5
 5
 5
 5
 5
 5
 5
 5
 5
 5
 5
 5
 5
 5
 5
 5
 5
 5
 5
 5
 5
 5
 5
 5
 5
 5
 5
 5
 5
 5
 5
 5
 5
 5
 5
 5
 5
 5
 5
 5
 5
 5
 5
 5
 5
 5
 5
 5
 5
 5
 5
 5
 5
 5
 5
 5
 5
 5
 5
 5
 5
 5
 5
 5
 5
 5
 5
 5
 5
 5
 5
 5
 5
 5
 5
 5
 5
 5
 5
 5
 5
 5
 5
 5
 5
 5
 5
 5
 5
 5
 5
 5
 5
 5
 5
 5
 5
 5
 5
 5
 5
 5
 5
 5
 5
 5
 5
 5
 5
 5
 5
 5
 5
 5
 5
 5
 5
 5
 5
 5
 5
 5
 5
 5
 5
 5
 5
 5
 5
 5
 5
 5
 5
 5
 5
 5
 5
 5
 5
 5
 5
 5
 5
 5
 5
 5
 5
 5
 5
 5
 5
 5
 5
 5
 5
 5
 5
 5
 5
 5
 5
 5
 5
 5
 5
 5
 5
 5
 5
 5
 5
 5
 5
 5
 5
 5
 5
 5
 5
 5
 5
 5
 5
 5
 5
 5
 5
 5
 5
 5
 5
 5
 5
 5
 5
 5
 5
 5
 5
 5
 5
 5
 5
 5
 5
 5
 5
 5
 5
 5
 5
 5
 5
 5
 5
 5
 5
 5
 5
 5
 5
 5
 5
 5
 5
 5
 5
 5
 5
 5
 5
 5
 5
 5
 5
 5
 5
 5
 5
 5
 5
 5
 5
 5
 5
 5
 5
 5
 5
 5
 5
 5
 5
 5
 5
 5
 5
 5
 5
 5
 5
 5
 5
 5
 5
 5
 5
 5
 5
 5
 5
 5
 5
 5
 5
 5
 5
 5
 5
 5
 5
 5
 5
 5
 5
 5
 5
 5
 5
 5
 5
 5
 5
 5
 5
 5
 5
 5
 5
 5
 5
 5
 5
 5
 5
 5
 5
 5
 5
 5
 5
 5
 5
 5
 5
 5
 5
 5
 5
 5
 5
 5
 5
 5
 5
 5
 5
 5
 5
 5
 5
 5
 5
 5
 5
 5
 5
 5
 5
 5
 5
 5
 5
 5
 5
 5
 5
 5
 5
 5
 5
 5
 5
 5
 5
 5
 5
 5
 5
 5
 5
 5
 5
 5
 5
 5
 5
 5
 5
 5
 5
 5
 5
 5
 5
 5
 5
 5
 5
 5
 5
 5
 5
 5
 5
 5
 5
 5
 5
 5
 5
 5
 5
 5
 5
 5
 5
 5
 5
 5
 5
 5
 5
 5
 5
 5
 5
 5
 5
 5
 5
 5
 5
 5
 5
 5
 5
 5
 5
 5
 5
 5
 5
 5
 5
 5
 5
 5
 5
 5
 5
 5
 5
 5
 5
 5
 5
 5
 5
 5
 5
 5
 5
 5
 5
 5
 5
 5
 5
 5
 5
 5
 5
 5
 5
 5
 5
 5
 5
 5
 5
 5
 5
 5
 5
 5
 5
 5
 5
 5
 5
 5
 5
 5
 5
 5
 5
 5
 5
 5
 5
 5
 5
 5
 5
 5
 5
 5
 5
 5
 5
 5
 5
 5
 5
 5
 5
 5
 5
 5
 5
 5
 5
 5
 5
 5
 5
 5
 5
 5
 5
 5
 5
 5
 5
 5
 5
 5
 5
 5
 5
 5
 5
 5
 5
 5
 5
 5
 5
 5
 5
 5
 5
 5
 5
 5
 5
 5
 5
 5
 5
 5
 5
 5
 5
 5
 5
 5
 5
 5
 5
 5
 5
 5
 5
 5
 5
 5
 5
 5
 5
 5
 5
 5
 5
 5
 5
 5
 5
 5
 5
 5
 5
 5
 5
 5
 5
 5
 5
 5
 5
 5
 5
 5
 5
 5
 5
 5
 5
 5
 5
 5
 5
 5
 5
 5
 5
 5
 5
 5
 5
 5
 5
 5
 5
 5
 5
 5
 5
 5
 5
 5
 5
 5
 5
 5
 5
 5
 5
 5
 5
 5
 5
 5
 5
 5
 5
 5
 5
 5
 5
 5
 5
 5
 5
 5
 5
 5
 5
 5
 5
 5
 5
 5
 5
 5
 5
 5
 5
 5
 5
 5
 5
 5
 5
 5
 5
 5
 5
 5
 5
 5
 5
 5
 5
 5
 5
 5
 5
 5
 5
 5
 5
 5
 5
 5
 5
 5
 5
 5
 5
 5
 5
 5
 5
 5
 5
 5
 5
 5
 5
 5
 5
 5
 5
 5
 5
 5
 5
 5
 5
 5
 5
 5
 5
 5
 5
 5
 5
 5
 5
 5
 5
 5
 5
 5
 5
 5
 5
 5
 5
 5
 5
 5
 5
 5
 5
 5
 5
 5
 5
 5
 5
 5
 5
 5
 5
 5
 5
 5
 5
 5
 5
 5
 5
 5
 5
 5
 5
 5
 5
 5
 5
 5
 5
 5
 5
 5
 5
 5
 5
 5
 5
 5
 5
 5
 5
 5
 5
 5
 5
 5
 5
 5
 5
 5
 5
 5
 5
 5
 5
 5
 5
 5
 5
 5
 5
 5
 5
 5
 5
 5
 5
 5
 5
 5
 5
 5
 5
 5
 5
 5
 5
 5
 5
 5
 5
 5
 5
 5
 5
 5
 5
 5
 5
 5
 5
 5
 5
 5
 5
 5
 5
 5
 5
 5
 5
 5
 5
 5
 5
 5
 5
 5
 5
 5
 5
 5
 5
 5
 5
 5
 5
 5
 5
 5
 5
 5
 5
 5
 5
 5
 5
 5
 5
 5
 5
 5
 5
 5
 5
 5
 5
 5
 5
 5
 5
 5
 5
 5
 5
 5
 5
 5
 5
 5
 5
 5
 5
 5
 5
 5
 5
 5
 5
 5
 5
 5
 5
 5
 5
 5
 5
 5
 5
 5
 5
 5
 5
 5
 5
 5
 5
 5
 5
 5
 5
 5
 5
 5
 5
 5
 5
 5
 5
 5
 5
 5
 5
 5
 5
 5
 5
 5
 5
 5
 5
 5
 5
 5
 5
 5
 5
 5
 5
 5
 5
 5
 5
 5
 5
 5
 5
 5
 5
 5
 5
 5
 5
 5
 5
 5
 5
 5
 5
 5
 5
 5
 5
 5
 5
 5
 5
 5
 5
 5
 5
 5
 5
 5
 5
 5
 5
 5
 5
 5
 5
 5
 5
 5
 5
 5
 5
 5
 5
 5
 5
 5
 5
 5
 5
 5
 5
 5
 5
 5
 5
 5
 5
 5
 5
 5
 5
 5
 5
 5
 5
 5
 5
 5
 5
 5
 5
 5
 5
 5
 5
 5
 5
 5
 5
 5
 5
 5
 5
 5
 5
 5
 5
 5
 5
 5
 5
 5
 5
 5
 5
 5
 5
 5
 5
 5
 5
 5
 5
 5
 5
 5
 5
 5
 5
 5
 5
 5
 5
 5
 5
 5
 5
 5
 5
 5
 5
 5
 5
 5
 5
 5
 5
 5
 5
 5
 5
 5
 5
 5
 5
 5
 5
 5
 5
 5
 5
 5
 5
 5
 5
 5
 5
 5
 5
 5
 5
 5
 5
 5
 5
 5
 5
 5
 5
 5
 5
 5
 5
 5
 5
 5
 5
 5
 5
 5
 5
 5
 5
 5
 5
 5
 5
 5
 5
 5
 5
 5
 5
 5
 5
 5
 5
 5
 5
 5
 5
 5
 5
 5
 5
 5
 5
 5
 5
 5
 5
 5
 5
 5
 5
 5
 5
 5
 5
 5
 5
 5
 5
 5
 5
 5
 5
 5
 5
 5
 5
 5
 5
 5
 5
 5
 5
 5
 5
 5
 5
 5
 5
 5
 5
 5
 5
 5
 5
 5
 5
 5
 5
 5
 5
 5
 5
 5
 5
 5
 5
 5
 5
 5
 5
 5
 5
 5
 5
 5
 5
 5
 5
 5
 5
 5
 5
 5
 5
 5
 5
 5
 5
 5
 5
 5
 5
 5
 5
 5
 5
 5
 5
 5
 5
 5
 5
 5
 5
 5
 5
 5
 5
 5
 5
 5
 5
 5
 5
 5
 5
 5
 5
 5
 5
 5
 5
 5
 5
 5
 5
 5
 5
 5
 5
 5
 5
 5
 5
 5
 5
 5
 5
 5
 5
 5
 5
 5
 5
 5
 5
 5
 5
 5
 5
 5
 5
 5
 5
 5
 5
 5
 5
 5
 5
 5
 5
 5
 5
 5
 5
 5
 5
 5
 5
 5
 5
 5
 5
 5
 5
 5
 5
 5
 5
 5
 5
 5
 5
 5
 5
 5
 5
 5
 5
 5
 5
 5
 5
 5
 5
 5
 5
 5
 5
 5
 5
 5
 5
 5
 5
 5
 5
 5
 5
 5
 5
 5
 5
 5
 5
 5
 5
 5
 5
 5
 5
 5
 5
 5
 5
 5
 5
 5
 5
 5
 5
 5
 5
 5
 5
 5
 5
 5
 5
 5
 5
 5
 5
 5
 5
 5
 5
 5
 5
 5
 5
 5
 5
 5
 5
 5
 5
 5
 5
 5
 5
 5
 5
 5
 5
 5
 5
 5
 5
 5
 5
 5
 5
 5
 5
 5
 5
 5
 5
 5
 5
 5
 5
 5
 5
 5
 5
 5
 5
 5
 5
 5
 5
 5
 5
 5
 5
 5
 5
 5
 5
 5
 5
 5
 5
 5
 5
 5
 5
 5
 5
 5
 5
 5
 5
 5
 5
 5
 5
 5
 5
 5
 5
 5
 5
 5
 5
 5
 5
 5
 5
 5
 5
 5
 5
 5
 5
 5
 5
 5
 5
 5
 5
 5
 5
 5
 5
 5
 5
 5
 5
 5
 5
 5
 5
 5
 5
 5
 5
 5
 5
 5
 5
 5
 5
 5
 5
 5
 5
 5
 5
 5
 5
 5
 5
 5
 5
 5
 5
 5
 5
 5
 5
 5
 5
 5
 5
 5
 5
 5
 5
 5
 5
 5
 5
 5
 5
 5
 5
 5
 5
 5
 5
 5
 5
 5
 5
 5
 5
 5
 5
 5
 5
 5
 5
 5
 5
 5
 5
 5
 5
 5
 5
 5
 5
 5
 5
 5
 5
 5
 5
 5
 5
 5
 5
 5
 5
 5
 5
 5
 5
 5
 5
 5
 5
 5
 5
 5
 5
 5
 5
 5
 5
 5
 5
 5
 5
 5
 5
 5
 5
 5
 5
 5
 5
 5
 5
 5
 5
 5
 5
 5
 5
 5
 5
 5
 5
 5
 5
 5
 5
 5
 5
 5
 5
 5
 5
 5
 5
 5
 5
 5
 5
 5
 5
 5
 5
 5
 5
 5
 5
 5
 5
 5
 5
 5
 5
 5
 5
 5
 5
 5
 5
 5
 5
 5
 5
 5
 5
 5
 5
 5
 5
 5
 5
 5
 5
 5
 5
 5
 5
 5
 5
 5
 5
 5
 5
 5
 5
 5
 5
 5
 5
 5
 5
 5
 5
 5
 5
 5
 5
 5
 5
 5
 5
 5
 5
 5
 5
 5
 5
 5
 5
 5
 5
 5
 5
 5
 5
 5
 5
 5
 5
 5
 5
 5
 5
 5
 5
 5
 5
 5
 5
 5
 5
 5
 5
 5
 5
 5
 5
 5
 5
 5
 5
 5
 5
 5
 5
 5
 5
 5
 5
 5
 5
 5
 5
 5
 5
 5
 5
 5
 5
 5
 5
 5
 5
 5
 5
 5
 5
 5
 5
 5
 5
 5
 5
 5
 5
 5
 5
 5
 5
 5
 5
 5
 5
 5
 5
 5
 5
 5
 5
 5
 5
 5
 5
 5
 5
 5
 5
 5
 5
 5
 5
 5
 5
 5
 5
 5
 5
 5
 5
 5
 5
 5
 5
 5
 5
 5
 5
 5
 5
 5
 5
 5
 5
 5
 5
 5
 5
 5
 5
 5
 5
 5
 5
 5
 5
 5
 5
 5
 5
 5
 5
 5
 5
 5
 5
 5
 5
 5
 5
 5
 5
 5
 5
 5
 5
 5
 5
 5
 5
 5
 5
 5
 5
 5
 5
 5
 5
 5
 5
 5
 5
 5
 5
 5
 5
 5
 5
 5
 5
 5
 5
 5
 5
 5
 5
 5
 5
 5
 5
 5
 5
 5
 5
 5
 5
 5
 5
 5
 5
 5
 5
 5
 5
 5
 5
 5
 5
 5
 5
 5
 5
 5
 5
 5
 5
 5
 5
 5
 5
 5
 5
 5
 5
 5
 5
 5
 5
 5
 5
 5
 5
 5
 5
 5
 5
 5
 5
 5
 5
 5
 5
 5
 5
 5
 5
 5
 5
 5
 5
 5
 5
 5
 5
 5
 5
 5
 5
 5
 5
 5
 5
 5
 5
 5
 5
 5
 5
 5
 5
 5
 5
 5
 5
 5
 5
 5
 5
 5
 5
 5
 5
 5
 5
 5
 5
 5
 5
 5
 5
 5
 5
 5
 5
 5
 5
 5
 5
 5
 5
 5
 5
 5
 5
 5
 5
 5
 5
 5
 5
 5
 5
 5
 5
 5
 5
 5
 5
 5
 5
 5
 5
 5
 5
 5
 5
 5
 5
 5
 5
 5
 5
 5
 5
 5
 5
 5
 5
 5
 5
 5
 5
 5
 5
 5
 5
 5
 5
 5
 5
 5
 5
 5
 5
 5
 5
 5
 5
 5
 5
 5
 5
 5
 5
 5
 5
 5
 5
 5
 5
 5
 5
 5
 5
 5
 5
 5
 5
 5
 5
 5
 5
 5
 5
 5
 5
 5
 5
 5
 5
 5
 5
 5
 5
 5
 5
 5
 5
 5
 5
 5
 5
 5
 5
 5
 5
 5
 5
 5
 5
 5
 5
 5
 5
 5
 5
 5
 5
 5
 5
 5
 5
 5
 5
 5
 5
 5
 5
 5
 5
 5
 5
 5
 5
 5
 5
 5
 5
 5
 5
 5
 5
 5
 5
 5
 5
 5
 5
 5
 5
 5
 5
 5
 5
 5
 5
 5
 5
 5
 5
 5
 5
 5
 5
 5
 5
 5
 5
 5
 5
 5
 5
 5
 5
 5
 5
 5
 5
 5
 5
 5
 5
 5
 5
 5
 5
 5
 5
 5
 5
 5
 5
 5
 5
 5
 5
 5
 5
 5
 5
 5
 5
 5
 5
 5
 5
 5
 5
 5
 5
 5
 5
 5
 5
 5
 5
 5
 5
 5
 5
 5
 5
 5
 5
 5
 5
 5
 5
 5
 5
 5
 5
 5
 5
 5
 5
 5
 5
 5
 5
 5
 5
 5
 5
 5
 5
 5
 5
 5
 5
 5
 5
 5
 5
 5
 5
 5
 5
 5
 5
 5
 5
 5
 5
 5
 5
 5
 5
 5
 5
 5
 5
 5
 5
 5
 5
 5
 5
 5
 5
 5
 5
 5
 5
 5
 5
 5
 5
 5
 5
 5
 5
 5
 5
 5
 5
 5
 5
 5
 5
 5
 5
 5
 5
 5
 5
 5
 5
 5
 5
 5
 5
 5
 5
 5
 5
 5
 5
 5
 5
 5
 5
 5
 5
 5
 5
 5
 5
 5
 5
 5
 5
 5
 5
 5
 5
 5
 5
 5
 5
 5
 5
 5
 5
 5
 5
 5
 5
 5
 5
 5
 5
 5
 5
 5
 5
 5
 5
 5
 5
 5
 5
 5
 5
 5
 5
 5
 5
 5
 5
 5
 5
 5
 5
 5
 5
 5
 5
 5
 5
 5
 5
 5
 5
 5
 5
 5
 5
 5
 5
 5
 5
 5
 5
 5
 5
 5
 5
 5
 5
 5
 5
 5
 5
 5
 5
 5
 5
 5
 5
 5
 5
 5
 5
 5
 5
 5
 5
 5
 5
 5
 5
 5
 5
 5
 5
 5
 5
 5
 5
 5
 5
 5
 5
 5
 5
 5
 5
 5
 5
 5
 5
 5
 5
 5
 5
 5
 5
 5
 5
 5
 5
 5
 5
 5
 5
 5
 5
 5
 5
 5
 5
 5
 5
 5
 5
 5
 5
 5
 5
 5
 5
 5
 5
 5
 5
 5
 5
 5
 5
 5
 5
 5
 5
 5
 5
 5
 5
 5
 5
 5
 5
 5
 5
 5
 5
 5
 5
 5
 5
 5
 5
 5
 5
 5
 5
 5
 5
 5
 5
 5
 5
 5
 5
 5
 5
 5
 5
 5
 5
 5
 5
 5
 5
 5
 5
 5
 5
 5
 5
 5
 5
 5
 5
 5
 5
 5
 5
 5
 5
 5
 5
 5
 5
 5
 5
 5
 5
 5
 5
 5
 5
 5
 5
 5
 5
 5
 5
 5
 5
 5
 5
 5
 5
 5
 5
 5
 5
 5
 5
 5
 5
 5
 5
 5
 5
 5
 5
 5
 5
 5
 5
 5
 5
 5
 5
 5
 5
 5
 5
 5
 5
 5
 5
 5
 5
 5
 5
 5
 5
 5
 5
 5
 5
 5
 5
 5
 5
 5
 5
 5
 5
 5
 5
 5
 5
 5
 5
 5
 5
 5
 5
 5
 5
 5
 5
 5
 5
 5
 5
 5
 5
 5
 5
 5
 5
 5
 5
 5
 5
 5
 5
 5
 5
 5
 5
 5
 5
 5
 5
 5
 5
 5
 5
 5
 5
 5
 5
 5
 5
 5
 5
 5
 5
 5
 5
 5
 5
 5
 5
 5
 5
 5
 5
 5
 5
 5
 5
 5
 5
 5
 5
 5
 5
 5
 5
 5
 5
 5
 5
 5
 5
 5
 5
 5
 5
 5
 5
 5
 5
 5
 5
 5
 5
 5
 5
 5
 5
 5
 5
 5
 5
 5
 5
 5
 5
 5
 5
 5
 5
 5
 5
 5
 5
 5
 5
 5
 5
 5
 5
 5
 5
 5
 5
 5
 5
 5
 5
 5
 5
 5
 5
 5
 5
 5
 5
 5
 5
 5
 5
 5
 5
 5
 5
 5
 5
 5
 5
 5
 5
 5
 5
 5
 5
 5
 5
 5
 5
 5
 5
 5
 5
 5
 5
 5
 5
 5
 5
 5
 5
 5
 5
 5
 5
 5
 5
 5
 5
 5
 5
 5
 5
 5
 5
 5
 5
 5
 5
 5
 5
 5
 5
 5
 5
 5
 5
 5
 5
 5
 5
 5
 5
 5
 5
 5
 5
 5
 5
 5
 5
 5
 5
 5
 5
 5
 5
 5
 5
 5
 5
 5
 5
 5
 5
 5
 5
 5
 5
 5
 5
 5
 5
 5
 5
 5
 5
 5
 5
 5
 5
 5
 5
 5
 5
 5
 5
 5
 5
 5
 5
 5
 5
 5
 5
 5
 5
 5
 5
 5
 5
 5
 5
 5
 5
 5
 5
 5
 5
 5
 5
 5
 5
 5
 5
 5
 5
 5
 5
 5
 5
 5
 5
 5
 5
 5
 5
 5
 5
 5
 5
 5
 5
 5
 5
 5
 5
 5
 5
 5
 5
 5
 5
 5
 5
 5
 5
 5
 5
 5
 5
 5
 5
 5
 5
 5
 5
 5
 5
 5
 5
 5
 5
 5
 5
 5
 5
 5
 5
 5
 5
 5
 5
 5
 5
 5
 5
 5
 5
 5
 5
 5
 5
 5
 5
 5
 5
 5
 5
 5
 5
 5
 5
 5
 5
 5
 5
 5
 5
 5
 5
 5
 5
 5
 5
 5
 5
 5
 5
 5
 5
 5
 5
 5
 5
 5
 5
 5
 5
 5
 5
 5
 5
 5
 5
 5
 5
 5
 5
 5
 5
 5
 5
 5
 5
 5
 5
 5
 5
 5
 5
 5
 5
 5
 5
 5
 5
 5
 5
 5
 5
 5
 5
 5
 5
 5
 5
 5
 5
 5
 5
 5
 5
 5
 5
 5
 5
 5
 5
 5
 5
 5
 5
 5
 5
 5
 5
 5
 5
 5
 5
 5
 5
 5
 5
 5
 5
 5
 5
 5
 5
 5
 5
 5
 5
 5
 5
 5
 5
 5
 5
 5
 5
 5
 5
 5
 5
 5
 5
 5
 5
 5
 5
 5
 5
 5
 5
 5
 5
 5
 5
 5
 5
 5
 5
 5
 5
 5
 5
 5
 5
 5
 5
 5
 5
 5
 5
 5
 5
 5
 5
 5
 5
 5
 5
 5
 5
 5
 5
 5
 5
 5
 5
 5
 5
 5
 5
 5
 5
 5
 5
 5
 5
 5
 5
 5
 5
 5
 5
 5
 5
 5
 5
 5
 5
 5
 5
 5
 5
 5
 5
 5
 5
 5
 5
 5
 5
 5
 5
 5
 5
 5
 5
 5
 5
 5
 5
 5
 5
 5
 5
 5
 5
 5
 5
 5
 5
 5
 5
 5
 5
 5
 5
 5
 5
 5
 5
 5
 5
 5
 5
 5
 5
 5
 5
 5
 5
 5
 5
 5
 5
 5
 5
 5
 5
 5
 5
 5
 5
 5
 5
 5
 5
 5
 5
 5
 5
 5
 5
 5
 5
 5
 5
 5
 5
 5
 5
 5
 5
 5
 5
 5
 5
 5
 5
 5
 5
 5
 5
 5
 5
 5
 5
 5
 5
 5
 5
 5
 5
 5
 5
 5
 5
 5
 5
 5
 5
 5
 5
 5
 5
 5
 5
 5
 5
 5
 5
 5
 5
 5
 5
 5
 5
 5
 5
 5
 5
 5
 5
 5
 5
 5
 5
 5
 5
 5
 5
 5
 5
 5
 5
 5
 5
 5
 5
 5
 5
 5
 5
 5
 5
 5
 5
 5
 5
 5
 5
 5
 5
 5
 5
 5
 5
 5
 5
 5
 5
 5
 5
 5
 5
 5
 5
 5
 5
 5
 5
 5
 5
 5
 5
 5
 5
 5
 5
 5
 5
 5
 5
 5
 5
 5
 5
 5
 5
 5
 5
 5
 5
 5
 5
 5
 5
 5
 5
 5
 5
 5
 5
 5
 5
 5
 5
 5
 5
 5
 5
 5
 5
 5
 5
 5
 5
 5
 5
 5
 5
 5
 5
 5
 5
 5
 5
 5
 5
 5
 5
 5
 5
 5
 5
 5
 5
 5
 5
 5
 5
 5
 5
 5
 5
 5
 5
 5
 5
 5
 5
 5
 5
 5
 5
 5
 5
 5
 5
 5
 5
 5
 5
 5
 5
 5
 5
 5
 5
 5
 5
 5
 5
 5
 5
 5
 5
 5
 5
 5
 5
 5
 5
 5
 5
 5
 5
 5
 5
 5
 5
 5
 5
 5
 5
 5
 5
 5
 5
 5
 5
 5
 5
 5
 5
 5
 5
 5
 5
 5
 5
 5
 5
 5
 5
 5
 5
 5
 5
 5
 5
 5
 5
 5
 5
 5
 5
 5
 5
 5
 5
 5
 5
 5
 5
 5
 5
 5
 5
 5
 5
 5
 5
 5
 5
 5
 5
 5
 5
 5
 5
 5
 5
 5
 5
 5
 5
 5
 5
 5
 5
 5
 5
 5
 5
 5
 5
 5
 5
 5
 5
 5
 5
 5
 5
 5
 5
 5
 5
 5
 5
 5
 5
 5
 5
 5
 5
 5
 5
 5
 5
 5
 5
 5
 5
 5
 5
 5
 5
 5
 5
 5
 5
 5
 5
 5
 5
 5
 5
 5
 5
 5
 5
 5
 5
 5
 5
 5
 5
 5
 5
 5
 5
 5
 5
 5
 5
 5
 5
 5
 5
 5
 5
 5
 5
 5
 5
 5
 5
 5
 5
 5
 5
 5
 5
 5
 5
 5
 5
 5
 5
 5
 5
 5
 5
 5
 5
 5
 5
 5
 5
 5
 5
 5
 5
 5
 5
 5
 5
 5
 5
 5
 5
 5
 5
 5
 5
 5
 5
 5
 5
 5
 5
 5
 5
 5
 5
 5
 5
 5
 5
 5
 5
 5
 5
 5
 5
 5
 5
 5
 5
 5
 5
 5
 5
 5
 5
 5
 5
 5
 5
 5
 5
 5
 5
 5
 5
 5
 5
 5
 5
 5
 5
 5
 5
 5
 5
 5
 5
 5
 5
 5
 5
 5
 5
 5
 5
 5
 5
 5
 5
 5
 5
 5
 5
 5
 5
 5
 5
 5
 5
 5
 5
 5
 5
 5
 5
 5
 5
 5
 5
 5
 5
 5
 5
 5
 5
 5
 5
 5
 5
 5
 5
 5
 5
 5
 5
 5
 5
 5
 5
 5
 5
 5
 5
 5
 5
 5
 5
 5
 5
 5
 5
 5
 5
 5
 5
 5
 5
 5
 5
 5
 5
 5
 5
 5
 5
 5
 5
 5
 5
 5
 5
 5
 5
 5
 5
 5
 5
 5
 5
 5
 5
 5
 5
 5
 5
 5
 5
 5
 5
 5
 5
 5
 5
 5
 5
 5
 5
 5
 5
 5
 5
 5
 5
 5
 5
 5
 5
 5
 5
 5
 5
 5
 5
 5
 5
 5
 5
 5
 5
 5
 5
 5
 5
 5
 5
 5
 5
 5
 5
 5
 5
 5
 5
 5
 5
 5
 5
 5
 5
 5
 5
 5
 5
 5
 5
 5
 5
 5
 5
 5
 5
 5
 5
 5
 5
 5
 5
 5
 5
 5
 5
 5
 5
 5
 5
 5
 5
 5
 5
 5
 5
 5
 5
 5
 5
 5
 5
 5
 5
 5
 5
 5
 5
 5
 5
 5
 5
 5
 5
 5
 5
 5
 5
 5
 5
 5
 5
 5
 5
 5
 5
 5
 5
 5
 5
 5
 5
 5
 5
 5
 5
 5
 5
 5
 5
 5
 5
 5
 5
 5
 5
 5
 5
 5
 5
 5
 5
 5
 5
 5
 5
 5
 5
 5
 5
 5
 5
 5
 5
 5
 5
 5
 5
 5
 5
 5
 5
 5
 5
 5
 5
 5
 5
 5
 5
 5
 5
 5
 5
 5
 5
 5
 5
 5
 5
 5
 5
 5
 5
 5
 5
 5
 5
 5
 5
 5
 5
 5
 5
 5
 5
 5
 5
 5
 5
 5
 5
 5
 5
 5
 5
 5
 5
 5
 5
 5
 5
 5
 5
 5
 5
 5
 5
 5
 5
 5
 5
 5
 5
 5
 5
 5
 5
 5
 5
 5
 5
 5
 5
 5
 5
 5
 5
 5
 5
 5
 5
 5
 5
 5
 5
 5
 5
 5
 5
 5
 5
 5
 5
 5
 5
 5
 5
 5
 5
 5
 5
 5
 5
 5
 5
 5
 5
 5
 5
 5
 5
 5
 5
 5
 5
 5
 5
 5
 5
 5
 5
 5
 5
 5
 5
 5
 5
 5
 5
 5
 5
 5
 5
 5
 5
 5
 5
 5
 5
 5
 5
 5
 5
 5
 5
 5
 5
 5
 5
 5
 5
 5
 5
 5
 5
 5
 5
 5
 5
 5
 5
 5
 5
 5
 5
 5
 5
 5
 5
 5
 5
 5
 5
 5
 5
 5
 5
 5
 5
 5
 5
 5
 5
 5
 5
 5
 5
 5
 5
 5
 5
 5
 5
 5
 5
 5
 5
 5
 5
 5
 5
 5
 5
 5
 5
 5
 5
 5
 5
 5
 5
 5
 5
 5
 5
 5
 5
 5
 5
 5
 5
 5
 5
 5
 5
 5
 5
 5
 5
 5
 5
 5
 5
 5
 5
 5
 5
 5
 5
 5
 5
 5
 5
 5
 5
 5
 5
 5
 5
 5
 5
 5
 5
 5
 5
 5
 5
 5
 5
 5
 5
 5
 5
 5
 5
 5
 5
 5
 5
 5
 5
 5
 5
 5
 5
 5
 5
 5
 5
 5
 5
 5
 5
 5
 5
 5
 5
 5
 5
 5
 5
 5
 5
 5
 5
 5
 5
 5
 5
 5
 5
 5
 5
 5
 5
 5
 5
 5
 5
 5
 5
 5
 5
 5
 5
 5
 5
 5
 5
 5
 5
 5
 5
 5
 5
 5
 5
 5
 5
 5
 5
 5
 5
 5
 5
 5
 5
 5
 5
 5
 5
 5
 5
 5
 5
 5
 5
 5
 5
 5
 5
 5
 5
 5
 5
 5
 5
 5
 5
 5
 5
 5
 5
 5
 5
 5
 5
 5
 5
 5
 5
 5
 5
 5
 5
 5
 5
 5
 5
 5
 5
 5
 5
 5
 5
 5
 5
 5
 5
 5
 5
 5
 5
 5
 5
 5
 5
 5
 5
 5
 5
 5
 5
 5
 5
 5
 5
 5
 5
 5
 5
 5
 5
 5
 5
 5
 5
 5
 5
 5
 5
 5
 5
 5
 5
 5
 5
 5
 5
 5
 5
 5
 5
 5
 5
 5
 5
 5
 5
 5
 5
 5
 5
 5
 5
 5
 5
 5
 5
 5
 5
 5
 5
 5
 5
 5
 5
 5
 5
 5
 5
 5
 5
 5
 5
 5
 5
 5
 5
 5
 5
 5
 5
 5
 5
 5
 5
 5
 5
 5
 5
 5
 5
 5
 5
 5
 5
 5
 5
 5
 5
 5
 5
 5
 5
 5
 5
 5
 5
 5
 5
 5
 5
 5
 5
 5
 5
 5
 5
 5
 5
 5
 5
 5
 5
 5
 5
 5
 5
 5
 5
 5
 5
 5
 5
 5
 5
 5
 5
 5
 5
 5
 5
 5
 5
 5
 5
 5
 5
 5
 5
 5
 5
 5
 5
 5
 5
 5
 5
 5
 5
 5
 5
 5
 5
 5
 5
 5
 5
 5
 5
 5
 5
 5
 5
 5
 5
 5
 5
 5
 5
 5
 5
 5
 5
 5
 5
 5
 5
 5
 5
 5
 5
 5
 5
 5
 5
 5
 5
 5
 5
 5
 5
 5
 5
 5
 5
 5
 5
 5
 5
 5
 5
 5
 5
 5
 5
 5
 5
 5
 5
 5
 5
 5
 5
 5
 5
 5
 5
 5
 5
 5
 5
 5
 5
 5
 5
 5
 5
 5
 5
 5
 5
 5
 5
 5
 5
 5
 5
 5
 5
 5
 5
 5
 5
 5
 5
 5
 5
 5
 5
 5
 5
 5
 5
 5
 5
 5
 5
 5
 5
 5
 5
 5
 5
 5
 5
 5
 5
 5
 5
 5
 5
 5
 5
 5
 5
 5
 5
 5
 5
 5
 5
 5
 5
 5
 5
 5
 5
 5
 5
 5
 5
 5
 5
 5
 5
 5
 5
 5
 5
 5
 5
 5
 5
 5
 5
 5
 5
 5
 5
 5
 5
 5
 5
 5
 5
 5
 5
 5
 5
 5
 5
 5
 5
 5
 5
 5
 5
 5
 5
 5
 5
 5
 5
 5
 5
 5
 5
 5
 5
 5
 5
 5
 5
 5
 5
 5
 5
 5
 5
 5
 5
 5
 5
 5
 5
 5
 5
 5
 5
 5
 5
 5
 5
 5
 5
 5
 5
 5
 5
 5
 5
 5
 5
 5
 5
 5
 5
 5
 5
 5
 5
 5
 5
 5
 5
 5
 5
 5
 5
 5
 5
 5
 5
 5
 5
 5
 5
 5
 5
 5
 5
 5
 5
 5
 5
 5
 5
 5
 5
 5
 5
 5
 5
 5
 5
 5
 5
 5
 5
 5
 5
 5
 5
 5
 5
 5
 5
 5
 5
 5
 5
 5
 5
 5
 5
 5
 5
 5
 5
 5
 5
 5
 5
 5
 5
 5
 5
 5
 5
 5
 5
 5
 5
 5
 5
 5
 5
 5
 5
 5
 5
 5
 5
 5
 5
 5
 5
 5
 5
 5
 5
 5
 5
 5
 5
 5
 5
 5
 5
 5
 5
 5
 5
 5
 5
 5
 5
 5
 5
 5
 5
 5
 5
 5
 5
 5
 5
 5
 5
 5
 5
 5
 5
 5
 5
 5
 5
 5
 5
 5
 5
 5
 5
 5
 5
 5
 5
 5
 5
 5
 5
 5
 5
 5
 5
 5
 5
 5
 5
 5
 5
 5
 5
 5
 5
 5
 5
 5
 5
 5
 5
 5
 5
 5
 5
 5
 5
 5
 5
 5
 5
 5
 5
 5
 5
 5
 5
 5
 5
 5
 5
 5
 5
 5
 5
 5
 5
 5
 5
 5
 5
 5
 5
 5
 5
 5
 5
 5
 5
 5
 5
 5
 5
 5
 5
 5
 5
 5
 5
 5
 5
 5
 5
 5
 5
 5
 5
 5
 5
 5
 5
 5
 5
 5
 5
 5
 5
 5
 5
 5
 5
 5
 5
 5
 5
 5
 5
 5
 5
 5
 5
 5
 5
 5
 5
 5
 5
 5
 5
 5
 5
 5
 5
 5
 5
 5
 5
 5
 5
 5
 5
 5
 5
 5
 5
 5
 5
 5
 5
 5
 5
 5
 5
 5
 5
 5
 5
 5
 5
 5
 5
 5
 5
 5
 5
 5
 5
 5
 5
 5
 5
 5
 5
 5
 5
 5
 5
 5
 5
 5
 5
 5
 5
 5
 5
 5
 5
 5
 5
 5
 5
 5
 5
 5
 5
 5
 5
 5
 5
 5
 5
 5
 5
 5
 5
 5
 5
 5
 5
 5
 5
 5
 5
 5
 5
 5
 5
 5
 5
 5
 5
 5
 5
 5
 5
 5
 5
 5
 5
 5
 5
 5
 5
 5
 5
 5
 5
 5
 5
 5
 5
 5
 5
 5
 5
 5
 5
 5
 5
 5
 5
 5
 5
 5
 5
 5
 5
 5
 5
 5
 5
 5
 5
 5
 5
 5
 5
 5
 5
 5
 5
 5
 5
 5
 5
 5
 5
 5
 5
 5
 5
 5
 5
 5
 5
 5
 5
 5
 5
 5
 5
 5
 5
 5
 5
 5
 5
 5
 5
 5
 5
 5
 5
 5
 5
 5
 5
 5
 5
 5
 5
 5
 5
 5
 5
 5
 5
 5
 5
 5
 5
 5
 5
 5
 5
 5
 5
 5
 5
 5
 5
 5
 5
 5
 5
 5
 5
 5
 5
 5
 5
 5
 5
 5
 5
 5
 5
 5
 5
 5
 5
 5
 5
 5
 5
 5
 5
 5
 5
 5
 5
 5
 5
 5
 5
 5
 5
 5
 5
 5
 5
 5
 5
 5
 5
 5
 5
 5
 5
 5
 5
 5
 5
 5
 5
 5
 5
 5
 5
 5
 5
 5
 5
 5
 5
 5
 5
 5
 5
 5
 5
 5
 5
 5
 5
 5
 5
 5
 5
 5
 5
 5
 5
 5
 5
 5
 5
 5
 5
 5
 5
 5
 5
 5
 5
 5
 5
 5
 5
 5
 5
 5
 5
 5
 5
 5
 5
 5
 5
 5
 5
 5
 5
 5
 5
 5
 5
 5
 5
 5
 5
 5
 5
 5
 5
 5
 5
 5
 5
 5
 5
 5
 5
 5
 5
 5
 5
 5
 5
 5
 5
 5
 5
 5
 5
 5
 5
 5
 5
 5
 5
 5
 5
 5
 5
 5
 5
 5
 5
 5
 5
 5
 5
 5
 5
 5
 5
 5
 5
 5
 5
 5
 5
 5
 5
 5
 5
 5
 5
 5
 5
 5
 5
 5
 5
 5
 5
 5
 5
 5
 5
 5
 5
 5
 5
 5
 5
 5
 5
 5
 5
 5
 5
 5
 5
 5
 5
 5
 5
 5
 5
 5
 5
 5
 5
 5
 5
 5
 5
 5
 5
 5
 5
 5
 5
 5
 5
 5
 5
 5
 5
 5
 5
 5
 5
 5
 5
 5
 5
 5
 5
 5
 5
 5
 5
 5
 5
 5
 5
 5
 5
 5
 5
 5
 5
 5
 5
 5
 5
 5
 5
 5
 5
 5
 5
 5
 5
 5
 5
 5
 5
 5
 5
 5
 5
 5
 5
 5
 5
 5
 5
 5
 5
 5
 5
 5
 5
 5
 5
 5
 5
 5
 5
 5
 5
 5
 5
 5
 5
 5
 5
 5
 5
 5
 5
 5
 5
 5
 5
 5
 5
 5
 5
 5
 5
 5
 5
 5
 5
 5
 5
 5
 5
 5
 5
 5
 5
 5
 5
 5
 5
 5
 5
 5
 5
 5
 5
 5
 5
 5
 5
 5
 5
 5
 5
 5
 5
 5
 5
 5
 5
 5
 5
 5
 5
 5
 5
 5
 5
 5
 5
 5
 5
 5
 5
 5
 5
 5
 5
 5
 5
 5
 5
 5
 5
 5
 5
 5
 5
 5
 5
 5
 5
 5
 5
 5
 5
 5
 5
 5
 5
 5
 5
 5
 5
 5
 5
 5
 5
 5
 5
 5
 5
 5
 5
 5
 5
 5
 5
 5
 5
 5
 5
 5
 5
 5
 5
 5
 5
 5
 5
 5
 5
 5
 5
 5
 5
 5
 5
 5
 5
 5
 5
 5
 5
 5
 5
 5
 5
 5
 5
 5
 5
 5
 5
 5
 5
 5
 5
 5
 5
 5
 5
 5
 5
 5
 5
 5
 5
 5
 5
 5
 5
 5
 5
 5
 5
 5
 5
 5
 5
 5
 5
 5
 5
 5
 5
 5
 5
 5
 5
 5
 5
 5
 5
 5
 5
 5
 5
 5
 5
 5
 5
 5
 5
 5
 5
 5
 5
 5
 5
 5
 5
 5
 5
 5
 5
 5
 5
 5
 5
 5
 5
 5
 5
 5
 5
 5
 5
 5
 5
 5
 5
 5
 5
 5
 5
 5
 5
 5
 5
 5
 5
 5
 5
 5
 5
 5
 5
 5
 5
 5
 5
 5
 5
 5
 5
 5
 5
 5
 5
 5
 5
 5
 5
 5
 5
 5
 5
 5
 5
 5
 5
 5
 5
 5
 5
 5
 5
 5
 5
 5
 5
 5
 5
 5
 5
 5
 5
 5
 5
 5
 5
 5
 5
 5
 5
 5
 5
 5
 5
 5
 5
 5
 5
 5
 5
 5
 5
 5
 5
 5
 5
 5
 5
 5
 5
 5
 5
 5
 5
 5
 5
 5
 5
 5
 5
 5
 5
 5
 5
 5
 5
 5
 5
 5
 5
 5
 5
 5
 5
 5
 5
 5
 5
 5
 5
 5
 5
 5
 5
 5
 5
 5
 5
 5
 5
 5
 5
 5
 5
 5
 5
 5
 5
 5
 5
 5
 5
 5
 5
 5
 5
 5
 5
 5
 5
 5
 5
 5
 5
 5
 5
 5
 5
 5
 5
 5
 5
 5
 5
 5
 5
 5
 5
 5
 5
 5
 5
 5
 5
 5
 5
 5
 5
 5
 5
 5
 5
 5
 5
 5
 5
 5
 5
 5
 5
 5
 5
 5
 5
 5
 5
 5
 5
 5
 5
 5
 5
 5
 5
 5
 5
 5
 5
 5
 5
 5
 5
 5
 5
 5
 5
 5
 5
 5
 5
 5
 5
 5
 5
 5
 5
 5
 5
 5
 5
 5
 5
 5
 5
 5
 5
 5
 5
 5
 5
 5
 5
 5
 5
 5
 5
 5
 5
 5
 5
 5
 5
 5
 5
 5
 5
 5
 5
 5
 5
 5
 5
 5
 5
 5
 5
 5
 5
 5
 5
 5
 5
 5
 5
 5
 5
 5
 5
 5
 5
 5
 5
 5
 5
 5
 5
 5
 5
 5
 5
 5
 5
 5
 5
 5
 5
 5
 5
 5
 5
 5
 5
 5
 5
 5
 5
 5
 5
 5
 5
 5
 5
 5
 5
 5
 5
 5
 5
 5
 5
 5
 5
 5
 5
 5
 5
 5
 5
 5
 5
 5
 5
 5
 5
 5
 5
 5
 5
 5
 5
 5
 5
 5
 5
 5
 5
 5
 5
 5
 5
 5
 5
 5
 5
 5
 5
 5
 5
 5
 5
 5
 5
 5
 5
 5
 5
 5
 5
 5
 5
 5
 5
 5
 5
 5
 5
 5
 5
 5
 5
 5
 5
 5
 5
 5
 5
 5
 5
 5
 5
 5
 5
 5
 5
 5
 5
 5
 5
 5
 5
 5
 5
 5
 5
 5
 5
 5
 5
 5
 5
 5
 5
 5
 5
 5
 5
 5
 5
 5
 5
 5
 5
 5
 5
 5
 5
 5
 5
 5
 5
 5
 5
 5
 5
 5
 5
 5
 5
 5
 5
 5
 5
 5
 5
 5
 5
 5
 5
 5
 5
 5
 5
 5
 5
 5
 5
 5
 5
 5
 5
 5
 5
 5
 5
 5
 5
 5
 5
 5
 5
 5
 5
 5
 5
 5
 5
 5
 5
 5
 5
 5
 5
 5
 5
 5
 5
 5
 5
 5
 5
 5
 5
 5
 5
 5
 5
 5
 5
 5
 5
 5
 5
 5
 5
 5
 5
 5
 5
 5
 5
 5
 5
 5
 5
 5
 5
 5
 5
 5
 5
 5
 5
 5
 5
 5
 5
 5
 5
 5
 5
 5
 5
 5
 5
 5
 5
 5
 5
 5
 5
 5
 5
 5
 5
 5
 5
 5
 5
 5
 5
 5
 5
 5
 5
 5
 5
 5
 5
 5
 5
 5
 5
 5
 5
 5
 5
 5
 5
 5
 5
 5
 5
 5
 5
 5
 5
 5
 5
 5
 5
 5
 5
 5
 5
 5
 5
 5
 5
 5
 5
 5
 5
 5
 5
 5
 5
 5
 5
 5
 5
 5
 5
 5
 5
 5
 5
 5
 5
 5
 5
 5
 5
 5
 5
 5
 5
 5
 5
 5
 5
 5
 5
 5
 5
 5
 5
 5
 5
 5
 5
 5
 5
 5
 5
 5
 5
 5
 5
 5
 5
 5
 5
 5
 5
 5
 5
 5
 5
 5
 5
 5
 5
 5
 5
 5
 5
 5
 5
 5
 5
 5
 5
 5
 5
 5
 5
 5
 5
 5
 5
 5
 5
 5
 5
 5
 5
 5
 5
 5
 5
 5
 5
 5
 5
 5
 5
 5
 5
 5
 5
 5
 5
 5
 5
 5
 5
 5
 5
 5
 5
 5
 5
 5
 5
 5
 5
 5
 5
 5
 5
 5
 5
 5
 5
 5
 5
 5
 5
 5
 5
 5
 5
 5
 5
 5
 5
 5
 5
 5
 5
 5
 5
 5
 5
 5
 5
 5
 5
 5
 5
 5
 5
 5
 5
 5
 5
 5
 5
 5
 5
 5
 5
 5
 5
 5
 5
 5
 5
 5
 5
 5
 5
 5
 5
 5
 5
 5
 5
 5
 5
 5
 5
 5
 5
 5
 5
 5
 5
 5
 5
 5
 5
 5
 5
 5
 5
 5
 5
 5
 5
 5
 5
 5
 5
 5
 5
 5
 5
 5
 5
 5
 5
 5
 5
 5
 5
 5
 5
 5
 5
 5
 5
 5
 5
 5
 5
 5
 5
 5
 5
 5
 5
 5
 5
 5
 5
 5
 5
 5
 5
 5
 5
 5
 5
 5
 5
 5
 5
 5
 5
 5
 5
 5
 5
 5
 5
 5
 5
 5
 5
 5
 5
 5
 5
 5
 5
 5
 5
 5
 5
 5
 5
 5
 5
 5
 5
 5
 5
 5
 5
 5
 5
 5
 5
 5
 5
 5
 5
 5
 5
 5
 5
 5
 5
 5
 5
 5
 5
 5
 5
 5
 5
 5
 5
 5
 5
 5
 5
 5
 5
 5
 5
 5
 5
 5
 5
 5
 5
 5
 5
 5
 5
 5
 5
 5
 5
 5
 5
 5
 5
 5
 5
 5
 5
 5
 5
 5
 5
 5
 5
 5
 5
 5
 5
 5
 5
 5
 5
 5
 5
 5
 5
 5
 5
 5
 5
 5
 5
 5
 5
 5
 5
 5
 5
 5
 5
 5
 5
 5
 5
 5
 5
 5
 5
 5
 5
 5
 5
 5
 5
 5
 5
 5
 5
 5
 5
 5
 5
 5
 5
 5
 5
 5
 5
 5
 5
 5
 5
 5
 5
 5
 5
 5
 5
 5
 5
 5
 5
 5
 5
 5
 5
 5
 5
 5
 5
 5
 5
 5
 5
 5
 5
 5
 5
 5
 5
 5
 5
 5
 5
 5
 5
 5
 5
 5
 5
 5
 5
 5
 5
 5
 5
 5
 5
 5
 5
 5
 5
 5
 5
 5
 5
 5
 5
 5
 5
 5
 5
 5
 5
 5
 5
 5
 5
 5
 5
 5
 5
 5
 5
 5
 5
 5
 5
 5
 5
 5
 5
 5
 5
 5
 5
 5
 5
 5
 5
 5
 5
 5
 5
 5
 5
 5
 5
 5
 5
 5
 5
 5
 5
 5
 5
 5
 5
 5
 5
 5
 5
 5
 5
 5
 5
 5
 5
 5
 5
 5
 5
 5
 5
 5
 5
 5
 5
 5
 5
 5
 5
 5
 5
 5
 5
 5
 5
 5
 5
 5
 5
 5
 5
 5
 5
 5
 5
 5
 5
 5
 5
 5
 5
 5
 5
 5
 5
 5
 5
 5
 5
 5
 5
 5
 5
 5
 5
 5
 5
 5
 5
 5
 5
 5
 5
 5
 5
 5
 5
 5
 5
 5
 5
 5
 5
 5
 5
 5
 5
 5
 5
 5
 5
 5
 5
 5
 5
 5
 5
 5
 5
 5
 5
 5
 5
 5
 5
 5
 5
 5
 5
 5
 5
 5
 5
 5
 5
 5
 5
 5
 5
 5
 5
 5
 5
 5
 5
 5
 5
 5
 5
 5
 5
 5
 5
 5
 5
 5
 5
 5
 5
 5
 5
 5
 5
 5
 5
 5
 5
 5
 5
 5
 5
 5
 5
 5
 5
 5
 5
 5
 5
 5
 5
 5
 5
 5
 5
 5
 5
 5
 5
 5
 5
 5
 5
 5
 5
 5
 5
 5
 5
 5
 5
 5
 5
 5
 5
 5
 5
 5
 5
 5
 5
 5
 5
 5
 5
 5
 5
 5
 5
 5
 5
 5
 5
 5
 5
 5
 5
 5
 5
 5
 5
 5
 5
 5
 5
 5
 5
 5
 5
 5
 5
 5
 5
 5
 5
 5
 5
 5
 5
 5
 5
 5
 5
 5
 5
 5
 5
 5
 5
 5
 5
 5
 5
 5
 5
 5
 5
 5
 5
 5
 5
 5
 5
 5
 5
 5
 5
 5
 5
 5
 5
 5
 5
 5
 5
 5
 5
 5
 5
 5
 5
 5
 5
 5
 5
 5
 5
 5
 5
 5
 5
 5
 5
 5
 5
 5
 5
 5
 5
 5
 5
 5
 5
 5
 5
 5
 5
 5
 5
 5
 5
 5
 5
 5
 5
 5
 5
 5
 5
 5
 5
 5
 5
 5
 5
 5
 5
 5
 5
 5
 5
 5
 5
 5
 5
 5
 5
 5
 5
 5
 5
 5
 5
 5
 5
 5
 5
 5
 5
 5
 5
 5
 5
 5
 5
 5
 5
 5
 5
 5
 5
 5
 5
 5
 5
 5
 5
 5
 5
 5
 5
 5
 5
 5
 5
 5
 5
 5
 5
 5
 5
 5
 5
 5
 5
 5
 5
 5
 5
 5
 5
 5
 5
 5
 5
 5
 5
 5
 5
 5
 5
 5
 5
 5
 5
 5
 5
 5
 5
 5
 5
 5
 5
 5
 5
 5
 5
 5
 5
 5
 5
 5
 5
 5
 5
 5
 5
 5
 5
 5
 5
 5
 5
 5
 5
 5
 5
 5
 5
 5
 5
 5
 5
 5
 5
 5
 5
 5
 5
 5
 5
 5
 5
 5
 5
 5
 5
 5
 5
 5
 5
 5
 5
 5
 5
 5
 5
 5
 5
 5
 5
 5
 5
 5
 5
 5
 5
 5
 5
 5
 5
 5
 5
 5
 5
 5
 5
 5
 5
 5
 5
 5
 5
 5
 5
 5
 5
 5
 5
 5
 5
 5
 5
 5
 5
 5
 5
 5
 5
 5
 5
 5
 5
 5
 5
 5
 5
 5
 5
 5
 5
 5
 5
 5
 5
 5
 5
 5
 5
 5
 5
 5
 5
 5
 5
 5
 5
 5
 5
 5
 5
 5
 5
 5
 5
 5
 5
 5
 5
 5
 5
 5
 5
 5
 5
 5
 5
 5
 5
 5
 5
 5
 5
 5
 5
 5
 5
 5
 5
 5
 5
 5
 5
 5
 5
 5
 5
 5
 5
 5
 5
 5
 5
 5
 5
 5
 5
 5
 5
 5
 5
 5
 5
 5
 5
 5
 5
 5
 5
 5
 5
 5
 5
 5
 5
 5
 5
 5
 5
 5
 5
 5
 5
 5
 5
 5
 5
 5
 5
 5
 5
 5
 5
 5
 5
 5
 5
 5
 5
 5
 5
 5
 5
 5
 5
 5
 5
 5
 5
 5
 5
 5
 5
 5
 5
 5
 5
 5
 5
 5
 5
 5
 5
 5
 5
 5
 5
 5
 5
 5
 5
 5
 5
 5
 5
 5
 5
 5
 5
 5
 5
 5
 5
 5
 5
 5
 5
 5
 5
 5
 5
 5
 5
 5
 5
 5
 5
 5
 5
 5
 5
 5
 5
 5
 5
 5
 5
 5
 5
 5
 5
 5
 5
 5
 5
 5
 5
 5
 5
 5
 5
 5
 5
 5
 5
 5
 5
 5
 5
 5
 5
 5
 5
 5
 5
 5
 5
 5
 5
 5
 5
 5
 5
 5
 5
 5
 5
 5
 5
 5
 5
 5
 5
 5
 5
 5
 5
 5
 5
 5
 5
 5
 5
 5
 5
 5
 5
 5
 5
 5
 5
 5
 5
 5
 5
 5
 5
 5
 5
 5
 5
 5
 5
 5
 5
 5
 5
 5
 5
 5
 5
 5
 5
 5
 5
 5
 5
 5
 5
 5
 5
 5
 5
 5
 5
 5
 5
 5
 5
 5
 5
 5
 5
 5
 5
 5
 5
 5
 5
 5
 5
 5
 5
 5
 5
 5
 5
 5
 5
 5
 5
 5
 5
 5
 5
 5
 5
 5
 5
 5
 5
 5
 5
 5
 5
 5
 5
 5
 5
 5
 5
 5
 5
 5
 5
 5
 5
 5
 5
 5
 5
 5
 5
 5
 5
 5
 5
 5
 5
 5
 5
 5
 5
 5
 5
 5
 5
 5
 5
 5
 5
 5
 5
 5
 5
 5
 5
 5
 5
 5
 5
 5
 5
 5
 5
 5
 5
 5
 5
 5
 5
 5
 5
 5
 5
 5
 5
 5
 5
 5
 5
 5
 5
 5
 5
 5
 5
 5
 5
 5
 5
 5
 5
 5
 5
 5
 5
 5
 5
 5
 5
 5
 5
 5
 5
 5
 5
 5
 5
 5
 5
 5
 5
 5
 5
 5
 5
 5
 5
 5
 5
 5
 5
 5
 5
 5
 5
 5
 5
 5
 5
 5
 5
 5
 5
 5
 5
 5
 5
 5
 5
 5
 5
 5
 5
 5
 5
 5
 5
 5
 5
 5
 5
 5
 5
 5
 5
 5
 5
 5
 5
 5
 5
 5
 5
 5
 5
 5
 5
 5
 5
 5
 5
 5
 5
 5
 5
 5
 5
 5
 5
 5
 5
 5
 5
 5
 5
 5
 5
 5
 5
 5
 5
 5
 5
 5
 5
 5
 5
 5
 5
 5
 5
 5
 5
 5
 5
 5
 5
 5
 5
 5
 5
 5
 5
 5
 5
 5
 5
 5
 5
 5
 5
 5
 5
 5
 5
 5
 5
 5
 5
 5
 5
 5
 5
 5
 5
 5
 5
 5
 5
 5
 5
 5
 5
 5
 5
 5
 5
 5
 5
 5
 5
 5
 5
 5
 5
 5
 5
 5
 5
 5
 5
 5
 5
 5
 5
 5
 5
 5
 5
 5
 5
 5
 5
 5
 5
 5
 5
 5
 5
 5
 5
 5
 5
 5
 5
 5
 5
 5
 5
 5
 5
 5
 5
 5
 5
 5
 5
 5
 5
 5
 5
 5
 5
 5
 5
 5
 5
 5
 5
 5
 5
 5
 5
 5
 5
 5
 5
 5
 5
 5
 5
 5
 5
 5
 5
 5
 5
 5
 5
 5
 5
 5
 5
 5
 5
 5
 5
 5
 5
 5
 5
 5
 5
 5
 5
 5
 5
 5
 5
 5
 5
 5
 5
 5
 5
 5
 5
 5
 5
 5
 5
 5
 5
 5
 5
 5
 5
 5
 5
 5
 5
 5
 5
 5
 5
 5
 5
 5
 5
 5
 5
 5
 5
 5
 5
 5
 5
 5
 5
 5
 5
 5
 5
 5
 5
 5
 5
 5
 5
 5
 5
 5
 5
 5
 5
 5
 5
 5
 5
 5
 5
 5
 5
 5
 5
 5
 5
 5
 5
 5
 5
 5
 5
 5
 5
 5
 5
 5
 5
 5
 5
 5
 5
 5
 5
 5
 5
 5
 5
 5
 5
 5
 5
 5
 5
 5
 5
 5
 5
 5
 5
 5
 5
 5
 5
 5
 5
 5
 5
 5
 5
 5
 5
 5
 5
 5
 5
 5
 5
 5
 5
 5
 5
 5
 5
 5
 5
 5
 5
 5
 5
 5
 5
 5
 5
 5
 5
 5
 5
 5
 5
 5
 5
 5
 5
 5
 5
 5
 5
 5
 5
 5
 5
 5
 5
 5
 5
 5
 5
 5
 5
 5
 5
 5
 5
 5
 5
 5
 5
 5
 5
 5
 5
 5
 5
 5
 5
 5
 5
 5
 5
 5
 5
 5
 5
 5
 5
 5
 5
 5
 5
 5
 5
 5
 5
 5
 5
 5
 5
 5
 5
 5
 5
 5
 5
 5
 5
 5
 5
 5
 5
 5
 5
 5
 5
 5
 5
 5
 5
 5
 5
 5
 5
 5
 5
 5
 5
 5
 5
 5
 5
 5
 5
 5
 5
 5
 5
 5
 5
 5
 5
 5
 5
 5
 5
 5
 5
 5
 5
 5
 5
 5
 5
 5
 5
 5
 5
 5
 5
 5
 5
 5
 5
 5
 5
 5
 5
 5
 5
 5
 5
 5
 5
 5
 5
 5
 5
 5
 5
 5
 5
 5
 5
 5
 5
 5
 5
 5
 5
 5
 5
 5
 5
 5
 5
 5
 5
 5
 5
 5
 5
 5
 5
 5
 5
 5
 5
 5
 5
 5
 5
 5
 5
 5
 5
 5
 5
 5
 5
 5
 5
 5
 5
 5
 5
 5
 5
 5
 5
 5
 5
 5
 5
 5
 5
 5
 5
 5
 5
 5
 5
 5
 5
 5
 5
 5
 5
 5
 5
 5
 5
 5
 5
 5
 5
 5
 5
 5
 5
 5
 5
 5
 5
 5
 5
 5
 5
 5
 5
 5
 5
 5
 5
 5
 5
 5
 5
 5
 5
 5
 5
 5
 5
 5
 5
 5
 5
 5
 5
 5
 5
 5
 5
 5
 5
 5
 5
 5
 5
 5
 5
 5
 5
 5
 5
 5
 5
 5
 5
 5
 5
 5
 5
 5
 5
 5
 5
 5
 5
 5
 5
 5
 5
 5
 5
 5
 5
 5
 5
 5
 5
 5
 5
 5
 5
 5
 5
 5
 5
 5
 5
 5
 5
 5
 5
 5
 5
 5
 5
 5
 5
 5
 5
 5
 5
 5
 5
 5
 5
 5
 5
 5
 5
 5
 5
 5
 5
 5
 5
 5
 5
 5
 5
 5
 5
 5
 5
 5
 5
 5
 5
 5
 5
 5
 5
 5
 5
 5
 5
 5
 5
 5
 5
 5
 5
 5
 5
 5
 5
 5
 5
 5
 5
 5
 5
 5
 5
 5
 5
 5
 5
 5
 5
 5
 5
 5
 5
 5
 5
 5
 5
 5
 5
 5
 5
 5
 5
 5
 5
 5
 5
 5
 5
 5
 5
 5
 5
 5
 5
 5
 5
 5
 5
 5
 5
 5
 5
 5
 5
 5
 5
 5
 5
 5
 5
 5
 5
 5
 5
 5
 5
 5
 5
 5
 5
 5
 5
 5
 5
 5
 5
 5
 5
 5
 5
 5
 5
 5
 5
 5
 5
 5
 5
 5
 5
 5
 5
 5
 5
 5
 5
 5
 5
 5
 5
 5
 5
 5
 5
 5
 5
 5
 5
 5
 5
 5
 5
 5
 5
 5
 5
 5
 5
 5
 5
 5
 5
 5
 5
 5
 5
 5
 5
 5
 5
 5
 5
 5
 5
 5
 5
 5
 5
 5
 5
 5
 5
 5
 5
 5
 5
 5
 5
 5
 5
 5
 5
 5
 5
 5
 5
 5
 5
 5
 5
 5
 5
 5
 5
 5
 5
 5
 5
 5
 5
 5
 5
 5
 5
 5
 5
 5
 5
 5
 5
 5
 5
 5
 5
 5
 5
 5
 5
 5
 5
 5
 5
 5
 5
 5
 5
 5
 5
 5
 5
 5
 5
 5
 5
 5
 5
 5
 5
 5
 5
 5
 5
 5
 5
 5
 5
 5
 5
 5
 5
 5
 5
 5
 5
 5
 5
 5
 5
 5
 5
 5
 5
 5
 5
 5
 5
 5
 5
 5
 5
 5
 5
 5
 5
 5
 5
 5
 5
 5
 5
 5
 5
 5
 5
 5
 5
 5
 5
 5
 5
 5
 5
 5
 5
 5
 5
 5
 5
 5
 5
 5
 5
 5
 5
 5
 5
 5
 5
 5
 5
 5
 5
 5
 5
 5
 5
 5
 5
 5
 5
 5
 5
 5
 5
 5
 5
 5
 5
 5
 5
 5
 5
 5
 5
 5
 5
 5
 5
 5
 5
 5
 5
 5
 5
 5
 5
 5
 5
 5
 5
 5
 5
 5
 5
 5
 5
 5
 5
 5
 5
 5
 5
 5
 5
 5
 5
 5
 5
 5
 5
 5
 5
 5
 5
 5
 5
 5
 5
 5
 5
 5
 5
 5
 5
 5
 5
 5
 5
 5
 5
 5
 5
 5
 5
 5
 5
 5
 5
 5
 5
 5
 5
 5
 5
 5
 5
 5
 5
 5
 5
 5
 5
 5
 5
 5
 5
 5
 5
 5
 5
 5
 5
 5
 5
 5
 5
 5
 5
 5
 5
 5
 5
 5
 5
 5
 5
 5
 5
 5
 5
 5
 5
 5
 5
 5
 5
 5
 5
 5
 5
 5
 5
 5
 5
 5
 5
 5
 5
 5
 5
 5
 5
 5
 5
 5
 5
 5
 5
 5
 5
 5
 5
 5
 5
 5
 5
 5
 5
 5
 5
 5
 5
 5
 5
 5
 5
 5
 5
 5
 5
 5
 5
 5
 5
 5
 5
 5
 5
 5
 5
 5
 5
 5
 5
 5
 5
 5
 5
 5
 5
 5
 5
 5
 5
 5
 5
 5
 5
 5
 5
 5
 5
 5
 5
 5
 5
 5
 5
 5
 5
 5
 5
 5
 5
 5
 5
 5
 5
 5
 5
 5
 5
 5
 5
 5
 5
 5
 5
 5
 5
 5
 5
 5
 5
 5
 5
 5
 5
 5
 5
 5
 5
 5
 5
 5
 5
 5
 5
 5
 5
 5
 5
 5
 5
 5
 5
 5
 5
 5
 5
 5
 5
 5
 5
 5
 5
 5
 5
 5
 5
 5
 5
 5
 5
 5
 5
 5
 5
 5
 5
 5
 5
 5
 5
 5
 5
 5
 5
 5
 5
 5
 5
 5
 5
 5
 5
 5
 5
 5
 5
 5
 5
 5
 5
 5
 5
 5
 5
 5
 5
 5
 5
 5
 5
 5
 5
 5
 5
 5
 5
 5
 5
 5
 5
 5
 5
 5
 5
 5
 5
 5
 5
 5
 5
 5
 5
 5
 5
 5
 5
 5
 5
 5
 5
 5
 5
 5
 5
 5
 5
 5
 5
 5
 5
 5
 5
 5
 5
 5
 5
 5
 5
 5
 5
 5
 5
 5
 5
 5
 5
 5
 5
 5
 5
 5
 5
 5
 5
 5
 5
 5
 5
 5
 5
 5
 5
 5
 5
 5
 5
 5
 5
 5
 5
 5
 5
 5
 5
 5
 5
 5
 5
 5
 5
 5
 5
 5
 5
 5
 5
 5
 5
 5
 5
 5
 5
 5
 5
 5
 5
 5
 5
 5
 5
 5
 5
 5
 5
 5
 5
 5
 5
 5
 5
 5
 5
 5
 5
 5
 5
 5
 5
 5
 5
 5
 5
 5
 5
 5
 5
 5
 5
 5
 5
 5
 5
 5
 5
 5
 5
 5
 5
 5
 5
 5
 5
 5
 5
 5
 5
 5
 5
 5
 5
 5
 5
 5
 5
 5
 5
 5
 5
 5
 5
 5
 5
 5
 5
 5
 5
 5
 5
 5
 5
 5
 5
 5
 5
 5
 5
 5
 5
 5
 5
 5
 5
 5
 5
 5
 5
 5
 5
 5
 5
 5
 5
 5
 5
 5
 5
 5
 5
 5
 5
 5
 5
 5
 5
 5
 5
 5
 5
 5
 5
 5
 5
 5
 5
 5
 5
 5
 5
 5
 5
 5
 5
 5
 5
 5
 5
 5
 5
 5
 5
 5
 5
 5
 5
 5
 5
 5
 5
 5
 5
 5
 5
 5
 5
 5
 5
 5
 5
 5
 5
 5
 5
 5
 5
 5
 5
 5
 5
 5
 5
 5
 5
 5
 5
 5
 5
 5
 5
 5
 5
 5
 5
 5
 5
 5
 5
 5
 5
 5
 5
 5
 5
 5
 5
 5
 5
 5
 5
 5
 5
 5
 5
 5
 5
 5
 5
 5
 5
 5
 5
 5
 5
 5
 5
 5
 5
 5
 5
 5
 5
 5
 5
 5
 5
 5
 5
 5
 5
 5
 5
 5
 5
 5
 5
 5
 5
 5
 5
 5
 5
 5
 5
 5
 5
 5
 5
 5
 5
 5
 5
 5
 5
 5
 5
 5
 5
 5
 5
 5
 5
 5
 5
 5
 5
 5
 5
 5
 5
 5
 5
 5
 5
 5
 5
 5
 5
 5
 5
 5
 5
 5
 5
 5
 5
 5
 5
 5
 5
 5
 5
 5
 5
 5
 5
 5
 5
 5
 5
 5
 5
 5
 5
 5
 5
 5
 5
 5
 5
 5
 5
 5
 5
 5
 5
 5
 5
 5
 5
 5
 5
 5
 5
 5
 5
 5
 5
 5
 5
 5
 5
 5
 5
 5
 5
 5
 5
 5
 5
 5
 5
 5
 5
 5
 5
 5
 5
 5
 5
 5
 5
 5
 5
 5
 5
 5
 5
 5
 5
 5
 5
 5
 5
 5
 5
 5
 5
 5
 5
 5
 5
 5
 5
 5
 5
 5
 5
 5
 5
 5
 5
 5
 5
 5
 5
 5
 5
 5
 5
 5
 5
 5
 5
 5
 5
 5
 5
 5
 5
 5
 5
 5
 5
 5
 5
 5
 5
 5
 5
 5
 5
 5
 5
 5
 5
 5
 5
 5
 5
 5
 5
 5
 5
 5
 5
 5
 5
 5
 5
 5
 5
 5
 5
 5
 5
 5
 5
 5
 5
 5
 5
 5
 5
 5
 5
 5
 5
 5
 5
 5
 5
 5
 5
 5
 5
 5
 5
 5
 5
 5
 5
 5
 5
 5
 5
 5
 5
 5
 5
 5
 5
 5
 5
 5
 5
 5
 5
 5
 5
 5
 5
 5
 5
 5
 5
 5
 5
 5
 5
 5
 5
 5
 5
 5
 5
 5
 5
 5
 5
 5
 5
 5
 5
 5
 5
 5
 5
 5
 5
 5
 5
 5
 5
 5
 5
 5
 5
 5
 5
 5
 5
 5
 5
 5
 5
 5
 5
 5
 5
 5
 5
 5
 5
 5
 5
 5
 5
 5
 5
 5
 5
 5
 5
 5
 5
 5
 5
 5
 5
 5
 5
 5
 5
 5
 5
 5
 5
 5
 5
 5
 5
 5
 5
 5
 5
 5
 5
 5
 5
 5
 5
 5
 5
 5
 5
 5
 5
 5
 5
 5
 5
 5
 5
 5
 5
 5
 5
 5
 5
 5
 5
 5
 5
 5
 5
 5
 5
 5
 5
 5
 5
 5
 5
 5
 5
 5
 5
 5
 5
 5
 5
 5
 5
 5
 5
 5
 5
 5
 5
 5
 5
 5
 5
 5
 5
 5
 5
 5
 5
 5
 5
 5
 5
 5
 5
 5
 5
 5
 5
 5
 5
 5
 5
 5
 5
 5
 5
 5
 5
 5
 5
 5
 5
 5
 5
 5
 5
 5
 5
 5
 5
 5
 5
 5
 5
 5
 5
 5
 5
 5
 5
 5
 5
 5
 5
 5
 5
 5
 5
 5
 5
 5
 5
 5
 5
 5
 5
 5
 5
 5
 5
 5
 5
 5
 5
 5
 5
 5
 5
 5
 5
 5
 5
 5
 5
 5
 5
 5
 5
 5
 5
 5
 5
 5
 5
 5
 5
 5
 5
 5
 5
 5
 5
 5
 5
 5
 5
 5
 5
 5
 5
 5
 5
 5
 5
 5
 5
 5
 5
 5
 5
 5
 5
 5
 5
 5
 5
 5
 5
 5
 5
 5
 5
 5
 5
 5
 5
 5
 5
 5
 5
 5
 5
 5
 5
 5
 5
 5
 5
 5
 5
 5
 5
 5
 5
 5
 5
 5
 5
 5
 5
 5
 5
 5
 5
 5
 5
 5
 5
 5
 5
 5
 5
 5
 5
 5
 5
 5
 5
 5
 5
 5
 5
 5
 5
 5
 5
 5
 5
 5
 5
 5
 5
 5
 5
 5
 5
 5
 5
 5
 5
 5
 5
 5
 5
 5
 5
 5
 5
 5
 5
 5
 5
 5
 5
 5
 5
 5
 5
 5
 5
 5
 5
 5
 5
 5
 5
 5
 5
 5
 5
 5
 5
 5
 5
 5
 5
 5
 5
 5
 5
 5
 5
 5
 5
 5
 5
 5
 5
 5
 5
 5
 5
 5
 5
 5
 5
 5
 5
 5
 5
 5
 5
 5
 5
 5
 5
 5
 5
 5
 5
 5
 5
 5
 5
 5
 5
 5
 5
 5
 5
 5
 5
 5
 5
 5
 5
 5
 5
 5
 5
 5
 5
 5
 5
 5
 5
 5
 5
 5
 5
 5
 5
 5
 5
 5
 5
 5
 5
 5
 5
 5
 5
 5
 5
 5
 5
 5
 5
 5
 5
 5
 5
 5
 5
 5
 5
 5
 5
 5
 5
 5
 5
 5
 5
 5
 5
 5
 5
 5
 5
 5
 5
 5
 5
 5
 5
 5
 5
 5
 5
 5
 5
 5
 5
 5
 5
 5
 5
 5
 5
 5
 5
 5
 5
 5
 5
 5
 5
 5
 5
 5
 5
 5
 5
 5
 5
 5
 5
 5
 5
 5
 5
 5
 5
 5
 5
 5
 5
 5
 5
 5
 5
 5
 5
 5
 5
 5
 5
 5
 5
 5
 5
 5
 5
 5
 5
 5
 5
 5
 5
 5
 5
 5
 5
 5
 5
 5
 5
 5
 5
 5
 5
 5
 5
 5
 5
 5
 5
 5
 5
 5
 5
 5
 5
 5
 5
 5
 5
 5
 5
 5
 5
 5
 5
 5
 5
 5
 5
 5
 5
 5
 5
 5
 5
 5
 5
 5
 5
 5
 5
 5
 5
 5
 5
 5
 5
 5
 5
 5
 5
 5
 5
 5
 5
 5
 5
 5
 5
 5
 5
 5
 5
 5
 5
 5
 5
 5
 5
 5
 5
 5
 5
 5
 5
 5
 5
 5
 5
 5
 5
 5
 5
 5
 5
 5
 5
 5
 5
 5
 5
 5
 5
 5
 5
 5
 5
 5
 5
 5
 5
 5
 5
 5
 5
 5
 5
 5
 5
 5
 5
 5
 5
 5
 5
 5
 5
 5
 5
 5
 5
 5
 5
 5
 5
 5
 5
 5
 5
 5
 5
 5
 5
 5
 5
 5
 5
 5
 5
 5
 5
 5
 5
 5
 5
 5
 5
 5
 5
 5
 5
 5
 5
 5
 5
 5
 5
 5
 5
 5
 5
 5
 5
 5
 5
 5
 5
 5
 5
 5
 5
 5
 5
 5
 5
 5
 5
 5
 5
 5
 5
 5
 5
 5
 5
 5
 5
 5
 5
 5
 5
 5
 5
 5
 5
 5
 5
 5
 5
 5
 5
 5
 5
 5
 5
 5
 5
 5
 5
 5
 5
 5
 5
 5
 5
 5
 5
 5
 5
 5
 5
 5
 5
 5
 5
 5
 5
 5
 5
 5
 5
 5
 5
 5
 5
 5
 5
 5
 5
 5
 5
 5
 5
 5
 5
 5
 5
 5
 5
 5
 5
 5
 5
 5
 5
 5
 5
 5
 5
 5
 5
 5
 5
 5
 5
 5
 5
 5
 5
 5
 5
 5
 5
 5
 5
 5
 5
 5
 5
 5
 5
 5
 5
 5
 5
 5
 5
 5
 5
 5
 5
 5
 5
 5
 5
 5
 5
 5
 5
 5
 5
 5
 5
 5
 5
 5
 5
 5
 5
 5
 5
 5
 5
 5
 5
 5
 5
 5
 5
 5
 5
 5
 5
 5
 5
 5
 5
 5
 5
 5
 5
 5
 5
 5
 5
 5
 5
 5
 5
 5
 5
 5
 5
 5
 5
 5
 5
 5
 5
 5
 5
 5
 5
 5

POINT_DATA 11732
VECTORS disp float
0.000000 -0.002572 0.000000
0.000000 -0.000972 0.000000
0.000000 -0.001529 0.000000
0.004688 -0.000294 0.000000
0.006784 -0.015628 0.000000
0.000000 -0.012626 0.000000
0.000765 -0.009933 0.000000
0.000700 -0.009487 0.000000
0.000806 -0.008767 0.000000
0.000815 -0.008748 0.000000
0.000725 -0.008988 0.000000
0.000714 -0.009404 0.000000
0.000798 -0.009234 0.000000
0.000798 -0.009870 0.000000
0.000784 -0.009948 0.000000
0.000704 -0.009996 0.000000
0.007106 -0.010703 0.000000
0.007317 -0.010302 0.000000
0.007676 -0.010157 0.000000
0.007621 -0.010611 0.000000
0.007512 -0.011214 0.000000
0.007148 -0.011757 0.000000
0.006900 -0.011674 0.000000
0.006930 -0.011127 0.000000
0.004879 -0.003166 0.000000
0.006315 -0.003718 0.000000
0.006797 -0.004559 0.000000
0.006969 -0.004133 0.000000
0.007119 -0.004148 0.000000
0.007370 -0.004351 0.000000
0.006932 -0.004294 0.000000
0.006613 -0.004170 0.000000
0.006207 -0.003771 0.000000
0.006032 -0.003669 0.000000
0.001131 -0.006748 0.000000
0.000940 -0.006274 0.000000
0.000967 -0.005282 0.000000
0.001946 -0.006634 0.000000
0.002775 -0.007177 0.000000
0.003607 -0.007908 0.000000
0.004214 -0.008910 0.000000
0.003545 -0.009036 0.000000
0.003194 -0.009530 0.000000
0.002276 -0.008759 0.000000
0.001508 -0.007911 0.000000
0.004814 -0.014784 0.000000
0.004783 -0.014665 0.000000
0.004332 -0.014325 0.000000
0.004082 -0.014117 0.000000
0.004265 -0.014051 0.000000
0.004424 -0.014199 0.000000
0.004622 -0.014230 0.000000
0.004644 -0.014465 0.000000
0.004798 -0.014543 0.000000
0.004846 -0.014703 0.000000
-0.000131 -0.006548 0.000000
-0.000079 -0.006192 0.000000
-0.000109 -0.006082 0.000000
-0.000033 -0.006544 0.000000
-0.000164 -0.007157 0.000000
-0.000207 -0.007612 0.000000
-0.000217 -0.007767 0.000000
-0.000155 -0.007534 0.000000
-0.000095 -0.006999 0.000000
0.008118 -0.006911 0.000000
0.008211 -0.007231 0.000000
0.008180 -0.007673 0.000000
0.007958 -0.007364 0.000000
0.007877 -0.007322 0.000000
0.007878 -0.007207 0.000000
0.007832 -0.006943 0.000000
0.007841 -0.006660 0.000000
0.007794 -0.006687 0.000000
0.007782 -0.006548 0.000000
0.007917 -0.006578 0.000000
0.007971 -0.006662 0.000000
0.002329 -0.004690 0.000000
0.001939 -0.003907 0.000000
0.002282 -0.003937 0.000000
0.002632 -0.004436 0.000000
0.002867 -0.004749 0.000000
0.003084 -0.005075 0.000000
0.003082 -0.005654 0.000000
0.002589 -0.005147 0.000000
0.000903 -0.010833 0.000000
0.001048 -0.010761 0.000000
0.001272 -0.010933 0.000000
0.001525 -0.011137 0.000000
0.001805 -0.011571 0.000000
0.001764 -0.011830 0.000000
0.001485 -0.012134 0.000000
0.001170 -0.011654 0.000000
0.000944 -0.011177 0.000000
0.001911 -0.002963 0.000000
0.002156 -0.002804 0.000000
0.002149 -0.002064 0.000000
0.003052 -0.002751 0.000000
0.003620 -0.003438 0.000000
0.003891 -0.003881 0.000000
0.003975 -0.004249 0.000000
0.003729 -0.004410 0.000000
0.003389 -0.004720 0.000000
0.002701 -0.004217 0.000000
0.002139 -0.003597 0.000000
0.001507 -0.006952 0.000000
0.001646 -0.006697 0.000000
0.001610 -0.007033 0.000000
0.001573 -0.007175 0.000000
0.001445 -0.007897 0.000000
0.001175 -0.008309 0.000000
0.000805 -0.008588 0.000000
0.000613 -0.008522 0.000000
0.000656 -0.008241 0.000000
0.000898 -0.007611 0.000000
0.001258 -0.007160 0.000000
0.000281 -0.001237 0.000000
0.000230 -0.001148 0.000000
0.000238 -0.001067 0.000000
0.000336 -0.001094 0.000000
0.000443 -0.001178 0.000000
0.000488 -0.001197 0.000000
0.000470 -0.001210 0.000000
0.000440 -0.001236 0.000000
0.000382 -0.001283 0.000000
0.004748 -0.001103 0.000000
0.004757 -0.001043 0.000000
0.005006 -0.001103 0.000000
0.005405 -0.001447 0.000000
0.005358 -0.001572 0.000000
0.005283 -0.001458 0.000000
0.005144 -0.001268 0.000000
0.004834 -0.001119 0.000000
0.000615 -0.012106 0.000000
0.000719 -0.012224 0.000000
0.000782 -0.012312 0.000000
0.000844 -0.012382 0.000000
0.000854 -0.012451 0.000000
0.000855 -0.012509 0.000000
0.000844 -0.012563 0.000000
0.000782 -0.012527 0.000000
0.000723 -0.012464 0.000000
0.000694 -0.012317 0.000000
0.000674 -0.012215 0.000000
0.000692 -0.012155 0.000000
0.005842 -0.013847 0.000000
0.005712 -0.014128 0.000000
0.005510 -0.013753 0.000000
0.005493 -0.013481 0.000000
0.005541 -0.013242 0.000000
0.005543 -0.013079 0.000000
0.005145 -0.012498 0.000000
0.005529 -0.013087 0.000000
0.005921 -0.013387 0.000000
0.006029 -0.013666 0.000000
0.006027 -0.013828 0.000000
0.003566 -0.000929 0.000000
0.003205 -0.000813 0.000000
0.003100 -0.000435 0.000000
0.003794 -0.000349 0.000000
0.004275 -0.000457 0.000000
0.004254 -0.000395 0.000000
0.004347 -0.000558 0.000000
0.004022 -0.000843 0.000000
0.000802 -0.001096 0.000000
0.000875 -0.001052 0.000000
0.000946 -0.001051 0.000000
0.000989 -0.001097 0.000000
0.000951 -0.001195 0.000000
0.000872 -0.001243 0.000000
0.000760 -0.001282 0.000000
0.000766 -0.001181 0.000000
0.002415 -0.000690 0.000000
0.002550 -0.000751 0.000000
0.002525 -0.000801 0.000000
0.002385 -0.000753 0.000000
0.002287 -0.000702 0.000000
0.002217 -0.000650 0.000000
0.002246 -0.000635 0.000000
0.002315 -0.000646 0.000000
0.000087 -0.000660 0.000000
0.000166 -0.000758 0.000000
0.000201 -0.000833 0.000000
0.000192 -0.000875 0.000000
0.000181 -0.000949 0.000000
0.000157 -0.000931 0.000000
0.000139 -0.000962 0.000000
0.000100 -0.000889 0.000000
0.000090 -0.000824 0.000000
0.000082 -0.000733 0.000000
0.000100 -0.000736 0.000000
0.000339 -0.003831 0.000000
0.000325 -0.003772 0.000000
0.000383 -0.003722 0.000000
0.000526 -0.003912 0.000000
0.000700 -0.004184 0.000000
0.000933 -0.004527 0.000000
0.000658 -0.004482 0.000000
0.000424 -0.004209 0.000000
0.000055 -0.002290 0.000000
0.000067 -0.002104 0.000000
0.000188 -0.001835 0.000000
0.000162 -0.002223 0.000000
0.000176 -0.002264 0.000000
0.000224 -0.002537 0.000000
0.000161 -0.002715 0.000000
0.000114 -0.002752 0.000000
0.000090 -0.002719 0.000000
0.000096 -0.002704 0.000000
0.000070 -0.002470 0.000000
0.000331 -0.009925 0.000000
0.000209 -0.009902 0.000000
0.000146 -0.009450 0.000000
0.000086 -0.009211 0.000000
0.000054 -0.009167 0.000000
0.000204 -0.009369 0.000000
0.000249 -0.009600 0.000000
0.000394 -0.009705 0.000000
0.000457 -0.009923 0.000000
0.002095 -0.000644 0.000000
0.002485 -0.000680 0.000000
0.002843 -0.000873 0.000000
0.003109 -0.001196 0.000000
0.003178 -0.001550 0.000000
0.003313 -0.002126 0.000000
0.002763 -0.001907 0.000000
0.002469 -0.001781 0.000000
0.002008 -0.001441 0.000000
0.001856 -0.001037 0.000000
0.001761 -0.000681 0.000000
0.000728 -0.010612 0.000000
0.000881 -0.010608 0.000000
0.001015 -0.010611 0.000000
0.001160 -0.010668 0.000000
0.001307 -0.010769 0.000000
0.001557 -0.010989 0.000000
0.001699 -0.011289 0.000000
0.001345 -0.011125 0.000000
0.001166 -0.011165 0.000000
0.000982 -0.010977 0.000000
0.000869 -0.010842 0.000000
0.000204 -0.005415 0.000000
0.000016 -0.005125 0.000000
-0.000110 -0.004845 0.000000
-0.000076 -0.004498 0.000000
-0.000022 -0.003997 0.000000
0.000264 -0.004313 0.000000
0.000430 -0.004624 0.000000
0.000530 -0.005131 0.000000
0.000409 -0.005393 0.000000
0.003930 -0.015196 0.000000
0.003838 -0.015102 0.000000
0.003759 -0.014987 0.000000
0.003776 -0.014878 0.000000
0.003808 -0.014745 0.000000
0.003980 -0.014826 0.000000
0.004072 -0.014914 0.000000
0.004143 -0.015011 0.000000
0.004125 -0.015139 0.000000
0.004033 -0.015193 0.000000
0.008081 -0.005955 0.000000
0.008187 -0.005948 0.000000
0.008318 -0.005875 0.000000
0.008344 -0.006093 0.000000
0.008314 -0.006251 0.000000
0.008233 -0.006482 0.000000
0.008195 -0.006831 0.000000
0.008060 -0.006624 0.000000
0.007968 -0.006575 0.000000
0.007898 -0.006451 0.000000
0.007926 -0.006242 0.000000
0.007998 -0.006099 0.000000
0.000597 -0.009884 0.000000
0.000774 -0.010042 0.000000
0.000926 -0.010086 0.000000
0.001080 -0.010189 0.000000
0.001257 -0.010356 0.000000
0.001376 -0.010611 0.000000
0.001225 -0.010720 0.000000
0.001050 -0.010664 0.000000
0.000847 -0.010584 0.000000
0.000717 -0.010176 0.000000
0.000199 -0.011465 0.000000
0.000036 -0.011210 0.000000
0.000203 -0.011261 0.000000
0.000362 -0.011404 0.000000
0.000354 -0.011726 0.000000
0.000514 -0.011635 0.000000
0.000529 -0.011697 0.000000
0.000361 -0.011625 0.000000
0.008300 -0.007470 0.000000
0.008268 -0.007408 0.000000
0.008266 -0.007349 0.000000
0.008475 -0.007394 0.000000
0.008614 -0.007457 0.000000
0.008706 -0.007480 0.000000
0.008737 -0.007525 0.000000
0.008697 -0.007575 0.000000
0.008595 -0.007599 0.000000
0.008454 -0.007577 0.000000
0.000423 -0.000738 0.000000
0.000391 -0.000674 0.000000
0.000411 -0.000654 0.000000
0.000447 -0.000638 0.000000
0.000559 -0.000665 0.000000
0.000637 -0.000720 0.000000
0.000674 -0.000764 0.000000
0.000701 -0.000822 0.000000
0.000635 -0.000843 0.000000
0.000534 -0.000819 0.000000
0.008765 -0.012234 0.000000
0.008889 -0.012448 0.000000
0.008783 -0.012723 0.000000
0.008657 -0.012979 0.000000
0.008351 -0.013083 0.000000
0.008006 -0.013187 0.000000
0.007952 -0.012879 0.000000
0.007865 -0.012680 0.000000
0.008084 -0.012496 0.000000
0.008202 -0.012217 0.000000
0.008506 -0.012160 0.000000
0.000707 -0.000575 0.000000
0.000808 -0.000503 0.000000
0.000762 -0.000317 0.000000
0.001058 -0.000386 0.000000
0.001263 -0.000430 0.000000
0.001339 -0.000540 0.000000
0.001464 -0.000646 0.000000
0.001305 -0.000742 0.000000
0.001200 -0.000814 0.000000
0.001052 -0.000786 0.000000
0.000864 -0.000723 0.000000
0.000407 -0.002304 0.000000
0.000513 -0.002655 0.000000
0.000448 -0.002933 0.000000
0.000359 -0.003250 0.000000
0.000198 -0.003461 0.000000
0.000138 -0.003793 0.000000
0.000072 -0.003966 0.000000
0.000090 -0.003898 0.000000
0.000141 -0.003622 0.000000
0.000171 -0.003101 0.000000
0.007232 -0.015070 0.000000
0.007343 -0.015009 0.000000
0.007497 -0.014972 0.000000
0.007327 -0.015109 0.000000
0.007261 -0.015240 0.000000
0.007230 -0.015396 0.000000
0.007121 -0.015435 0.000000
0.007169 -0.015225 0.000000
0.000954 -0.012578 0.000000
0.000830 -0.012335 0.000000
0.000973 -0.012175 0.000000
0.001066 -0.011870 0.000000
0.001459 -0.011814 0.000000
0.001757 -0.012076 0.000000
0.001942 -0.012301 0.000000
0.002083 -0.012622 0.000000
0.002174 -0.013116 0.000000
0.001473 -0.012832 0.000000
0.001154 -0.012782 0.000000
0.000140 -0.001471 0.000000
0.000122 -0.001447 0.000000
0.000140 -0.001406 0.000000
0.000162 -0.001375 0.000000
0.000180 -0.001382 0.000000
0.000203 -0.001402 0.000000
0.000196 -0.001422 0.000000
0.000188 -0.001440 0.000000
0.000169 -0.001456 0.000000
0.006397 -0.001844 0.000000
0.006317 -0.001892 0.000000
0.006225 -0.001899 0.000000
0.006159 -0.001735 0.000000
0.006140 -0.001574 0.000000
0.006203 -0.001509 0.000000
0.006199 -0.001439 0.000000
0.006311 -0.001625 0.000000
0.000580 -0.011536 0.000000
0.000741 -0.011666 0.000000
0.000806 -0.011694 0.000000
0.000828 -0.011792 0.000000
0.000838 -0.011917 0.000000
0.000848 -0.011963 0.000000
0.000831 -0.011939 0.000000
0.000813 -0.011959 0.000000
0.000777 -0.011874 0.000000
0.000754 -0.011764 0.000000
0.000698 -0.011742 0.000000
0.000644 -0.011670 0.000000
0.001055 -0.013032 0.000000
0.001014 -0.013011 0.000000
0.001034 -0.012875 0.000000
0.000923 -0.012902 0.000000
0.000870 -0.012820 0.000000
0.000944 -0.012808 0.000000
0.001020 -0.012870 0.000000
0.001055 -0.012930 0.000000
0.001064 -0.012983 0.000000
0.000466 -0.002049 0.000000
0.000499 -0.001813 0.000000
0.000559 -0.001709 0.000000
0.000583 -0.001578 0.000000
0.000611 -0.001722 0.000000
0.000611 -0.002117 0.000000
0.000452 -0.002580 0.000000
0.000398 -0.002448 0.000000
0.000391 -0.002395 0.000000
0.007339 -0.004802 0.000000
0.007484 -0.005026 0.000000
0.007365 -0.004955 0.000000
0.007380 -0.004965 0.000000
0.007426 -0.004998 0.000000
0.007360 -0.004920 0.000000
0.007446 -0.005002 0.000000
0.007286 -0.004855 0.000000
0.007219 -0.004728 0.000000
0.007234 -0.004703 0.000000
0.000352 -0.004541 0.000000
0.000283 -0.004314 0.000000
0.000242 -0.003883 0.000000
0.000287 -0.003934 0.000000
0.000423 -0.003824 0.000000
0.000709 -0.004173 0.000000
0.001029 -0.004439 0.000000
0.001277 -0.004614 0.000000
0.000865 -0.004670 0.000000
0.000738 -0.004878 0.000000
0.000439 -0.004764 0.000000
0.001022 -0.006815 0.000000
0.000865 -0.006585 0.000000
0.001096 -0.006555 0.000000
0.001280 -0.006766 0.000000
0.001306 -0.006900 0.000000
0.001290 -0.007178 0.000000
0.007768 -0.004435 0.000000
0.007693 -0.004356 0.000000
0.007874 -0.004331 0.000000
0.008050 -0.004352 0.000000
0.008062 -0.004423 0.000000
0.008003 -0.004504 0.000000
0.005865 -0.002585 0.000000
0.005729 -0.002419 0.000000
0.005975 -0.002716 0.000000
0.005964 -0.002826 0.000000
0.005859 -0.002675 0.000000
0.005879 -0.002591 0.000000
-0.000372 -0.001232 0.000000
-0.000129 -0.000719 0.000000
-0.000176 -0.000893 0.000000
-0.000327 -0.001593 0.000000
-0.000579 -0.002068 0.000000
-0.000522 -0.001627 0.000000
0.001126 -0.000958 0.000000
0.001190 -0.000882 0.000000
0.001268 -0.000854 0.000000
0.001338 -0.000916 0.000000
0.001277 -0.001011 0.000000
0.001167 -0.001040 0.000000
0.005087 -0.015143 0.000000
0.005081 -0.015074 0.000000
0.005052 -0.015095 0.000000
0.005058 -0.015136 0.000000
0.005054 -0.015149 0.000000
0.005058 -0.015131 0.000000
0.001838 -0.000834 0.000000
0.001670 -0.000901 0.000000
0.001468 -0.000846 0.000000
0.001633 -0.000600 0.000000
0.001802 -0.000463 0.000000
0.001877 -0.000631 0.000000
0.003043 -0.007508 0.000000
0.003078 -0.007696 0.000000
0.003088 -0.007692 0.000000
0.003132 -0.007689 0.000000
0.003058 -0.007615 0.000000
0.003043 -0.007443 0.000000
-0.000064 -0.002811 0.000000
-0.000320 -0.002454 0.000000
-0.000387 -0.002087 0.000000
-0.000354 -0.001715 0.000000
-0.000118 -0.001970 0.000000
-0.000049 -0.002337 0.000000
0.001475 -0.000322 0.000000
0.001789 -0.000254 0.000000
0.001999 -0.000327 0.000000
0.002009 -0.000497 0.000000
0.001818 -0.000620 0.000000
0.001620 -0.000517 0.000000
0.004344 -0.015337 0.000000
0.004290 -0.015378 0.000000
0.004296 -0.015421 0.000000
0.004277 -0.015422 0.000000
0.004285 -0.015391 0.000000
0.004309 -0.015365 0.000000
0.004873 -0.014802 0.000000
0.004844 -0.014720 0.000000
0.004886 -0.014704 0.000000
0.004946 -0.014754 0.000000
0.004990 -0.014815 0.000000
0.004949 -0.014862 0.000000
0.003121 -0.003026 0.000000
0.002694 -0.002654 0.000000
0.002802 -0.002342 0.000000
0.003299 -0.002834 0.000000
0.003788 -0.003026 0.000000
0.003605 -0.003202 0.000000
0.002390 -0.006317 0.000000
0.002698 -0.006164 0.000000
0.002986 -0.006358 0.000000
0.003236 -0.006793 0.000000
0.002929 -0.006983 0.000000
0.002574 -0.006634 0.000000
0.000077 -0.000658 0.000000
0.000079 -0.000610 0.000000
0.000104 -0.000517 0.000000
0.000109 -0.000608 0.000000
0.000108 -0.000691 0.000000
0.000081 -0.000683 0.000000
0.003734 -0.000845 0.000000
0.003258 -0.000701 0.000000
0.003658 -0.000472 0.000000
0.004073 -0.000466 0.000000
0.004250 -0.000593 0.000000
0.004087 -0.000766 0.000000
0.008491 -0.007399 0.000000
0.008364 -0.007388 0.000000
0.008363 -0.007304 0.000000
0.008475 -0.007289 0.000000
0.008563 -0.007305 0.000000
0.008591 -0.007367 0.000000
0.003099 -0.012806 0.000000
0.002646 -0.012751 0.000000
0.002384 -0.012526 0.000000
0.002394 -0.012277 0.000000
0.002639 -0.012304 0.000000
0.002872 -0.012438 0.000000
0.000260 -0.000651 0.000000
0.000210 -0.000599 0.000000
0.000183 -0.000509 0.000000
0.000235 -0.000540 0.000000
0.000307 -0.000621 0.000000
0.000298 -0.000650 0.000000
0.006623 -0.004696 0.000000
0.007114 -0.004802 0.000000
0.007448 -0.005138 0.000000
0.007248 -0.005292 0.000000
0.006947 -0.005196 0.000000
0.006829 -0.005066 0.000000
0.003213 -0.006492 0.000000
0.003143 -0.006300 0.000000
0.003135 -0.006044 0.000000
0.003404 -0.006363 0.000000
0.003516 -0.006471 0.000000
0.003477 -0.006686 0.000000
0.000443 -0.009684 0.000000
0.000441 -0.009787 0.000000
0.000369 -0.009846 0.000000
0.000310 -0.009816 0.000000
0.000317 -0.009508 0.000000
0.000397 -0.009589 0.000000
0.004985 -0.015071 0.000000
0.004939 -0.015062 0.000000
0.004915 -0.015036 0.000000
0.004925 -0.014977 0.000000
0.004962 -0.014995 0.000000
0.004993 -0.015039 0.000000
0.000107 -0.012053 0.000000
0.000121 -0.012097 0.000000
0.000163 -0.012137 0.000000
0.000224 -0.012174 0.000000
0.000252 -0.012344 0.000000
0.000153 -0.012135 0.000000
0.006445 -0.012785 0.000000
0.006276 -0.012618 0.000000
0.006399 -0.012800 0.000000
0.006316 -0.012966 0.000000
0.006300 -0.012972 0.000000
0.006336 -0.012902 0.000000
0.000154 -0.001159 0.000000
0.000075 -0.000758 0.000000
0.000150 -0.000779 0.000000
0.000369 -0.001009 0.000000
0.000535 -0.001243 0.000000
0.000448 -0.001423 0.000000
0.000116 -0.000925 0.000000
0.000098 -0.000864 0.000000
0.000083 -0.000782 0.000000
0.000093 -0.000735 0.000000
0.000326 -0.003837 0.000000
0.000352 -0.003761 0.000000
0.000463 -0.003822 0.000000
0.000601 -0.004034 0.000000
0.000056 -0.002205 0.000000
0.000072 -0.002370 0.000000
0.000112 -0.001975 0.000000
0.000168 -0.002259 0.000000
0.000188 -0.002617 0.000000
0.000138 -0.002723 0.000000
0.000100 -0.002735 0.000000
0.000085 -0.002698 0.000000
0.000068 -0.002583 0.000000
0.002635 -0.001844 0.000000
0.000817 -0.010615 0.000000
0.000818 -0.010740 0.000000
0.000948 -0.010611 0.000000
0.001090 -0.010635 0.000000
0.001226 -0.010709 0.000000
0.001247 -0.011145 0.000000
0.000918 -0.010902 0.000000
0.000101 -0.005270 0.000000
-0.000052 -0.005008 0.000000
-0.000100 -0.004686 0.000000
0.000341 -0.004443 0.000000
0.003885 -0.015161 0.000000
0.003794 -0.015044 0.000000
0.003768 -0.014933 0.000000
0.004032 -0.014868 0.000000
0.004109 -0.014954 0.000000
0.008138 -0.005953 0.000000
0.008040 -0.006024 0.000000
0.008246 -0.005913 0.000000
0.008335 -0.005995 0.000000
0.008340 -0.006189 0.000000
0.008283 -0.006352 0.000000
0.008224 -0.006632 0.000000
0.008105 -0.006721 0.000000
0.008012 -0.006598 0.000000
0.007921 -0.006505 0.000000
0.007897 -0.006358 0.000000
0.007960 -0.006167 0.000000
0.000691 -0.009964 0.000000
0.000640 -0.010019 0.000000
0.000855 -0.010080 0.000000
0.000984 -0.010112 0.000000
0.001169 -0.010261 0.000000
0.001317 -0.010471 0.000000
0.001295 -0.010658 0.000000
0.001139 -0.010686 0.000000
0.000949 -0.010622 0.000000
0.000522 -0.011645 0.000000
0.008279 -0.007431 0.000000
0.008382 -0.007537 0.000000
0.008272 -0.007391 0.000000
0.008552 -0.007420 0.000000
0.008659 -0.007459 0.000000
0.008720 -0.007497 0.000000
0.008717 -0.007546 0.000000
0.008647 -0.007587 0.000000
0.008531 -0.007593 0.000000
0.000404 -0.000667 0.000000
0.000430 -0.000652 0.000000
0.000595 -0.000692 0.000000
0.000654 -0.000741 0.000000
0.000686 -0.000791 0.000000
0.007980 -0.013016 0.000000
0.007907 -0.012776 0.000000
0.000755 -0.000534 0.000000
0.001298 -0.000482 0.000000
0.001393 -0.000589 0.000000
0.001377 -0.000701 0.000000
0.001249 -0.000779 0.000000
0.001133 -0.000805 0.000000
0.000963 -0.000759 0.000000
0.000461 -0.002564 0.000000
0.000485 -0.002808 0.000000
0.000413 -0.003113 0.000000
0.000291 -0.003376 0.000000
0.000164 -0.003667 0.000000
0.000101 -0.003854 0.000000
0.000083 -0.003946 0.000000
0.000890 -0.012468 0.000000
0.001057 -0.012695 0.000000
0.000904 -0.012261 0.000000
0.001014 -0.012031 0.000000
0.001250 -0.011848 0.000000
0.001608 -0.011950 0.000000
0.001849 -0.012185 0.000000
0.002000 -0.012467 0.000000
0.002073 -0.012807 0.000000
0.001733 -0.012930 0.000000
0.001298 -0.012805 0.000000
0.000192 -0.001431 0.000000
0.000179 -0.001448 0.000000
0.006274 -0.001892 0.000000
0.000674 -0.011599 0.000000
0.000611 -0.011642 0.000000
0.000773 -0.011689 0.000000
0.000817 -0.011741 0.000000
0.000837 -0.011849 0.000000
0.000843 -0.011945 0.000000
0.000840 -0.011947 0.000000
0.000824 -0.011942 0.000000
0.000793 -0.011914 0.000000
0.000755 -0.011829 0.000000
0.000726 -0.011766 0.000000
0.000671 -0.011710 0.000000
0.001029 -0.013018 0.000000
0.001057 -0.012999 0.000000
0.000999 -0.012954 0.000000
0.001038 -0.012901 0.000000
0.000491 -0.001922 0.000000
0.000434 -0.002208 0.000000
0.000543 -0.001790 0.000000
0.000569 -0.001662 0.000000
0.000605 -0.001636 0.000000
0.000626 -0.001952 0.000000
0.000565 -0.002326 0.000000
0.007411 -0.004887 0.000000
0.007286 -0.004752 0.000000
0.007370 -0.004954 0.000000
0.007395 -0.004975 0.000000
0.007380 -0.004968 0.000000
0.007394 -0.004925 0.000000
0.007342 -0.004926 0.000000
0.007255 -0.004797 0.000000
0.007215 -0.004711 0.000000
0.000319 -0.004437 0.000000
0.000397 -0.004657 0.000000
0.000232 -0.004107 0.000000
0.000566 -0.004013 0.000000
0.000865 -0.004299 0.000000
0.001120 -0.004509 0.000000
0.000790 -0.004779 0.000000
0.000593 -0.004801 0.000000
0.000954 -0.006726 0.000000
0.000990 -0.006576 0.000000
0.001206 -0.006660 0.000000
0.001296 -0.006816 0.000000
0.001298 -0.006985 0.000000
0.007732 -0.004391 0.000000
0.007792 -0.004336 0.000000
0.008050 -0.004382 0.000000
0.008031 -0.004459 0.000000
0.005889 -0.002609 0.000000
0.005981 -0.002772 0.000000
0.005927 -0.002757 0.000000
0.005888 -0.002642 0.000000
0.001159 -0.000920 0.000000
0.001223 -0.000869 0.000000
0.001288 -0.000882 0.000000
0.001307 -0.000967 0.000000
0.001224 -0.001027 0.000000
0.005065 -0.015104 0.000000
0.005068 -0.015088 0.000000
0.005058 -0.015143 0.000000
0.005054 -0.015138 0.000000
0.001761 -0.000868 0.000000
0.003067 -0.007591 0.000000
0.003037 -0.007478 0.000000
0.003077 -0.007675 0.000000
0.003083 -0.007668 0.000000
0.003089 -0.007642 0.000000
0.003045 -0.007537 0.000000
-0.000213 -0.002613 0.000000
-0.000358 -0.002297 0.000000
0.004312 -0.015375 0.000000
0.004300 -0.015402 0.000000
0.004289 -0.015422 0.000000
0.004280 -0.015404 0.000000
0.004294 -0.015378 0.000000
0.004858 -0.014765 0.000000
0.004910 -0.014833 0.000000
0.004866 -0.014716 0.000000
0.004917 -0.014729 0.000000
0.004969 -0.014781 0.000000
0.004969 -0.014837 0.000000
0.003683 -0.003103 0.000000
0.000081 -0.000628 0.000000
0.000078 -0.000663 0.000000
0.000088 -0.000570 0.000000
0.000111 -0.000648 0.000000
0.000091 -0.000680 0.000000
0.004158 -0.000517 0.000000
0.004172 -0.000687 0.000000
0.008429 -0.007395 0.000000
0.008541 -0.007384 0.000000
0.008517 -0.007295 0.000000
0.008574 -0.007332 0.000000
0.002513 -0.012660 0.000000
0.002404 -0.012417 0.000000
0.002522 -0.012290 0.000000
0.002760 -0.012362 0.000000
0.000238 -0.000624 0.000000
0.000199 -0.000562 0.000000
0.003179 -0.006406 0.000000
0.003144 -0.006170 0.000000
0.003459 -0.006402 0.000000
0.003486 -0.006520 0.000000
0.000440 -0.009749 0.000000
0.000402 -0.009814 0.000000
0.004959 -0.015067 0.000000
0.004927 -0.015052 0.000000
0.004945 -0.014988 0.000000
0.004979 -0.015018 0.000000
0.000143 -0.012109 0.000000
0.006317 -0.012959 0.000000
0.000117 -0.000990 0.000000
0.000288 -0.001257 0.000000
0.000102 -0.000801 0.000000
0.000252 -0.000896 0.000000
0.000439 -0.001100 0.000000
0.000483 -0.001280 0.000000
0.000000 0.000000 0.000000
0.000000 -0.012614 0.000000
0.000000 -0.000617 0.000000
0.000045 -0.001524 0.000000
0.004801 -0.000349 0.000000
0.006776 -0.015704 0.000000
0.000720 -0.009857 0.000000
0.000702 -0.009970 0.000000
0.000704 -0.009378 0.000000
0.000798 -0.008878 0.000000
0.000834 -0.008760 0.000000
0.000747 -0.009097 0.000000
0.000708 -0.009423 0.000000
0.000827 -0.009376 0.000000
0.000818 -0.009875 0.000000
0.000760 -0.009950 0.000000
0.007106 -0.010632 0.000000
0.006944 -0.011054 0.000000
0.007365 -0.010305 0.000000
0.007671 -0.010256 0.000000
0.007645 -0.010702 0.000000
0.007477 -0.011314 0.000000
0.007120 -0.011725 0.000000
0.006901 -0.011588 0.000000
0.005514 -0.003279 0.000000
0.005996 -0.003635 0.000000
0.006406 -0.003789 0.000000
0.006719 -0.004172 0.000000
0.007037 -0.004171 0.000000
0.007126 -0.004155 0.000000
0.007261 -0.004364 0.000000
0.006879 -0.004272 0.000000
0.006535 -0.004144 0.000000
0.006182 -0.003798 0.000000
0.001075 -0.006713 0.000000
0.001394 -0.007796 0.000000
0.000929 -0.006188 0.000000
0.001174 -0.005486 0.000000
0.002055 -0.006763 0.000000
0.002887 -0.007215 0.000000
0.003700 -0.008039 0.000000
0.004079 -0.008936 0.000000
0.003488 -0.009094 0.000000
0.003027 -0.009415 0.000000
0.002147 -0.008641 0.000000
0.004806 -0.014766 0.000000
0.004829 -0.014720 0.000000
0.004681 -0.014618 0.000000
0.004274 -0.014293 0.000000
0.004171 -0.014090 0.000000
0.004295 -0.014128 0.000000
0.004489 -0.014186 0.000000
0.004650 -0.014262 0.000000
0.004725 -0.014414 0.000000
0.004816 -0.014580 0.000000
-0.000108 -0.006537 0.000000
-0.000085 -0.006932 0.000000
-0.000080 -0.006135 0.000000
-0.000057 -0.006197 0.000000
-0.000054 -0.006661 0.000000
-0.000176 -0.007226 0.000000
-0.000215 -0.007593 0.000000
-0.000229 -0.007759 0.000000
-0.000167 -0.007427 0.000000
0.008147 -0.006990 0.000000
0.008026 -0.006724 0.000000
0.008216 -0.007305 0.000000
0.008099 -0.007578 0.000000
0.007942 -0.007350 0.000000
0.007867 -0.007283 0.000000
0.007846 -0.007133 0.000000
0.007845 -0.006887 0.000000
0.007844 -0.006691 0.000000
0.007786 -0.006657 0.000000
0.007816 -0.006564 0.000000
0.007931 -0.006586 0.000000
0.002256 -0.004583 0.000000
0.002550 -0.005055 0.000000
0.001994 -0.003960 0.000000
0.002354 -0.004023 0.000000
0.002655 -0.004438 0.000000
0.002925 -0.004800 0.000000
0.003064 -0.005153 0.000000
0.002938 -0.005533 0.000000
0.000942 -0.010828 0.000000
0.000922 -0.011155 0.000000
0.001101 -0.010808 0.000000
0.001329 -0.010972 0.000000
0.001593 -0.011205 0.000000
0.001822 -0.011598 0.000000
0.001704 -0.011886 0.000000
0.001393 -0.012028 0.000000
0.001117 -0.011572 0.000000
0.002002 -0.002914 0.000000
0.002091 -0.003491 0.000000
0.002138 -0.002689 0.000000
0.002358 -0.002202 0.000000
0.003177 -0.002875 0.000000
0.003711 -0.003568 0.000000
0.003901 -0.003989 0.000000
0.003882 -0.004305 0.000000
0.003653 -0.004461 0.000000
0.003262 -0.004634 0.000000
0.002577 -0.004118 0.000000
0.001543 -0.006908 0.000000
0.001343 -0.007107 0.000000
0.001620 -0.006798 0.000000
0.001612 -0.007095 0.000000
0.001622 -0.007329 0.000000
0.001418 -0.008012 0.000000
0.001066 -0.008382 0.000000
0.000762 -0.008546 0.000000
0.000598 -0.008451 0.000000
0.000681 -0.008069 0.000000
0.000996 -0.007470 0.000000
0.000275 -0.001226 0.000000
0.000368 -0.001282 0.000000
0.000233 -0.001138 0.000000
0.000255 -0.001074 0.000000
0.000353 -0.001112 0.000000
0.000453 -0.001186 0.000000
0.000480 -0.001201 0.000000
0.000462 -0.001216 0.000000
0.000431 -0.001244 0.000000
0.004747 -0.001095 0.000000
0.004799 -0.001124 0.000000
0.004808 -0.001050 0.000000
0.005072 -0.001137 0.000000
0.005383 -0.001443 0.000000
0.005326 -0.001555 0.000000
0.005226 -0.001415 0.000000
0.005137 -0.001258 0.000000
0.000647 -0.012154 0.000000
0.000687 -0.012156 0.000000
0.000741 -0.012247 0.000000
0.000802 -0.012330 0.000000
0.000846 -0.012400 0.000000
0.000853 -0.012468 0.000000
0.000850 -0.012522 0.000000
0.000823 -0.012544 0.000000
0.000757 -0.012508 0.000000
0.000716 -0.012444 0.000000
0.000684 -0.012262 0.000000
0.000676 -0.012207 0.000000
0.005830 -0.013923 0.000000
0.005993 -0.013837 0.000000
0.005660 -0.014072 0.000000
0.005493 -0.013700 0.000000
0.005490 -0.013420 0.000000
0.005549 -0.013206 0.000000
0.005515 -0.013018 0.000000
0.005310 -0.012682 0.000000
0.005704 -0.013152 0.000000
0.005958 -0.013432 0.000000
0.006011 -0.013698 0.000000
0.003490 -0.000906 0.000000
0.003954 -0.000864 0.000000
0.003196 -0.000748 0.000000
0.003232 -0.000425 0.000000
0.003895 -0.000339 0.000000
0.004255 -0.000389 0.000000
0.004262 -0.000418 0.000000
0.004311 -0.000595 0.000000
0.000827 -0.001079 0.000000
0.000780 -0.001152 0.000000
0.000902 -0.001054 0.000000
0.000952 -0.001064 0.000000
0.000978 -0.001124 0.000000
0.000928 -0.001212 0.000000
0.000837 -0.001257 0.000000
0.000764 -0.001253 0.000000
0.002458 -0.000711 0.000000
0.002355 -0.000661 0.000000
0.002544 -0.000769 0.000000
0.002479 -0.000791 0.000000
0.002345 -0.000739 0.000000
0.002264 -0.000684 0.000000
0.002238 -0.000647 0.000000
0.002270 -0.000634 0.000000
0.000125 -0.000701 0.000000
0.000099 -0.000719 0.000000
0.000175 -0.000783 0.000000
0.000199 -0.000842 0.000000
0.000189 -0.000899 0.000000
0.000174 -0.000940 0.000000
0.000150 -0.000937 0.000000
0.000381 -0.004097 0.000000
0.000785 -0.004285 0.000000
0.000817 -0.004503 0.000000
0.000568 -0.004392 0.000000
0.000161 -0.001999 0.000000
0.000200 -0.002376 0.000000
0.000303 -0.009895 0.000000
0.000411 -0.009914 0.000000
0.000189 -0.009817 0.000000
0.000123 -0.009382 0.000000
0.000077 -0.009202 0.000000
0.000108 -0.009232 0.000000
0.000225 -0.009412 0.000000
0.000283 -0.009596 0.000000
0.000423 -0.009760 0.000000
0.002232 -0.000652 0.000000
0.001910 -0.000722 0.000000
0.002585 -0.000720 0.000000
0.002922 -0.000955 0.000000
0.003118 -0.001298 0.000000
0.003192 -0.001673 0.000000
0.003019 -0.002039 0.000000
0.002318 -0.001692 0.000000
0.001952 -0.001287 0.000000
0.001851 -0.000915 0.000000
0.001388 -0.010829 0.000000
0.001587 -0.011055 0.000000
0.001553 -0.011241 0.000000
0.001116 -0.011111 0.000000
0.000330 -0.005381 0.000000
-0.000040 -0.004353 0.000000
0.000093 -0.004139 0.000000
0.000487 -0.004790 0.000000
0.000503 -0.005188 0.000000
0.003994 -0.015199 0.000000
0.003795 -0.014844 0.000000
0.003873 -0.014780 0.000000
0.004135 -0.015056 0.000000
0.004094 -0.015158 0.000000
0.000777 -0.010455 0.000000
0.000143 -0.011394 0.000000
0.000306 -0.011580 0.000000
0.000095 -0.011231 0.000000
0.000265 -0.011309 0.000000
0.000408 -0.011478 0.000000
0.000450 -0.011646 0.000000
0.000489 -0.011674 0.000000
0.008346 -0.007360 0.000000
0.000417 -0.000726 0.000000
0.000496 -0.000799 0.000000
0.000491 -0.000653 0.000000
0.000673 -0.000826 0.000000
0.000602 -0.000835 0.000000
0.008813 -0.012314 0.000000
0.008590 -0.012188 0.000000
0.008853 -0.012551 0.000000
0.008739 -0.012821 0.000000
0.008571 -0.013015 0.000000
0.008248 -0.013109 0.000000
0.007941 -0.012614 0.000000
0.008126 -0.012395 0.000000
0.008298 -0.012201 0.000000
0.000808 -0.000676 0.000000
0.000793 -0.000446 0.000000
0.000884 -0.000343 0.000000
0.001133 -0.000402 0.000000
0.000210 -0.002852 0.000000
0.000096 -0.003746 0.000000
0.000143 -0.003460 0.000000
0.007265 -0.015058 0.000000
0.007183 -0.015186 0.000000
0.007375 -0.015007 0.000000
0.007460 -0.015041 0.000000
0.007350 -0.015156 0.000000
0.007248 -0.015306 0.000000
0.007215 -0.015403 0.000000
0.007133 -0.015383 0.000000
0.000135 -0.001463 0.000000
0.000159 -0.001462 0.000000
0.000130 -0.001435 0.000000
0.000147 -0.001398 0.000000
0.000170 -0.001377 0.000000
0.000185 -0.001392 0.000000
0.000200 -0.001409 0.000000
0.006360 -0.001857 0.000000
0.006338 -0.001681 0.000000
0.006196 -0.001844 0.000000
0.006145 -0.001680 0.000000
0.006165 -0.001551 0.000000
0.006218 -0.001492 0.000000
0.006241 -0.001491 0.000000
0.000997 -0.012904 0.000000
0.000907 -0.012888 0.000000
0.000898 -0.012824 0.000000
0.000978 -0.012832 0.000000
0.001057 -0.012951 0.000000
0.000415 -0.002461 0.000000
0.000397 -0.002435 0.000000
0.007407 -0.004997 0.000000
0.000242 -0.003957 0.000000
0.000329 -0.003926 0.000000
0.001115 -0.004624 0.000000
0.001208 -0.007052 0.000000
0.007932 -0.004491 0.000000
0.007931 -0.004328 0.000000
0.005854 -0.002577 0.000000
0.005889 -0.002521 0.000000
-0.000316 -0.001089 0.000000
-0.000485 -0.001465 0.000000
-0.000132 -0.000821 0.000000
-0.000211 -0.001146 0.000000
-0.000395 -0.001732 0.000000
-0.000580 -0.001838 0.000000
0.001154 -0.001013 0.000000
0.005063 -0.015125 0.000000
0.005059 -0.015111 0.000000
0.001867 -0.000695 0.000000
0.001606 -0.000881 0.000000
0.001523 -0.000766 0.000000
0.001683 -0.000557 0.000000
0.001821 -0.000514 0.000000
-0.000061 -0.002442 0.000000
-0.000390 -0.001974 0.000000
-0.000252 -0.001815 0.000000
-0.000099 -0.002049 0.000000
0.001631 -0.000299 0.000000
0.001602 -0.000443 0.000000
0.001854 -0.000271 0.000000
0.001998 -0.000392 0.000000
0.001938 -0.000546 0.000000
0.001764 -0.000598 0.000000
0.004317 -0.015364 0.000000
0.002970 -0.002938 0.000000
0.003419 -0.003142 0.000000
0.002743 -0.002586 0.000000
0.002960 -0.002443 0.000000
0.003458 -0.002841 0.000000
0.002485 -0.006279 0.000000
0.002507 -0.006590 0.000000
0.002792 -0.006235 0.000000
0.003032 -0.006458 0.000000
0.003114 -0.006853 0.000000
0.002787 -0.006890 0.000000
0.000103 -0.000559 0.000000
0.003606 -0.000801 0.000000
0.004005 -0.000802 0.000000
0.003441 -0.000582 0.000000
0.003809 -0.000452 0.000000
0.008368 -0.007362 0.000000
0.008406 -0.007296 0.000000
0.002873 -0.012755 0.000000
0.002907 -0.012548 0.000000
0.000283 -0.000641 0.000000
0.000200 -0.000526 0.000000
0.000267 -0.000568 0.000000
0.000293 -0.000618 0.000000
0.006824 -0.004732 0.000000
0.006796 -0.004989 0.000000
0.007209 -0.004893 0.000000
0.007385 -0.005180 0.000000
0.007138 -0.005287 0.000000
0.006931 -0.005209 0.000000
0.003361 -0.006595 0.000000
0.003254 -0.006158 0.000000
0.000414 -0.009638 0.000000
0.000341 -0.009839 0.000000
0.000306 -0.009704 0.000000
0.000341 -0.009539 0.000000
0.004992 -0.015048 0.000000
0.004921 -0.015026 0.000000
0.000104 -0.012076 0.000000
0.000130 -0.012093 0.000000
0.000183 -0.012139 0.000000
0.000232 -0.012198 0.000000
0.000196 -0.012276 0.000000
0.006380 -0.012771 0.000000
0.006367 -0.012904 0.000000
0.006361 -0.012707 0.000000
0.006382 -0.012866 0.000000
0.006315 -0.012956 0.000000
0.000000 0.000000 0.000000
0.000000 -0.001632 0.000000
0.000000 -0.001549 0.000000
0.004606 -0.000271 0.000000
0.006826 -0.015554 0.000000
0.000018 -0.012629 0.000000
0.000701 -0.009594 0.000000
0.000774 -0.009872 0.000000
0.000740 -0.008918 0.000000
0.000782 -0.008802 0.000000
0.000748 -0.008969 0.000000
0.000718 -0.009370 0.000000
0.000723 -0.009345 0.000000
0.000813 -0.009789 0.000000
0.000800 -0.009935 0.000000
0.000704 -0.009987 0.000000
0.007272 -0.010363 0.000000
0.007072 -0.010717 0.000000
0.007583 -0.010195 0.000000
0.007645 -0.010588 0.000000
0.007550 -0.011137 0.000000
0.007241 -0.011676 0.000000
0.006959 -0.011687 0.000000
0.006924 -0.011196 0.000000
0.006212 -0.003640 0.000000
0.005457 -0.003361 0.000000
0.006744 -0.004137 0.000000
0.006905 -0.004098 0.000000
0.007108 -0.004152 0.000000
0.007314 -0.004295 0.000000
0.006982 -0.004314 0.000000
0.006696 -0.004204 0.000000
0.006229 -0.003879 0.000000
0.006064 -0.003709 0.000000
0.000954 -0.006348 0.000000
0.001097 -0.006958 0.000000
0.000957 -0.005541 0.000000
0.001815 -0.006451 0.000000
0.002641 -0.007097 0.000000
0.003486 -0.007755 0.000000
0.004126 -0.008752 0.000000
0.003634 -0.009016 0.000000
0.003256 -0.009418 0.000000
0.002407 -0.008864 0.000000
0.001676 -0.008127 0.000000
0.004837 -0.014704 0.000000
0.004817 -0.014766 0.000000
0.004406 -0.014419 0.000000
0.004133 -0.014167 0.000000
0.004275 -0.014039 0.000000
0.004360 -0.014214 0.000000
0.004588 -0.014215 0.000000
0.004705 -0.014391 0.000000
0.004788 -0.014508 0.000000
0.004845 -0.014670 0.000000
-0.000099 -0.006306 0.000000
-0.000122 -0.006623 0.000000
-0.000122 -0.006051 0.000000
-0.000020 -0.006519 0.000000
-0.000154 -0.007084 0.000000
-0.000196 -0.007530 0.000000
-0.000207 -0.007714 0.000000
-0.000166 -0.007536 0.000000
-0.000111 -0.007056 0.000000
0.008194 -0.007151 0.000000
0.008096 -0.006849 0.000000
0.008220 -0.007539 0.000000
0.007978 -0.007402 0.000000
0.007893 -0.007324 0.000000
0.007880 -0.007249 0.000000
0.007825 -0.006974 0.000000
0.007859 -0.006727 0.000000
0.007804 -0.006694 0.000000
0.007784 -0.006587 0.000000
0.007897 -0.006577 0.000000
0.007957 -0.006636 0.000000
0.001983 -0.004065 0.000000
0.002400 -0.004793 0.000000
0.002235 -0.004003 0.000000
0.002611 -0.004340 0.000000
0.002893 -0.004736 0.000000
0.003036 -0.004978 0.000000
0.003058 -0.005490 0.000000
0.002650 -0.005210 0.000000
0.001011 -0.010798 0.000000
0.000902 -0.010897 0.000000
0.001210 -0.010890 0.000000
0.001457 -0.011072 0.000000
0.001794 -0.011492 0.000000
0.001786 -0.011749 0.000000
0.001562 -0.012045 0.000000
0.001219 -0.011747 0.000000
0.000955 -0.011275 0.000000
0.002111 -0.002854 0.000000
0.001956 -0.003115 0.000000
0.002137 -0.002267 0.000000
0.002911 -0.002633 0.000000
0.003493 -0.003249 0.000000
0.003856 -0.003774 0.000000
0.003927 -0.004114 0.000000
0.003796 -0.004362 0.000000
0.003457 -0.004638 0.000000
0.002821 -0.004318 0.000000
0.002226 -0.003741 0.000000
0.001585 -0.006811 0.000000
0.001456 -0.007020 0.000000
0.001614 -0.006938 0.000000
0.001617 -0.007206 0.000000
0.001501 -0.007757 0.000000
0.001262 -0.008224 0.000000
0.000898 -0.008508 0.000000
0.000694 -0.008529 0.000000
0.000627 -0.008356 0.000000
0.000805 -0.007758 0.000000
0.001183 -0.007224 0.000000
0.000237 -0.001170 0.000000
0.000298 -0.001251 0.000000
0.000239 -0.001088 0.000000
0.000320 -0.001097 0.000000
0.000422 -0.001167 0.000000
0.000480 -0.001197 0.000000
0.000470 -0.001208 0.000000
0.000445 -0.001229 0.000000
0.000393 -0.001273 0.000000
0.004765 -0.001066 0.000000
0.004777 -0.001133 0.000000
0.004976 -0.001101 0.000000
0.005365 -0.001378 0.000000
0.005365 -0.001556 0.000000
0.005276 -0.001505 0.000000
0.005148 -0.001277 0.000000
0.004902 -0.001164 0.000000
0.000685 -0.012207 0.000000
0.000647 -0.012138 0.000000
0.000766 -0.012281 0.000000
0.000830 -0.012361 0.000000
0.000851 -0.012432 0.000000
0.000853 -0.012489 0.000000
0.000847 -0.012541 0.000000
0.000805 -0.012536 0.000000
0.000734 -0.012486 0.000000
0.000700 -0.012370 0.000000
0.000680 -0.012223 0.000000
0.000682 -0.012172 0.000000
0.005750 -0.014102 0.000000
0.005894 -0.013860 0.000000
0.005525 -0.013827 0.000000
0.005497 -0.013540 0.000000
0.005509 -0.013298 0.000000
0.005558 -0.013124 0.000000
0.005287 -0.012628 0.000000
0.005458 -0.012977 0.000000
0.005887 -0.013316 0.000000
0.006022 -0.013619 0.000000
0.006004 -0.013794 0.000000
0.003283 -0.000840 0.000000
0.003665 -0.000920 0.000000
0.003142 -0.000528 0.000000
0.003693 -0.000366 0.000000
0.004193 -0.000386 0.000000
0.004242 -0.000384 0.000000
0.004322 -0.000520 0.000000
0.004090 -0.000802 0.000000
0.000844 -0.001068 0.000000
0.000792 -0.001127 0.000000
0.000922 -0.001054 0.000000
0.000970 -0.001085 0.000000
0.000961 -0.001171 0.000000
0.000905 -0.001226 0.000000
0.000806 -0.001268 0.000000
0.000767 -0.001209 0.000000
0.002510 -0.000737 0.000000
0.002381 -0.000673 0.000000
0.002538 -0.000785 0.000000
0.002414 -0.000768 0.000000
0.002312 -0.000719 0.000000
0.002243 -0.000670 0.000000
0.002244 -0.000643 0.000000
0.002295 -0.000638 0.000000
0.000143 -0.000725 0.000000
0.000096 -0.000695 0.000000
0.000187 -0.000803 0.000000
0.000196 -0.000856 0.000000
0.000186 -0.000924 0.000000
0.000166 -0.000936 0.000000
0.000147 -0.000943 0.000000
0.000342 -0.003974 0.000000
0.000849 -0.004383 0.000000
0.000739 -0.004484 0.000000
0.000493 -0.004306 0.000000
0.000164 -0.002105 0.000000
0.000209 -0.002457 0.000000
0.000256 -0.009886 0.000000
0.000354 -0.009910 0.000000
0.000155 -0.009609 0.000000
0.000097 -0.009240 0.000000
0.000063 -0.009197 0.000000
0.000174 -0.009336 0.000000
0.000262 -0.009518 0.000000
0.000352 -0.009646 0.000000
0.000452 -0.009864 0.000000
0.002364 -0.000666 0.000000
0.002024 -0.000704 0.000000
0.002720 -0.000787 0.000000
0.003033 -0.001082 0.000000
0.003147 -0.001439 0.000000
0.003229 -0.001878 0.000000
0.002882 -0.001983 0.000000
0.002155 -0.001589 0.000000
0.001914 -0.001190 0.000000
0.001811 -0.000797 0.000000
0.001484 -0.010908 0.000000
0.001625 -0.011132 0.000000
0.001472 -0.011180 0.000000
0.001042 -0.011038 0.000000
0.000275 -0.005384 0.000000
-0.000029 -0.004153 0.000000
0.000172 -0.004234 0.000000
0.000520 -0.004942 0.000000
0.000449 -0.005304 0.000000
0.003962 -0.015204 0.000000
0.003803 -0.014803 0.000000
0.003927 -0.014810 0.000000
0.004130 -0.015095 0.000000
0.004063 -0.015176 0.000000
0.000736 -0.010344 0.000000
0.000085 -0.011299 0.000000
0.000262 -0.011533 0.000000
0.000152 -0.011256 0.000000
0.000308 -0.011347 0.000000
0.000432 -0.011592 0.000000
0.000489 -0.011627 0.000000
0.000440 -0.011650 0.000000
0.008402 -0.007373 0.000000
0.000407 -0.000709 0.000000
0.000454 -0.000768 0.000000
0.000519 -0.000661 0.000000
0.000656 -0.000832 0.000000
0.000571 -0.000827 0.000000
0.008847 -0.012369 0.000000
0.008683 -0.012215 0.000000
0.008824 -0.012622 0.000000
0.008703 -0.012893 0.000000
0.008455 -0.013052 0.000000
0.008133 -0.013143 0.000000
0.007999 -0.012565 0.000000
0.008161 -0.012311 0.000000
0.008417 -0.012179 0.000000
0.000763 -0.000633 0.000000
0.000784 -0.000406 0.000000
0.000977 -0.000368 0.000000
0.001191 -0.000414 0.000000
0.000272 -0.002614 0.000000
0.000116 -0.003659 0.000000
0.000151 -0.003307 0.000000
0.007310 -0.015030 0.000000
0.007215 -0.015106 0.000000
0.007429 -0.014990 0.000000
0.007415 -0.015092 0.000000
0.007306 -0.015245 0.000000
0.007247 -0.015360 0.000000
0.007160 -0.015424 0.000000
0.007160 -0.015264 0.000000
0.000131 -0.001457 0.000000
0.000152 -0.001465 0.000000
0.000134 -0.001425 0.000000
0.000155 -0.001387 0.000000
0.000174 -0.001380 0.000000
0.000192 -0.001398 0.000000
0.000198 -0.001413 0.000000
0.006332 -0.001872 0.000000
0.006373 -0.001778 0.000000
0.006173 -0.001788 0.000000
0.006140 -0.001614 0.000000
0.006181 -0.001536 0.000000
0.006222 -0.001476 0.000000
0.006282 -0.001560 0.000000
0.000948 -0.012910 0.000000
0.000883 -0.012852 0.000000
0.000925 -0.012820 0.000000
0.000997 -0.012849 0.000000
0.001058 -0.012965 0.000000
0.000409 -0.002435 0.000000
0.000397 -0.002429 0.000000
0.007384 -0.004978 0.000000
0.000257 -0.003955 0.000000
0.000362 -0.003904 0.000000
0.001005 -0.004626 0.000000
0.001114 -0.006919 0.000000
0.007857 -0.004468 0.000000
0.007997 -0.004339 0.000000
0.005824 -0.002548 0.000000
0.005944 -0.002608 0.000000
-0.000237 -0.000901 0.000000
-0.000411 -0.001301 0.000000
-0.000146 -0.000879 0.000000
-0.000277 -0.001415 0.000000
-0.000454 -0.001877 0.000000
-0.000556 -0.001698 0.000000
0.001143 -0.000991 0.000000
0.005072 -0.015119 0.000000
0.005058 -0.015128 0.000000
0.001852 -0.000774 0.000000
0.001555 -0.000866 0.000000
0.001593 -0.000661 0.000000
0.001751 -0.000504 0.000000
0.001850 -0.000580 0.000000
-0.000058 -0.002629 0.000000
-0.000380 -0.001859 0.000000
-0.000187 -0.001885 0.000000
-0.000069 -0.002164 0.000000
0.001702 -0.000288 0.000000
0.001592 -0.000395 0.000000
0.001911 -0.000290 0.000000
0.002000 -0.000437 0.000000
0.001885 -0.000583 0.000000
0.001703 -0.000567 0.000000
0.004324 -0.015351 0.000000
0.002829 -0.002817 0.000000
0.003287 -0.003090 0.000000
0.002782 -0.002477 0.000000
0.003240 -0.002673 0.000000
0.003614 -0.002955 0.000000
0.002591 -0.006228 0.000000
0.002423 -0.006436 0.000000
0.002870 -0.006288 0.000000
0.003135 -0.006644 0.000000
0.003026 -0.006927 0.000000
0.002663 -0.006777 0.000000
0.000105 -0.000581 0.000000
0.003515 -0.000778 0.000000
0.003890 -0.000830 0.000000
0.003534 -0.000544 0.000000
0.003926 -0.000451 0.000000
0.008368 -0.007340 0.000000
0.008441 -0.007292 0.000000
0.002761 -0.012751 0.000000
0.002944 -0.012621 0.000000
0.000272 -0.000641 0.000000
0.000216 -0.000536 0.000000
0.000284 -0.000590 0.000000
0.000294 -0.000629 0.000000
0.006985 -0.004775 0.000000
0.006671 -0.004809 0.000000
0.007337 -0.005023 0.000000
0.007298 -0.005245 0.000000
0.007030 -0.005262 0.000000
0.006876 -0.005160 0.000000
0.003305 -0.006551 0.000000
0.003333 -0.006248 0.000000
0.000425 -0.009673 0.000000
0.000322 -0.009837 0.000000
0.000310 -0.009599 0.000000
0.000362 -0.009567 0.000000
0.004989 -0.015060 0.000000
0.004924 -0.015009 0.000000
0.000110 -0.012088 0.000000
0.000107 -0.012020 0.000000
0.000202 -0.012151 0.000000
0.000249 -0.012255 0.000000
0.000158 -0.012200 0.000000
0.006340 -0.012739 0.000000
0.006411 -0.012842 0.000000
0.006388 -0.012757 0.000000
0.006359 -0.012914 0.000000
0.006321 -0.012943 0.000000
0.006790 -0.004242 0.000000
0.004866 -0.014735 0.000000
0.004559 -0.014538 0.000000
0.004321 -0.014175 0.000000
0.004545 -0.014200 0.000000
0.008173 -0.007069 0.000000
0.008067 -0.006785 0.000000
0.007856 -0.006811 0.000000
0.007784 -0.006624 0.000000
0.007944 -0.006592 0.000000
0.002983 -0.004884 0.000000
0.000978 -0.010819 0.000000
0.001153 -0.010850 0.000000
0.001390 -0.011019 0.000000
0.001634 -0.011955 0.000000
0.002061 -0.002886 0.000000
0.002022 -0.003313 0.000000
0.003342 -0.003057 0.000000
0.003799 -0.003668 0.000000
0.003913 -0.004060 0.000000
0.001567 -0.006868 0.000000
0.001404 -0.007065 0.000000
0.001615 -0.006868 0.000000
0.001619 -0.007157 0.000000
0.001351 -0.008110 0.000000
0.000981 -0.008444 0.000000
0.000734 -0.008532 0.000000
0.000607 -0.008416 0.000000
0.000737 -0.007903 0.000000
0.001088 -0.007346 0.000000
0.000474 -0.001205 0.000000
0.000453 -0.001222 0.000000
0.000666 -0.012185 0.000000
0.000672 -0.012152 0.000000
0.000817 -0.012346 0.000000
0.000849 -0.012416 0.000000
0.000707 -0.012413 0.000000
0.000678 -0.012190 0.000000
0.005951 -0.013844 0.000000
0.005493 -0.013360 0.000000
0.005557 -0.013166 0.000000
0.005389 -0.012850 0.000000
0.004251 -0.000379 0.000000
0.000960 -0.001074 0.000000
0.000969 -0.001148 0.000000
0.000765 -0.001231 0.000000
0.002444 -0.000780 0.000000
0.000098 -0.000708 0.000000
0.000280 -0.009886 0.000000
0.000380 -0.009908 0.000000
0.000173 -0.009724 0.000000
0.000109 -0.009301 0.000000
0.000070 -0.009202 0.000000
0.000145 -0.009290 0.000000
0.000247 -0.009461 0.000000
0.000318 -0.009613 0.000000
0.000442 -0.009812 0.000000
0.002978 -0.001015 0.000000
0.003131 -0.001371 0.000000
0.003210 -0.001772 0.000000
0.000475 -0.005244 0.000000
0.007286 -0.015045 0.000000
0.007199 -0.015146 0.000000
0.007407 -0.015010 0.000000
0.007344 -0.015195 0.000000
0.007191 -0.015414 0.000000
0.006358 -0.001728 0.000000
0.000894 -0.012871 0.000000
-0.000427 -0.001358 0.000000
-0.000141 -0.000852 0.000000
-0.000243 -0.001281 0.000000
0.001559 -0.000712 0.000000
0.001718 -0.000530 0.000000
0.003078 -0.002572 0.000000
0.002458 -0.006526 0.000000
0.003079 -0.006548 0.000000
0.006695 -0.004871 0.000000
0.007341 -0.005212 0.000000
0.000114 -0.012046 0.000000
0.006389 -0.012872 0.000000
0.000000 0.000000 0.000000
0.000000 -0.012599 0.000000
0.000000 -0.000633 0.000000
0.000086 -0.001520 0.000000
0.004902 -0.000519 0.000000
0.006758 -0.015785 0.000000
0.000708 -0.009785 0.000000
0.000709 -0.009937 0.000000
0.000707 -0.009276 0.000000
0.000779 -0.008909 0.000000
0.000841 -0.008787 0.000000
0.000746 -0.009182 0.000000
0.000705 -0.009435 0.000000
0.000818 -0.009468 0.000000
0.000825 -0.009895 0.000000
0.000738 -0.009956 0.000000
0.007134 -0.010568 0.000000
0.006961 -0.010983 0.000000
0.007406 -0.010291 0.000000
0.007668 -0.010332 0.000000
0.007646 -0.010830 0.000000
0.007440 -0.011408 0.000000
0.007092 -0.011709 0.000000
0.006905 -0.011516 0.000000
0.005787 -0.003362 0.000000
0.005951 -0.003596 0.000000
0.006494 -0.003862 0.000000
0.006712 -0.004101 0.000000
0.007088 -0.004194 0.000000
0.007146 -0.004175 0.000000
0.007178 -0.004360 0.000000
0.006461 -0.004104 0.000000
0.006141 -0.003792 0.000000
0.001039 -0.006615 0.000000
0.001305 -0.007661 0.000000
0.000928 -0.006089 0.000000
0.001315 -0.005662 0.000000
0.002185 -0.006868 0.000000
0.003007 -0.007296 0.000000
0.003791 -0.008178 0.000000
0.003964 -0.008967 0.000000
0.003430 -0.009153 0.000000
0.002908 -0.009317 0.000000
0.002030 -0.008519 0.000000
0.004822 -0.014740 0.000000
0.004227 -0.014249 0.000000
0.004222 -0.014070 0.000000
0.004679 -0.014300 0.000000
0.004753 -0.014431 0.000000
0.004830 -0.014612 0.000000
-0.000103 -0.006494 0.000000
-0.000078 -0.006864 0.000000
-0.000090 -0.006073 0.000000
-0.000028 -0.006297 0.000000
-0.000081 -0.006767 0.000000
-0.000183 -0.007301 0.000000
-0.000213 -0.007611 0.000000
-0.000230 -0.007729 0.000000
-0.000162 -0.007334 0.000000
0.008223 -0.007383 0.000000
0.008057 -0.007520 0.000000
0.007925 -0.007339 0.000000
0.007866 -0.007268 0.000000
0.007829 -0.007074 0.000000
0.007833 -0.006703 0.000000
0.007849 -0.006571 0.000000
0.002178 -0.004461 0.000000
0.002504 -0.004960 0.000000
0.002056 -0.003980 0.000000
0.002427 -0.004101 0.000000
0.002727 -0.004501 0.000000
0.003049 -0.005253 0.000000
0.002843 -0.005427 0.000000
0.000910 -0.011087 0.000000
0.001653 -0.011279 0.000000
0.001818 -0.011647 0.000000
0.001328 -0.011936 0.000000
0.001068 -0.011491 0.000000
0.002133 -0.002570 0.000000
0.002512 -0.002323 0.000000
0.003582 -0.004525 0.000000
0.003140 -0.004550 0.000000
0.002462 -0.004010 0.000000
0.001594 -0.007487 0.000000
0.000264 -0.001209 0.000000
0.000353 -0.001279 0.000000
0.000237 -0.001125 0.000000
0.000271 -0.001081 0.000000
0.000370 -0.001126 0.000000
0.000464 -0.001192 0.000000
0.000421 -0.001251 0.000000
0.004753 -0.001106 0.000000
0.004796 -0.001165 0.000000
0.004855 -0.001061 0.000000
0.005132 -0.001171 0.000000
0.005383 -0.001451 0.000000
0.005308 -0.001545 0.000000
0.005196 -0.001383 0.000000
0.005125 -0.001250 0.000000
0.005821 -0.013961 0.000000
0.005605 -0.014001 0.000000
0.005493 -0.013645 0.000000
0.005490 -0.012948 0.000000
0.005770 -0.013203 0.000000
0.005982 -0.013485 0.000000
0.006001 -0.013730 0.000000
0.003418 -0.000883 0.000000
0.003877 -0.000884 0.000000
0.003186 -0.000687 0.000000
0.003327 -0.000412 0.000000
0.003988 -0.000340 0.000000
0.004276 -0.000447 0.000000
0.004271 -0.000637 0.000000
0.007430 -0.015076 0.000000
0.007143 -0.015340 0.000000
0.000000 0.000000 0.000000
0.000000 -0.001646 0.000000
0.000000 -0.001553 0.000000
0.004548 -0.000308 0.000000
0.006873 -0.015480 0.000000
0.000045 -0.012646 0.000000
0.000702 -0.009683 0.000000
0.000761 -0.009867 0.000000
0.000721 -0.009029 0.000000
0.000763 -0.008850 0.000000
0.000768 -0.008943 0.000000
0.000726 -0.009321 0.000000
0.000707 -0.009394 0.000000
0.000814 -0.009708 0.000000
0.000812 -0.009924 0.000000
0.000712 -0.009975 0.000000
0.007222 -0.010426 0.000000
0.007037 -0.010766 0.000000
0.007526 -0.010236 0.000000
0.007654 -0.010541 0.000000
0.007584 -0.011052 0.000000
0.007305 -0.011607 0.000000
0.007007 -0.011697 0.000000
0.006919 -0.011266 0.000000
0.006102 -0.003561 0.000000
0.005706 -0.003449 0.000000
0.006678 -0.004036 0.000000
0.006854 -0.004074 0.000000
0.007102 -0.004164 0.000000
0.007275 -0.004288 0.000000
0.007037 -0.004331 0.000000
0.006286 -0.003960 0.000000
0.006083 -0.003736 0.000000
0.000984 -0.006443 0.000000
0.001124 -0.007168 0.000000
0.000968 -0.005747 0.000000
0.001707 -0.006300 0.000000
0.002503 -0.007040 0.000000
0.003373 -0.007629 0.000000
0.004043 -0.008611 0.000000
0.003720 -0.009003 0.000000
0.003297 -0.009320 0.000000
0.002520 -0.008958 0.000000
0.001764 -0.008241 0.000000
0.004818 -0.014752 0.000000
0.004177 -0.014205 0.000000
0.004265 -0.014043 0.000000
0.004694 -0.014332 0.000000
0.004779 -0.014476 0.000000
0.004838 -0.014636 0.000000
-0.000103 -0.006398 0.000000
-0.000104 -0.006692 0.000000
-0.000118 -0.006018 0.000000
-0.000010 -0.006464 0.000000
-0.000140 -0.006998 0.000000
-0.000192 -0.007451 0.000000
-0.000208 -0.007660 0.000000
-0.000190 -0.007606 0.000000
-0.000127 -0.007124 0.000000
0.008226 -0.007438 0.000000
0.008002 -0.007442 0.000000
0.007908 -0.007330 0.000000
0.007879 -0.007262 0.000000
0.007820 -0.007010 0.000000
0.007820 -0.006700 0.000000
0.007872 -0.006574 0.000000
0.002038 -0.004204 0.000000
0.002464 -0.004890 0.000000
0.002164 -0.004007 0.000000
0.002559 -0.004267 0.000000
0.002850 -0.004657 0.000000
0.003040 -0.005332 0.000000
0.002716 -0.005283 0.000000
0.000902 -0.010971 0.000000
0.001745 -0.011402 0.000000
0.001803 -0.011686 0.000000
0.001268 -0.011837 0.000000
0.000993 -0.011361 0.000000
0.002132 -0.002419 0.000000
0.002776 -0.002530 0.000000
0.003530 -0.004564 0.000000
0.002942 -0.004409 0.000000
0.002336 -0.003875 0.000000
0.001555 -0.007604 0.000000
0.000249 -0.001190 0.000000
0.000316 -0.001263 0.000000
0.000239 -0.001107 0.000000
0.000304 -0.001094 0.000000
0.000403 -0.001154 0.000000
0.000473 -0.001195 0.000000
0.000405 -0.001264 0.000000
0.004762 -0.001084 0.000000
0.004797 -0.001152 0.000000
0.004940 -0.001088 0.000000
0.005325 -0.001329 0.000000
0.005366 -0.001538 0.000000
0.005282 -0.001515 0.000000
0.005149 -0.001292 0.000000
0.004964 -0.001191 0.000000
0.005779 -0.014083 0.000000
0.005552 -0.013899 0.000000
0.005496 -0.013596 0.000000
0.005407 -0.012782 0.000000
0.005826 -0.013244 0.000000
0.006011 -0.013569 0.000000
0.006001 -0.013757 0.000000
0.003359 -0.000863 0.000000
0.003759 -0.000908 0.000000
0.003167 -0.000598 0.000000
0.003607 -0.000382 0.000000
0.004086 -0.000355 0.000000
0.004298 -0.000484 0.000000
0.004150 -0.000756 0.000000
0.007417 -0.015094 0.000000
0.007151 -0.015304 0.000000
0.000734 -0.009893 0.000000
0.000710 -0.009154 0.000000
0.000738 -0.009258 0.000000
0.000724 -0.009965 0.000000
0.007172 -0.010498 0.000000
0.007461 -0.010266 0.000000
0.007623 -0.010924 0.000000
0.005968 -0.003466 0.000000
0.006598 -0.003946 0.000000
0.007110 -0.004200 0.000000
0.007102 -0.004347 0.000000
0.006371 -0.004040 0.000000
0.001009 -0.006520 0.000000
0.000940 -0.005943 0.000000
0.002345 -0.006963 0.000000
0.003359 -0.009233 0.000000
0.001907 -0.008394 0.000000
0.004769 -0.014452 0.000000
-0.000102 -0.006454 0.000000
-0.000013 -0.006388 0.000000
-0.000113 -0.006882 0.000000
-0.000189 -0.007376 0.000000
-0.000222 -0.007684 0.000000
0.008028 -0.007479 0.000000
0.007871 -0.007263 0.000000
0.002104 -0.004335 0.000000
0.002102 -0.004005 0.000000
0.002498 -0.004181 0.000000
0.002792 -0.004576 0.000000
0.002778 -0.005350 0.000000
0.000906 -0.011029 0.000000
0.001700 -0.011341 0.000000
0.001029 -0.011427 0.000000
0.002647 -0.002430 0.000000
0.003042 -0.004481 0.000000
0.000335 -0.001273 0.000000
0.000288 -0.001088 0.000000
0.000386 -0.001141 0.000000
0.000413 -0.001258 0.000000
0.004754 -0.001096 0.000000
0.004899 -0.001073 0.000000
0.005810 -0.014002 0.000000
0.005457 -0.012888 0.000000
0.005998 -0.013526 0.000000
0.003820 -0.000896 0.000000
0.003178 -0.000643 0.000000
0.004216 -0.000695 0.000000
0.000000 0.000000 0.000000
0.000000 -0.012579 0.000000
0.000000 -0.000710 0.000000
0.000117 -0.001511 0.000000
0.004987 -0.000775 0.000000
0.006716 -0.015889 0.000000
0.000766 -0.008913 0.000000
0.000827 -0.008835 0.000000
0.000703 -0.009437 0.000000
0.000811 -0.009559 0.000000
0.000823 -0.009912 0.000000
0.006980 -0.010914 0.000000
0.007667 -0.010394 0.000000
0.007393 -0.011480 0.000000
0.007067 -0.011705 0.000000
0.006909 -0.011442 0.000000
0.005900 -0.003558 0.000000
0.006732 -0.004059 0.000000
0.007177 -0.004214 0.000000
0.006113 -0.003782 0.000000
0.001233 -0.007516 0.000000
0.001420 -0.005820 0.000000
0.003132 -0.007400 0.000000
0.003869 -0.008316 0.000000
0.003867 -0.008984 0.000000
0.002811 -0.009229 0.000000
-0.000079 -0.006800 0.000000
-0.000153 -0.007250 0.000000
0.004818 -0.001175 0.000000
0.005188 -0.001209 0.000000
0.005381 -0.001461 0.000000
0.005295 -0.001536 0.000000
0.005174 -0.001347 0.000000
0.005106 -0.001241 0.000000
0.003419 -0.000404 0.000000
0.000000 0.000000 0.000000
0.000000 -0.001849 0.000000
0.000000 -0.001548 0.000000
0.004499 -0.000362 0.000000
0.006921 -0.015412 0.000000
0.000089 -0.012681 0.000000
0.000756 -0.008884 0.000000
0.000791 -0.008910 0.000000
0.000702 -0.009424 0.000000
0.000811 -0.009622 0.000000
0.000820 -0.009915 0.000000
0.007011 -0.010829 0.000000
0.007660 -0.010492 0.000000
0.007354 -0.011543 0.000000
0.007039 -0.011699 0.000000
0.006914 -0.011339 0.000000
0.005803 -0.003500 0.000000
0.006808 -0.004056 0.000000
0.007236 -0.004260 0.000000
0.006097 -0.003757 0.000000
0.001174 -0.007357 0.000000
0.001614 -0.006156 0.000000
0.003258 -0.007514 0.000000
0.003961 -0.008488 0.000000
0.003810 -0.008991 0.000000
0.002637 -0.009055 0.000000
-0.000086 -0.006757 0.000000
-0.000140 -0.007195 0.000000
0.004811 -0.001165 0.000000
0.005280 -0.001281 0.000000
0.005367 -0.001522 0.000000
0.005284 -0.001525 0.000000
0.005160 -0.001320 0.000000
0.005012 -0.001209 0.000000
0.003501 -0.000399 0.000000
0.000759 -0.008904 0.000000
0.000814 -0.008870 0.000000
0.000822 -0.009915 0.000000
0.006995 -0.010871 0.000000
0.007664 -0.010443 0.000000
0.006912 -0.011390 0.000000
0.005855 -0.003528 0.000000
0.006768 -0.004049 0.000000
0.006106 -0.003771 0.000000
0.001519 -0.005991 0.000000
0.002721 -0.009154 0.000000
0.005236 -0.001242 0.000000
0.005290 -0.001535 0.000000
0.000000 0.000000 0.000000
0.000000 -0.012555 0.000000
0.000000 -0.000804 0.000000
0.000142 -0.001497 0.000000
0.005081 -0.000991 0.000000
0.006629 -0.016061 0.000000
0.005369 -0.001480 0.000000
0.005079 -0.001230 0.000000
0.000000 0.000000 0.000000
0.000000 -0.002137 0.000000
0.000000 -0.001537 0.000000
0.004457 -0.000426 0.000000
0.006967 -0.015355 0.000000
0.000202 -0.012687 0.000000
0.005366 -0.001504 0.000000
0.005052 -0.001221 0.000000
0.000000 0.000000 0.000000
0.000000 -0.012536 0.000000
0.000000 -0.000901 0.000000
0.000163 -0.001483 0.000000
0.005153 -0.001154 0.000000
0.006503 -0.016299 0.000000
0.000000 0.000000 0.000000
0.000000 -0.002477 0.000000
0.000000 -0.001522 0.000000
0.004424 -0.000496 0.000000
0.007003 -0.015307 0.000000
0.000353 -0.012723 0.000000
0.000000 0.000000 0.000000
0.000000 -0.012478 0.000000
0.000000 -0.000995 0.000000
0.000180 -0.001470 0.000000
0.005472 -0.001107 0.000000
0.006398 -0.016430 0.000000
0.000000 0.000000 0.000000
0.000000 -0.002814 0.000000
0.000000 -0.001499 0.000000
0.004254 -0.000438 0.000000
0.007031 -0.015264 0.000000
0.000506 -0.012804 0.000000
0.000000 0.000000 0.000000
0.000000 -0.012364 0.000000
0.000000 -0.001082 0.000000
0.000194 -0.001459 0.000000
0.005847 -0.001036 0.000000
0.006202 -0.016423 0.000000
0.000000 0.000000 0.000000
0.000000 -0.003110 0.000000
0.000000 -0.001467 0.000000
0.004078 -0.000365 0.000000
0.007052 -0.015223 0.000000
0.000569 -0.012817 0.000000
0.000000 0.000000 0.000000
0.000000 -0.012224 0.000000
0.000000 -0.001164 0.000000
0.000207 -0.001451 0.000000
0.006006 -0.001028 0.000000
0.005992 -0.016219 0.000000
0.000000 0.000000 0.000000
0.000000 -0.003381 0.000000
0.000000 -0.001427 0.000000
0.003885 -0.000234 0.000000
0.007067 -0.015182 0.000000
0.000584 -0.012839 0.000000
0.000000 0.000000 0.000000
0.000000 -0.012080 0.000000
0.000000 -0.001242 0.000000
0.000220 -0.001446 0.000000
0.006094 -0.001169 0.000000
0.005691 -0.015945 0.000000
0.000000 0.000000 0.000000
0.000000 -0.003658 0.000000
0.000000 -0.001376 0.000000
0.003709 -0.000134 0.000000
0.007076 -0.015136 0.000000
0.000591 -0.012870 0.000000
0.000000 -0.001313 0.000000
0.000000 0.000000 0.000000
0.000000 -0.011976 0.000000
0.000235 -0.001442 0.000000
0.006127 -0.001230 0.000000
0.005370 -0.015440 0.000000
0.000000 0.000000 0.000000
0.000000 -0.003963 0.000000
0.003598 -0.000075 0.000000
0.007080 -0.015079 0.000000
0.000592 -0.012900 0.000000
0.000000 0.000000 0.000000
0.000000 -0.011908 0.000000
0.000252 -0.001436 0.000000
0.006136 -0.001272 0.000000
0.005143 -0.015198 0.000000
0.000000 0.000000 0.000000
0.000000 -0.004290 0.000000
0.003487 -0.000069 0.000000
0.007072 -0.014967 0.000000
0.000591 -0.012924 0.000000
0.000000 0.000000 0.000000
0.000000 -0.011790 0.000000
0.000271 -0.001430 0.000000
0.006138 -0.001304 0.000000
0.005089 -0.015154 0.000000
0.000000 0.000000 0.000000
0.000000 -0.004626 0.000000
0.003396 -0.000082 0.000000
0.007047 -0.014703 0.000000
0.000590 -0.012942 0.000000
0.000000 0.000000 0.000000
0.000000 -0.011561 0.000000
0.000292 -0.001421 0.000000
0.006140 -0.001345 0.000000
0.005069 -0.015153 0.000000
0.000000 0.000000 0.000000
0.000000 -0.004955 0.000000
0.003314 -0.000093 0.000000
0.007030 -0.013891 0.000000
0.000589 -0.012950 0.000000
0.000000 0.000000 0.000000
0.000000 -0.011286 0.000000
0.000314 -0.001409 0.000000
0.006159 -0.001390 0.000000
0.005051 -0.015155 0.000000
0.000000 0.000000 0.000000
0.000000 -0.005267 0.000000
0.003240 -0.000102 0.000000
0.007133 -0.013426 0.000000
0.000592 -0.012944 0.000000
0.000000 0.000000 0.000000
0.000000 -0.010969 0.000000
0.000336 -0.001394 0.000000
0.006193 -0.001461 0.000000
0.005053 -0.015169 0.000000
0.000000 0.000000 0.000000
0.000000 -0.005594 0.000000
0.003165 -0.000111 0.000000
0.007293 -0.013102 0.000000
0.000629 -0.012896 0.000000
0.000000 0.000000 0.000000
0.000000 -0.010813 0.000000
0.000358 -0.001378 0.000000
0.006323 -0.001503 0.000000
0.005062 -0.015175 0.000000
0.000000 0.000000 0.000000
0.000000 -0.005964 0.000000
0.003083 -0.000117 0.000000
0.007448 -0.012883 0.000000
0.000722 -0.012828 0.000000
0.000000 0.000000 0.000000
0.000000 -0.010710 0.000000
0.000378 -0.001359 0.000000
0.006797 -0.001279 0.000000
0.005074 -0.015168 0.000000
0.000000 0.000000 0.000000
0.000000 -0.006306 0.000000
0.002992 -0.000127 0.000000
0.007573 -0.012733 0.000000
0.000876 -0.012708 0.000000
0.000000 0.000000 0.000000
0.000000 -0.010623 0.000000
0.000396 -0.001338 0.000000
0.007097 -0.001408 0.000000
0.005084 -0.015148 0.000000
0.000000 0.000000 0.000000
0.000000 -0.006567 0.000000
0.002898 -0.000161 0.000000
0.007652 -0.012625 0.000000
0.000981 -0.012711 0.000000
0.000000 0.000000 0.000000
0.000000 -0.010544 0.000000
0.000411 -0.001316 0.000000
0.007317 -0.001478 0.000000
0.005088 -0.015118 0.000000
0.000000 0.000000 0.000000
0.000000 -0.006808 0.000000
0.002768 -0.000203 0.000000
0.007709 -0.012530 0.000000
0.001055 -0.012743 0.000000
0.000000 0.000000 0.000000
0.000000 -0.010473 0.000000
0.000421 -0.001296 0.000000
0.007505 -0.001487 0.000000
0.005081 -0.015089 0.000000
0.000000 0.000000 0.000000
0.000000 -0.006998 0.000000
0.002600 -0.000250 0.000000
0.007755 -0.012438 0.000000
0.001101 -0.012793 0.000000
0.000000 0.000000 0.000000
0.000000 -0.010387 0.000000
0.000429 -0.001278 0.000000
0.007617 -0.001491 0.000000
0.005052 -0.015078 0.000000
0.000000 0.000000 0.000000
0.000000 -0.007150 0.000000
0.002399 -0.000277 0.000000
0.007796 -0.012342 0.000000
0.001113 -0.012830 0.000000
0.000000 0.000000 0.000000
0.000000 -0.010260 0.000000
0.000436 -0.001264 0.000000
0.007683 -0.001508 0.000000
0.004921 -0.015193 0.000000
0.000000 0.000000 0.000000
0.000000 -0.007276 0.000000
0.002209 -0.000320 0.000000
0.007833 -0.012237 0.000000
0.001120 -0.012866 0.000000
0.000000 0.000000 0.000000
0.000000 -0.010074 0.000000
0.000441 -0.001251 0.000000
0.007722 -0.001626 0.000000
0.004774 -0.015259 0.000000
0.000000 0.000000 0.000000
0.000000 -0.007399 0.000000
0.002059 -0.000326 0.000000
0.007861 -0.012116 0.000000
0.001124 -0.012898 0.000000
0.000000 0.000000 0.000000
0.000000 -0.009842 0.000000
0.000446 -0.001241 0.000000
0.007742 -0.001816 0.000000
0.004568 -0.015363 0.000000
0.000000 0.000000 0.000000
0.000000 -0.007532 0.000000
0.002010 -0.000398 0.000000
0.007873 -0.011947 0.000000
0.001126 -0.012926 0.000000
0.000000 0.000000 0.000000
0.000000 -0.009509 0.000000
0.000450 -0.001232 0.000000
0.007858 -0.002945 0.000000
0.004390 -0.015501 0.000000
0.000000 0.000000 0.000000
0.000000 -0.007675 0.000000
0.001984 -0.000457 0.000000
0.007863 -0.011680 0.000000
0.001129 -0.012950 0.000000
0.000000 0.000000 0.000000
0.000000 -0.009130 0.000000
0.000456 -0.001226 0.000000
0.007957 -0.003549 0.000000
0.004381 -0.015496 0.000000
0.000000 0.000000 0.000000
0.000000 -0.007832 0.000000
0.001964 -0.000519 0.000000
0.007830 -0.011206 0.000000
0.001136 -0.012974 0.000000
0.000000 0.000000 0.000000
0.000000 -0.008846 0.000000
0.000463 -0.001220 0.000000
0.008063 -0.003956 0.000000
0.004372 -0.015486 0.000000
0.000000 0.000000 0.000000
0.000000 -0.008003 0.000000
0.001942 -0.000586 0.000000
0.007827 -0.010459 0.000000
0.001152 -0.013005 0.000000
0.000000 0.000000 0.000000
0.000000 -0.008647 0.000000
0.000474 -0.001215 0.000000
0.008173 -0.004287 0.000000
0.004340 -0.015468 0.000000
0.000000 0.000000 0.000000
0.000000 -0.008130 0.000000
0.001925 -0.000651 0.000000
0.007929 -0.009677 0.000000
0.001198 -0.013063 0.000000
0.000000 0.000000 0.000000
0.000000 -0.008496 0.000000
0.000494 -0.001200 0.000000
0.008255 -0.004449 0.000000
0.004275 -0.015417 0.000000
0.000000 0.000000 0.000000
0.000000 -0.008249 0.000000
0.001911 -0.000714 0.000000
0.008147 -0.008563 0.000000
0.001317 -0.013166 0.000000
0.000000 -0.008366 0.000000
0.000000 0.000000 0.000000
0.000525 -0.001182 0.000000
0.008302 -0.004523 0.000000
0.004256 -0.015438 0.000000
0.000000 0.000000 0.000000
0.001895 -0.000777 0.000000
0.008474 -0.007983 0.000000
0.001551 -0.013380 0.000000
0.000000 0.000000 0.000000
0.000562 -0.001162 0.000000
0.008327 -0.004551 0.000000
0.004255 -0.015480 0.000000
0.000000 0.000000 0.000000
0.001766 -0.000737 0.000000
0.008756 -0.007735 0.000000
0.001868 -0.013798 0.000000
0.000000 0.000000 0.000000
0.000606 -0.001140 0.000000
0.008339 -0.004565 0.000000
0.004269 -0.015506 0.000000
0.000000 0.000000 0.000000
0.001667 -0.000671 0.000000
0.008885 -0.007668 0.000000
0.002540 -0.014959 0.000000
0.000000 0.000000 0.000000
0.000653 -0.001119 0.000000
0.008336 -0.004575 0.000000
0.004285 -0.015513 0.000000
0.000000 0.000000 0.000000
0.001567 -0.000658 0.000000
0.008913 -0.007647 0.000000
0.003050 -0.015595 0.000000
0.000000 0.000000 0.000000
0.000701 -0.001099 0.000000
0.008308 -0.004599 0.000000
0.004297 -0.015503 0.000000
0.000000 0.000000 0.000000
0.001475 -0.000676 0.000000
0.008911 -0.007639 0.000000
0.003319 -0.016068 0.000000
0.000000 0.000000 0.000000
0.000759 -0.001092 0.000000
0.008229 -0.004667 0.000000
0.004298 -0.015483 0.000000
0.000000 0.000000 0.000000
0.001378 -0.000748 0.000000
0.008893 -0.007621 0.000000
0.003228 -0.016387 0.000000
0.000000 0.000000 0.000000
0.000824 -0.001100 0.000000
0.008127 -0.004841 0.000000
0.004269 -0.015478 0.000000
0.000000 0.000000 0.000000
0.001288 -0.000827 0.000000
0.008857 -0.007535 0.000000
0.003195 -0.016481 0.000000
0.000000 0.000000 0.000000
0.000895 -0.001128 0.000000
0.008040 -0.005213 0.000000
0.004081 -0.015456 0.000000
0.000000 0.000000 0.000000
0.001206 -0.000908 0.000000
0.008814 -0.007367 0.000000
0.003162 -0.016532 0.000000
0.000000 0.000000 0.000000
0.000974 -0.001174 0.000000
0.008046 -0.005734 0.000000
0.003915 -0.015501 0.000000
0.000000 0.000000 0.000000
0.001127 -0.000991 0.000000
0.008791 -0.007358 0.000000
0.003137 -0.016535 0.000000
0.000000 0.000000 0.000000
0.000997 -0.001151 0.000000
0.008106 -0.006175 0.000000
0.003630 -0.015803 0.000000
0.000000 0.000000 0.000000
0.001046 -0.001088 0.000000
0.008767 -0.007364 0.000000
0.003142 -0.016535 0.000000
0.001020 -0.001123 0.000000
0.003235 -0.016366 0.000000
0.000000 0.000000 0.000000
0.008133 -0.006278 0.000000
0.000000 0.000000 0.000000
0.008727 -0.007388 0.000000
0.000000 0.000000 0.000000
0.008187 -0.006352 0.000000
0.000000 0.000000 0.000000
0.008664 -0.007381 0.000000
0.000000 0.000000 0.000000
0.008328 -0.006380 0.000000
0.000000 0.000000 0.000000
0.008515 -0.007123 0.000000
0.000000 0.000000 0.000000
0.008423 -0.006451 0.000000
0.000000 0.000000 0.000000
0.008448 -0.006717 0.000000
0.000000 0.000000 0.000000
0.008448 -0.006488 0.000000
0.000000 0.000000 0.000000
0.008454 -0.006569 0.000000
0.008451 -0.006520 0.000000
0.000000 0.000000 0.000000
0.000000 0.000000 0.000000
0.000000 0.000000 0.000000
0.000000 0.000000 0.000000
0.000000 0.000000 0.000000
0.000000 0.000000 0.000000
0.000000 0.000000 0.000000
0.000000 0.000000 0.000000
0.000000 0.000000 0.000000
0.000000 0.000000 0.000000
0.000000 0.000000 0.000000
0.000000 0.000000 0.000000
0.000000 0.000000 0.000000
0.000000 0.000000 0.000000
0.000000 0.000000 0.000000
0.000000 0.000000 0.000000
0.000000 0.000000 0.000000
0.000000 0.000000 0.000000
0.000000 0.000000 0.000000
0.000000 0.000000 0.000000
0.000000 0.000000 0.000000
0.000000 0.000000 0.000000
0.000000 0.000000 0.000000
0.000000 0.000000 0.000000
0.000000 0.000000 0.000000
0.000000 0.000000 0.000000
0.000000 0.000000 0.000000
0.000000 0.000000 0.000000
0.000000 0.000000 0.000000
0.000000 0.000000 0.000000
0.000000 0.000000 0.000000
0.000000 0.000000 0.000000
0.000000 0.000000 0.000000
0.000000 0.000000 0.000000
0.000000 0.000000 0.000000
0.000000 0.000000 0.000000
0.000000 0.000000 0.000000
0.000000 0.000000 0.000000
0.000000 0.000000 0.000000
0.000000 0.000000 0.000000
0.000000 0.000000 0.000000
0.000000 0.000000 0.000000
0.000000 0.000000 0.000000
0.000000 0.000000 0.000000
0.000000 0.000000 0.000000
0.000000 0.000000 0.000000
0.000000 0.000000 0.000000
0.000000 0.000000 0.000000
0.000000 0.000000 0.000000
0.000000 0.000000 0.000000
0.000000 0.000000 0.000000
0.000000 0.000000 0.000000
0.000000 0.000000 0.000000
0.000000 0.000000 0.000000
0.000000 0.000000 0.000000
0.000000 0.000000 0.000000
0.000000 0.000000 0.000000
0.000000 0.000000 0.000000
0.000000 0.000000 0.000000
0.000000 0.000000 0.000000
0.000000 0.000000 0.000000
0.000000 0.000000 0.000000
0.000000 0.000000 0.000000
0.000000 0.000000 0.000000
0.000000 0.000000 0.000000
0.000000 0.000000 0.000000
0.000000 0.000000 0.000000
0.000000 0.000000 0.000000
0.000000 0.000000 0.000000
0.000000 0.000000 0.000000
0.000000 0.000000 0.000000
0.000000 0.000000 0.000000
0.000000 0.000000 0.000000
0.000000 0.000000 0.000000
0.000000 0.000000 0.000000
0.000000 0.000000 0.000000
0.000000 0.000000 0.000000
0.000000 0.000000 0.000000
0.000000 0.000000 0.000000
0.000000 0.000000 0.000000
0.000000 0.000000 0.000000
0.000000 0.000000 0.000000
0.000000 0.000000 0.000000
0.000000 0.000000 0.000000
0.000000 0.000000 0.000000
0.000000 0.000000 0.000000
0.000000 0.000000 0.000000
0.000000 0.000000 0.000000
0.000000 0.000000 0.000000
0.000000 0.000000 0.000000
0.000000 0.000000 0.000000
0.000000 0.000000 0.000000
0.000000 0.000000 0.000000
0.000000 0.000000 0.000000
0.000000 0.000000 0.000000
0.000000 0.000000 0.000000
0.000000 0.000000 0.000000
0.000000 0.000000 0.000000
0.000000 0.000000 0.000000
0.000000 0.000000 0.000000
0.000000 0.000000 0.000000
0.000000 0.000000 0.000000
0.000000 0.000000 0.000000
0.000000 0.000000 0.000000
0.000000 0.000000 0.000000
0.000000 0.000000 0.000000
0.000000 0.000000 0.000000
0.000000 0.000000 0.000000
0.000000 0.000000 0.000000
0.000000 0.000000 0.000000
0.000000 0.000000 0.000000
0.000000 0.000000 0.000000
0.000000 0.000000 0.000000
0.000000 0.000000 0.000000
0.000000 0.000000 0.000000
0.000000 0.000000 0.000000
0.000000 0.000000 0.000000
0.000000 0.000000 0.000000
0.000000 0.000000 0.000000
0.000000 0.000000 0.000000
0.000000 0.000000 0.000000
0.000000 0.000000 0.000000
0.000000 0.000000 0.000000
0.000000 0.000000 0.000000
0.000000 0.000000 0.000000
0.000000 0.000000 0.000000
0.000000 0.000000 0.000000
0.000000 0.000000 0.000000
0.000000 0.000000 0.000000
0.000000 0.000000 0.000000
0.000000 0.000000 0.000000
0.000000 0.000000 0.000000
0.000000 0.000000 0.000000
0.000000 0.000000 0.000000
0.000000 0.000000 0.000000
0.000000 0.000000 0.000000
0.000000 0.000000 0.000000
0.000000 0.000000 0.000000
0.000000 0.000000 0.000000
0.000000 0.000000 0.000000
0.000000 0.000000 0.000000
0.000000 0.000000 0.000000
0.000000 0.000000 0.000000
0.000000 0.000000 0.000000
0.000000 0.000000 0.000000
0.000000 0.000000 0.000000
0.000000 0.000000 0.000000
0.000000 0.000000 0.000000
0.000000 0.000000 0.000000
0.000000 0.000000 0.000000
0.000000 0.000000 0.000000
0.000000 0.000000 0.000000
0.001289 -0.010417 0.000000
0.000440 -0.002485 0.000000
0.001894 -0.012975 0.000000
0.005076 -0.015124 0.000000
0.003076 -0.007675 0.000000
0.002581 -0.012710 0.000000
0.007884 -0.012727 0.000000
0.000506 -0.002455 0.000000
0.007404 -0.004983 0.000000
0.000241 -0.004006 0.000000
0.003072 -0.007633 0.000000
0.004284 -0.015422 0.000000
0.000097 -0.000546 0.000000
0.008398 -0.007393 0.000000
0.003480 -0.006598 0.000000
0.006314 -0.012966 0.000000
0.000470 -0.011661 0.000000
0.000715 -0.009930 0.000000
0.005241 -0.001259 0.000000
0.000772 -0.008961 0.000000
0.002375 -0.008710 0.000000
0.000726 -0.009923 0.000000
0.005058 -0.001223 0.000000
0.005198 -0.001226 0.000000
0.002166 -0.006894 0.000000
0.005344 -0.001449 0.000000
-0.000134 -0.007229 0.000000
0.005024 -0.001211 0.000000
0.002122 -0.008477 0.000000
0.003237 -0.007644 0.000000
0.003116 -0.007524 0.000000
0.002043 -0.006783 0.000000
0.000785 -0.008920 0.000000
0.006113 -0.003759 0.000000
0.007868 -0.007229 0.000000
0.006565 -0.004127 0.000000
0.006944 -0.004134 0.000000
0.007001 -0.004157 0.000000
0.007031 -0.010879 0.000000
0.005197 -0.001362 0.000000
0.002002 -0.008354 0.000000
0.002298 -0.006986 0.000000
0.000708 -0.009937 0.000000
0.005272 -0.001497 0.000000
0.001755 -0.008091 0.000000
0.001870 -0.008217 0.000000
0.000714 -0.009298 0.000000
0.004836 -0.001161 0.000000
0.000410 -0.001250 0.000000
0.006033 -0.003663 0.000000
0.001417 -0.007673 0.000000
0.000740 -0.009919 0.000000
0.001918 -0.006654 0.000000
0.005152 -0.001194 0.000000
0.003353 -0.007771 0.000000
0.003524 -0.008958 0.000000
0.006882 -0.004101 0.000000
0.007043 -0.004163 0.000000
0.003451 -0.008994 0.000000
0.000399 -0.001256 0.000000
-0.000198 -0.007633 0.000000
0.004845 -0.001173 0.000000
0.006127 -0.003781 0.000000
0.000801 -0.009879 0.000000
-0.000106 -0.007086 0.000000
0.007929 -0.007301 0.000000
0.006300 -0.003692 0.000000
0.006485 -0.004089 0.000000
0.000699 -0.009403 0.000000
0.000691 -0.009436 0.000000
0.001045 -0.006429 0.000000
0.007906 -0.006626 0.000000
-0.000076 -0.006891 0.000000
-0.000120 -0.007156 0.000000
0.003814 -0.003985 0.000000
-0.000148 -0.007030 0.000000
0.007619 -0.010520 0.000000
0.007926 -0.006637 0.000000
0.000794 -0.008881 0.000000
0.003641 -0.008139 0.000000
-0.000081 -0.006160 0.000000
0.006065 -0.003697 0.000000
0.006964 -0.011344 0.000000
0.007622 -0.010570 0.000000
-0.000178 -0.007247 0.000000
0.000761 -0.008997 0.000000
0.007946 -0.007310 0.000000
0.006998 -0.011006 0.000000
0.007058 -0.004150 0.000000
0.007015 -0.010939 0.000000
-0.000052 -0.006376 0.000000
0.001332 -0.007529 0.000000
0.000783 -0.009897 0.000000
0.001787 -0.006502 0.000000
0.000725 -0.009231 0.000000
0.004806 -0.014604 0.000000
0.005956 -0.013538 0.000000
0.007872 -0.007217 0.000000
0.000341 -0.001265 0.000000
0.006727 -0.004193 0.000000
0.007867 -0.007237 0.000000
0.004981 -0.001198 0.000000
0.003860 -0.000831 0.000000
0.005343 -0.001472 0.000000
0.000378 -0.001144 0.000000
0.004799 -0.001111 0.000000
-0.000127 -0.006931 0.000000
0.004937 -0.001102 0.000000
0.008063 -0.006838 0.000000
0.005773 -0.013266 0.000000
0.003655 -0.003622 0.000000
0.002498 -0.004881 0.000000
0.005972 -0.013714 0.000000
0.006971 -0.011210 0.000000
0.001052 -0.006517 0.000000
0.000420 -0.001244 0.000000
0.000303 -0.001109 0.000000
0.006827 -0.004069 0.000000
0.000695 -0.009437 0.000000
0.005995 -0.003627 0.000000
0.000793 -0.009887 0.000000
0.003608 -0.008937 0.000000
0.005345 -0.001431 0.000000
0.005281 -0.001298 0.000000
0.007521 -0.011079 0.000000
0.000771 -0.008920 0.000000
0.007590 -0.010881 0.000000
0.002230 -0.002919 0.000000
0.005939 -0.013489 0.000000
0.002581 -0.003982 0.000000
-0.000077 -0.006763 0.000000
0.007945 -0.006647 0.000000
0.000395 -0.001157 0.000000
0.003731 -0.003732 0.000000
-0.000073 -0.006825 0.000000
0.005549 -0.013160 0.000000
0.000697 -0.009337 0.000000
0.004796 -0.014573 0.000000
0.002704 -0.004088 0.000000
0.007094 -0.004158 0.000000
0.004707 -0.014571 0.000000
0.003381 -0.009046 0.000000
0.006967 -0.011279 0.000000
0.007821 -0.006711 0.000000
0.007857 -0.007088 0.000000
0.005089 -0.001234 0.000000
0.005877 -0.013807 0.000000
0.007559 -0.010977 0.000000
0.000457 -0.001194 0.000000
0.006812 -0.004225 0.000000
0.005219 -0.001397 0.000000
0.005267 -0.001484 0.000000
0.006203 -0.003625 0.000000
-0.000078 -0.006366 0.000000
0.007615 -0.010468 0.000000
0.005922 -0.013796 0.000000
0.000716 -0.009902 0.000000
0.000694 -0.009460 0.000000
0.007809 -0.006689 0.000000
0.004780 -0.014537 0.000000
0.005970 -0.013741 0.000000
0.001045 -0.006342 0.000000
0.005176 -0.001330 0.000000
0.003725 -0.008282 0.000000
0.001674 -0.006348 0.000000
0.004794 -0.001119 0.000000
0.004817 -0.001146 0.000000
-0.000044 -0.006463 0.000000
0.005524 -0.013463 0.000000
0.006389 -0.003758 0.000000
0.007913 -0.007296 0.000000
0.007423 -0.010334 0.000000
0.005535 -0.013109 0.000000
0.007204 -0.010508 0.000000
0.007968 -0.007326 0.000000
0.000691 -0.009532 0.000000
0.007419 -0.011331 0.000000
0.005522 -0.013401 0.000000
0.001628 -0.011349 0.000000
-0.000216 -0.007630 0.000000
-0.000211 -0.007675 0.000000
0.004289 -0.014103 0.000000
0.008135 -0.007033 0.000000
0.000835 -0.012414 0.000000
0.002440 -0.007068 0.000000
-0.000103 -0.006824 0.000000
0.003339 -0.003220 0.000000
0.000442 -0.001225 0.000000
0.000324 -0.001258 0.000000
0.007884 -0.006618 0.000000
-0.000178 -0.007571 0.000000
0.000695 -0.009475 0.000000
0.003953 -0.000381 0.000000
0.004768 -0.014503 0.000000
0.001423 -0.007100 0.000000
0.002824 -0.004672 0.000000
0.006155 -0.003817 0.000000
0.006781 -0.004045 0.000000
0.005977 -0.013689 0.000000
0.005973 -0.013586 0.000000
0.006975 -0.011142 0.000000
0.005835 -0.013824 0.000000
0.007832 -0.006722 0.000000
0.000362 -0.001131 0.000000
0.004338 -0.014165 0.000000
0.000271 -0.001203 0.000000
0.002446 -0.004794 0.000000
0.002543 -0.004973 0.000000
0.004977 -0.001116 0.000000
0.005103 -0.001164 0.000000
0.001331 -0.011036 0.000000
0.003858 -0.000390 0.000000
0.002829 -0.004191 0.000000
0.000808 -0.009863 0.000000
0.001109 -0.011485 0.000000
0.007373 -0.011412 0.000000
0.000708 -0.009929 0.000000
0.000802 -0.009688 0.000000
0.001128 -0.007440 0.000000
0.001393 -0.011090 0.000000
-0.000149 -0.007303 0.000000
0.001163 -0.011561 0.000000
0.003727 -0.000853 0.000000
0.000684 -0.012235 0.000000
0.003671 -0.004312 0.000000
0.004373 -0.014204 0.000000
0.000683 -0.012220 0.000000
0.000772 -0.009910 0.000000
0.000947 -0.010980 0.000000
0.001258 -0.007377 0.000000
0.007113 -0.004188 0.000000
0.003693 -0.008922 0.000000
0.003012 -0.001299 0.000000
0.001033 -0.007577 0.000000
0.006957 -0.011458 0.000000
0.007046 -0.011637 0.000000
0.000287 -0.001104 0.000000
0.007491 -0.011168 0.000000
0.002484 -0.004209 0.000000
0.000796 -0.012335 0.000000
0.000688 -0.012250 0.000000
0.004808 -0.014714 0.000000
0.005711 -0.013208 0.000000
0.000869 -0.007868 0.000000
0.001575 -0.011276 0.000000
0.002457 -0.003865 0.000000
0.001219 -0.011641 0.000000
0.001389 -0.007913 0.000000
0.002678 -0.005183 0.000000
0.000253 -0.001132 0.000000
0.002902 -0.001051 0.000000
0.003437 -0.000820 0.000000
0.005525 -0.013524 0.000000
0.006402 -0.004042 0.000000
0.007994 -0.007356 0.000000
0.000767 -0.008970 0.000000
0.006989 -0.004295 0.000000
0.003669 -0.000419 0.000000
0.005517 -0.013049 0.000000
0.004534 -0.014232 0.000000
0.001053 -0.006243 0.000000
0.000800 -0.008850 0.000000
0.000780 -0.008876 0.000000
0.000811 -0.012355 0.000000
0.001445 -0.007778 0.000000
0.008155 -0.007108 0.000000
0.003506 -0.000841 0.000000
0.004279 -0.014253 0.000000
0.001733 -0.011681 0.000000
0.005912 -0.003562 0.000000
0.000758 -0.008461 0.000000
0.004802 -0.001100 0.000000
0.004758 -0.014472 0.000000
0.004600 -0.014498 0.000000
0.003312 -0.001775 0.000000
0.006471 -0.003821 0.000000
0.000832 -0.012398 0.000000
0.004895 -0.001088 0.000000
0.006701 -0.016073 0.000000
0.007131 -0.015555 0.000000
0.002092 -0.001244 0.000000
0.000838 -0.012446 0.000000
0.002896 -0.004844 0.000000
0.001276 -0.011724 0.000000
0.008453 -0.007930 0.000000
0.006115 -0.013803 0.000000
0.002804 -0.009108 0.000000
0.000693 -0.008368 0.000000
0.000753 -0.012282 0.000000
0.007846 -0.007029 0.000000
0.000682 -0.012202 0.000000
0.003190 -0.003058 0.000000
0.000709 -0.012311 0.000000
0.001991 -0.000911 0.000000
0.004214 -0.000392 0.000000
0.000698 -0.009622 0.000000
0.000996 -0.010879 0.000000
0.000696 -0.008305 0.000000
0.004813 -0.014697 0.000000
0.004816 -0.014638 0.000000
0.003743 -0.004260 0.000000
0.005528 -0.013634 0.000000
0.003314 -0.009113 0.000000
0.007303 -0.015066 0.000000
0.001175 -0.010918 0.000000
0.003487 -0.000452 0.000000
0.003580 -0.000436 0.000000
0.000697 -0.012271 0.000000
0.004238 -0.000452 0.000000
0.001571 -0.006189 0.000000
0.000838 -0.012463 0.000000
0.005526 -0.013580 0.000000
0.004045 -0.000379 0.000000
0.008032 -0.006773 0.000000
0.000385 -0.009751 0.000000
0.000703 -0.009236 0.000000
0.005113 -0.001245 0.000000
-0.000189 -0.007398 0.000000
0.006097 -0.003555 0.000000
0.007140 -0.010729 0.000000
0.001684 -0.011415 0.000000
0.004241 -0.014205 0.000000
0.000791 -0.008025 0.000000
0.001583 -0.007065 0.000000
0.007626 -0.010620 0.000000
0.000413 -0.001168 0.000000
0.000447 -0.001188 0.000000
0.000353 -0.009855 0.000000
0.002260 -0.004487 0.000000
0.003931 -0.000821 0.000000
0.004084 -0.000743 0.000000
0.002949 -0.004289 0.000000
0.006157 -0.013899 0.000000
0.001511 -0.006996 0.000000
0.000273 -0.005809 0.000000
0.007236 -0.010994 0.000000
0.007337 -0.015190 0.000000
0.007965 -0.006675 0.000000
0.000752 -0.009030 0.000000
0.000128 -0.009307 0.000000
0.007804 -0.006661 0.000000
0.002006 -0.001017 0.000000
0.004581 -0.014243 0.000000
0.007610 -0.010411 0.000000
0.004150 -0.000689 0.000000
0.000522 -0.000682 0.000000
0.007061 -0.010779 0.000000
0.000700 -0.009479 0.000000
0.003262 -0.000654 0.000000
0.000730 -0.009866 0.000000
0.003055 -0.001465 0.000000
0.000363 -0.009694 0.000000
0.000389 -0.001263 0.000000
0.007105 -0.010558 0.000000
0.005809 -0.013841 0.000000
0.001037 -0.008347 0.000000
0.002242 -0.004087 0.000000
0.009013 -0.008434 0.000000
0.000914 -0.010168 0.000000
0.002954 -0.005235 0.000000
0.005299 -0.001520 0.000000
0.005344 -0.001510 0.000000
0.003817 -0.008432 0.000000
0.002264 -0.002831 0.000000
0.008693 -0.012738 0.000000
0.002130 -0.003015 0.000000
-0.000215 -0.007586 0.000000
0.004930 -0.001183 0.000000
0.004853 -0.001173 0.000000
0.006530 -0.016268 0.000000
0.004096 -0.015059 0.000000
0.007159 -0.010566 0.000000
0.007787 -0.007793 0.000000
0.001588 -0.007148 0.000000
0.008394 -0.009563 0.000000
0.007391 -0.015115 0.000000
0.000141 -0.009354 0.000000
0.000390 -0.004560 0.000000
0.008178 -0.012486 0.000000
0.004170 -0.004587 0.000000
0.007204 -0.015209 0.000000
0.000806 -0.012516 0.000000
0.006790 -0.015908 0.000000
0.000588 -0.012602 0.000000
0.007496 -0.006449 0.000000
0.008434 -0.012034 0.000000
0.000336 -0.009637 0.000000
0.007218 -0.015170 0.000000
0.007475 -0.010314 0.000000
0.001040 -0.012955 0.000000
0.000463 -0.001209 0.000000
0.003462 -0.001891 0.000000
0.000291 -0.009832 0.000000
-0.000083 -0.006956 0.000000
0.001241 -0.008147 0.000000
0.001080 -0.006704 0.000000
0.000849 -0.001089 0.000000
0.002969 -0.005141 0.000000
0.006946 -0.011548 0.000000
0.004660 -0.014301 0.000000
0.001625 -0.007944 0.000000
0.000787 -0.012506 0.000000
0.001449 -0.008864 0.000000
0.000675 -0.012181 0.000000
0.008186 -0.007305 0.000000
0.007305 -0.015233 0.000000
0.000949 -0.008407 0.000000
0.005318 -0.001342 0.000000
0.005344 -0.001414 0.000000
0.000451 -0.001219 0.000000
0.002945 -0.004936 0.000000
-0.000087 -0.006703 0.000000
-0.000024 -0.000526 0.000000
0.000957 -0.011106 0.000000
0.005249 -0.014863 0.000000
0.002807 -0.002688 0.000000
0.000977 -0.008364 0.000000
0.000465 -0.001198 0.000000
0.004049 -0.015138 0.000000
0.002711 -0.004528 0.000000
0.002366 -0.000677 0.000000
0.000685 -0.012215 0.000000
0.007896 -0.002993 0.000000
0.008405 -0.012971 0.000000
0.000769 -0.010494 0.000000
0.000411 -0.005163 0.000000
0.007871 -0.007253 0.000000
0.000886 -0.000253 0.000000
0.008325 -0.007365 0.000000
0.007121 -0.010428 0.000000
0.000581 -0.000812 0.000000
0.001505 -0.007643 0.000000
0.007264 -0.015311 0.000000
0.000468 -0.001205 0.000000
0.007372 -0.004440 0.000000
0.003191 -0.000157 0.000000
0.000485 -0.011238 0.000000
0.005528 -0.013686 0.000000
0.003826 -0.014899 0.000000
0.000647 -0.012572 0.000000
0.002386 -0.004701 0.000000
0.004914 -0.010308 0.000000
0.002797 -0.005317 0.000000
0.002866 -0.007298 0.000000
0.002100 -0.003252 0.000000
0.001021 -0.011350 0.000000
0.008090 -0.006899 0.000000
-0.000157 -0.002775 0.000000
0.005788 -0.013890 0.000000
0.000832 -0.012509 0.000000
0.001459 -0.011145 0.000000
0.000318 -0.004173 0.000000
0.000106 -0.009266 0.000000
0.006705 -0.004020 0.000000
0.000440 -0.002298 0.000000
0.007809 -0.007841 0.000000
0.007147 -0.004226 0.000000
0.000196 -0.001350 0.000000
0.006174 -0.003834 0.000000
-0.000061 -0.000554 0.000000
0.001937 -0.011480 0.000000
0.006956 -0.011473 0.000000
0.008185 -0.010422 0.000000
0.000219 -0.000544 0.000000
0.008695 -0.012077 0.000000
0.000120 -0.001379 0.000000
0.005024 -0.002353 0.000000
0.000344 -0.004327 0.000000
0.002536 -0.004265 0.000000
0.000899 -0.001072 0.000000
0.001359 -0.007153 0.000000
0.008624 -0.008401 0.000000
0.000324 -0.001307 0.000000
0.000390 -0.004458 0.000000
0.006553 -0.003884 0.000000
0.000590 -0.006215 0.000000
0.003926 -0.014845 0.000000
0.000545 -0.000918 0.000000
0.000573 -0.012910 0.000000
0.002070 -0.000754 0.000000
0.005840 -0.013325 0.000000
0.005920 -0.013438 0.000000
0.001068 -0.006116 0.000000
0.000290 -0.004264 0.000000
-0.000202 -0.004122 0.000000
0.007991 -0.003611 0.000000
0.008175 -0.005380 0.000000
-0.000345 -0.005879 0.000000
0.008773 -0.007615 0.000000
0.000934 -0.008359 0.000000
0.000041 -0.003818 0.000000
0.006193 -0.005658 0.000000
0.000937 -0.001085 0.000000
0.001085 -0.000441 0.000000
0.005549 -0.013230 0.000000
0.000882 -0.001215 0.000000
0.003838 -0.014866 0.000000
0.002181 -0.000556 0.000000
0.008390 -0.007697 0.000000
0.003362 -0.000797 0.000000
0.003274 -0.000709 0.000000
0.000153 -0.001454 0.000000
0.007572 -0.010061 0.000000
0.000704 -0.001166 0.000000
0.000171 -0.000791 0.000000
0.008529 -0.012043 0.000000
0.000227 -0.009435 0.000000
0.002851 -0.004713 0.000000
0.001622 -0.011849 0.000000
0.006019 -0.003203 0.000000
0.000946 -0.001098 0.000000
-0.000040 -0.003395 0.000000
0.003352 -0.001664 0.000000
0.002680 -0.000583 0.000000
0.000949 -0.001137 0.000000
0.007372 -0.015044 0.000000
0.002321 -0.000718 0.000000
0.006325 -0.003989 0.000000
0.001470 -0.006039 0.000000
0.005523 -0.013337 0.000000
0.002617 -0.000810 0.000000
0.000036 -0.001204 0.000000
0.000276 -0.001272 0.000000
0.000213 -0.001377 0.000000
0.000301 -0.001292 0.000000
0.000417 -0.003107 0.000000
0.001011 -0.010663 0.000000
0.008072 -0.004022 0.000000
-0.000228 -0.005772 0.000000
0.000027 -0.004527 0.000000
0.006825 -0.015809 0.000000
0.007854 -0.006864 0.000000
0.000191 -0.009622 0.000000
0.001741 -0.009479 0.000000
0.001214 -0.007313 0.000000
0.003375 -0.003929 0.000000
0.000719 -0.011935 0.000000
0.007186 -0.015285 0.000000
0.000332 -0.011537 0.000000
0.000547 -0.000804 0.000000
0.003112 -0.000170 0.000000
0.000252 -0.001243 0.000000
0.006289 -0.013353 0.000000
0.000928 -0.012893 0.000000
0.002639 -0.000541 0.000000
0.002416 -0.000754 0.000000
0.008615 -0.012066 0.000000
0.002896 -0.009191 0.000000
0.003778 -0.000636 0.000000
0.003524 -0.004422 0.000000
0.000380 -0.004728 0.000000
0.008607 -0.012266 0.000000
0.002937 -0.002787 0.000000
0.007777 -0.001840 0.000000
-0.000064 -0.003397 0.000000
0.004229 -0.000425 0.000000
0.005309 -0.001147 0.000000
0.005484 -0.012997 0.000000
0.001086 -0.000248 0.000000
0.004740 -0.014419 0.000000
0.000118 -0.000743 0.000000
0.000178 -0.000880 0.000000
0.000140 -0.001355 0.000000
0.008057 -0.007423 0.000000
0.003268 -0.000148 0.000000
0.000335 -0.001390 0.000000
0.000705 -0.000266 0.000000
0.001709 -0.014505 0.000000
0.002768 -0.001801 0.000000
0.000159 -0.000534 0.000000
-0.000085 -0.000589 0.000000
-0.000684 -0.002422 0.000000
0.000951 -0.012658 0.000000
0.008760 -0.012385 0.000000
0.000466 -0.001154 0.000000
0.007656 -0.010014 0.000000
0.003664 -0.000789 0.000000
0.003128 -0.016515 0.000000
0.001335 -0.011808 0.000000
0.008534 -0.008032 0.000000
0.000766 -0.008981 0.000000
0.003250 -0.000602 0.000000
0.004751 -0.004705 0.000000
0.000810 -0.009840 0.000000
0.000809 -0.009759 0.000000
0.000560 -0.004830 0.000000
0.000314 -0.001406 0.000000
0.007288 -0.014852 0.000000
0.007219 -0.010040 0.000000
0.000638 -0.000759 0.000000
0.000768 -0.000481 0.000000
0.002695 -0.009701 0.000000
0.000268 -0.002172 0.000000
0.008440 -0.008913 0.000000
0.002031 -0.000573 0.000000
0.005860 -0.003523 0.000000
0.002284 -0.002708 0.000000
0.007508 -0.006373 0.000000
0.006641 -0.001814 0.000000
-0.000168 -0.007508 0.000000
-0.000162 -0.007386 0.000000
0.008366 -0.007509 0.000000
0.007869 -0.009792 0.000000
0.000152 -0.009424 0.000000
0.002456 -0.000494 0.000000
0.000173 -0.009342 0.000000
-0.000242 -0.005720 0.000000
0.000576 -0.012930 0.000000
0.000095 -0.000815 0.000000
0.000571 -0.012883 0.000000
0.002942 -0.014020 0.000000
0.005925 -0.003170 0.000000
0.007212 -0.015527 0.000000
0.000795 -0.009556 0.000000
0.001102 -0.012909 0.000000
0.003247 -0.009185 0.000000
0.000106 -0.000763 0.000000
0.003849 -0.008888 0.000000
0.000263 -0.005264 0.000000
0.007749 -0.009923 0.000000
0.002693 -0.000578 0.000000
0.001628 -0.008850 0.000000
0.001268 -0.000541 0.000000
0.001327 -0.000627 0.000000
0.008479 -0.008759 0.000000
0.000788 -0.011980 0.000000
0.000939 -0.012909 0.000000
0.000464 -0.005529 0.000000
0.007008 -0.011625 0.000000
0.006958 -0.011530 0.000000
0.007869 -0.007150 0.000000
0.001018 -0.000728 0.000000
0.001046 -0.008466 0.000000
0.002916 -0.000333 0.000000
0.008160 -0.004346 0.000000
0.007221 -0.004424 0.000000
0.006237 -0.005707 0.000000
0.003239 -0.001599 0.000000
0.005581 -0.013848 0.000000
0.000099 -0.000810 0.000000
0.004744 -0.010173 0.000000
0.008843 -0.007868 0.000000
0.005857 -0.002227 0.000000
0.000142 -0.003335 0.000000
0.000065 -0.006089 0.000000
0.002937 -0.006514 0.000000
0.002699 -0.000658 0.000000
0.005986 -0.003494 0.000000
0.000104 -0.002651 0.000000
0.007862 -0.006322 0.000000
0.007239 -0.005189 0.000000
0.000749 -0.004630 0.000000
0.000384 -0.005645 0.000000
0.003019 -0.000187 0.000000
0.001097 -0.012878 0.000000
0.004595 -0.001964 0.000000
0.000288 -0.003860 0.000000
0.005804 -0.013035 0.000000
0.002153 -0.003428 0.000000
0.007284 -0.011549 0.000000
0.007107 -0.011653 0.000000
0.000233 -0.000545 0.000000
0.008629 -0.012995 0.000000
0.000713 -0.009132 0.000000
0.005741 -0.003080 0.000000
0.000805 -0.010346 0.000000
0.000446 -0.000679 0.000000
0.000183 -0.000835 0.000000
0.000146 -0.003272 0.000000
0.005262 -0.012354 0.000000
0.002827 -0.007101 0.000000
0.003320 -0.013952 0.000000
0.000147 -0.000602 0.000000
0.000180 -0.000856 0.000000
0.001629 -0.000524 0.000000
0.004814 -0.010195 0.000000
0.000161 -0.000913 0.000000
0.003537 -0.014734 0.000000
0.000997 -0.010913 0.000000
0.000093 -0.003066 0.000000
0.004548 -0.014040 0.000000
-0.000248 -0.005643 0.000000
0.008081 -0.011215 0.000000
0.000145 -0.009295 0.000000
-0.000090 -0.000603 0.000000
0.000700 -0.010498 0.000000
0.002338 -0.000720 0.000000
0.000720 -0.011761 0.000000
0.000017 -0.000504 0.000000
0.008830 -0.007572 0.000000
0.000170 -0.001392 0.000000
-0.000027 -0.003340 0.000000
0.000163 -0.001450 0.000000
0.006177 -0.001693 0.000000
0.005714 -0.012861 0.000000
0.001358 -0.006562 0.000000
0.001290 -0.010837 0.000000
0.007276 -0.015080 0.000000
0.000681 -0.012554 0.000000
-0.000012 -0.004291 0.000000
0.000629 -0.005425 0.000000
0.000956 -0.012926 0.000000
0.004256 -0.000483 0.000000
0.001694 -0.012233 0.000000
0.002755 -0.000299 0.000000
0.005165 -0.001049 0.000000
0.000981 -0.012861 0.000000
0.006270 -0.001614 0.000000
0.002320 -0.002715 0.000000
0.000153 -0.001404 0.000000
0.003471 -0.007905 0.000000
0.001007 -0.011311 0.000000
0.006986 -0.011410 0.000000
0.005667 -0.002956 0.000000
0.001902 -0.000597 0.000000
0.000114 -0.000756 0.000000
0.003733 -0.000731 0.000000
0.001010 -0.008381 0.000000
0.000567 -0.012849 0.000000
0.004875 -0.010239 0.000000
0.003131 -0.016440 0.000000
0.000131 -0.001490 0.000000
0.000723 -0.006086 0.000000
0.000473 -0.000507 0.000000
0.001640 -0.014447 0.000000
0.005835 -0.003128 0.000000
0.000350 -0.004050 0.000000
0.002453 -0.000763 0.000000
0.001397 -0.000677 0.000000
-0.000059 -0.006221 0.000000
0.005335 -0.014637 0.000000
0.000104 -0.009260 0.000000
0.007832 -0.007800 0.000000
0.008264 -0.004461 0.000000
0.004319 -0.014302 0.000000
0.004471 -0.014416 0.000000
0.001096 -0.005178 0.000000
-0.000176 -0.004472 0.000000
0.001164 -0.000481 0.000000
-0.000170 -0.007171 0.000000
0.000731 -0.011964 0.000000
0.008823 -0.012156 0.000000
0.000017 -0.000191 0.000000
0.000434 -0.000727 0.000000
0.002400 -0.000693 0.000000
0.001089 -0.012842 0.000000
-0.000286 -0.006610 0.000000
0.000286 -0.002993 0.000000
0.008340 -0.012084 0.000000
0.000300 -0.011371 0.000000
0.006842 -0.015734 0.000000
0.003395 -0.000460 0.000000
0.003410 -0.009720 0.000000
0.001307 -0.005328 0.000000
0.002298 -0.000654 0.000000
0.000367 -0.012430 0.000000
0.000933 -0.010200 0.000000
0.003849 -0.015054 0.000000
0.000743 -0.009831 0.000000
0.000956 -0.008292 0.000000
0.000934 -0.000170 0.000000
0.005693 -0.012770 0.000000
0.004946 -0.010204 0.000000
0.004208 -0.000635 0.000000
0.000915 -0.012593 0.000000
0.002256 -0.000542 0.000000
0.004807 -0.001086 0.000000
0.004852 -0.001076 0.000000
0.000139 -0.001452 0.000000
0.003541 -0.013863 0.000000
0.004808 -0.014727 0.000000
0.000403 -0.011475 0.000000
0.000033 -0.001281 0.000000
0.003398 -0.002803 0.000000
0.000705 -0.009708 0.000000
0.006213 -0.013240 0.000000
-0.000123 -0.007101 0.000000
0.000532 -0.004287 0.000000
0.007855 -0.006739 0.000000
0.000246 -0.000923 0.000000
0.003346 -0.000144 0.000000
-0.000274 -0.001287 0.000000
0.001334 -0.008907 0.000000
0.005747 -0.005713 0.000000
0.006200 -0.001548 0.000000
0.008026 -0.006177 0.000000
0.000139 -0.001432 0.000000
0.006431 -0.012459 0.000000
0.003210 -0.000776 0.000000
0.005771 -0.013929 0.000000
0.000582 -0.012944 0.000000
0.007226 -0.015368 0.000000
0.004080 -0.014549 0.000000
0.004808 -0.014731 0.000000
0.000198 -0.000697 0.000000
0.002585 -0.000614 0.000000
0.003804 -0.002085 0.000000
-0.000146 -0.002441 0.000000
0.000701 -0.000462 0.000000
0.001210 -0.010760 0.000000
0.002945 -0.000432 0.000000
0.005600 -0.002146 0.000000
0.005608 -0.003005 0.000000
0.000155 -0.012238 0.000000
0.000795 -0.001208 0.000000
0.001373 -0.000791 0.000000
0.000908 -0.008367 0.000000
0.001069 -0.010251 0.000000
0.000559 -0.012816 0.000000
0.002357 -0.004088 0.000000
0.000554 -0.000567 0.000000
0.002695 -0.000758 0.000000
0.003255 -0.003817 0.000000
0.007705 -0.001657 0.000000
0.003130 -0.002412 0.000000
0.002910 -0.000214 0.000000
0.007106 -0.004319 0.000000
0.008262 -0.007225 0.000000
0.007989 -0.006255 0.000000
0.001079 -0.012802 0.000000
0.008347 -0.004646 0.000000
0.000933 -0.010141 0.000000
0.000256 -0.009490 0.000000
0.000068 -0.000198 0.000000
0.003178 -0.004455 0.000000
0.003023 -0.009614 0.000000
0.000041 -0.003044 0.000000
0.003719 -0.000559 0.000000
0.003280 -0.000842 0.000000
0.000466 -0.011032 0.000000
0.000831 -0.011568 0.000000
-0.000155 -0.002969 0.000000
0.003580 -0.003508 0.000000
0.000401 -0.009808 0.000000
-0.000073 -0.000611 0.000000
0.000150 -0.000913 0.000000
0.000660 -0.006055 0.000000
0.000070 -0.000533 0.000000
0.006146 -0.005787 0.000000
-0.000003 -0.007860 0.000000
0.000609 -0.004188 0.000000
0.000536 -0.000263 0.000000
0.003755 -0.015578 0.000000
0.004466 -0.013878 0.000000
-0.000231 -0.003789 0.000000
0.003788 -0.009502 0.000000
0.005717 -0.002208 0.000000
0.003295 -0.003001 0.000000
0.000451 -0.011616 0.000000
0.000438 -0.002316 0.000000
0.000379 -0.009860 0.000000
0.000918 -0.008337 0.000000
0.004004 -0.013848 0.000000
0.001244 -0.000731 0.000000
0.000055 -0.000189 0.000000
0.000078 -0.002501 0.000000
0.001561 -0.006642 0.000000
0.007438 -0.013407 0.000000
0.000198 -0.000911 0.000000
0.000868 -0.012464 0.000000
0.008358 -0.004596 0.000000
0.001105 -0.012934 0.000000
0.000931 -0.011340 0.000000
0.008532 -0.007430 0.000000
0.007233 -0.015131 0.000000
0.008509 -0.012945 0.000000
0.000739 -0.006347 0.000000
0.003125 -0.016544 0.000000
0.001120 -0.010878 0.000000
0.000862 -0.012450 0.000000
0.001254 -0.000560 0.000000
0.000943 -0.010846 0.000000
0.001727 -0.000652 0.000000
0.000315 -0.003208 0.000000
0.003062 -0.012677 0.000000
0.001631 -0.000694 0.000000
0.007348 -0.004929 0.000000
0.001017 -0.010569 0.000000
0.000646 -0.008736 0.000000
0.000075 -0.005073 0.000000
0.005087 -0.010122 0.000000
0.000542 -0.012593 0.000000
0.001166 -0.008177 0.000000
0.000949 -0.010666 0.000000
0.000220 -0.000549 0.000000
0.000014 -0.000191 0.000000
0.000124 -0.003630 0.000000
0.006079 -0.013728 0.000000
0.001029 -0.010863 0.000000
0.007861 -0.006801 0.000000
0.004211 -0.000384 0.000000
-0.000202 -0.002846 0.000000
0.000186 -0.002438 0.000000
0.003642 -0.000858 0.000000
-0.000252 -0.006778 0.000000
0.006886 -0.004359 0.000000
0.006299 -0.016256 0.000000
0.006089 -0.003261 0.000000
0.001065 -0.010985 0.000000
0.006727 -0.001713 0.000000
0.001046 -0.012735 0.000000
0.000920 -0.008721 0.000000
0.005149 -0.001279 0.000000
0.005131 -0.001256 0.000000
0.002572 -0.006580 0.000000
0.007904 -0.007794 0.000000
0.002738 -0.012826 0.000000
0.000519 -0.012759 0.000000
0.008232 -0.004487 0.000000
-0.000384 -0.001311 0.000000
0.008048 -0.006520 0.000000
-0.000425 -0.002718 0.000000
0.000435 -0.004577 0.000000
0.000187 -0.001425 0.000000
0.000292 -0.009559 0.000000
-0.000138 -0.000533 0.000000
0.005619 -0.013145 0.000000
0.000680 -0.001233 0.000000
0.006837 -0.004928 0.000000
0.003746 -0.014166 0.000000
0.007478 -0.010072 0.000000
0.001898 -0.008836 0.000000
-0.000193 -0.007469 0.000000
0.001095 -0.012714 0.000000
0.007556 -0.006470 0.000000
0.004290 -0.015511 0.000000
0.002187 -0.011933 0.000000
0.006418 -0.014115 0.000000
0.005507 -0.012629 0.000000
0.000206 -0.003481 0.000000
0.000827 -0.011918 0.000000
0.001291 -0.012882 0.000000
0.000670 -0.010560 0.000000
0.000268 -0.009822 0.000000
0.000355 -0.001371 0.000000
0.002795 -0.006349 0.000000
0.000600 -0.009019 0.000000
0.000863 -0.005071 0.000000
0.002604 -0.000295 0.000000
0.000525 -0.010134 0.000000
0.008250 -0.005974 0.000000
0.004240 -0.015363 0.000000
0.002742 -0.006752 0.000000
0.000215 -0.009728 0.000000
0.005466 -0.001283 0.000000
0.008925 -0.007700 0.000000
0.000643 -0.000813 0.000000
0.006023 -0.013685 0.000000
-0.000001 -0.012588 0.000000
0.000041 -0.012625 0.000000
0.000041 -0.001122 0.000000
0.000398 -0.000172 0.000000
0.000877 -0.012510 0.000000
-0.000354 -0.006122 0.000000
0.004598 -0.010088 0.000000
0.000196 -0.012232 0.000000
0.000040 -0.003337 0.000000
0.000758 -0.006122 0.000000
0.003991 -0.009441 0.000000
0.001713 -0.009599 0.000000
0.004298 -0.013754 0.000000
0.000942 -0.001162 0.000000
0.007385 -0.005566 0.000000
0.007834 -0.006605 0.000000
0.007804 -0.006630 0.000000
0.008152 -0.012363 0.000000
0.000792 -0.000509 0.000000
0.002444 -0.004607 0.000000
0.007127 -0.005463 0.000000
0.007543 -0.009520 0.000000
0.002467 -0.003065 0.000000
0.000593 -0.012941 0.000000
0.006683 -0.004026 0.000000
0.002829 -0.000479 0.000000
0.000131 -0.012593 0.000000
0.000607 -0.000452 0.000000
0.001108 -0.012166 0.000000
0.000239 -0.000860 0.000000
0.000338 -0.000586 0.000000
0.004160 -0.000664 0.000000
0.000188 -0.000562 0.000000
0.000264 -0.012265 0.000000
0.007339 -0.004922 0.000000
0.008608 -0.007567 0.000000
0.005069 -0.015133 0.000000
0.006389 -0.012872 0.000000
0.007601 -0.010346 0.000000
-0.000030 -0.000642 0.000000
0.000130 -0.000605 0.000000
0.000998 -0.012676 0.000000
0.008164 -0.007044 0.000000
0.000062 -0.000617 0.000000
0.000920 -0.006152 0.000000
0.006933 -0.011650 0.000000
0.000371 -0.010584 0.000000
0.008252 -0.005908 0.000000
0.000516 -0.000451 0.000000
0.001673 -0.001760 0.000000
0.000871 -0.012482 0.000000
0.000931 -0.012635 0.000000
0.000968 -0.010163 0.000000
0.000945 -0.006183 0.000000
0.007030 -0.011358 0.000000
0.000855 -0.012646 0.000000
0.000123 -0.008057 0.000000
0.000429 -0.001110 0.000000
0.000174 -0.012131 0.000000
0.002991 -0.008935 0.000000
0.000164 -0.004312 0.000000
0.007080 -0.010720 0.000000
0.008354 -0.004577 0.000000
0.007951 -0.007908 0.000000
0.000293 -0.001419 0.000000
0.000182 -0.001310 0.000000
0.000639 -0.012882 0.000000
0.000842 -0.012443 0.000000
0.000719 -0.012783 0.000000
0.002117 -0.004079 0.000000
-0.000026 -0.005378 0.000000
0.007316 -0.014681 0.000000
0.000732 -0.008317 0.000000
0.002789 -0.000283 0.000000
0.000367 -0.005222 0.000000
0.000277 -0.005522 0.000000
0.001040 -0.001023 0.000000
-0.000262 -0.000631 0.000000
0.005986 -0.003483 0.000000
0.002759 -0.000620 0.000000
0.000794 -0.001185 0.000000
0.000307 -0.000164 0.000000
0.000389 -0.012639 0.000000
0.005877 -0.005748 0.000000
0.000386 -0.000509 0.000000
0.000275 -0.011478 0.000000
0.001623 -0.006640 0.000000
0.000806 -0.011919 0.000000
-0.000059 -0.008198 0.000000
0.000433 -0.000452 0.000000
0.001574 -0.001891 0.000000
0.000175 -0.001393 0.000000
0.000298 -0.004083 0.000000
0.000631 -0.010600 0.000000
0.000919 -0.012872 0.000000
0.001369 -0.011101 0.000000
0.000065 -0.000208 0.000000
0.001079 -0.000390 0.000000
0.000020 -0.000193 0.000000
0.006623 -0.003952 0.000000
0.006276 -0.001837 0.000000
0.001433 -0.006853 0.000000
0.001510 -0.011265 0.000000
0.008340 -0.004569 0.000000
0.000359 -0.000451 0.000000
0.001069 -0.009749 0.000000
0.002146 -0.001370 0.000000
0.007928 -0.007858 0.000000
0.002063 -0.000742 0.000000
0.000081 -0.000820 0.000000
0.000937 -0.008196 0.000000
0.000323 -0.000793 0.000000
0.000151 -0.002309 0.000000
-0.000425 -0.001434 0.000000
0.005344 -0.001527 0.000000
0.005316 -0.001529 0.000000
0.002996 -0.003656 0.000000
0.008065 -0.006102 0.000000
0.008236 -0.004523 0.000000
0.005930 -0.013685 0.000000
-0.000199 -0.006945 0.000000
0.003434 -0.000140 0.000000
0.008183 -0.006016 0.000000
0.000132 -0.012092 0.000000
0.000793 -0.010075 0.000000
0.001551 -0.000701 0.000000
0.006999 -0.010981 0.000000
0.004994 -0.000934 0.000000
0.001972 -0.000772 0.000000
0.000032 -0.002990 0.000000
0.001147 -0.012899 0.000000
0.000547 -0.002837 0.000000
0.000156 -0.000878 0.000000
0.005991 -0.001337 0.000000
0.003021 -0.001559 0.000000
0.001047 -0.005802 0.000000
0.000884 -0.012536 0.000000
0.005070 -0.015100 0.000000
0.002623 -0.000792 0.000000
0.003342 -0.000896 0.000000
0.000091 -0.001527 0.000000
0.000152 -0.001066 0.000000
0.000859 -0.011332 0.000000
0.000033 -0.000185 0.000000
0.008362 -0.012271 0.000000
0.003133 -0.016514 0.000000
0.001741 -0.011482 0.000000
0.001772 -0.011585 0.000000
0.003745 -0.004385 0.000000
0.000668 -0.012192 0.000000
0.000308 -0.000481 0.000000
0.001148 -0.010334 0.000000
0.000330 -0.009854 0.000000
0.002373 -0.009807 0.000000
0.000792 -0.012350 0.000000
0.000031 -0.001548 0.000000
0.000253 -0.012586 0.000000
0.008285 -0.004539 0.000000
0.002727 -0.000716 0.000000
0.001442 -0.002070 0.000000
0.008317 -0.004559 0.000000
0.007630 -0.009414 0.000000
0.006872 -0.005044 0.000000
0.002120 -0.004242 0.000000
0.000298 -0.012318 0.000000
0.001101 -0.005959 0.000000
0.000363 -0.003364 0.000000
0.001521 -0.000258 0.000000
0.008109 -0.012582 0.000000
0.008034 -0.011697 0.000000
0.003090 -0.002612 0.000000
0.003108 -0.016281 0.000000
0.002651 -0.007146 0.000000
0.008169 -0.004555 0.000000
0.007432 -0.006334 0.000000
0.005065 -0.015160 0.000000
0.006970 -0.004857 0.000000
0.000474 -0.000772 0.000000
0.001107 -0.012957 0.000000
0.000140 -0.000736 0.000000
0.000291 -0.000526 0.000000
-0.000182 -0.010707 0.000000
0.007942 -0.004414 0.000000
0.000553 -0.001821 0.000000
0.008050 -0.012892 0.000000
0.007996 -0.007934 0.000000
0.001344 -0.012675 0.000000
0.001450 -0.002164 0.000000
0.007635 -0.005121 0.000000
0.001039 -0.012934 0.000000
0.002557 -0.003247 0.000000
0.007932 -0.006289 0.000000
0.006196 -0.001393 0.000000
0.004716 -0.000787 0.000000
0.008845 -0.007552 0.000000
0.000362 -0.001318 0.000000
0.000044 -0.003448 0.000000
0.004611 -0.000334 0.000000
0.002468 -0.000441 0.000000
0.002629 -0.001756 0.000000
-0.000015 -0.003325 0.000000
-0.000184 -0.000983 0.000000
0.001250 -0.002042 0.000000
0.003799 -0.000542 0.000000
0.002267 -0.000695 0.000000
0.002461 -0.002225 0.000000
0.007859 -0.013100 0.000000
0.007091 -0.004144 0.000000
0.008482 -0.006581 0.000000
0.007270 -0.013888 0.000000
0.002765 -0.000699 0.000000
0.006904 -0.015542 0.000000
0.003134 -0.005435 0.000000
0.008938 -0.007664 0.000000
0.007955 -0.005046 0.000000
0.000697 -0.012489 0.000000
0.000318 -0.003340 0.000000
0.006059 -0.013695 0.000000
0.000766 -0.011841 0.000000
0.000665 -0.004230 0.000000
0.000224 -0.003234 0.000000
0.000807 -0.000167 0.000000
0.008343 -0.007437 0.000000
0.002273 -0.000529 0.000000
0.002021 -0.000775 0.000000
0.006604 -0.012251 0.000000
0.000100 -0.001407 0.000000
0.001554 -0.006577 0.000000
-0.000100 -0.006646 0.000000
-0.000093 -0.006551 0.000000
0.002654 -0.000527 0.000000
0.001019 -0.012864 0.000000
0.008137 -0.012490 0.000000
0.007671 -0.006603 0.000000
0.000597 -0.011302 0.000000
0.003382 -0.006309 0.000000
0.000467 -0.010884 0.000000
0.000193 -0.003069 0.000000
-0.000034 -0.001612 0.000000
0.000054 -0.004373 0.000000
0.003864 -0.000535 0.000000
0.007654 -0.005202 0.000000
0.001598 -0.000436 0.000000
-0.000073 -0.010575 0.000000
-0.000140 -0.008298 0.000000
0.006152 -0.001333 0.000000
0.002191 -0.012037 0.000000
0.002528 -0.006482 0.000000
0.002280 -0.002554 0.000000
0.003469 -0.014644 0.000000
0.007247 -0.014979 0.000000
-0.000167 -0.003017 0.000000
0.005453 -0.002113 0.000000
0.000034 -0.001655 0.000000
0.002442 -0.004340 0.000000
-0.000160 -0.004825 0.000000
0.008287 -0.006173 0.000000
0.000329 -0.010533 0.000000
0.005062 -0.015174 0.000000
0.002637 -0.000359 0.000000
0.005022 -0.015087 0.000000
0.001498 -0.000564 0.000000
0.000221 -0.000924 0.000000
0.001524 -0.002012 0.000000
0.007064 -0.005607 0.000000
0.001318 -0.012202 0.000000
0.001128 -0.007032 0.000000
0.001083 -0.006785 0.000000
0.000770 -0.011715 0.000000
0.008240 -0.006335 0.000000
0.000394 -0.006051 0.000000
0.001011 -0.000989 0.000000
0.000593 -0.001783 0.000000
0.005091 -0.012181 0.000000
0.008929 -0.007651 0.000000
0.000894 -0.012280 0.000000
0.000062 -0.000493 0.000000
0.007620 -0.005582 0.000000
0.005125 -0.005663 0.000000
0.007927 -0.006893 0.000000
0.005364 -0.005644 0.000000
0.004602 -0.000674 0.000000
0.003778 -0.015355 0.000000
0.002464 -0.005309 0.000000
0.007808 -0.006751 0.000000
0.001041 -0.012295 0.000000
0.007602 -0.001542 0.000000
0.000035 -0.000198 0.000000
0.002341 -0.000693 0.000000
0.000470 -0.000868 0.000000
-0.000088 -0.010495 0.000000
0.000964 -0.008215 0.000000
0.008453 -0.007420 0.000000
0.002743 -0.000826 0.000000
0.000620 -0.009212 0.000000
0.001389 -0.010909 0.000000
0.004223 -0.015363 0.000000
0.004584 -0.000873 0.000000
0.000032 -0.001349 0.000000
0.000882 -0.012150 0.000000
0.002461 -0.000422 0.000000
0.000118 -0.001494 0.000000
0.006149 -0.001297 0.000000
0.000092 -0.001008 0.000000
-0.000283 -0.000691 0.000000
0.005353 -0.002970 0.000000
0.000049 -0.000205 0.000000
0.002418 -0.000201 0.000000
-0.000263 -0.005770 0.000000
0.007395 -0.011249 0.000000
0.000368 -0.003865 0.000000
0.000704 -0.001981 0.000000
0.002596 -0.006332 0.000000
0.001031 -0.012503 0.000000
0.002556 -0.002495 0.000000
0.000190 -0.003285 0.000000
-0.000319 -0.001437 0.000000
0.000216 -0.001426 0.000000
0.007102 -0.015452 0.000000
0.007103 -0.011213 0.000000
0.001261 -0.000862 0.000000
0.007577 -0.013071 0.000000
-0.000026 -0.000570 0.000000
0.002594 -0.003539 0.000000
0.004935 -0.015028 0.000000
0.000930 -0.012845 0.000000
0.000878 -0.006328 0.000000
0.006950 -0.015470 0.000000
0.000495 -0.011601 0.000000
0.002783 -0.000568 0.000000
0.000010 -0.004943 0.000000
0.006008 -0.011807 0.000000
0.002349 -0.001607 0.000000
0.002654 -0.004452 0.000000
0.002420 -0.005104 0.000000
0.006210 -0.001792 0.000000
0.007102 -0.011322 0.000000
0.002776 -0.012582 0.000000
0.002587 -0.005059 0.000000
0.001104 -0.013277 0.000000
0.002261 -0.000449 0.000000
0.000370 -0.000248 0.000000
0.008870 -0.007612 0.000000
0.008161 -0.006022 0.000000
0.001883 -0.000608 0.000000
0.008180 -0.007237 0.000000
0.002561 -0.002503 0.000000
0.002401 -0.002838 0.000000
0.004293 -0.015491 0.000000
0.001876 -0.012636 0.000000
0.001036 -0.012914 0.000000
0.007253 -0.015521 0.000000
0.008908 -0.007644 0.000000
0.003805 -0.003902 0.000000
0.003454 -0.013576 0.000000
0.000663 -0.012177 0.000000
0.003114 -0.001560 0.000000
0.002096 -0.000533 0.000000
0.000649 -0.011934 0.000000
0.002207 -0.000678 0.000000
0.000124 -0.002668 0.000000
0.000525 -0.005444 0.000000
0.000660 -0.001136 0.000000
0.007277 -0.005147 0.000000
0.000772 -0.011336 0.000000
0.000219 -0.008255 0.000000
0.002896 -0.008599 0.000000
0.002694 -0.003121 0.000000
0.002099 -0.000442 0.000000
0.001917 -0.000410 0.000000
0.006907 -0.004350 0.000000
0.000842 -0.004554 0.000000
0.006853 -0.015665 0.000000
-0.000314 -0.002015 0.000000
0.000939 -0.010133 0.000000
0.001725 -0.000583 0.000000
0.000799 -0.008292 0.000000
0.001695 -0.000431 0.000000
0.001161 -0.000642 0.000000
0.000768 -0.000459 0.000000
0.002214 -0.003485 0.000000
0.003222 -0.001203 0.000000
0.002467 -0.004695 0.000000
0.004200 -0.014572 0.000000
0.001026 -0.011882 0.000000
0.003272 -0.016349 0.000000
0.001458 -0.006563 0.000000
0.003624 -0.003228 0.000000
0.000218 -0.000520 0.000000
0.000513 -0.003421 0.000000
0.007274 -0.004820 0.000000
0.005018 -0.014975 0.000000
0.006196 -0.003852 0.000000
0.000391 -0.002959 0.000000
0.000856 -0.012107 0.000000
0.007885 -0.005933 0.000000
-0.000376 -0.007978 0.000000
0.000807 -0.011621 0.000000
0.004920 -0.000954 0.000000
0.001502 -0.000739 0.000000
0.000961 -0.012681 0.000000
0.000883 -0.010151 0.000000
0.002153 -0.000612 0.000000
0.008882 -0.007627 0.000000
0.001017 -0.001918 0.000000
0.008352 -0.007729 0.000000
0.001030 -0.008339 0.000000
0.002029 -0.000508 0.000000
0.000898 -0.011317 0.000000
0.008839 -0.007627 0.000000
0.000720 -0.000779 0.000000
0.000619 -0.000736 0.000000
0.001443 -0.000319 0.000000
0.004370 -0.000373 0.000000
0.000855 -0.012084 0.000000
-0.000075 -0.009978 0.000000
0.002432 -0.004867 0.000000
0.002664 -0.006544 0.000000
0.003399 -0.000373 0.000000
0.003039 -0.001477 0.000000
0.002701 -0.004053 0.000000
0.004381 -0.000363 0.000000
0.000890 -0.004178 0.000000
0.007129 -0.015344 0.000000
0.000944 -0.008246 0.000000
0.003538 -0.000865 0.000000
0.007942 -0.004356 0.000000
0.008226 -0.004405 0.000000
0.002983 -0.006777 0.000000
0.000672 -0.000704 0.000000
-0.000037 -0.001546 0.000000
0.007906 -0.004441 0.000000
0.002735 -0.003505 0.000000
0.008298 -0.004802 0.000000
-0.000078 -0.006262 0.000000
0.003072 -0.001776 0.000000
0.001876 -0.000704 0.000000
0.007120 -0.015393 0.000000
0.000774 -0.001231 0.000000
-0.000182 -0.001129 0.000000
0.002425 -0.004297 0.000000
0.003310 -0.014404 0.000000
0.001331 -0.000635 0.000000
0.006994 -0.015405 0.000000
0.008321 -0.012112 0.000000
0.000375 -0.004022 0.000000
0.002956 -0.005347 0.000000
0.002866 -0.005398 0.000000
0.001734 -0.000286 0.000000
0.000878 -0.011759 0.000000
0.000294 -0.011252 0.000000
0.000455 -0.010631 0.000000
0.000732 -0.012245 0.000000
0.005952 -0.001308 0.000000
0.002438 -0.003898 0.000000
0.000420 -0.011419 0.000000
-0.000137 -0.001975 0.000000
0.002976 -0.015567 0.000000
0.000028 -0.000186 0.000000
0.002996 -0.001213 0.000000
0.000978 -0.000798 0.000000
0.006233 -0.012155 0.000000
0.000042 -0.001038 0.000000
0.000733 -0.000824 0.000000
0.001705 -0.011743 0.000000
0.004300 -0.015483 0.000000
0.000997 -0.010476 0.000000
0.006375 -0.012887 0.000000
0.007169 -0.011279 0.000000
0.000876 -0.000486 0.000000
0.004817 -0.000883 0.000000
0.003940 -0.000740 0.000000
0.001182 -0.000977 0.000000
0.004282 -0.015514 0.000000
0.001755 -0.009801 0.000000
0.008202 -0.013009 0.000000
0.001227 -0.005011 0.000000
0.001038 -0.011704 0.000000
-0.000085 -0.007263 0.000000
0.001056 -0.000181 0.000000
0.002288 -0.002561 0.000000
0.007359 -0.015157 0.000000
0.002360 -0.005988 0.000000
0.005061 -0.015118 0.000000
0.008282 -0.012359 0.000000
0.004722 -0.000412 0.000000
0.008041 -0.007978 0.000000
0.004774 -0.000774 0.000000
0.001107 -0.012978 0.000000
0.000946 -0.011164 0.000000
0.000980 -0.011288 0.000000
0.000272 -0.001430 0.000000
0.000073 -0.002198 0.000000
0.002501 -0.000558 0.000000
0.000385 -0.011963 0.000000
0.002330 -0.000548 0.000000
0.004291 -0.015461 0.000000
0.000630 -0.008189 0.000000
0.000474 -0.003536 0.000000
0.003898 -0.015112 0.000000
0.001088 -0.012982 0.000000
0.004165 -0.015127 0.000000
0.001631 -0.000682 0.000000
0.005420 -0.014758 0.000000
0.007397 -0.015036 0.000000
0.000267 -0.000616 0.000000
0.000727 -0.012434 0.000000
0.000475 -0.009574 0.000000
0.000697 -0.011723 0.000000
0.000121 -0.001509 0.000000
0.000492 -0.010023 0.000000
0.002688 -0.000766 0.000000
0.000763 -0.004303 0.000000
-0.000146 -0.002095 0.000000
0.000797 -0.012748 0.000000
0.004172 -0.015173 0.000000
0.006396 -0.012805 0.000000
0.001085 -0.011844 0.000000
0.000113 -0.012083 0.000000
0.000092 -0.000461 0.000000
0.008553 -0.013108 0.000000
0.000879 -0.000666 0.000000
0.003553 -0.000155 0.000000
0.003317 -0.006273 0.000000
0.003792 -0.015205 0.000000
-0.000083 -0.000600 0.000000
0.000313 -0.000515 0.000000
0.006904 -0.011742 0.000000
0.000234 -0.000171 0.000000
0.007026 -0.004365 0.000000
0.000095 -0.001479 0.000000
-0.000004 -0.012563 0.000000
0.000291 -0.005620 0.000000
0.001969 -0.012195 0.000000
0.000663 -0.002502 0.000000
0.000405 -0.009709 0.000000
0.001770 -0.005832 0.000000
0.006277 -0.003764 0.000000
-0.000209 -0.001971 0.000000
0.001848 -0.000637 0.000000
0.000244 -0.000967 0.000000
0.001149 -0.010712 0.000000
0.007686 -0.009398 0.000000
0.008913 -0.012222 0.000000
0.002124 -0.000621 0.000000
0.000888 -0.000729 0.000000
0.007416 -0.015072 0.000000
0.002273 -0.008513 0.000000
0.000673 -0.000983 0.000000
0.001735 -0.000642 0.000000
0.005256 -0.001455 0.000000
0.000171 -0.000574 0.000000
0.002788 -0.007183 0.000000
0.000631 -0.012558 0.000000
0.008441 -0.007314 0.000000
0.000756 -0.000861 0.000000
0.000235 -0.012403 0.000000
0.000144 -0.001483 0.000000
0.004037 -0.015361 0.000000
0.000126 -0.008192 0.000000
0.006120 -0.013218 0.000000
0.003375 -0.000887 0.000000
-0.000019 -0.003321 0.000000
0.000391 -0.000442 0.000000
0.000967 -0.012389 0.000000
-0.000184 -0.000890 0.000000
0.000121 -0.002200 0.000000
0.004778 -0.002831 0.000000
0.002614 -0.006902 0.000000
0.000825 -0.000643 0.000000
0.000347 -0.009785 0.000000
0.003152 -0.006934 0.000000
0.008000 -0.006210 0.000000
0.005771 -0.013705 0.000000
0.006369 -0.012899 0.000000
0.007034 -0.015351 0.000000
0.001804 -0.000730 0.000000
0.007964 -0.011211 0.000000
0.000227 -0.000566 0.000000
0.000513 -0.001224 0.000000
0.005744 -0.013973 0.000000
-0.000302 -0.007941 0.000000
0.002304 -0.000268 0.000000
0.005955 -0.013782 0.000000
0.000846 -0.010184 0.000000
0.004578 -0.002346 0.000000
0.000227 -0.005337 0.000000
0.002272 -0.000677 0.000000
0.002266 -0.000659 0.000000
0.001013 -0.000961 0.000000
0.000376 -0.010542 0.000000
0.001002 -0.001065 0.000000
0.000477 -0.003182 0.000000
0.008231 -0.005854 0.000000
-0.000205 -0.004529 0.000000
0.006941 -0.004453 0.000000
0.000114 -0.012064 0.000000
0.003146 -0.000726 0.000000
0.007568 -0.005160 0.000000
0.004536 -0.000317 0.000000
0.000265 -0.008345 0.000000
0.000492 -0.000187 0.000000
0.001045 -0.012974 0.000000
-0.000330 -0.008725 0.000000
0.004182 -0.015315 0.000000
0.000831 -0.000560 0.000000
0.001495 -0.011060 0.000000
0.006100 -0.003357 0.000000
-0.000050 -0.010664 0.000000
0.007208 -0.004992 0.000000
0.000420 -0.004129 0.000000
0.000364 -0.000666 0.000000
0.004655 -0.010140 0.000000
0.008091 -0.006469 0.000000
0.000168 -0.000189 0.000000
0.000837 -0.010411 0.000000
0.005706 -0.009395 0.000000
0.003644 -0.015720 0.000000
0.000089 -0.000506 0.000000
0.002994 -0.009271 0.000000
0.000224 -0.000557 0.000000
0.002043 -0.001025 0.000000
0.000345 -0.000794 0.000000
0.000175 -0.001051 0.000000
0.001017 -0.000778 0.000000
0.001010 -0.012988 0.000000
0.007188 -0.005222 0.000000
0.007271 -0.011256 0.000000
0.003974 -0.014856 0.000000
0.001026 -0.001067 0.000000
0.000120 -0.004427 0.000000
0.006346 -0.012927 0.000000
0.000745 -0.012480 0.000000
0.005067 -0.015067 0.000000
0.000163 -0.000527 0.000000
0.004790 -0.001120 0.000000
0.006138 -0.001272 0.000000
0.000374 -0.001350 0.000000
0.001619 -0.000623 0.000000
0.002242 -0.000253 0.000000
0.005405 -0.012842 0.000000
0.000722 -0.001131 0.000000
0.008454 -0.007537 0.000000
0.001855 -0.012019 0.000000
0.002864 -0.003541 0.000000
0.000743 -0.010248 0.000000
-0.000361 -0.005566 0.000000
0.008306 -0.012255 0.000000
0.001021 -0.001016 0.000000
0.005061 -0.015125 0.000000
0.000814 -0.000728 0.000000
0.000108 -0.003273 0.000000
0.000384 -0.010049 0.000000
0.002032 -0.012324 0.000000
-0.000001 -0.000491 0.000000
-0.000251 -0.003486 0.000000
0.000044 -0.002681 0.000000
0.000598 -0.005826 0.000000
0.008098 -0.008030 0.000000
0.002408 -0.000534 0.000000
0.000811 -0.000422 0.000000
0.001554 -0.011905 0.000000
0.000764 -0.008976 0.000000
0.007891 -0.005650 0.000000
0.007060 -0.005250 0.000000
0.000630 -0.010333 0.000000
-0.000002 -0.004193 0.000000
0.000754 -0.000572 0.000000
0.000227 -0.001422 0.000000
0.007926 -0.008986 0.000000
0.002553 -0.005450 0.000000
0.000816 -0.001212 0.000000
0.005258 -0.014836 0.000000
0.000177 -0.000907 0.000000
0.000579 -0.001735 0.000000
0.001626 -0.000810 0.000000
0.003545 -0.006875 0.000000
0.000163 -0.001098 0.000000
-0.000083 -0.003013 0.000000
0.005801 -0.003483 0.000000
0.007783 -0.006347 0.000000
0.000032 -0.001541 0.000000
0.007134 -0.015304 0.000000
0.002566 -0.000286 0.000000
0.001010 -0.012033 0.000000
0.004712 -0.014367 0.000000
0.004726 -0.014393 0.000000
0.000549 -0.010310 0.000000
0.000050 -0.011852 0.000000
0.008792 -0.007369 0.000000
0.000563 -0.001178 0.000000
0.001426 -0.006954 0.000000
-0.000215 -0.007676 0.000000
0.000689 -0.012362 0.000000
0.001600 -0.000752 0.000000
0.003186 -0.014255 0.000000
0.000168 -0.001326 0.000000
0.001007 -0.012878 0.000000
0.004049 -0.015334 0.000000
0.008130 -0.006048 0.000000
0.008004 -0.011948 0.000000
0.007062 -0.015304 0.000000
0.000783 -0.009491 0.000000
0.000736 -0.009454 0.000000
0.000110 -0.000868 0.000000
0.001305 -0.000587 0.000000
0.007755 -0.009316 0.000000
0.007953 -0.006338 0.000000
0.001035 -0.010205 0.000000
0.004156 -0.015090 0.000000
0.000147 -0.002638 0.000000
0.004103 -0.015022 0.000000
0.003965 -0.008715 0.000000
0.003932 -0.008836 0.000000
-0.000145 -0.002369 0.000000
0.005623 -0.013930 0.000000
0.003248 -0.002707 0.000000
0.000107 -0.000505 0.000000
0.006875 -0.004538 0.000000
0.002131 -0.000612 0.000000
0.003431 -0.002836 0.000000
0.008176 -0.007442 0.000000
0.008107 -0.007455 0.000000
0.000719 -0.003725 0.000000
0.000251 -0.000569 0.000000
0.006264 -0.013080 0.000000
0.001931 -0.012588 0.000000
0.007347 -0.010115 0.000000
0.004311 -0.014100 0.000000
-0.000036 -0.007495 0.000000
0.001239 -0.012029 0.000000
0.000350 -0.005501 0.000000
0.008061 -0.012359 0.000000
0.008679 -0.007620 0.000000
0.000066 -0.000179 0.000000
0.005431 -0.012905 0.000000
0.002502 -0.014806 0.000000
0.005833 -0.001953 0.000000
0.008369 -0.007044 0.000000
0.001050 -0.012940 0.000000
0.007306 -0.004814 0.000000
0.001101 -0.010566 0.000000
0.004838 -0.014553 0.000000
0.003656 -0.000700 0.000000
0.003625 -0.000601 0.000000
0.000104 -0.012256 0.000000
0.002415 -0.000584 0.000000
0.000253 -0.001437 0.000000
-0.000113 -0.008428 0.000000
0.006171 -0.001637 0.000000
0.000079 -0.000189 0.000000
0.000525 -0.002390 0.000000
0.000107 -0.003793 0.000000
0.000158 -0.000458 0.000000
0.000434 -0.010738 0.000000
0.000660 -0.001270 0.000000
0.001874 -0.009958 0.000000
0.001641 -0.000882 0.000000
0.000126 -0.011679 0.000000
0.005061 -0.015147 0.000000
0.000757 -0.000865 0.000000
0.001792 -0.000249 0.000000
-0.000135 -0.001394 0.000000
0.001180 -0.010850 0.000000
0.000615 -0.011277 0.000000
0.004293 -0.015466 0.000000
0.006840 -0.004149 0.000000
0.001393 -0.013272 0.000000
0.000256 -0.000431 0.000000
0.001158 -0.011063 0.000000
0.006095 -0.002785 0.000000
0.001516 -0.006704 0.000000
0.000332 -0.008172 0.000000
0.004303 -0.013691 0.000000
0.007241 -0.004770 0.000000
0.001216 -0.011926 0.000000
0.000715 -0.000788 0.000000
0.000240 -0.012225 0.000000
0.000734 -0.001125 0.000000
0.000021 -0.001583 0.000000
0.004637 -0.014305 0.000000
0.005983 -0.013630 0.000000
0.007170 -0.014712 0.000000
0.007215 -0.011613 0.000000
0.007140 -0.011660 0.000000
0.006948 -0.005190 0.000000
0.007193 -0.004784 0.000000
0.000364 -0.011480 0.000000
0.000365 -0.009806 0.000000
0.003297 -0.007153 0.000000
0.002219 -0.000718 0.000000
0.004987 -0.015038 0.000000
0.001166 -0.001048 0.000000
0.002206 -0.002900 0.000000
0.000386 -0.009678 0.000000
0.000630 -0.004418 0.000000
0.008215 -0.005173 0.000000
0.001572 -0.012724 0.000000
0.003987 -0.000563 0.000000
0.001024 -0.004603 0.000000
0.000614 -0.001152 0.000000
0.000239 -0.001149 0.000000
0.004286 -0.015480 0.000000
0.006956 -0.004711 0.000000
0.004849 -0.000567 0.000000
0.001575 -0.000615 0.000000
0.001767 -0.000303 0.000000
0.000334 -0.001115 0.000000
0.000281 -0.000593 0.000000
0.003925 -0.015173 0.000000
0.000618 -0.000821 0.000000
0.007144 -0.015260 0.000000
0.000778 -0.000903 0.000000
0.000490 -0.000670 0.000000
0.000439 -0.011341 0.000000
0.003910 -0.015400 0.000000
0.003376 -0.008083 0.000000
0.000750 -0.002486 0.000000
0.008107 -0.006140 0.000000
0.006039 -0.013361 0.000000
0.008033 -0.008984 0.000000
0.001300 -0.000687 0.000000
0.000635 -0.009472 0.000000
0.002755 -0.012675 0.000000
0.000388 -0.001928 0.000000
-0.000082 -0.000546 0.000000
0.000793 -0.001231 0.000000
0.003357 -0.006476 0.000000
0.007337 -0.014751 0.000000
0.001210 -0.007235 0.000000
0.005937 -0.013395 0.000000
0.005018 -0.001129 0.000000
0.001488 -0.000995 0.000000
0.007080 -0.015260 0.000000
0.007929 -0.012523 0.000000
-0.000024 -0.010760 0.000000
0.001755 -0.001577 0.000000
0.000234 -0.011119 0.000000
0.000829 -0.011986 0.000000
0.000033 -0.010887 0.000000
0.000352 -0.003896 0.000000
0.000924 -0.010518 0.000000
0.000210 -0.011166 0.000000
0.004714 -0.014986 0.000000
0.000349 -0.011353 0.000000
0.000153 -0.011447 0.000000
0.004377 -0.000388 0.000000
0.001543 -0.000317 0.000000
0.001135 -0.011393 0.000000
0.005708 -0.009041 0.000000
0.004976 -0.015046 0.000000
0.008067 -0.007050 0.000000
0.008252 -0.007307 0.000000
0.001186 -0.010617 0.000000
0.007471 -0.001538 0.000000
0.004835 -0.014555 0.000000
0.001141 -0.011690 0.000000
0.004102 -0.015374 0.000000
0.000077 -0.000746 0.000000
0.001959 -0.000746 0.000000
0.000173 -0.001060 0.000000
0.004308 -0.015374 0.000000
0.008008 -0.004409 0.000000
0.007980 -0.006496 0.000000
0.001173 -0.011792 0.000000
0.000040 -0.000609 0.000000
0.006146 -0.001372 0.000000
0.001565 -0.005589 0.000000
0.000039 -0.000948 0.000000
0.007336 -0.015046 0.000000
0.003848 -0.002681 0.000000
0.001840 -0.005628 0.000000
0.001255 -0.011583 0.000000
0.007268 -0.004778 0.000000
0.004581 -0.000815 0.000000
0.000617 -0.000477 0.000000
0.001851 -0.000321 0.000000
0.006949 -0.004345 0.000000
0.007798 -0.013354 0.000000
0.004739 -0.014809 0.000000
0.005607 -0.001765 0.000000
0.000349 -0.000592 0.000000
0.003238 -0.000545 0.000000
0.003304 -0.000483 0.000000
0.000622 -0.002449 0.000000
0.000037 -0.000175 0.000000
0.000907 -0.001893 0.000000
0.008024 -0.012460 0.000000
0.000066 -0.001647 0.000000
-0.000060 -0.000585 0.000000
0.005547 -0.013784 0.000000
0.001113 -0.013001 0.000000
0.001613 -0.007267 0.000000
0.006516 -0.003573 0.000000
0.008247 -0.007361 0.000000
0.006239 -0.001547 0.000000
0.002063 -0.009814 0.000000
0.004482 -0.000644 0.000000
0.001603 -0.007380 0.000000
0.000372 -0.001016 0.000000
0.000867 -0.012105 0.000000
0.007900 -0.012330 0.000000
0.004291 -0.015398 0.000000
-0.000343 -0.000547 0.000000
0.004526 -0.015293 0.000000
0.000819 -0.010150 0.000000
0.000095 -0.000590 0.000000
0.006664 -0.003980 0.000000
0.000228 -0.000390 0.000000
0.004301 -0.014699 0.000000
0.002499 -0.000757 0.000000
0.001696 -0.003308 0.000000
0.006591 -0.014279 0.000000
0.001896 -0.012591 0.000000
0.000035 -0.001407 0.000000
0.007938 -0.012223 0.000000
0.000160 -0.000560 0.000000
-0.000052 -0.000548 0.000000
0.001056 -0.000841 0.000000
0.000166 -0.001264 0.000000
0.000238 -0.000696 0.000000
0.005997 -0.016149 0.000000
0.000849 -0.012771 0.000000
0.004650 -0.000923 0.000000
0.008106 -0.012262 0.000000
0.007095 -0.015217 0.000000
0.008419 -0.007252 0.000000
0.006336 -0.012727 0.000000
0.007156 -0.015219 0.000000
0.001686 -0.011323 0.000000
0.001975 -0.000394 0.000000
0.001910 -0.001060 0.000000
0.001674 -0.000849 0.000000
0.002886 -0.002634 0.000000
0.000282 -0.000611 0.000000
0.001959 -0.012401 0.000000
0.000562 -0.001216 0.000000
0.000505 -0.009644 0.000000
0.000997 -0.005424 0.000000
0.007974 -0.012106 0.000000
0.002478 -0.000732 0.000000
0.000143 -0.001495 0.000000
0.001149 -0.006058 0.000000
-0.000149 -0.005165 0.000000
0.001155 -0.000944 0.000000
0.004981 -0.014983 0.000000
0.002559 -0.006785 0.000000
0.007684 -0.012853 0.000000
0.008148 -0.005721 0.000000
0.005036 -0.014948 0.000000
0.002006 -0.008043 0.000000
0.005847 -0.001281 0.000000
0.000777 -0.011544 0.000000
0.003874 -0.000517 0.000000
0.008473 -0.012159 0.000000
-0.000121 -0.008179 0.000000
0.008120 -0.006321 0.000000
0.004373 -0.000841 0.000000
0.006784 -0.010625 0.000000
0.004953 -0.015010 0.000000
0.000351 -0.011635 0.000000
0.005912 -0.002631 0.000000
0.005919 -0.009732 0.000000
0.002829 -0.005600 0.000000
0.000465 -0.009988 0.000000
0.005635 -0.001867 0.000000
0.000421 -0.000545 0.000000
0.004935 -0.014938 0.000000
0.003203 -0.000267 0.000000
0.000060 -0.011998 0.000000
0.007107 -0.015175 0.000000
-0.000058 -0.000545 0.000000
0.000619 -0.010015 0.000000
0.002766 -0.003507 0.000000
0.008009 -0.012778 0.000000
0.000283 -0.004171 0.000000
-0.000281 -0.001051 0.000000
0.000629 -0.004376 0.000000
-0.000064 -0.010418 0.000000
0.001075 -0.012962 0.000000
-0.000057 -0.008788 0.000000
0.000184 -0.001055 0.000000
0.005629 -0.001460 0.000000
0.000450 -0.011542 0.000000
0.001154 -0.013033 0.000000
0.000385 -0.000451 0.000000
0.006918 -0.004388 0.000000
-0.000325 -0.001857 0.000000
0.001696 -0.002481 0.000000
0.002837 -0.000496 0.000000
0.002329 -0.000660 0.000000
0.001351 -0.006015 0.000000
-0.000400 -0.008035 0.000000
0.008491 -0.007360 0.000000
-0.000126 -0.001592 0.000000
0.000429 -0.000754 0.000000
0.004333 -0.000768 0.000000
0.007222 -0.004288 0.000000
0.007176 -0.004315 0.000000
0.000494 -0.002037 0.000000
0.007255 -0.004213 0.000000
0.008038 -0.013865 0.000000
0.001081 -0.010808 0.000000
0.000182 -0.001436 0.000000
0.000069 -0.000497 0.000000
0.004970 -0.010806 0.000000
0.000833 -0.011765 0.000000
0.001202 -0.011907 0.000000
0.008407 -0.007351 0.000000
0.000934 -0.000372 0.000000
0.002501 -0.005987 0.000000
0.007344 -0.004920 0.000000
0.004300 -0.015407 0.000000
0.008669 -0.007542 0.000000
0.007844 -0.011259 0.000000
0.000018 -0.007703 0.000000
-0.000086 -0.000515 0.000000
0.007118 -0.015130 0.000000
0.001544 -0.000333 0.000000
0.001083 -0.008274 0.000000
0.001742 -0.006616 0.000000
0.002015 -0.003167 0.000000
0.000023 -0.001767 0.000000
0.007355 -0.004921 0.000000
0.006090 -0.001232 0.000000
0.003695 -0.000190 0.000000
0.008658 -0.007331 0.000000
0.002682 -0.008176 0.000000
0.000032 -0.001528 0.000000
0.001922 -0.002596 0.000000
0.007170 -0.015179 0.000000
0.001205 -0.011464 0.000000
0.008338 -0.007219 0.000000
0.001236 -0.011097 0.000000
0.000775 -0.005452 0.000000
-0.000107 -0.002865 0.000000
0.000187 -0.000693 0.000000
0.003064 -0.000691 0.000000
0.000192 -0.012150 0.000000
0.000797 -0.008830 0.000000
0.000133 -0.003506 0.000000
0.007626 -0.011207 0.000000
0.008216 -0.006008 0.000000
0.000249 -0.011328 0.000000
0.000105 -0.003780 0.000000
0.000964 -0.001051 0.000000
0.000235 -0.001442 0.000000
0.001704 -0.013683 0.000000
0.001211 -0.008938 0.000000
0.001098 -0.001030 0.000000
0.005406 -0.001645 0.000000
0.004997 -0.001059 0.000000
0.001045 -0.001033 0.000000
0.007130 -0.015076 0.000000
0.000100 -0.001492 0.000000
0.001437 -0.005389 0.000000
0.000608 -0.001172 0.000000
0.000558 -0.004007 0.000000
0.000420 -0.008714 0.000000
0.003164 -0.005540 0.000000
0.007198 -0.015095 0.000000
0.000296 -0.010449 0.000000
0.007184 -0.015138 0.000000
0.000032 -0.001511 0.000000
0.004483 -0.000354 0.000000
0.000564 -0.000512 0.000000
0.007865 -0.012437 0.000000
0.001868 -0.000525 0.000000
0.005639 -0.009217 0.000000
0.000176 -0.001195 0.000000
0.004884 -0.014752 0.000000
0.008149 -0.006172 0.000000
0.001037 -0.011561 0.000000
0.002158 -0.000517 0.000000
0.001049 -0.010911 0.000000
0.004514 -0.008851 0.000000
-0.000060 -0.008578 0.000000
0.000719 -0.004404 0.000000
0.000163 -0.001069 0.000000
0.006266 -0.012184 0.000000
0.003824 -0.004130 0.000000
0.000835 -0.011924 0.000000
0.006156 -0.001493 0.000000
0.000866 -0.012227 0.000000
0.002793 -0.001597 0.000000
0.008415 -0.007319 0.000000
0.007141 -0.014974 0.000000
-0.000486 -0.001668 0.000000
0.006174 -0.001446 0.000000
0.001701 -0.006213 0.000000
0.001240 -0.013094 0.000000
0.006458 -0.010281 0.000000
-0.000182 -0.001448 0.000000
0.005067 -0.015098 0.000000
0.001752 -0.006365 0.000000
0.002367 -0.012372 0.000000
0.000166 -0.000188 0.000000
0.005618 -0.001751 0.000000
0.008594 -0.007444 0.000000
0.004501 -0.000569 0.000000
0.000139 -0.000581 0.000000
0.001024 -0.012996 0.000000
0.000843 -0.011891 0.000000
0.006815 -0.011823 0.000000
0.006141 -0.001330 0.000000
0.004895 -0.014858 0.000000
0.008505 -0.006713 0.000000
0.001796 -0.000214 0.000000
0.001668 -0.000627 0.000000
0.001347 -0.001023 0.000000
0.003274 -0.004537 0.000000
0.000244 -0.001159 0.000000
0.000031 -0.001486 0.000000
0.001302 -0.013174 0.000000
0.000827 -0.012378 0.000000
0.000274 -0.002859 0.000000
0.000161 -0.001271 0.000000
0.000186 -0.004165 0.000000
0.000600 -0.001665 0.000000
0.008289 -0.007194 0.000000
0.002147 -0.000277 0.000000
0.003087 -0.008746 0.000000
0.000090 -0.000206 0.000000
0.000018 -0.012619 0.000000
0.000030 -0.001550 0.000000
-0.000292 -0.008771 0.000000
0.003271 -0.006858 0.000000
0.000220 -0.000223 0.000000
0.005945 -0.002732 0.000000
0.000706 -0.012543 0.000000
0.002138 -0.000624 0.000000
0.001586 -0.006357 0.000000
0.000094 -0.001460 0.000000
0.001112 -0.013024 0.000000
0.000215 -0.001435 0.000000
-0.000238 -0.003209 0.000000
0.007824 -0.012808 0.000000
0.000607 -0.009903 0.000000
0.000390 -0.001326 0.000000
0.001615 -0.005796 0.000000
0.004386 -0.015488 0.000000
0.007320 -0.010382 0.000000
0.005437 -0.013821 0.000000
0.001606 -0.005134 0.000000
0.000694 -0.004710 0.000000
-0.000244 -0.002274 0.000000
-0.000168 -0.001295 0.000000
0.000108 -0.000566 0.000000
0.004874 -0.008432 0.000000
0.001548 -0.000719 0.000000
0.000250 -0.000532 0.000000
0.001034 -0.011449 0.000000
0.002058 -0.012464 0.000000
0.004550 -0.014533 0.000000
0.007142 -0.010088 0.000000
0.000162 -0.001064 0.000000
0.004973 -0.000864 0.000000
0.001264 -0.006863 0.000000
0.006786 -0.001667 0.000000
0.000086 -0.000793 0.000000
0.001338 -0.011733 0.000000
0.002533 -0.000219 0.000000
0.000180 -0.001278 0.000000
0.000853 -0.001002 0.000000
0.001823 -0.001754 0.000000
0.008280 -0.013324 0.000000
0.001338 -0.012076 0.000000
0.000034 -0.001451 0.000000
0.001332 -0.007212 0.000000
0.001709 -0.006153 0.000000
0.000243 -0.001080 0.000000
0.000221 -0.000660 0.000000
0.000101 -0.000618 0.000000
0.004626 -0.014401 0.000000
0.000698 -0.001262 0.000000
0.001367 -0.013246 0.000000
0.000620 -0.000693 0.000000
0.002165 -0.000666 0.000000
0.004821 -0.014677 0.000000
0.000162 -0.001471 0.000000
0.000764 -0.010198 0.000000
0.001281 -0.007202 0.000000
0.001438 -0.000572 0.000000
0.004047 -0.015287 0.000000
0.000023 -0.011950 0.000000
0.000144 -0.001417 0.000000
0.001506 -0.000561 0.000000
0.002061 -0.010292 0.000000
0.004902 -0.014702 0.000000
0.007366 -0.004620 0.000000
0.000162 -0.001392 0.000000
0.000875 -0.010482 0.000000
0.001915 -0.000479 0.000000
-0.000240 -0.003213 0.000000
0.005066 -0.015117 0.000000
0.001954 -0.010787 0.000000
0.002407 -0.002397 0.000000
-0.000004 -0.000202 0.000000
0.000437 -0.003342 0.000000
0.004775 -0.014593 0.000000
0.000791 -0.009029 0.000000
0.003064 -0.007628 0.000000
0.004798 -0.014958 0.000000
0.000138 -0.000557 0.000000
0.000402 -0.000685 0.000000
0.008150 -0.006279 0.000000
0.000701 -0.008444 0.000000
0.005042 -0.015038 0.000000
0.007183 -0.015386 0.000000
0.004403 -0.014980 0.000000
0.000051 -0.000619 0.000000
0.002553 -0.004936 0.000000
0.002534 -0.012449 0.000000
0.001602 -0.003713 0.000000
0.000845 -0.010483 0.000000
0.008058 -0.007171 0.000000
0.002579 -0.012780 0.000000
0.004612 -0.008938 0.000000
0.000024 -0.001671 0.000000
0.001650 -0.005988 0.000000
0.000160 -0.000557 0.000000
0.000950 -0.010748 0.000000
0.000069 -0.000529 0.000000
0.000163 -0.001479 0.000000
0.000399 -0.000706 0.000000
0.000533 -0.001248 0.000000
0.006887 -0.004279 0.000000
0.001696 -0.000363 0.000000
0.006890 -0.012228 0.000000
0.000669 -0.000161 0.000000
0.000822 -0.001107 0.000000
0.005798 -0.011348 0.000000
0.000976 -0.012473 0.000000
0.007994 -0.006708 0.000000
0.006184 -0.009838 0.000000
0.002134 -0.007511 0.000000
0.000838 -0.011154 0.000000
0.004600 -0.010196 0.000000
0.000111 -0.000185 0.000000
0.000792 -0.011882 0.000000
-0.000111 -0.001899 0.000000
0.000026 -0.000275 0.000000
0.000247 -0.000715 0.000000
0.002316 -0.000325 0.000000
-0.000088 -0.006167 0.000000
0.000451 -0.009927 0.000000
-0.000217 -0.001934 0.000000
-0.000110 -0.002233 0.000000
0.002495 -0.001801 0.000000
0.000991 -0.010852 0.000000
0.002767 -0.000896 0.000000
0.007238 -0.001575 0.000000
0.005057 -0.015163 0.000000
-0.000166 -0.002285 0.000000
0.008069 -0.006586 0.000000
0.001177 -0.010718 0.000000
0.008759 -0.007358 0.000000
0.000577 -0.002100 0.000000
0.001021 -0.010267 0.000000
-0.000026 -0.010297 0.000000
0.008433 -0.006493 0.000000
0.000035 -0.000269 0.000000
0.000413 -0.010364 0.000000
0.001082 -0.005816 0.000000
0.007570 -0.005868 0.000000
0.004215 -0.014148 0.000000
0.000717 -0.008191 0.000000
0.002061 -0.004057 0.000000
0.001927 -0.000550 0.000000
0.000119 -0.000198 0.000000
0.003275 -0.006426 0.000000
0.000439 -0.002280 0.000000
0.000032 -0.010152 0.000000
0.000072 -0.002288 0.000000
-0.000130 -0.002598 0.000000
0.007633 -0.010660 0.000000
0.000104 -0.000209 0.000000
-0.000090 -0.005481 0.000000
0.002449 -0.002706 0.000000
-0.000318 -0.002571 0.000000
0.000946 -0.000412 0.000000
-0.000196 -0.002934 0.000000
0.000006 -0.000201 0.000000
0.000434 -0.001179 0.000000
0.004068 -0.014929 0.000000
0.000011 -0.000344 0.000000
0.000557 -0.000687 0.000000
0.001169 -0.006928 0.000000
0.002346 -0.006101 0.000000
0.004013 -0.000798 0.000000
0.004095 -0.015107 0.000000
0.007162 -0.005846 0.000000
0.001967 -0.012124 0.000000
0.000770 -0.000688 0.000000
0.007770 -0.004319 0.000000
0.006553 -0.003527 0.000000
0.000415 -0.003838 0.000000
0.003674 -0.004159 0.000000
-0.000022 -0.003448 0.000000
0.004735 -0.015117 0.000000
0.006169 -0.003346 0.000000
0.000386 -0.001306 0.000000
0.008687 -0.007522 0.000000
0.001078 -0.007603 0.000000
0.000533 -0.001188 0.000000
0.005972 -0.013319 0.000000
0.004300 -0.000832 0.000000
0.000747 -0.009058 0.000000
-0.000102 -0.000679 0.000000
0.000069 -0.000496 0.000000
0.005077 -0.014572 0.000000
0.003140 -0.002954 0.000000
0.000529 -0.003980 0.000000
0.003109 -0.003624 0.000000
0.002176 -0.000296 0.000000
0.005502 -0.004088 0.000000
0.002714 -0.005692 0.000000
0.008158 -0.006369 0.000000
0.000047 -0.000839 0.000000
0.006324 -0.003418 0.000000
0.005406 -0.001669 0.000000
-0.000322 -0.002173 0.000000
0.000084 -0.001222 0.000000
0.000040 -0.000410 0.000000
0.000567 -0.001238 0.000000
0.002187 -0.011881 0.000000
0.000111 -0.000892 0.000000
0.002655 -0.000380 0.000000
0.007918 -0.005911 0.000000
0.000375 -0.001179 0.000000
0.003644 -0.000734 0.000000
-0.000052 -0.005888 0.000000
0.004645 -0.000995 0.000000
0.008527 -0.007106 0.000000
0.008275 -0.007030 0.000000
0.000037 -0.008945 0.000000
-0.000329 -0.000673 0.000000
0.008221 -0.005269 0.000000
0.000220 -0.001446 0.000000
0.002909 -0.006408 0.000000
0.004517 -0.014726 0.000000
0.000402 -0.000802 0.000000
0.000718 -0.009206 0.000000
0.008205 -0.007146 0.000000
0.004459 -0.015087 0.000000
0.000202 -0.008002 0.000000
0.002268 -0.000648 0.000000
0.001732 -0.011783 0.000000
0.000276 -0.000958 0.000000
0.000353 -0.000976 0.000000
0.002575 -0.002041 0.000000
0.000377 -0.001272 0.000000
0.003157 -0.007142 0.000000
0.007669 -0.006078 0.000000
0.004379 -0.014710 0.000000
0.000031 -0.000269 0.000000
0.000586 -0.000214 0.000000
0.002223 -0.000363 0.000000
0.005914 -0.002667 0.000000
0.000357 -0.001072 0.000000
0.007756 -0.006023 0.000000
0.007291 -0.004217 0.000000
0.002428 -0.006524 0.000000
0.000031 -0.000252 0.000000
0.001621 -0.000739 0.000000
0.003630 -0.000724 0.000000
0.001120 -0.008915 0.000000
0.000921 -0.002805 0.000000
0.008195 -0.006453 0.000000
0.000207 -0.012194 0.000000
0.000575 -0.000500 0.000000
0.002522 -0.012536 0.000000
0.005054 -0.001136 0.000000
0.008725 -0.012305 0.000000
0.000205 -0.001441 0.000000
0.004890 -0.012087 0.000000
0.001402 -0.000239 0.000000
0.006140 -0.001434 0.000000
0.003435 -0.006434 0.000000
0.008169 -0.006498 0.000000
0.004869 -0.001165 0.000000
0.001947 -0.000433 0.000000
0.003051 -0.007558 0.000000
0.004604 -0.015005 0.000000
0.000110 -0.000183 0.000000
0.004274 -0.015496 0.000000
0.007307 -0.014457 0.000000
0.003520 -0.000467 0.000000
0.006336 -0.012940 0.000000
0.000403 -0.001303 0.000000
0.006381 -0.012742 0.000000
0.001171 -0.000183 0.000000
0.000795 -0.001137 0.000000
0.005998 -0.001196 0.000000
0.000618 -0.005374 0.000000
0.001146 -0.008268 0.000000
0.004368 -0.015477 0.000000
-0.000199 -0.001817 0.000000
-0.000022 -0.005839 0.000000
0.003779 -0.000747 0.000000
0.007953 -0.005620 0.000000
0.000911 -0.010696 0.000000
0.006407 -0.012833 0.000000
0.006656 -0.003541 0.000000
0.007823 -0.012527 0.000000
0.004376 -0.000361 0.000000
0.000324 -0.008505 0.000000
0.000496 -0.009854 0.000000
0.007041 -0.004632 0.000000
0.002544 -0.003264 0.000000
0.008054 -0.006923 0.000000
0.008338 -0.006493 0.000000
0.000605 -0.011804 0.000000
0.002521 -0.003012 0.000000
0.008275 -0.007255 0.000000
0.000149 -0.011295 0.000000
0.002600 -0.000193 0.000000
0.005965 -0.002689 0.000000
0.000147 -0.012138 0.000000
0.007817 -0.014081 0.000000
0.000237 -0.000424 0.000000
0.002433 -0.007834 0.000000
0.002986 -0.005046 0.000000
-0.000340 -0.008259 0.000000
0.000609 -0.009776 0.000000
0.000427 -0.008722 0.000000
0.000017 -0.000244 0.000000
0.004313 -0.015374 0.000000
0.003585 -0.000707 0.000000
0.000100 -0.000217 0.000000
0.000361 -0.001979 0.000000
0.006134 -0.003361 0.000000
0.000954 -0.010413 0.000000
0.006049 -0.003430 0.000000
-0.000010 -0.012534 0.000000
0.001026 -0.006514 0.000000
0.000675 -0.001638 0.000000
0.005345 -0.001389 0.000000
0.000452 -0.005420 0.000000
0.000175 -0.001462 0.000000
0.000581 -0.009464 0.000000
0.001480 -0.012009 0.000000
0.007580 -0.006311 0.000000
0.000159 -0.000760 0.000000
0.000315 -0.001933 0.000000
0.006691 -0.003649 0.000000
0.001006 -0.011256 0.000000
0.005656 -0.002260 0.000000
0.006099 -0.012990 0.000000
0.001463 -0.000714 0.000000
0.004188 -0.015265 0.000000
0.000084 -0.000635 0.000000
0.005059 -0.015130 0.000000
0.001006 -0.011077 0.000000
0.008116 -0.006410 0.000000
0.000065 -0.000185 0.000000
0.004364 -0.000430 0.000000
0.007279 -0.015274 0.000000
0.000985 -0.000431 0.000000
0.000993 -0.004465 0.000000
0.005023 -0.015090 0.000000
0.001069 -0.005484 0.000000
0.000471 -0.001201 0.000000
0.000854 -0.008469 0.000000
0.000093 -0.000229 0.000000
0.001218 -0.000639 0.000000
0.006625 -0.004165 0.000000
0.002743 -0.012466 0.000000
0.003039 -0.007531 0.000000
0.004825 -0.014566 0.000000
0.000615 -0.009696 0.000000
0.002157 -0.000338 0.000000
0.004931 -0.014809 0.000000
0.001116 -0.006651 0.000000
0.003868 -0.000319 0.000000
0.003552 -0.012918 0.000000
0.000621 -0.011770 0.000000
0.004898 -0.015113 0.000000
0.002187 -0.000226 0.000000
0.002445 -0.004351 0.000000
0.007882 -0.007283 0.000000
0.000912 -0.012757 0.000000
0.001168 -0.000947 0.000000
0.001931 -0.012351 0.000000
0.008620 -0.007611 0.000000
0.000123 -0.001788 0.000000
0.000769 -0.010411 0.000000
0.000736 -0.010211 0.000000
0.000122 -0.008350 0.000000
0.000245 -0.004385 0.000000
0.000041 -0.000736 0.000000
0.000417 -0.000698 0.000000
0.004934 -0.014768 0.000000
0.000016 -0.000521 0.000000
-0.000492 -0.001019 0.000000
0.000123 -0.000541 0.000000
0.005458 -0.001649 0.000000
0.000714 -0.007989 0.000000
0.004922 -0.014958 0.000000
0.005691 -0.015847 0.000000
0.000520 -0.001410 0.000000
0.000193 -0.005278 0.000000
0.008133 -0.006519 0.000000
0.000140 -0.000227 0.000000
0.002749 -0.007198 0.000000
0.002157 -0.000333 0.000000
0.008676 -0.007479 0.000000
-0.000045 -0.008263 0.000000
0.001006 -0.011182 0.000000
0.005404 -0.001647 0.000000
-0.000008 -0.000214 0.000000
0.000078 -0.000229 0.000000
0.008116 -0.004914 0.000000
0.007082 -0.001550 0.000000
0.000762 -0.012038 0.000000
0.000182 -0.002344 0.000000
0.000050 -0.005103 0.000000
0.000382 -0.000568 0.000000
0.007342 -0.004887 0.000000
0.000264 -0.003044 0.000000
0.004616 -0.000826 0.000000
-0.000048 -0.006614 0.000000
0.000144 -0.001459 0.000000
0.003564 -0.002945 0.000000
0.002260 -0.012975 0.000000
0.001667 -0.000197 0.000000
0.003715 -0.000533 0.000000
0.000132 -0.003730 0.000000
0.000186 -0.000818 0.000000
0.000738 -0.000979 0.000000
-0.000357 -0.004811 0.000000
0.000530 -0.008106 0.000000
0.004561 -0.010590 0.000000
0.001222 -0.000464 0.000000
0.000109 -0.000206 0.000000
0.005660 -0.002263 0.000000
0.007842 -0.006928 0.000000
0.004947 -0.015056 0.000000
0.000444 -0.000224 0.000000
0.003472 -0.003064 0.000000
0.005900 -0.013382 0.000000
0.000875 -0.001070 0.000000
0.003869 -0.014835 0.000000
0.001429 -0.000763 0.000000
0.000226 -0.000238 0.000000
0.004456 -0.000951 0.000000
0.003087 -0.007957 0.000000
0.002556 -0.012419 0.000000
0.001261 -0.000936 0.000000
-0.000063 -0.001229 0.000000
0.000094 -0.000216 0.000000
0.000093 -0.000776 0.000000
0.004998 -0.014802 0.000000
0.006041 -0.013346 0.000000
0.003284 -0.000772 0.000000
0.005534 -0.013271 0.000000
-0.000276 -0.000735 0.000000
0.000251 -0.000618 0.000000
0.000925 -0.001072 0.000000
-0.000110 -0.002260 0.000000
0.001897 -0.012014 0.000000
0.008481 -0.007308 0.000000
0.004522 -0.014725 0.000000
0.004899 -0.014740 0.000000
0.000466 -0.009201 0.000000
0.006937 -0.014731 0.000000
0.003804 -0.014997 0.000000
0.000109 -0.009094 0.000000
0.000618 -0.009245 0.000000
0.005087 -0.014577 0.000000
0.007193 -0.015535 0.000000
0.007754 -0.012717 0.000000
-0.000126 -0.008215 0.000000
0.001283 -0.007196 0.000000
0.002792 -0.012423 0.000000
0.000721 -0.000991 0.000000
0.000125 -0.012099 0.000000
0.000161 -0.012123 0.000000
0.003063 -0.007612 0.000000
0.000290 -0.001238 0.000000
0.002494 -0.000773 0.000000
0.000293 -0.008848 0.000000
-0.000099 -0.007861 0.000000
-0.000216 -0.000963 0.000000
0.007699 -0.004288 0.000000
0.007561 -0.005874 0.000000
0.000959 -0.001112 0.000000
0.008466 -0.007292 0.000000
0.000226 -0.000592 0.000000
0.002094 -0.000270 0.000000
0.005166 -0.014586 0.000000
0.005651 -0.002291 0.000000
0.006363 -0.012945 0.000000
0.007623 -0.006158 0.000000
-0.000066 -0.006490 0.000000
0.000156 -0.009500 0.000000
-0.000278 -0.002394 0.000000
0.006747 -0.003508 0.000000
0.001248 -0.000988 0.000000
0.000174 -0.000759 0.000000
0.001245 -0.006764 0.000000
0.000503 -0.009176 0.000000
0.000814 -0.009820 0.000000
0.004416 -0.010243 0.000000
0.001194 -0.000771 0.000000
0.000256 -0.001094 0.000000
-0.000172 -0.007468 0.000000
0.001240 -0.000896 0.000000
0.000467 -0.010166 0.000000
0.004887 -0.014721 0.000000
0.001705 -0.000497 0.000000
0.002824 -0.005897 0.000000
0.000273 -0.005291 0.000000
0.007812 -0.004372 0.000000
0.002481 -0.005867 0.000000
0.001172 -0.012006 0.000000
-0.000095 -0.007701 0.000000
0.005755 -0.002603 0.000000
0.001919 -0.000353 0.000000
0.007568 -0.005843 0.000000
0.006960 -0.011611 0.000000
0.000494 -0.004690 0.000000
0.000521 -0.001190 0.000000
0.000895 -0.009209 0.000000
0.002966 -0.006153 0.000000
0.004018 -0.000529 0.000000
0.001812 -0.011550 0.000000
0.001191 -0.012700 0.000000
0.000423 -0.001267 0.000000
0.000076 -0.002610 0.000000
0.008807 -0.012464 0.000000
0.000908 -0.010327 0.000000
0.004096 -0.000620 0.000000
0.004893 -0.014790 0.000000
0.000463 -0.009405 0.000000
0.002533 -0.001308 0.000000
0.000714 -0.010027 0.000000
0.001149 -0.010692 0.000000
0.006272 -0.002840 0.000000
0.005958 -0.003350 0.000000
0.000493 -0.000252 0.000000
0.003217 -0.006316 0.000000
0.000483 -0.004028 0.000000
0.000523 -0.001892 0.000000
0.007260 -0.004539 0.000000
0.004402 -0.000800 0.000000
0.002880 -0.006839 0.000000
0.007822 -0.004414 0.000000
0.000821 -0.012647 0.000000
-0.000035 -0.000793 0.000000
0.000194 -0.000903 0.000000
-0.000054 -0.006744 0.000000
0.000204 -0.001093 0.000000
0.006130 -0.001511 0.000000
0.000829 -0.002602 0.000000
0.002576 -0.000163 0.000000
0.007959 -0.005938 0.000000
0.005877 -0.001808 0.000000
0.004546 -0.000851 0.000000
0.008340 -0.007271 0.000000
0.000026 -0.012492 0.000000
0.000195 -0.002529 0.000000
0.000051 -0.000887 0.000000
0.004808 -0.001067 0.000000
0.008405 -0.007324 0.000000
0.000739 -0.012039 0.000000
0.004807 -0.014747 0.000000
0.000767 -0.000953 0.000000
0.000042 -0.004930 0.000000
0.008527 -0.007551 0.000000
0.004886 -0.014946 0.000000
0.003606 -0.013472 0.000000
0.007869 -0.004344 0.000000
0.008530 -0.007319 0.000000
0.000912 -0.010485 0.000000
0.000282 -0.000626 0.000000
0.000409 -0.009866 0.000000
0.001256 -0.000604 0.000000
0.000918 -0.010116 0.000000
0.000665 -0.000807 0.000000
0.008540 -0.007350 0.000000
0.000328 -0.009769 0.000000
0.000170 -0.000871 0.000000
0.005226 -0.008430 0.000000
0.000127 -0.000921 0.000000
0.005142 -0.001267 0.000000
0.000277 -0.009544 0.000000
0.004065 -0.000719 0.000000
-0.000199 -0.007535 0.000000
0.000741 -0.011805 0.000000
0.002490 -0.001732 0.000000
0.000087 -0.000598 0.000000
0.004940 -0.015007 0.000000
0.005548 -0.001585 0.000000
0.006348 -0.012926 0.000000
0.000988 -0.012935 0.000000
0.007806 -0.006596 0.000000
0.000936 -0.001186 0.000000
0.000133 -0.001445 0.000000
0.005966 -0.003386 0.000000
0.000235 -0.009820 0.000000
0.007590 -0.010270 0.000000
0.000798 -0.011733 0.000000
0.001258 -0.000221 0.000000
0.000028 -0.003540 0.000000
0.007092 -0.010671 0.000000
0.005063 -0.015105 0.000000
-0.000104 -0.003305 0.000000
0.000424 -0.009724 0.000000
0.000130 -0.003530 0.000000
0.000271 -0.003300 0.000000
0.000338 -0.003919 0.000000
0.003393 -0.006338 0.000000
0.005340 -0.001543 0.000000
0.004200 -0.000796 0.000000
0.000148 -0.000925 0.000000
-0.000283 -0.001889 0.000000
0.002856 -0.012671 0.000000
0.000692 -0.005388 0.000000
0.004927 -0.015038 0.000000
0.001790 -0.011546 0.000000
0.000074 -0.012375 0.000000
0.008059 -0.007424 0.000000
0.001293 -0.010548 0.000000
0.001294 -0.010734 0.000000
0.000418 -0.009775 0.000000
0.003236 -0.006209 0.000000
0.001206 -0.000300 0.000000
0.000831 -0.010671 0.000000
0.005045 -0.014231 0.000000
0.004878 -0.014750 0.000000
0.004528 -0.000466 0.000000
0.001195 -0.000906 0.000000
0.001026 -0.006671 0.000000
-0.000111 -0.006588 0.000000
0.008295 -0.006260 0.000000
0.000480 -0.005053 0.000000
0.001085 -0.006858 0.000000
0.008009 -0.006745 0.000000
0.000505 -0.000158 0.000000
0.003930 -0.015169 0.000000
0.002644 -0.012371 0.000000
0.000864 -0.000131 0.000000
0.007929 -0.006431 0.000000
0.008001 -0.004369 0.000000
0.000201 -0.000541 0.000000
0.000970 -0.012378 0.000000
0.000430 -0.001256 0.000000
0.003536 -0.000546 0.000000
0.001593 -0.006817 0.000000
0.002617 -0.004385 0.000000
0.000118 -0.000703 0.000000
0.001162 -0.011391 0.000000
0.000774 -0.000585 0.000000
0.000955 -0.011272 0.000000
0.005856 -0.004337 0.000000
-0.000178 -0.001002 0.000000
0.003082 -0.006741 0.000000
0.001196 -0.001004 0.000000
0.000435 -0.011810 0.000000
0.006213 -0.003867 0.000000
0.000496 -0.001199 0.000000
0.007973 -0.004465 0.000000
0.002956 -0.005468 0.000000
0.002900 -0.008526 0.000000
0.000943 -0.011217 0.000000
0.001375 -0.000650 0.000000
0.002804 -0.013231 0.000000
0.002974 -0.007124 0.000000
0.003055 -0.007584 0.000000
0.000078 -0.012260 0.000000
0.007426 -0.015030 0.000000
0.003092 -0.001911 0.000000
0.005057 -0.015140 0.000000
0.004982 -0.015035 0.000000
0.001089 -0.004554 0.000000
0.001311 -0.011449 0.000000
0.003071 -0.013219 0.000000
0.000135 -0.000401 0.000000
0.000103 -0.012061 0.000000
-0.000152 -0.001983 0.000000
0.003121 -0.009348 0.000000
0.002250 -0.000662 0.000000
0.000179 -0.000931 0.000000
0.004956 -0.014801 0.000000
0.000180 -0.000636 0.000000
0.000359 -0.000813 0.000000
0.003118 -0.002553 0.000000
0.001558 -0.011163 0.000000
0.000759 -0.008933 0.000000
0.005644 -0.003404 0.000000
0.004716 -0.014391 0.000000
0.006350 -0.012920 0.000000
0.007447 -0.004308 0.000000
0.000775 -0.009402 0.000000
0.004053 -0.008834 0.000000
0.003336 -0.002742 0.000000
0.008157 -0.007526 0.000000
0.000218 -0.000967 0.000000
0.000441 -0.001175 0.000000
0.004306 -0.015374 0.000000
0.001557 -0.000806 0.000000
0.004296 -0.000556 0.000000
0.007168 -0.011680 0.000000
0.000740 -0.009837 0.000000
0.003252 -0.013524 0.000000
0.003215 -0.000485 0.000000
0.005914 -0.002699 0.000000
0.001187 -0.000862 0.000000
-0.000105 -0.004765 0.000000
0.003997 -0.014841 0.000000
0.000519 -0.011634 0.000000
0.000194 -0.003578 0.000000
0.001029 -0.012885 0.000000
0.000573 -0.002220 0.000000
0.005054 -0.015142 0.000000
0.004293 -0.015422 0.000000
0.004050 -0.014889 0.000000
0.008493 -0.007586 0.000000
0.001047 -0.012916 0.000000
0.005078 -0.015092 0.000000
0.001715 -0.000885 0.000000
0.003414 -0.006637 0.000000
0.006913 -0.005202 0.000000
0.003105 -0.007646 0.000000
0.000716 -0.009884 0.000000
0.005204 -0.001243 0.000000
0.005040 -0.001220 0.000000
0.000709 -0.009886 0.000000
0.000756 -0.009008 0.000000
0.000748 -0.009044 0.000000
0.002139 -0.006931 0.000000
0.002264 -0.007027 0.000000
0.002092 -0.008319 0.000000
0.006915 -0.004119 0.000000
0.000726 -0.009882 0.000000
0.003411 -0.008896 0.000000
0.005162 -0.001213 0.000000
0.006165 -0.003805 0.000000
0.005258 -0.001465 0.000000
0.005211 -0.001377 0.000000
0.005002 -0.001208 0.000000
0.000706 -0.009285 0.000000
0.006107 -0.003721 0.000000
0.001966 -0.008189 0.000000
0.006517 -0.004083 0.000000
0.005317 -0.001438 0.000000
0.006964 -0.004133 0.000000
0.006860 -0.004094 0.000000
0.005241 -0.001277 0.000000
-0.000119 -0.007187 0.000000
0.000764 -0.008971 0.000000
0.000397 -0.001247 0.000000
0.007869 -0.007200 0.000000
0.004872 -0.001173 0.000000
0.001438 -0.007552 0.000000
0.007066 -0.010888 0.000000
0.004837 -0.001127 0.000000
0.007870 -0.007183 0.000000
-0.000076 -0.006918 0.000000
0.001879 -0.006695 0.000000
0.005073 -0.001231 0.000000
0.001141 -0.006587 0.000000
-0.000104 -0.007111 0.000000
0.007917 -0.006680 0.000000
0.006997 -0.004133 0.000000
0.003336 -0.008939 0.000000
0.007936 -0.007258 0.000000
0.000758 -0.009869 0.000000
0.007919 -0.007253 0.000000
0.004976 -0.001128 0.000000
0.002392 -0.007109 0.000000
0.002011 -0.006822 0.000000
0.005116 -0.001183 0.000000
0.007580 -0.010591 0.000000
0.006805 -0.004062 0.000000
0.006080 -0.003688 0.000000
-0.000067 -0.006465 0.000000
0.003490 -0.008865 0.000000
0.007051 -0.010957 0.000000
0.000409 -0.001241 0.000000
0.000688 -0.009483 0.000000
0.005189 -0.001342 0.000000
-0.000140 -0.006984 0.000000
0.000690 -0.009391 0.000000
-0.000119 -0.006879 0.000000
0.000368 -0.001148 0.000000
-0.000071 -0.006850 0.000000
-0.000191 -0.007584 0.000000
0.007939 -0.006695 0.000000
0.000778 -0.009848 0.000000
0.007021 -0.011155 0.000000
-0.000134 -0.007265 0.000000
0.000768 -0.009858 0.000000
0.004773 -0.014563 0.000000
0.006289 -0.003685 0.000000
0.000714 -0.009860 0.000000
0.000687 -0.009444 0.000000
0.005901 -0.013500 0.000000
0.006374 -0.003742 0.000000
0.000332 -0.001251 0.000000
0.007014 -0.011298 0.000000
0.007833 -0.006727 0.000000
0.000772 -0.008942 0.000000
0.000771 -0.008966 0.000000
0.003577 -0.008222 0.000000
0.005920 -0.013549 0.000000
0.006751 -0.004180 0.000000
0.001150 -0.006496 0.000000
0.005930 -0.013696 0.000000
0.003606 -0.003691 0.000000
0.002705 -0.003960 0.000000
0.001748 -0.006547 0.000000
0.007018 -0.011224 0.000000
0.005860 -0.013758 0.000000
0.007896 -0.006667 0.000000
0.005939 -0.013669 0.000000
0.007535 -0.010928 0.000000
0.008059 -0.006890 0.000000
0.000302 -0.001125 0.000000
0.000687 -0.009478 0.000000
0.007870 -0.007101 0.000000
0.004760 -0.014529 0.000000
0.006434 -0.004041 0.000000
0.007957 -0.007267 0.000000
0.005551 -0.013445 0.000000
0.001351 -0.007403 0.000000
0.004785 -0.014598 0.000000
0.006755 -0.004031 0.000000
0.002488 -0.004791 0.000000
0.003897 -0.000773 0.000000
0.005723 -0.013266 0.000000
0.007960 -0.006717 0.000000
0.004794 -0.014670 0.000000
0.003351 -0.007914 0.000000
0.000789 -0.012343 0.000000
0.002829 -0.004067 0.000000
0.007588 -0.010642 0.000000
0.000441 -0.001192 0.000000
0.002537 -0.004884 0.000000
0.003573 -0.008842 0.000000
0.007843 -0.006748 0.000000
0.007054 -0.004145 0.000000
0.007060 -0.004168 0.000000
0.004628 -0.014483 0.000000
0.004335 -0.014253 0.000000
-0.000170 -0.007183 0.000000
0.000691 -0.009503 0.000000
0.005555 -0.013189 0.000000
0.002581 -0.003850 0.000000
0.000402 -0.001169 0.000000
0.000385 -0.001253 0.000000
0.004746 -0.014495 0.000000
0.003518 -0.003576 0.000000
0.000742 -0.009079 0.000000
0.000817 -0.012396 0.000000
0.003616 -0.004202 0.000000
0.004394 -0.014204 0.000000
0.007358 -0.011346 0.000000
0.003259 -0.008993 0.000000
0.004002 -0.000413 0.000000
0.001163 -0.006399 0.000000
0.007864 -0.007042 0.000000
0.000698 -0.009297 0.000000
0.005543 -0.013139 0.000000
0.004960 -0.001197 0.000000
0.007984 -0.007283 0.000000
0.002789 -0.004683 0.000000
-0.000211 -0.007551 0.000000
0.001559 -0.011344 0.000000
0.005556 -0.013507 0.000000
0.006198 -0.003629 0.000000
0.001332 -0.011099 0.000000
0.001139 -0.007536 0.000000
0.005101 -0.001243 0.000000
0.006453 -0.003798 0.000000
0.001157 -0.011474 0.000000
0.000693 -0.012251 0.000000
0.008119 -0.007077 0.000000
0.000779 -0.008267 0.000000
-0.000067 -0.006362 0.000000
0.001398 -0.011160 0.000000
0.003190 -0.003206 0.000000
0.002433 -0.004698 0.000000
0.007873 -0.007217 0.000000
0.001629 -0.006393 0.000000
0.004087 -0.000681 0.000000
0.004735 -0.014463 0.000000
0.000692 -0.009572 0.000000
0.000439 -0.001222 0.000000
0.005275 -0.001313 0.000000
0.005311 -0.001395 0.000000
0.003710 -0.000795 0.000000
0.007827 -0.006701 0.000000
0.000450 -0.001197 0.000000
0.000723 -0.009831 0.000000
0.007562 -0.010483 0.000000
0.000912 -0.007954 0.000000
0.000455 -0.001208 0.000000
0.004198 -0.000459 0.000000
-0.000074 -0.006715 0.000000
0.001277 -0.011622 0.000000
0.007187 -0.010579 0.000000
0.000698 -0.009518 0.000000
0.003670 -0.008377 0.000000
0.007436 -0.010386 0.000000
0.000689 -0.012234 0.000000
0.001002 -0.008306 0.000000
0.001215 -0.011547 0.000000
0.003528 -0.000778 0.000000
0.001382 -0.007807 0.000000
0.001553 -0.007190 0.000000
0.000821 -0.012438 0.000000
0.005787 -0.013322 0.000000
0.000707 -0.012288 0.000000
0.002954 -0.004168 0.000000
0.005557 -0.013565 0.000000
0.005880 -0.013448 0.000000
0.003641 -0.000472 0.000000
0.006311 -0.014092 0.000000
0.005652 -0.013207 0.000000
0.000717 -0.012315 0.000000
0.005548 -0.013382 0.000000
0.006731 -0.016013 0.000000
0.008512 -0.008652 0.000000
0.002371 -0.002964 0.000000
0.000789 -0.012486 0.000000
0.004570 -0.014271 0.000000
0.003709 -0.003915 0.000000
0.002535 -0.004320 0.000000
0.002582 -0.004977 0.000000
0.008148 -0.007234 0.000000
0.002860 -0.004882 0.000000
0.003447 -0.000759 0.000000
0.006210 -0.003866 0.000000
0.006858 -0.015914 0.000000
0.007080 -0.004200 0.000000
0.002142 -0.001009 0.000000
0.001387 -0.007197 0.000000
0.007175 -0.010700 0.000000
0.002233 -0.003377 0.000000
0.003346 -0.000666 0.000000
0.001656 -0.011677 0.000000
0.003732 -0.002357 0.000000
0.001448 -0.007673 0.000000
-0.000162 -0.007472 0.000000
0.000793 -0.009730 0.000000
0.000790 -0.009810 0.000000
0.000337 -0.009684 0.000000
0.002830 -0.002839 0.000000
0.006350 -0.003991 0.000000
0.005790 -0.013793 0.000000
0.000171 -0.009410 0.000000
0.006526 -0.003853 0.000000
-0.000149 -0.007345 0.000000
0.001177 -0.006279 0.000000
0.000401 -0.005402 0.000000
0.007337 -0.015184 0.000000
0.002885 -0.001223 0.000000
0.005899 -0.013747 0.000000
0.002878 -0.005139 0.000000
0.007008 -0.011460 0.000000
0.007056 -0.011554 0.000000
0.000323 -0.009790 0.000000
0.000922 -0.010539 0.000000
0.005564 -0.013679 0.000000
0.005249 -0.001445 0.000000
0.007863 -0.006850 0.000000
0.007236 -0.015193 0.000000
0.001344 -0.011697 0.000000
-0.000037 -0.001032 0.000000
0.007088 -0.010466 0.000000
0.002893 -0.009065 0.000000
0.001519 -0.006241 0.000000
0.000315 -0.009626 0.000000
0.000757 -0.009039 0.000000
0.000227 -0.004522 0.000000
0.004831 -0.001134 0.000000
0.005761 -0.013819 0.000000
0.003196 -0.009060 0.000000
0.005977 -0.003584 0.000000
0.008470 -0.010236 0.000000
0.004373 -0.014303 0.000000
0.004523 -0.014413 0.000000
0.008451 -0.012862 0.000000
0.004794 -0.014687 0.000000
0.007688 -0.008384 0.000000
0.004847 -0.001106 0.000000
0.000447 -0.012788 0.000000
0.004893 -0.001102 0.000000
0.000177 -0.009356 0.000000
0.000709 -0.009209 0.000000
0.008668 -0.009342 0.000000
0.006893 -0.015825 0.000000
0.008325 -0.008370 0.000000
0.006105 -0.003579 0.000000
0.000388 -0.004874 0.000000
0.001158 -0.007729 0.000000
0.003871 -0.014922 0.000000
0.007598 -0.010689 0.000000
0.003221 -0.000194 0.000000
0.000183 -0.009468 0.000000
0.000702 -0.009655 0.000000
0.007363 -0.004432 0.000000
0.004211 -0.000488 0.000000
0.002253 -0.001307 0.000000
0.007249 -0.015155 0.000000
0.007016 -0.011709 0.000000
0.004169 -0.000405 0.000000
0.000138 -0.009319 0.000000
0.000553 -0.012888 0.000000
0.000421 -0.004377 0.000000
0.001765 -0.009645 0.000000
0.005938 -0.013596 0.000000
0.001050 -0.010931 0.000000
0.004348 -0.002759 0.000000
0.004145 -0.000633 0.000000
0.007940 -0.003617 0.000000
0.000019 -0.000983 0.000000
0.002411 -0.002854 0.000000
0.003965 -0.014893 0.000000
0.001141 -0.010949 0.000000
0.003136 -0.000209 0.000000
0.000921 -0.001110 0.000000
0.000730 -0.009800 0.000000
0.004062 -0.015009 0.000000
0.000294 -0.001319 0.000000
0.000739 -0.009111 0.000000
0.001866 -0.000381 0.000000
0.000554 -0.000788 0.000000
0.007835 -0.002990 0.000000
-0.000086 -0.001107 0.000000
0.007290 -0.015104 0.000000
0.005016 -0.001140 0.000000
0.000313 -0.001395 0.000000
0.003462 -0.000506 0.000000
0.000512 -0.000700 0.000000
-0.000192 -0.007417 0.000000
0.005615 -0.014521 0.000000
0.007319 -0.015092 0.000000
0.001371 -0.000871 0.000000
0.005124 -0.001255 0.000000
0.006440 -0.016049 0.000000
0.008035 -0.004035 0.000000
0.000607 -0.000751 0.000000
0.000333 -0.001012 0.000000
0.000340 -0.005080 0.000000
0.001596 -0.000413 0.000000
0.002136 -0.001856 0.000000
0.004302 -0.014205 0.000000
0.005598 -0.013790 0.000000
0.008632 -0.011945 0.000000
0.000228 -0.003442 0.000000
-0.000487 -0.006131 0.000000
0.005329 -0.005703 0.000000
0.000208 -0.001332 0.000000
0.001241 -0.007759 0.000000
0.007086 -0.011656 0.000000
0.000419 -0.001070 0.000000
0.008116 -0.004368 0.000000
0.002607 -0.008919 0.000000
0.008456 -0.011874 0.000000
0.008370 -0.011890 0.000000
0.007825 -0.006673 0.000000
-0.000087 -0.003985 0.000000
0.007551 -0.010423 0.000000
0.001068 -0.007768 0.000000
-0.000411 -0.003924 0.000000
0.000237 -0.009456 0.000000
0.008554 -0.011925 0.000000
0.007104 -0.010740 0.000000
0.006907 -0.015749 0.000000
0.008437 -0.007428 0.000000
-0.000020 -0.003888 0.000000
-0.000390 -0.005110 0.000000
0.002660 -0.001648 0.000000
0.003945 -0.001470 0.000000
0.001021 -0.012941 0.000000
0.000921 -0.001151 0.000000
0.000554 -0.012911 0.000000
0.000292 -0.001410 0.000000
0.005740 -0.013862 0.000000
0.007704 -0.008318 0.000000
0.007716 -0.006671 0.000000
0.001479 -0.000697 0.000000
0.008835 -0.008195 0.000000
0.003900 -0.001107 0.000000
0.000185 -0.001284 0.000000
0.001025 -0.012961 0.000000
0.000231 -0.009660 0.000000
0.000270 -0.009747 0.000000
0.008505 -0.007637 0.000000
0.007428 -0.009558 0.000000
0.005415 -0.001140 0.000000
0.004035 -0.001071 0.000000
0.008290 -0.011115 0.000000
0.000373 -0.001260 0.000000
0.005853 -0.002724 0.000000
0.002896 -0.000415 0.000000
0.007925 -0.009370 0.000000
0.000777 -0.008926 0.000000
0.001677 -0.011484 0.000000
0.004308 -0.013745 0.000000
0.005323 -0.001498 0.000000
0.005302 -0.001503 0.000000
0.000119 -0.001315 0.000000
0.005433 -0.011065 0.000000
0.008389 -0.009988 0.000000
0.003066 -0.016467 0.000000
0.008865 -0.007724 0.000000
0.000956 -0.012912 0.000000
0.000743 -0.006726 0.000000
0.000566 -0.012719 0.000000
0.007768 -0.006155 0.000000
0.008214 -0.012572 0.000000
0.002381 -0.000694 0.000000
0.000587 -0.000797 0.000000
0.002869 -0.000415 0.000000
0.000540 -0.006275 0.000000
0.003894 -0.015056 0.000000
-0.000362 -0.004315 0.000000
0.008715 -0.012469 0.000000
0.006917 -0.015681 0.000000
0.000798 -0.011742 0.000000
0.000593 -0.011002 0.000000
0.007068 -0.006019 0.000000
0.001078 -0.012884 0.000000
0.003045 -0.000233 0.000000
0.007687 -0.009477 0.000000
0.001408 -0.000623 0.000000
0.000431 -0.001088 0.000000
0.000165 -0.000854 0.000000
0.003083 -0.016523 0.000000
0.000149 -0.000892 0.000000
0.005336 -0.011138 0.000000
0.000463 -0.001104 0.000000
0.000122 -0.003641 0.000000
0.002131 -0.015387 0.000000
0.000110 -0.000965 0.000000
0.003062 -0.014323 0.000000
0.000824 -0.001184 0.000000
0.005040 -0.011696 0.000000
0.000236 -0.003458 0.000000
0.000066 -0.001241 0.000000
0.000550 -0.012860 0.000000
0.001315 -0.010397 0.000000
0.004217 -0.000538 0.000000
0.000553 -0.000708 0.000000
0.007883 -0.007243 0.000000
0.003552 -0.000542 0.000000
-0.000129 -0.001182 0.000000
0.008339 -0.007231 0.000000
-0.000079 -0.006646 0.000000
0.001174 -0.010022 0.000000
0.000803 -0.012364 0.000000
0.001082 -0.012913 0.000000
0.000693 -0.005519 0.000000
0.000675 -0.012204 0.000000
0.000483 -0.002178 0.000000
0.006949 -0.012423 0.000000
0.002373 -0.013508 0.000000
0.000334 -0.001378 0.000000
0.003306 -0.000193 0.000000
0.002734 -0.007282 0.000000
0.007568 -0.005785 0.000000
0.006192 -0.013902 0.000000
0.006660 -0.003981 0.000000
0.001147 -0.006883 0.000000
0.000075 -0.001157 0.000000
0.000448 -0.000725 0.000000
0.003802 -0.001178 0.000000
0.000859 -0.008721 0.000000
0.000987 -0.012885 0.000000
0.001017 -0.010856 0.000000
0.001070 -0.010921 0.000000
0.001187 -0.012735 0.000000
0.003383 -0.003186 0.000000
0.000157 -0.001443 0.000000
0.000885 -0.010365 0.000000
0.000445 -0.012713 0.000000
0.006592 -0.003910 0.000000
0.007071 -0.015554 0.000000
0.005442 -0.010991 0.000000
0.000966 -0.012931 0.000000
0.004795 -0.014652 0.000000
0.008185 -0.004502 0.000000
0.002638 -0.000897 0.000000
0.005729 -0.002707 0.000000
0.002421 -0.000739 0.000000
0.001209 -0.006142 0.000000
0.001007 -0.007808 0.000000
0.007674 -0.001836 0.000000
0.002647 -0.004471 0.000000
0.000131 -0.000776 0.000000
0.001318 -0.005636 0.000000
0.005998 -0.002810 0.000000
0.008009 -0.006775 0.000000
0.002326 -0.000673 0.000000
0.000159 -0.001410 0.000000
0.000011 -0.004025 0.000000
0.002188 -0.010814 0.000000
0.001072 -0.012848 0.000000
0.000816 -0.011883 0.000000
0.001389 -0.000421 0.000000
0.000048 -0.000361 0.000000
0.000205 -0.000971 0.000000
0.004420 -0.000728 0.000000
0.000064 -0.000980 0.000000
-0.000086 -0.003930 0.000000
-0.000599 -0.006418 0.000000
0.000560 -0.012926 0.000000
0.000052 -0.005888 0.000000
0.000713 -0.011691 0.000000
0.000480 -0.002169 0.000000
0.000118 -0.004557 0.000000
0.001011 -0.010721 0.000000
0.002778 -0.000488 0.000000
0.000846 -0.001114 0.000000
0.001511 -0.006761 0.000000
0.000565 -0.005177 0.000000
0.000685 -0.012222 0.000000
0.006228 -0.003888 0.000000
0.000703 -0.011629 0.000000
0.007174 -0.011606 0.000000
0.000117 -0.002576 0.000000
0.000920 -0.008370 0.000000
0.001228 -0.000463 0.000000
0.000228 -0.004493 0.000000
0.007372 -0.005670 0.000000
0.007061 -0.001785 0.000000
0.005758 -0.012387 0.000000
0.001207 -0.000835 0.000000
0.000122 -0.000786 0.000000
0.002933 -0.000269 0.000000
0.000185 -0.000594 0.000000
0.000785 -0.008331 0.000000
0.008378 -0.004613 0.000000
0.000130 -0.000372 0.000000
0.001733 -0.000629 0.000000
0.005355 -0.011068 0.000000
0.002011 -0.009704 0.000000
0.000147 -0.001431 0.000000
0.002875 -0.005241 0.000000
-0.000090 -0.002409 0.000000
0.000419 -0.001178 0.000000
0.004061 -0.015061 0.000000
0.000178 -0.001428 0.000000
0.000200 -0.004072 0.000000
0.005411 -0.010955 0.000000
0.001570 -0.006216 0.000000
0.000345 -0.011497 0.000000
-0.000467 -0.003548 0.000000
0.001473 -0.000927 0.000000
0.003069 -0.000766 0.000000
0.000147 -0.000755 0.000000
0.001199 -0.010832 0.000000
-0.000138 -0.001209 0.000000
0.000961 -0.007856 0.000000
0.002637 -0.010992 0.000000
0.008240 -0.004542 0.000000
0.000549 -0.012820 0.000000
0.008049 -0.006258 0.000000
0.008579 -0.013115 0.000000
0.008946 -0.007786 0.000000
0.005390 -0.010966 0.000000
0.007256 -0.006737 0.000000
0.001008 -0.012768 0.000000
0.000833 -0.008091 0.000000
0.001384 -0.005646 0.000000
0.001074 -0.005471 0.000000
0.000987 -0.008351 0.000000
0.008194 -0.011655 0.000000
0.004023 -0.001048 0.000000
0.000424 -0.003921 0.000000
0.007207 -0.006018 0.000000
0.002824 -0.005271 0.000000
0.007105 -0.006121 0.000000
0.001325 -0.000544 0.000000
0.001056 -0.012802 0.000000
0.000990 -0.011193 0.000000
0.003770 -0.001310 0.000000
0.005043 -0.005179 0.000000
0.001185 -0.000719 0.000000
0.000527 -0.006481 0.000000
0.000693 -0.005796 0.000000
0.005055 -0.015111 0.000000
0.007445 -0.014402 0.000000
0.000565 -0.011266 0.000000
0.000998 -0.010316 0.000000
0.000982 -0.012713 0.000000
0.001011 -0.011274 0.000000
0.005496 -0.013034 0.000000
-0.000290 -0.005868 0.000000
0.000488 -0.000939 0.000000
0.000035 -0.000381 0.000000
0.008669 -0.012392 0.000000
0.003022 -0.016311 0.000000
0.000172 -0.001406 0.000000
0.001116 -0.010908 0.000000
0.000093 -0.001349 0.000000
0.000229 -0.001408 0.000000
0.004029 -0.000520 0.000000
-0.000377 -0.006792 0.000000
0.000557 -0.009132 0.000000
0.000399 -0.001108 0.000000
0.008577 -0.007456 0.000000
0.001149 -0.000285 0.000000
0.008087 -0.006179 0.000000
0.008371 -0.004583 0.000000
0.000577 -0.012926 0.000000
0.006199 -0.001656 0.000000
0.000138 -0.012322 0.000000
0.001009 -0.012977 0.000000
0.007851 -0.006120 0.000000
0.001548 -0.011794 0.000000
0.003457 -0.002178 0.000000
0.001734 -0.000791 0.000000
0.007138 -0.005161 0.000000
0.006093 -0.013815 0.000000
0.002448 -0.002717 0.000000
0.000529 -0.000470 0.000000
0.003219 -0.013387 0.000000
0.001235 -0.000588 0.000000
0.001425 -0.006205 0.000000
0.000444 -0.000274 0.000000
0.002758 -0.000566 0.000000
0.002791 -0.000330 0.000000
0.003993 -0.015157 0.000000
0.007314 -0.004882 0.000000
0.001635 -0.012373 0.000000
0.005053 -0.015141 0.000000
0.002815 -0.006458 0.000000
0.000419 -0.004058 0.000000
0.000403 -0.010854 0.000000
0.005415 -0.001760 0.000000
0.000518 -0.012748 0.000000
0.007274 -0.004817 0.000000
0.000928 -0.007805 0.000000
0.008640 -0.007514 0.000000
0.001026 -0.012732 0.000000
0.004899 -0.001186 0.000000
0.000236 -0.000777 0.000000
0.000339 -0.011179 0.000000
0.000742 -0.011761 0.000000
0.008963 -0.007686 0.000000
-0.000085 -0.005564 0.000000
0.007370 -0.015079 0.000000
0.000140 -0.003653 0.000000
0.003103 -0.016515 0.000000
0.000933 -0.012623 0.000000
0.000802 -0.011383 0.000000
0.004329 -0.000880 0.000000
0.008137 -0.011926 0.000000
-0.000107 -0.001250 0.000000
0.000417 -0.012534 0.000000
0.005297 -0.001893 0.000000
0.002295 -0.000666 0.000000
0.003733 -0.010311 0.000000
0.003873 -0.001063 0.000000
0.002992 -0.009145 0.000000
0.006668 -0.010790 0.000000
0.002928 -0.000619 0.000000
0.007240 -0.015529 0.000000
0.004053 -0.013016 0.000000
0.004572 -0.000496 0.000000
0.008205 -0.007041 0.000000
-0.000317 -0.001026 0.000000
0.000036 -0.000369 0.000000
0.007330 -0.014652 0.000000
0.000191 -0.001408 0.000000
0.002893 -0.005048 0.000000
0.004975 -0.000850 0.000000
0.001064 -0.010327 0.000000
0.000873 -0.012496 0.000000
0.001059 -0.010347 0.000000
0.000092 -0.012523 0.000000
0.006241 -0.001610 0.000000
0.003390 -0.000194 0.000000
-0.000315 -0.004710 0.000000
0.006110 -0.015944 0.000000
0.001284 -0.010637 0.000000
0.000620 -0.004587 0.000000
-0.000248 -0.007410 0.000000
0.002305 -0.001873 0.000000
0.000752 -0.009013 0.000000
0.007477 -0.013833 0.000000
0.000140 -0.000412 0.000000
0.007457 -0.006508 0.000000
0.001157 -0.008172 0.000000
0.000100 -0.001514 0.000000
0.003478 -0.015916 0.000000
0.002626 -0.006527 0.000000
0.000748 -0.009050 0.000000
0.008317 -0.004494 0.000000
-0.000007 -0.004956 0.000000
0.002476 -0.012267 0.000000
0.002849 -0.000788 0.000000
0.007754 -0.004429 0.000000
0.002649 -0.000430 0.000000
0.000886 -0.012507 0.000000
0.008083 -0.005784 0.000000
0.006970 -0.005051 0.000000
0.000167 -0.000883 0.000000
0.000989 -0.012665 0.000000
0.005309 -0.001374 0.000000
0.003169 -0.000850 0.000000
0.001395 -0.000856 0.000000
0.000634 -0.012859 0.000000
0.005930 -0.003541 0.000000
0.007285 -0.015266 0.000000
0.000456 -0.001201 0.000000
0.002955 -0.006686 0.000000
0.000703 -0.004525 0.000000
0.001284 -0.000298 0.000000
0.000691 -0.004342 0.000000
0.000736 -0.010935 0.000000
-0.000004 -0.001371 0.000000
0.003530 -0.001391 0.000000
0.000837 -0.012509 0.000000
0.000272 -0.001422 0.000000
0.000393 -0.012569 0.000000
0.008514 -0.007453 0.000000
0.004356 -0.014183 0.000000
0.008141 -0.005773 0.000000
0.004718 -0.014390 0.000000
0.000063 -0.001316 0.000000
0.003526 -0.000358 0.000000
0.002845 -0.012838 0.000000
0.001020 -0.000832 0.000000
-0.000301 -0.006995 0.000000
0.000916 -0.012584 0.000000
0.001282 -0.007779 0.000000
0.000082 -0.001069 0.000000
0.001084 -0.012937 0.000000
0.000944 -0.012603 0.000000
0.000635 -0.005175 0.000000
0.004291 -0.015511 0.000000
0.000770 -0.009562 0.000000
0.000192 -0.001308 0.000000
0.000314 -0.001197 0.000000
0.002409 -0.001054 0.000000
0.000902 -0.012580 0.000000
0.004294 -0.015468 0.000000
0.007539 -0.001677 0.000000
0.003810 -0.008782 0.000000
0.001217 -0.000419 0.000000
0.000422 -0.006459 0.000000
0.008088 -0.007372 0.000000
0.000188 -0.012491 0.000000
0.005007 -0.015103 0.000000
0.000292 -0.012498 0.000000
0.003103 -0.013019 0.000000
0.008417 -0.007461 0.000000
0.000335 -0.012390 0.000000
0.000851 -0.000836 0.000000
0.001346 -0.001483 0.000000
0.000846 -0.012599 0.000000
0.007637 -0.005779 0.000000
0.001255 -0.000894 0.000000
0.000722 -0.012753 0.000000
0.000362 -0.004253 0.000000
0.007739 -0.005330 0.000000
0.005645 -0.013863 0.000000
0.004294 -0.015495 0.000000
0.007059 -0.004632 0.000000
0.002527 -0.002561 0.000000
0.000188 -0.003200 0.000000
0.001039 -0.010924 0.000000
0.000064 -0.000993 0.000000
0.007634 -0.013331 0.000000
0.000155 -0.000776 0.000000
0.005071 -0.001642 0.000000
0.006689 -0.009437 0.000000
-0.000043 -0.003671 0.000000
0.008355 -0.004731 0.000000
0.008350 -0.004576 0.000000
0.000709 -0.000842 0.000000
0.000432 -0.011519 0.000000
0.000449 -0.005352 0.000000
0.000185 -0.001402 0.000000
0.000196 -0.003986 0.000000
0.007716 -0.008881 0.000000
0.004840 -0.011662 0.000000
0.000197 -0.005143 0.000000
-0.000163 -0.010516 0.000000
0.006978 -0.006332 0.000000
0.002850 -0.009442 0.000000
0.008284 -0.004553 0.000000
-0.000240 -0.001703 0.000000
0.002687 -0.000602 0.000000
0.000174 -0.001124 0.000000
0.001195 -0.012308 0.000000
0.002688 -0.006666 0.000000
0.003161 -0.002850 0.000000
0.000478 -0.001048 0.000000
0.002245 -0.005123 0.000000
0.000565 -0.010694 0.000000
0.004874 -0.002408 0.000000
0.006085 -0.002947 0.000000
0.000088 -0.000417 0.000000
0.006847 -0.012339 0.000000
0.005053 -0.015162 0.000000
0.001104 -0.010347 0.000000
0.000276 -0.011385 0.000000
0.003800 -0.002791 0.000000
0.000596 -0.000854 0.000000
0.007853 -0.008371 0.000000
0.004209 -0.001037 0.000000
0.001677 -0.000652 0.000000
0.007224 -0.011553 0.000000
0.008316 -0.004567 0.000000
-0.000375 -0.001390 0.000000
0.005713 -0.013904 0.000000
0.008116 -0.012778 0.000000
0.008277 -0.004570 0.000000
0.002822 -0.000814 0.000000
0.000561 -0.004248 0.000000
0.001209 -0.001561 0.000000
0.000118 -0.000417 0.000000
0.003936 -0.000456 0.000000
0.000134 -0.012096 0.000000
0.001005 -0.007607 0.000000
-0.000317 -0.001313 0.000000
0.000109 -0.005027 0.000000
0.000897 -0.012535 0.000000
0.008138 -0.005770 0.000000
0.000295 -0.002758 0.000000
0.006163 -0.001321 0.000000
0.001515 -0.005958 0.000000
0.001457 -0.013545 0.000000
-0.000270 -0.008370 0.000000
0.003209 -0.002760 0.000000
0.000094 -0.000339 0.000000
0.000557 -0.000963 0.000000
0.007040 -0.004818 0.000000
0.000013 -0.012539 0.000000
-0.000199 -0.007486 0.000000
0.003320 -0.004457 0.000000
0.008320 -0.004544 0.000000
0.000912 -0.001537 0.000000
0.003321 -0.002911 0.000000
-0.000406 -0.002094 0.000000
0.002296 -0.000680 0.000000
0.000846 -0.012143 0.000000
0.001707 -0.000692 0.000000
0.003223 -0.002017 0.000000
0.001103 -0.001621 0.000000
0.006370 -0.012900 0.000000
-0.000472 -0.001317 0.000000
0.000169 -0.000808 0.000000
-0.000052 -0.010835 0.000000
0.003923 -0.014889 0.000000
0.008847 -0.007633 0.000000
0.000055 -0.000394 0.000000
0.002773 -0.013230 0.000000
0.000561 -0.001064 0.000000
-0.000123 -0.007597 0.000000
-0.000100 -0.002891 0.000000
0.000689 -0.012417 0.000000
0.004452 -0.000366 0.000000
0.000107 -0.000803 0.000000
0.006119 -0.011799 0.000000
0.007668 -0.013466 0.000000
0.001675 -0.000741 0.000000
0.007203 -0.006282 0.000000
0.007669 -0.011986 0.000000
0.005853 -0.013387 0.000000
0.000164 -0.002439 0.000000
0.001836 -0.002958 0.000000
0.000460 -0.002321 0.000000
-0.000367 -0.008198 0.000000
0.003320 -0.000554 0.000000
0.000163 -0.012126 0.000000
-0.000098 -0.007407 0.000000
0.002488 -0.000585 0.000000
0.002760 -0.015744 0.000000
0.000815 -0.010244 0.000000
0.003926 -0.001101 0.000000
0.001981 -0.000528 0.000000
0.000151 -0.001500 0.000000
0.004093 -0.015440 0.000000
0.000624 -0.001183 0.000000
0.000088 -0.002538 0.000000
0.000918 -0.000841 0.000000
0.000153 -0.012126 0.000000
0.004112 -0.013453 0.000000
0.007367 -0.001568 0.000000
0.005550 -0.013286 0.000000
0.001463 -0.012573 0.000000
-0.000119 -0.010618 0.000000
0.002320 -0.005319 0.000000
0.000084 -0.002303 0.000000
0.003027 -0.000681 0.000000
0.000671 -0.012528 0.000000
0.002459 -0.000748 0.000000
0.000427 -0.000393 0.000000
0.002028 -0.000502 0.000000
0.000673 -0.001104 0.000000
0.008952 -0.007657 0.000000
0.000006 -0.002581 0.000000
0.002661 -0.002813 0.000000
0.000970 -0.010889 0.000000
0.000873 -0.001092 0.000000
0.000427 -0.005952 0.000000
0.003437 -0.001544 0.000000
0.008314 -0.008098 0.000000
0.000555 -0.004118 0.000000
0.007538 -0.010357 0.000000
0.000982 -0.006970 0.000000
0.006971 -0.015526 0.000000
-0.000432 -0.007483 0.000000
0.000381 -0.001622 0.000000
0.003371 -0.000725 0.000000
0.004812 -0.009832 0.000000
0.004134 -0.015299 0.000000
0.005395 -0.003389 0.000000
0.003209 -0.016274 0.000000
0.000116 -0.001507 0.000000
-0.000128 -0.002984 0.000000
0.008799 -0.007537 0.000000
0.000633 -0.002333 0.000000
0.002348 -0.000655 0.000000
0.003304 -0.000839 0.000000
0.002248 -0.012397 0.000000
0.006955 -0.011477 0.000000
0.002414 -0.000653 0.000000
0.006612 -0.006329 0.000000
0.002492 -0.000517 0.000000
0.002378 -0.004852 0.000000
0.000544 -0.000295 0.000000
-0.000132 -0.000932 0.000000
0.006922 -0.011874 0.000000
0.000682 -0.001161 0.000000
0.000354 -0.001358 0.000000
0.001306 -0.007264 0.000000
0.000780 -0.010177 0.000000
0.006144 -0.001310 0.000000
0.008153 -0.012156 0.000000
0.007111 -0.010677 0.000000
0.002202 -0.000474 0.000000
0.004683 -0.000628 0.000000
0.001239 -0.005750 0.000000
0.007284 -0.011612 0.000000
0.002235 -0.000662 0.000000
0.003487 -0.000471 0.000000
0.004620 -0.000653 0.000000
0.000926 -0.006977 0.000000
0.008918 -0.007652 0.000000
0.007771 -0.008865 0.000000
0.003509 -0.000221 0.000000
0.003142 -0.000888 0.000000
0.000204 -0.009939 0.000000
0.002272 -0.005424 0.000000
-0.000209 -0.007341 0.000000
0.002325 -0.000581 0.000000
0.000912 -0.011803 0.000000
0.007874 -0.005643 0.000000
0.007790 -0.011952 0.000000
0.008890 -0.007645 0.000000
0.001081 -0.012956 0.000000
0.000213 -0.012320 0.000000
0.000108 -0.001516 0.000000
0.001009 -0.001008 0.000000
0.001495 -0.001041 0.000000
0.000916 -0.001094 0.000000
-0.000166 -0.010415 0.000000
0.007107 -0.004288 0.000000
0.002494 -0.004164 0.000000
0.001654 -0.000778 0.000000
0.008290 -0.005079 0.000000
0.000821 -0.000848 0.000000
-0.000484 -0.003225 0.000000
0.007691 -0.005255 0.000000
0.003503 -0.007044 0.000000
0.000763 -0.000744 0.000000
0.000168 -0.001080 0.000000
0.006221 -0.001514 0.000000
0.000623 -0.001482 0.000000
0.004138 -0.001130 0.000000
0.004245 -0.009749 0.000000
0.000035 -0.001224 0.000000
0.001315 -0.006446 0.000000
0.000156 -0.004718 0.000000
0.004629 -0.000433 0.000000
0.006392 -0.012792 0.000000
0.004291 -0.015462 0.000000
0.002276 -0.001250 0.000000
-0.000193 -0.002157 0.000000
0.007079 -0.015431 0.000000
0.003400 -0.004716 0.000000
0.007971 -0.008366 0.000000
-0.000062 -0.002192 0.000000
-0.000192 -0.004128 0.000000
0.001443 -0.009462 0.000000
0.000701 -0.002775 0.000000
0.003375 -0.007206 0.000000
0.007922 -0.006041 0.000000
0.000191 -0.009542 0.000000
0.000932 -0.001125 0.000000
0.000825 -0.012273 0.000000
0.007297 -0.004841 0.000000
0.001451 -0.011281 0.000000
0.000718 -0.001438 0.000000
0.005060 -0.015075 0.000000
0.002891 -0.007543 0.000000
0.006155 -0.001309 0.000000
0.000792 -0.011860 0.000000
0.000170 -0.001211 0.000000
0.000907 -0.010340 0.000000
0.000524 -0.004595 0.000000
0.002471 -0.000600 0.000000
0.000739 -0.011700 0.000000
0.000530 -0.009497 0.000000
0.001864 -0.000761 0.000000
0.001801 -0.012825 0.000000
0.000214 -0.000830 0.000000
0.001144 -0.000959 0.000000
0.000857 -0.012007 0.000000
0.000944 -0.005573 0.000000
0.004521 -0.000354 0.000000
0.001207 -0.012093 0.000000
0.007892 -0.006783 0.000000
0.000064 -0.001535 0.000000
0.006394 -0.012860 0.000000
0.000132 -0.003471 0.000000
0.005347 -0.015277 0.000000
0.001751 -0.011422 0.000000
0.007014 -0.014705 0.000000
0.003948 -0.015136 0.000000
0.000267 -0.004057 0.000000
0.000801 -0.009789 0.000000
0.000916 -0.001175 0.000000
0.000687 -0.010265 0.000000
0.001081 -0.010426 0.000000
0.004288 -0.015472 0.000000
0.008244 -0.013909 0.000000
0.000764 -0.012391 0.000000
0.002630 -0.003627 0.000000
0.000747 -0.011804 0.000000
0.002621 -0.000817 0.000000
0.000149 -0.001359 0.000000
0.000315 -0.003021 0.000000
0.000770 -0.000645 0.000000
0.005514 -0.014072 0.000000
0.001131 -0.010746 0.000000
0.000610 -0.001227 0.000000
0.002871 -0.013928 0.000000
-0.000162 -0.007428 0.000000
-0.000168 -0.000340 0.000000
0.001262 -0.007717 0.000000
-0.000344 -0.002064 0.000000
0.004121 -0.002289 0.000000
0.000076 -0.000329 0.000000
0.000532 -0.010514 0.000000
0.006558 -0.003199 0.000000
0.008086 -0.004497 0.000000
0.001821 -0.000369 0.000000
0.002601 -0.003259 0.000000
0.001022 -0.000927 0.000000
0.002005 -0.012173 0.000000
0.001266 -0.012151 0.000000
0.000281 -0.001012 0.000000
0.005629 -0.001350 0.000000
0.001160 -0.010758 0.000000
0.007200 -0.014301 0.000000
0.000346 -0.009625 0.000000
0.008607 -0.007505 0.000000
0.000092 -0.000954 0.000000
0.004387 -0.008320 0.000000
0.007523 -0.005444 0.000000
0.000501 -0.004151 0.000000
0.000064 -0.009926 0.000000
0.007262 -0.014646 0.000000
0.000011 -0.012590 0.000000
0.000060 -0.001541 0.000000
0.002402 -0.005564 0.000000
0.000594 -0.010946 0.000000
0.000487 -0.009444 0.000000
0.001895 -0.000410 0.000000
0.007010 -0.011542 0.000000
0.000423 -0.012770 0.000000
0.006167 -0.001352 0.000000
0.000196 -0.001456 0.000000
0.001103 -0.007280 0.000000
0.000642 -0.012239 0.000000
0.001191 -0.010814 0.000000
0.006242 -0.003907 0.000000
0.003678 -0.015645 0.000000
0.000913 -0.000968 0.000000
0.003786 -0.000625 0.000000
0.002609 -0.004396 0.000000
0.007907 -0.004986 0.000000
0.004389 -0.000743 0.000000
0.005056 -0.015157 0.000000
0.001062 -0.006776 0.000000
-0.000084 -0.001104 0.000000
0.001244 -0.010466 0.000000
0.000211 -0.001073 0.000000
0.001210 -0.000936 0.000000
0.000750 -0.012355 0.000000
0.000719 -0.009778 0.000000
0.000744 -0.009809 0.000000
0.004211 -0.015235 0.000000
0.006804 -0.012052 0.000000
0.001203 -0.006802 0.000000
0.004254 -0.000584 0.000000
0.004269 -0.000526 0.000000
0.001804 -0.012748 0.000000
0.006843 -0.001590 0.000000
0.003945 -0.000604 0.000000
0.002589 -0.000686 0.000000
-0.000114 -0.001033 0.000000
0.007532 -0.011592 0.000000
0.008043 -0.006058 0.000000
0.008026 -0.008414 0.000000
0.008150 -0.007325 0.000000
0.000317 -0.000439 0.000000
0.000175 -0.001135 0.000000
0.000065 -0.001381 0.000000
0.000356 -0.009712 0.000000
0.002013 -0.000636 0.000000
0.001040 -0.000282 0.000000
0.000697 -0.012622 0.000000
0.000764 -0.010626 0.000000
0.004857 -0.014626 0.000000
0.001239 -0.004877 0.000000
0.001514 -0.000594 0.000000
0.000532 -0.012432 0.000000
0.000020 -0.004473 0.000000
0.007758 -0.013006 0.000000
0.004862 -0.014619 0.000000
0.005863 -0.003476 0.000000
0.001050 -0.011086 0.000000
0.000879 -0.000954 0.000000
0.001799 -0.000477 0.000000
0.002914 -0.000599 0.000000
0.002622 -0.005091 0.000000
0.000732 -0.009033 0.000000
-0.000290 -0.005108 0.000000
0.003225 -0.005897 0.000000
0.000100 -0.000398 0.000000
0.006614 -0.004030 0.000000
0.003711 -0.007999 0.000000
0.001910 -0.000424 0.000000
0.000113 -0.000867 0.000000
0.001831 -0.000608 0.000000
0.001157 -0.007607 0.000000
0.002369 -0.000707 0.000000
0.000851 -0.012204 0.000000
0.005677 -0.014024 0.000000
0.008245 -0.012116 0.000000
0.008457 -0.012254 0.000000
0.000618 -0.001162 0.000000
0.000073 -0.001434 0.000000
0.000062 -0.001527 0.000000
0.007190 -0.014943 0.000000
0.002850 -0.006696 0.000000
0.003191 -0.009260 0.000000
0.000089 -0.000319 0.000000
0.003918 -0.015317 0.000000
0.007974 -0.007901 0.000000
0.000013 -0.000649 0.000000
0.000397 -0.000868 0.000000
0.003064 -0.007622 0.000000
0.002146 -0.000433 0.000000
0.002398 -0.000670 0.000000
0.002474 -0.004518 0.000000
0.002471 -0.014762 0.000000
0.001138 -0.000514 0.000000
0.004632 -0.001029 0.000000
0.000532 -0.001938 0.000000
0.001497 -0.000695 0.000000
0.000898 -0.010758 0.000000
0.000222 -0.000960 0.000000
0.002215 -0.003597 0.000000
0.005063 -0.015118 0.000000
0.004194 -0.015388 0.000000
0.000839 -0.012481 0.000000
0.001154 -0.011394 0.000000
0.001256 -0.001208 0.000000
0.000061 -0.000254 0.000000
0.006882 -0.004253 0.000000
0.005796 -0.003788 0.000000
0.000090 -0.000649 0.000000
0.000435 -0.000701 0.000000
0.000434 -0.001232 0.000000
0.000459 -0.001213 0.000000
0.001335 -0.010971 0.000000
-0.000211 -0.006361 0.000000
0.007963 -0.012684 0.000000
0.004177 -0.015177 0.000000
0.000251 -0.001430 0.000000
0.002135 -0.004169 0.000000
0.008077 -0.007105 0.000000
0.004924 -0.014960 0.000000
0.007063 -0.004139 0.000000
0.001989 -0.000759 0.000000
0.002172 -0.000719 0.000000
0.001074 -0.012970 0.000000
0.001659 -0.013124 0.000000
0.004799 -0.014706 0.000000
0.000372 -0.001335 0.000000
0.008766 -0.012551 0.000000
0.007610 -0.010792 0.000000
0.000778 -0.012310 0.000000
0.000727 -0.012254 0.000000
0.007891 -0.004402 0.000000
-0.000435 -0.008299 0.000000
0.000160 -0.003571 0.000000
-0.000345 -0.001193 0.000000
0.002724 -0.008812 0.000000
0.002074 -0.003080 0.000000
0.008470 -0.007330 0.000000
0.000981 -0.012725 0.000000
0.007374 -0.004956 0.000000
0.001789 -0.000585 0.000000
0.000823 -0.012524 0.000000
-0.000071 -0.006261 0.000000
0.007176 -0.005992 0.000000
0.001151 -0.011924 0.000000
0.004421 -0.014228 0.000000
0.008476 -0.006675 0.000000
-0.000193 -0.008460 0.000000
0.000311 -0.002587 0.000000
0.000530 -0.010809 0.000000
0.001344 -0.002336 0.000000
0.000345 -0.000412 0.000000
0.000256 -0.001115 0.000000
0.001139 -0.011056 0.000000
0.000089 -0.001449 0.000000
0.000176 -0.001165 0.000000
0.000081 -0.000978 0.000000
0.004290 -0.015412 0.000000
0.002195 -0.000347 0.000000
0.001103 -0.006873 0.000000
0.000345 -0.000879 0.000000
0.000258 -0.001181 0.000000
0.001362 -0.001284 0.000000
0.002921 -0.001820 0.000000
0.004850 -0.001091 0.000000
0.007262 -0.010454 0.000000
0.003828 -0.014513 0.000000
0.000375 -0.003958 0.000000
0.001098 -0.001070 0.000000
0.002899 -0.002261 0.000000
0.001738 -0.001085 0.000000
0.000706 -0.010196 0.000000
0.000389 -0.010634 0.000000
0.007912 -0.011635 0.000000
0.000682 -0.012183 0.000000
0.008539 -0.007092 0.000000
0.007048 -0.004576 0.000000
-0.000006 -0.001192 0.000000
0.005131 -0.001196 0.000000
-0.000033 -0.001880 0.000000
0.002296 -0.002391 0.000000
0.007730 -0.006072 0.000000
0.004280 -0.015474 0.000000
0.002193 -0.012318 0.000000
0.000476 -0.004393 0.000000
0.000289 -0.010646 0.000000
0.000924 -0.004150 0.000000
0.000584 -0.002351 0.000000
0.007853 -0.012938 0.000000
0.001055 -0.011217 0.000000
0.000129 -0.001502 0.000000
0.002376 -0.003624 0.000000
0.001593 -0.001671 0.000000
0.000282 -0.001221 0.000000
0.001400 -0.011888 0.000000
0.004499 -0.000814 0.000000
0.000735 -0.009151 0.000000
0.006847 -0.004190 0.000000
0.004494 -0.015179 0.000000
0.000318 -0.004561 0.000000
0.008113 -0.011456 0.000000
0.002698 -0.006283 0.000000
0.000109 -0.008027 0.000000
0.002940 -0.002539 0.000000
0.008363 -0.007216 0.000000
0.002336 -0.003736 0.000000
0.000110 -0.009248 0.000000
0.000378 -0.009040 0.000000
0.000225 -0.011709 0.000000
0.005939 -0.002685 0.000000
0.008421 -0.013187 0.000000
0.005891 -0.001250 0.000000
0.000378 -0.009752 0.000000
0.008348 -0.008861 0.000000
0.004906 -0.008935 0.000000
0.002104 -0.012131 0.000000
0.000924 -0.010345 0.000000
0.000361 -0.002686 0.000000
0.008610 -0.012920 0.000000
0.000159 -0.000581 0.000000
-0.000095 -0.006164 0.000000
-0.000091 -0.007559 0.000000
0.001434 -0.000707 0.000000
0.007003 -0.004562 0.000000
0.000805 -0.001006 0.000000
0.005657 -0.002124 0.000000
-0.000043 -0.006537 0.000000
0.004382 -0.000463 0.000000
0.004690 -0.014336 0.000000
0.000969 -0.010898 0.000000
0.000646 -0.000332 0.000000
0.008531 -0.011763 0.000000
0.008180 -0.007239 0.000000
0.000630 -0.001285 0.000000
0.008443 -0.007343 0.000000
-0.000668 -0.002487 0.000000
0.004849 -0.001181 0.000000
0.007596 -0.005936 0.000000
0.007363 -0.004914 0.000000
0.006132 -0.013211 0.000000
0.007841 -0.006976 0.000000
-0.000225 -0.010595 0.000000
0.000413 -0.001281 0.000000
0.002795 -0.007017 0.000000
0.008600 -0.008725 0.000000
0.004137 -0.000380 0.000000
0.000382 -0.011591 0.000000
0.000495 -0.011637 0.000000
0.000877 -0.000428 0.000000
0.002600 -0.007159 0.000000
-0.000414 -0.001663 0.000000
-0.000011 -0.003489 0.000000
0.005343 -0.001492 0.000000
0.000795 -0.010442 0.000000
-0.000413 -0.008264 0.000000
0.006182 -0.001565 0.000000
0.008183 -0.007368 0.000000
0.006202 -0.001318 0.000000
0.006388 -0.012749 0.000000
0.000596 -0.004113 0.000000
0.004304 -0.014091 0.000000
0.004256 -0.014120 0.000000
0.007896 -0.007280 0.000000
0.007857 -0.007827 0.000000
0.003160 -0.005685 0.000000
0.000171 -0.000922 0.000000
0.003766 -0.008902 0.000000
0.000474 -0.011588 0.000000
0.008383 -0.011835 0.000000
0.005312 -0.008869 0.000000
0.002441 -0.000758 0.000000
-0.000075 -0.006718 0.000000
0.007376 -0.010354 0.000000
0.000880 -0.010367 0.000000
0.003893 -0.008577 0.000000
0.006305 -0.005807 0.000000
0.007095 -0.004882 0.000000
0.003456 -0.004480 0.000000
0.004624 -0.014263 0.000000
0.000632 -0.009352 0.000000
0.008593 -0.007410 0.000000
0.001190 -0.000805 0.000000
0.000602 -0.003690 0.000000
0.006450 -0.011732 0.000000
0.007187 -0.004263 0.000000
0.003891 -0.000402 0.000000
0.000686 -0.004586 0.000000
0.000425 -0.010224 0.000000
0.000817 -0.001239 0.000000
0.000249 -0.001147 0.000000
0.008262 -0.012296 0.000000
0.003212 -0.006664 0.000000
0.005287 -0.001513 0.000000
0.005279 -0.001505 0.000000
0.000968 -0.004540 0.000000
0.001543 -0.006945 0.000000
0.008304 -0.006507 0.000000
0.004968 -0.015058 0.000000
-0.000083 -0.006507 0.000000
-0.000079 -0.006447 0.000000
0.001566 -0.006885 0.000000
0.001722 -0.005398 0.000000
0.001581 -0.006982 0.000000
0.007858 -0.006740 0.000000
0.002379 -0.000743 0.000000
0.002523 -0.005485 0.000000
0.000200 -0.009382 0.000000
0.002421 -0.004145 0.000000
0.005494 -0.012999 0.000000
0.005469 -0.012945 0.000000
0.006411 -0.003515 0.000000
0.000712 -0.009476 0.000000
0.004355 -0.015455 0.000000
0.006831 -0.004842 0.000000
0.002466 -0.000737 0.000000
0.001579 -0.006905 0.000000
0.000167 -0.003603 0.000000
0.005343 -0.002708 0.000000
0.004010 -0.001528 0.000000
0.000335 -0.000767 0.000000
0.007163 -0.010263 0.000000
0.000797 -0.009622 0.000000
0.008881 -0.012206 0.000000
0.001172 -0.006363 0.000000
0.000917 -0.000279 0.000000
0.001234 -0.010956 0.000000
-0.000313 -0.000570 0.000000
-0.000246 -0.005518 0.000000
0.005161 -0.001302 0.000000
0.001347 -0.000260 0.000000
0.000232 -0.004954 0.000000
0.000746 -0.000966 0.000000
0.001556 -0.007514 0.000000
0.000115 -0.009281 0.000000
0.007402 -0.015099 0.000000
0.006782 -0.014766 0.000000
0.007860 -0.006613 0.000000
0.000212 -0.011089 0.000000
0.002015 -0.000692 0.000000
0.003808 -0.004213 0.000000
0.000176 -0.000895 0.000000
0.000271 -0.001099 0.000000
0.000236 -0.000921 0.000000
0.000319 -0.001113 0.000000
0.000846 -0.001187 0.000000
-0.000182 -0.002827 0.000000
0.000300 -0.000873 0.000000
0.001460 -0.011130 0.000000
0.008266 -0.006081 0.000000
0.004874 -0.014707 0.000000
-0.000290 -0.005654 0.000000
-0.000066 -0.006276 0.000000
-0.000235 -0.005790 0.000000
0.001153 -0.000455 0.000000
0.000293 -0.011248 0.000000
0.001428 -0.000970 0.000000
0.000045 -0.010040 0.000000
0.001693 -0.001753 0.000000
0.003519 -0.015812 0.000000
0.000704 -0.009356 0.000000
0.003018 -0.006308 0.000000
0.002664 -0.002252 0.000000
0.006237 -0.013192 0.000000
0.000830 -0.000620 0.000000
0.000430 -0.004901 0.000000
0.000142 -0.001909 0.000000
-0.000169 -0.002628 0.000000
0.001591 -0.000432 0.000000
0.004774 -0.014837 0.000000
0.001189 -0.007197 0.000000
0.008380 -0.007401 0.000000
0.000296 -0.000301 0.000000
0.005922 -0.002615 0.000000
0.000055 -0.000509 0.000000
0.000131 -0.002262 0.000000
0.006909 -0.005259 0.000000
0.001067 -0.010839 0.000000
0.000759 -0.009966 0.000000
0.007849 -0.006003 0.000000
0.007844 -0.006733 0.000000
0.001707 -0.011366 0.000000
0.006031 -0.002497 0.000000
0.000740 -0.001246 0.000000
0.000916 -0.011699 0.000000
0.001441 -0.005132 0.000000
0.003290 -0.005950 0.000000
0.000064 -0.000266 0.000000
0.001749 -0.011627 0.000000
0.002202 -0.011851 0.000000
0.000119 -0.002087 0.000000
-0.000027 -0.001406 0.000000
0.005069 -0.015110 0.000000
-0.000002 -0.000266 0.000000
0.006420 -0.012748 0.000000
0.001432 -0.012315 0.000000
0.000359 -0.001267 0.000000
0.000306 -0.001249 0.000000
0.000345 -0.001316 0.000000
0.000121 -0.000727 0.000000
0.007869 -0.004362 0.000000
0.000158 -0.003837 0.000000
0.000612 -0.000956 0.000000
0.000972 -0.012939 0.000000
0.001489 -0.010985 0.000000
0.000766 -0.001085 0.000000
0.007179 -0.015323 0.000000
0.007079 -0.011642 0.000000
0.002133 -0.000627 0.000000
0.006259 -0.014024 0.000000
0.003211 -0.001541 0.000000
0.000039 -0.012012 0.000000
0.000880 -0.011617 0.000000
0.004360 -0.014354 0.000000
0.000041 -0.009971 0.000000
-0.000142 -0.004992 0.000000
0.008018 -0.005035 0.000000
0.002990 -0.007408 0.000000
0.002051 -0.009955 0.000000
0.000175 -0.001312 0.000000
0.003650 -0.013867 0.000000
0.007330 -0.011483 0.000000
0.006858 -0.010788 0.000000
0.000346 -0.003536 0.000000
0.002157 -0.000589 0.000000
0.004865 -0.008603 0.000000
0.000054 -0.003220 0.000000
0.005792 -0.001107 0.000000
0.007791 -0.012621 0.000000
0.008709 -0.007368 0.000000
0.000390 -0.005240 0.000000
0.005275 -0.015430 0.000000
0.000567 -0.001171 0.000000
0.000328 -0.000750 0.000000
-0.000017 -0.006168 0.000000
-0.000277 -0.000924 0.000000
-0.000002 -0.008782 0.000000
0.002227 -0.000327 0.000000
0.001919 -0.000484 0.000000
0.000428 -0.008732 0.000000
0.001540 -0.006832 0.000000
0.000542 -0.011845 0.000000
0.007044 -0.004309 0.000000
0.007131 -0.004394 0.000000
0.001798 -0.000167 0.000000
0.001150 -0.007390 0.000000
0.004998 -0.015024 0.000000
0.002494 -0.008819 0.000000
0.002732 -0.007500 0.000000
0.001791 -0.000802 0.000000
0.001598 -0.007213 0.000000
0.000398 -0.001056 0.000000
0.001326 -0.008030 0.000000
0.004302 -0.015391 0.000000
0.007524 -0.006392 0.000000
0.001020 -0.010547 0.000000
0.006239 -0.001843 0.000000
0.001459 -0.006033 0.000000
0.002189 -0.004367 0.000000
0.002386 -0.002885 0.000000
0.002618 -0.006674 0.000000
0.004933 -0.014866 0.000000
0.007122 -0.015244 0.000000
0.000741 -0.010461 0.000000
0.000342 -0.000821 0.000000
0.006390 -0.012810 0.000000
0.002247 -0.008595 0.000000
0.006887 -0.005199 0.000000
0.000686 -0.010530 0.000000
0.004953 -0.014979 0.000000
0.002072 -0.008635 0.000000
0.006883 -0.005107 0.000000
0.003598 -0.004366 0.000000
0.001273 -0.013214 0.000000
0.000145 -0.000575 0.000000
0.005730 -0.012962 0.000000
0.005554 -0.013199 0.000000
-0.000184 -0.007323 0.000000
0.008094 -0.013019 0.000000
0.000730 -0.010158 0.000000
0.000175 -0.009261 0.000000
0.008731 -0.012641 0.000000
0.000139 -0.003882 0.000000
0.000172 -0.001442 0.000000
0.001140 -0.006248 0.000000
0.000256 -0.001044 0.000000
0.003415 -0.006526 0.000000
0.000242 -0.011557 0.000000
0.002359 -0.001417 0.000000
0.007914 -0.013911 0.000000
0.008304 -0.012995 0.000000
0.003352 -0.006379 0.000000
0.000599 -0.009809 0.000000
0.006330 -0.012629 0.000000
0.001325 -0.000798 0.000000
0.006752 -0.001549 0.000000
0.000284 -0.005540 0.000000
0.001919 -0.011832 0.000000
0.006642 -0.004160 0.000000
0.007178 -0.015536 0.000000
0.007206 -0.015379 0.000000
0.000283 -0.008423 0.000000
0.001015 -0.000429 0.000000
0.000586 -0.001917 0.000000
-0.000279 -0.008732 0.000000
0.006306 -0.001820 0.000000
0.007698 -0.006347 0.000000
0.000208 -0.001450 0.000000
0.002976 -0.006637 0.000000
0.000506 -0.010070 0.000000
0.004815 -0.014680 0.000000
0.004546 -0.000926 0.000000
0.000868 -0.012154 0.000000
0.001038 -0.012622 0.000000
-0.000091 -0.001029 0.000000
0.002646 -0.012521 0.000000
-0.000064 -0.006934 0.000000
0.002771 -0.004605 0.000000
0.001549 -0.000823 0.000000
0.008228 -0.006596 0.000000
0.000577 -0.011979 0.000000
0.001341 -0.000090 0.000000
0.004086 -0.000453 0.000000
0.006741 -0.004028 0.000000
0.001198 -0.012160 0.000000
0.000313 -0.009590 0.000000
0.002681 -0.002593 0.000000
0.002630 -0.002793 0.000000
0.000003 -0.004012 0.000000
0.001095 -0.005572 0.000000
0.000107 -0.004778 0.000000
0.000823 -0.012305 0.000000
0.000723 -0.012399 0.000000
0.000174 -0.012178 0.000000
0.008213 -0.005289 0.000000
0.004786 -0.014746 0.000000
0.005059 -0.015132 0.000000
0.000094 -0.000564 0.000000
0.002117 -0.011828 0.000000
0.000949 -0.007719 0.000000
0.008007 -0.013797 0.000000
0.002580 -0.003454 0.000000
-0.000228 -0.001131 0.000000
0.005140 -0.001268 0.000000
0.006839 -0.004191 0.000000
0.000455 -0.008770 0.000000
0.005058 -0.015174 0.000000
0.008104 -0.012531 0.000000
0.000880 -0.011832 0.000000
0.002724 -0.005637 0.000000
-0.000128 -0.000825 0.000000
0.000641 -0.005669 0.000000
0.001062 -0.006603 0.000000
0.001261 -0.001041 0.000000
0.007248 -0.015093 0.000000
0.000082 -0.004226 0.000000
0.000003 -0.012606 0.000000
0.000060 -0.001540 0.000000
0.000066 -0.000507 0.000000
0.004816 -0.014605 0.000000
0.000270 -0.011876 0.000000
0.003405 -0.004544 0.000000
0.001243 -0.001716 0.000000
0.006301 -0.001676 0.000000
0.007039 -0.015261 0.000000
0.000773 -0.008978 0.000000
-0.000229 -0.000486 0.000000
0.001118 -0.011689 0.000000
0.000665 -0.000792 0.000000
0.002178 -0.004087 0.000000
0.000952 -0.012841 0.000000
0.000850 -0.001226 0.000000
0.007960 -0.012410 0.000000
0.002164 -0.000343 0.000000
0.002649 -0.005934 0.000000
0.004749 -0.014443 0.000000
0.000817 -0.011839 0.000000
0.000730 -0.012177 0.000000
0.004777 -0.014632 0.000000
0.001028 -0.012979 0.000000
0.001477 -0.011550 0.000000
0.001508 -0.011421 0.000000
0.007195 -0.004422 0.000000
0.005722 -0.002373 0.000000
0.000268 -0.009510 0.000000
-0.000158 -0.001005 0.000000
0.000218 -0.000427 0.000000
0.002504 -0.006379 0.000000
0.006092 -0.003729 0.000000
0.003763 -0.000404 0.000000
0.003047 -0.007565 0.000000
0.008204 -0.005634 0.000000
0.002653 -0.005532 0.000000
0.002736 -0.005247 0.000000
-0.000244 -0.002986 0.000000
0.004711 -0.008446 0.000000
0.000122 -0.000322 0.000000
0.000200 -0.003074 0.000000
0.007194 -0.015247 0.000000
0.008000 -0.012302 0.000000
-0.000489 -0.001560 0.000000
0.000910 -0.012848 0.000000
0.008024 -0.007387 0.000000
0.002661 -0.012700 0.000000
0.002089 -0.012298 0.000000
0.001356 -0.009329 0.000000
0.000080 -0.002393 0.000000
0.000766 -0.012492 0.000000
-0.000291 -0.008590 0.000000
0.000652 -0.012168 0.000000
0.001721 -0.005883 0.000000
0.000059 -0.000531 0.000000
0.000157 -0.000331 0.000000
0.004285 -0.015503 0.000000
0.001011 -0.011367 0.000000
0.001063 -0.011415 0.000000
0.001143 -0.011808 0.000000
0.002435 -0.000710 0.000000
0.001115 -0.012999 0.000000
0.003565 -0.003437 0.000000
0.002186 -0.002971 0.000000
0.001183 -0.004535 0.000000
0.000276 -0.008966 0.000000
0.000402 -0.009990 0.000000
0.008835 -0.008150 0.000000
0.000069 -0.011901 0.000000
0.000046 -0.000477 0.000000
0.006024 -0.003494 0.000000
0.000333 -0.000718 0.000000
0.005101 -0.002632 0.000000
0.006984 -0.011076 0.000000
0.008116 -0.013532 0.000000
0.004297 -0.015386 0.000000
0.001088 -0.011582 0.000000
0.002260 -0.012604 0.000000
0.000705 -0.009938 0.000000
0.007367 -0.004950 0.000000
0.000890 -0.010671 0.000000
0.003130 -0.003704 0.000000
0.003073 -0.004371 0.000000
0.000828 -0.012771 0.000000
0.000757 -0.009917 0.000000
0.006165 -0.001591 0.000000
0.004888 -0.014796 0.000000
0.006141 -0.003800 0.000000
0.002476 -0.001640 0.000000
0.007459 -0.011246 0.000000
0.000267 -0.003340 0.000000
0.003578 -0.000701 0.000000
0.007507 -0.004283 0.000000
0.000874 -0.001157 0.000000
0.002698 -0.006284 0.000000
0.000923 -0.009254 0.000000
0.005644 -0.014375 0.000000
0.005636 -0.012707 0.000000
0.002949 -0.008598 0.000000
0.000071 -0.000989 0.000000
0.004611 -0.010032 0.000000
0.004909 -0.014773 0.000000
0.000318 -0.000242 0.000000
0.005957 -0.003595 0.000000
0.000939 -0.000701 0.000000
0.000219 -0.011415 0.000000
0.008576 -0.007570 0.000000
0.005754 -0.003230 0.000000
0.002568 -0.001609 0.000000
-0.000174 -0.008530 0.000000
0.000435 -0.009012 0.000000
0.008078 -0.006221 0.000000
0.007347 -0.004854 0.000000
0.004940 -0.015043 0.000000
0.007826 -0.006639 0.000000
0.000003 -0.000400 0.000000
0.000132 -0.000228 0.000000
0.000127 -0.000981 0.000000
0.008675 -0.009271 0.000000
0.006220 -0.003220 0.000000
0.000703 -0.001204 0.000000
0.005031 -0.015102 0.000000
0.003093 -0.001681 0.000000
0.004045 -0.002220 0.000000
0.007912 -0.007784 0.000000
0.001241 -0.010690 0.000000
0.000992 -0.012968 0.000000
0.004950 -0.015028 0.000000
0.001121 -0.005975 0.000000
0.003460 -0.000382 0.000000
0.007754 -0.005601 0.000000
0.000857 -0.010104 0.000000
0.000688 -0.000273 0.000000
0.000813 -0.011912 0.000000
0.001485 -0.012971 0.000000
0.000511 -0.000791 0.000000
0.000544 -0.009682 0.000000
0.000047 -0.000314 0.000000
0.002059 -0.004128 0.000000
0.000593 -0.000714 0.000000
0.000302 -0.004050 0.000000
0.000176 -0.000836 0.000000
0.007168 -0.015361 0.000000
0.000350 -0.011416 0.000000
0.000403 -0.009754 0.000000
0.000851 -0.012669 0.000000
0.007517 -0.005685 0.000000
0.000837 -0.012431 0.000000
0.000767 -0.008940 0.000000
0.001100 -0.001024 0.000000
0.003471 -0.000565 0.000000
0.004967 -0.015026 0.000000
0.003057 -0.002907 0.000000
0.000995 -0.010181 0.000000
0.002225 -0.012407 0.000000
0.000916 -0.004523 0.000000
0.000268 -0.010680 0.000000
0.001095 -0.010587 0.000000
0.001756 -0.000667 0.000000
0.000474 -0.003922 0.000000
0.003497 -0.000666 0.000000
0.000083 -0.000835 0.000000
0.007552 -0.005117 0.000000
-0.000093 -0.007020 0.000000
0.000943 -0.011033 0.000000
0.006177 -0.001256 0.000000
0.001511 -0.007812 0.000000
0.000729 -0.012463 0.000000
0.000442 -0.000749 0.000000
0.001142 -0.010561 0.000000
0.005680 -0.001685 0.000000
0.004087 -0.014978 0.000000
0.008400 -0.007373 0.000000
0.008108 -0.006562 0.000000
0.001417 -0.000308 0.000000
0.007312 -0.005101 0.000000
0.000460 -0.001159 0.000000
0.005419 -0.012551 0.000000
0.008462 -0.006519 0.000000
0.000444 -0.000191 0.000000
0.002072 -0.014658 0.000000
0.000067 -0.000219 0.000000
0.002326 -0.004601 0.000000
0.008114 -0.006961 0.000000
0.008493 -0.007503 0.000000
0.001518 -0.011206 0.000000
0.008630 -0.007463 0.000000
0.003018 -0.005967 0.000000
0.002858 -0.004765 0.000000
0.000002 -0.004678 0.000000
0.008103 -0.006029 0.000000
0.002011 -0.001120 0.000000
0.001677 -0.000954 0.000000
0.005018 -0.014954 0.000000
0.000147 -0.006021 0.000000
0.001473 -0.007033 0.000000
0.008743 -0.007352 0.000000
0.000160 -0.001193 0.000000
0.000474 -0.002149 0.000000
0.004219 -0.000405 0.000000
0.000101 -0.003807 0.000000
0.000653 -0.005825 0.000000
0.000453 -0.005127 0.000000
0.006953 -0.011403 0.000000
0.006937 -0.011572 0.000000
-0.000452 -0.001861 0.000000
0.005441 -0.001645 0.000000
0.000274 -0.005876 0.000000
0.000460 -0.005112 0.000000
0.000797 -0.008471 0.000000
0.005346 -0.012791 0.000000
0.004342 -0.000764 0.000000
0.007599 -0.006112 0.000000
0.002854 -0.000976 0.000000
0.002934 -0.001482 0.000000
0.000399 -0.001518 0.000000
0.003243 -0.001609 0.000000
0.003048 -0.001382 0.000000
0.003623 -0.000843 0.000000
0.003795 -0.000852 0.000000
0.001587 -0.012117 0.000000
0.000238 -0.001193 0.000000
0.000716 -0.012355 0.000000
0.008446 -0.007371 0.000000
0.002334 -0.006044 0.000000
0.004901 -0.014785 0.000000
0.006986 -0.005234 0.000000
0.001879 -0.000573 0.000000
0.000882 -0.010160 0.000000
0.000808 -0.009880 0.000000
0.003955 -0.004436 0.000000
0.003840 -0.004058 0.000000
-0.000187 -0.000936 0.000000
0.007038 -0.010834 0.000000
0.007409 -0.011178 0.000000
0.000089 -0.002633 0.000000
0.003479 -0.003381 0.000000
0.002168 -0.007902 0.000000
0.003065 -0.001574 0.000000
0.000437 -0.002340 0.000000
0.000585 -0.001738 0.000000
0.003137 -0.000326 0.000000
0.001034 -0.011053 0.000000
0.003460 -0.006692 0.000000
0.006189 -0.001742 0.000000
0.001054 -0.001042 0.000000
-0.000068 -0.001034 0.000000
0.000064 -0.001496 0.000000
0.007874 -0.007196 0.000000
0.003278 -0.000446 0.000000
0.008044 -0.007252 0.000000
0.001468 -0.000768 0.000000
0.008565 -0.007570 0.000000
0.006095 -0.003355 0.000000
0.001532 -0.011335 0.000000
0.000857 -0.012639 0.000000
0.000631 -0.000625 0.000000
0.001538 -0.000961 0.000000
0.000716 -0.004938 0.000000
0.005546 -0.013074 0.000000
0.003575 -0.008010 0.000000
0.004320 -0.014822 0.000000
0.007247 -0.015342 0.000000
0.007308 -0.004865 0.000000
0.006490 -0.012599 0.000000
-0.000161 -0.007107 0.000000
0.002514 -0.000749 0.000000
-0.000426 -0.005080 0.000000
0.000913 -0.001027 0.000000
0.003330 -0.012991 0.000000
0.002851 -0.008530 0.000000
0.001236 -0.007004 0.000000
0.000515 -0.011835 0.000000
0.000129 -0.000872 0.000000
0.000073 -0.000731 0.000000
0.006081 -0.003105 0.000000
0.008144 -0.006225 0.000000
0.000246 -0.009753 0.000000
0.000388 -0.009797 0.000000
0.008163 -0.004722 0.000000
0.001161 -0.013031 0.000000
0.002292 -0.004071 0.000000
0.005932 -0.013199 0.000000
0.004967 -0.015033 0.000000
0.005786 -0.003244 0.000000
0.001064 -0.000541 0.000000
0.001072 -0.011125 0.000000
0.001417 -0.006623 0.000000
0.003563 -0.000865 0.000000
0.001604 -0.002889 0.000000
0.000625 -0.009587 0.000000
0.005820 -0.009833 0.000000
0.000191 -0.001417 0.000000
0.000562 -0.001130 0.000000
0.006724 -0.001610 0.000000
0.000745 -0.012057 0.000000
0.005323 -0.001516 0.000000
0.000515 -0.009995 0.000000
0.008895 -0.007603 0.000000
0.000468 -0.000676 0.000000
0.000568 -0.001755 0.000000
0.005995 -0.003238 0.000000
0.002116 -0.009740 0.000000
0.008796 -0.007632 0.000000
0.002830 -0.002700 0.000000
0.000237 -0.000355 0.000000
0.007246 -0.004763 0.000000
0.001624 -0.007282 0.000000
0.002592 -0.000246 0.000000
0.001533 -0.002205 0.000000
0.008206 -0.005527 0.000000
0.008178 -0.006967 0.000000
0.004030 -0.015173 0.000000
0.005056 -0.014822 0.000000
0.007206 -0.001583 0.000000
0.001122 -0.000289 0.000000
0.008650 -0.007561 0.000000
0.001028 -0.012891 0.000000
0.001180 -0.000304 0.000000
0.000796 -0.001163 0.000000
0.000127 -0.002287 0.000000
0.001737 -0.011532 0.000000
0.000580 -0.001191 0.000000
0.000517 -0.001018 0.000000
0.000171 -0.002601 0.000000
0.003753 -0.008619 0.000000
0.000242 -0.000409 0.000000
0.000378 -0.003058 0.000000
0.001678 -0.011806 0.000000
0.000326 -0.005280 0.000000
0.003511 -0.014652 0.000000
0.000791 -0.011758 0.000000
0.006213 -0.001522 0.000000
0.000310 -0.009861 0.000000
0.000301 -0.000492 0.000000
0.002202 -0.001492 0.000000
0.000164 -0.011351 0.000000
0.008175 -0.007178 0.000000
0.002629 -0.005132 0.000000
-0.000007 -0.000161 0.000000
0.007253 -0.004320 0.000000
0.002923 -0.005669 0.000000
0.007129 -0.011484 0.000000
0.005059 -0.015135 0.000000
-0.000003 -0.002777 0.000000
0.006862 -0.015603 0.000000
0.006181 -0.013178 0.000000
0.001939 -0.000175 0.000000
0.003796 -0.003822 0.000000
0.001026 -0.007816 0.000000
0.001040 -0.010624 0.000000
-0.000433 -0.001137 0.000000
0.000787 -0.000528 0.000000
0.002533 -0.003961 0.000000
-0.000050 -0.006437 0.000000
0.007441 -0.005510 0.000000
0.005939 -0.003100 0.000000
0.003095 -0.007032 0.000000
0.007369 -0.015144 0.000000
0.008767 -0.012087 0.000000
0.007338 -0.004887 0.000000
0.002889 -0.012835 0.000000
0.005244 -0.001433 0.000000
0.004317 -0.014119 0.000000
0.002112 -0.000612 0.000000
0.004296 -0.015493 0.000000
0.007139 -0.005250 0.000000
0.006393 -0.012843 0.000000
0.005976 -0.013770 0.000000
0.004794 -0.001128 0.000000
0.003398 -0.001717 0.000000
-0.000012 -0.000525 0.000000
-0.000264 -0.007772 0.000000
0.008244 -0.006249 0.000000
0.008176 -0.006395 0.000000
0.002981 -0.001133 0.000000
0.001688 -0.014150 0.000000
0.005212 -0.014390 0.000000
0.001182 -0.006721 0.000000
-0.000217 -0.007702 0.000000
0.004232 -0.015307 0.000000
0.003658 -0.000506 0.000000
-0.000365 -0.001580 0.000000
0.000018 -0.012394 0.000000
0.000495 -0.001193 0.000000
0.000468 -0.004220 0.000000
-0.000093 -0.006602 0.000000
0.007491 -0.004346 0.000000
0.001865 -0.013315 0.000000
0.004181 -0.013549 0.000000
0.000869 -0.000531 0.000000
0.000858 -0.010973 0.000000
0.000824 -0.010333 0.000000
0.001291 -0.011079 0.000000
0.005600 -0.001514 0.000000
0.001085 -0.012609 0.000000
0.007356 -0.006253 0.000000
0.005774 -0.001950 0.000000
0.007980 -0.006408 0.000000
0.005988 -0.013665 0.000000
-0.000181 -0.000993 0.000000
0.001065 -0.012960 0.000000
0.000347 -0.001118 0.000000
0.000645 -0.001234 0.000000
0.000062 -0.001471 0.000000
0.002429 -0.000587 0.000000
0.005057 -0.001138 0.000000
0.000206 -0.012170 0.000000
0.000160 -0.001323 0.000000
0.000181 -0.001394 0.000000
0.000397 -0.009667 0.000000
0.005292 -0.011410 0.000000
0.005529 -0.013736 0.000000
0.000975 -0.000485 0.000000
0.001123 -0.006925 0.000000
0.007455 -0.009645 0.000000
0.000905 -0.004386 0.000000
0.000781 -0.011938 0.000000
0.001340 -0.011986 0.000000
0.000097 -0.000764 0.000000
0.000735 -0.012570 0.000000
0.001822 -0.000658 0.000000
0.000359 -0.000591 0.000000
0.003476 -0.002972 0.000000
0.000205 -0.011315 0.000000
0.005766 -0.001711 0.000000
0.008693 -0.007503 0.000000
0.003814 -0.004219 0.000000
0.000708 -0.000966 0.000000
0.000165 -0.002347 0.000000
0.000131 -0.005167 0.000000
0.008170 -0.007241 0.000000
0.001231 -0.000507 0.000000
0.000142 -0.012110 0.000000
0.001322 -0.000633 0.000000
0.004490 -0.000687 0.000000
0.006542 -0.004399 0.000000
0.000164 -0.002239 0.000000
0.008638 -0.007455 0.000000
0.000832 -0.011817 0.000000
0.001058 -0.012996 0.000000
0.007399 -0.004985 0.000000
0.004278 -0.015413 0.000000
0.000097 -0.000734 0.000000
0.000322 -0.003803 0.000000
0.000499 -0.003867 0.000000
0.001203 -0.011159 0.000000
0.001973 -0.000716 0.000000
0.005366 -0.001493 0.000000
0.005207 -0.001263 0.000000
0.005026 -0.001220 0.000000
0.000708 -0.009837 0.000000
0.000736 -0.009089 0.000000
0.002364 -0.007165 0.000000
0.000714 -0.009838 0.000000
0.005169 -0.001232 0.000000
0.003290 -0.008829 0.000000
0.000742 -0.009057 0.000000
0.002058 -0.008163 0.000000
0.006884 -0.004101 0.000000
0.006835 -0.004081 0.000000
0.005196 -0.001353 0.000000
0.007874 -0.007154 0.000000
0.006158 -0.003743 0.000000
0.005129 -0.001204 0.000000
0.006784 -0.004052 0.000000
0.006924 -0.004111 0.000000
0.003367 -0.008789 0.000000
-0.000122 -0.007216 0.000000
-0.000107 -0.007135 0.000000
0.002104 -0.006987 0.000000
0.007908 -0.006719 0.000000
0.006362 -0.003740 0.000000
0.000397 -0.001238 0.000000
0.004986 -0.001209 0.000000
0.002463 -0.008671 0.000000
0.000750 -0.009028 0.000000
-0.000071 -0.006881 0.000000
0.007100 -0.010911 0.000000
0.007926 -0.007209 0.000000
0.000731 -0.009122 0.000000
0.001967 -0.006874 0.000000
0.007541 -0.010660 0.000000
0.006474 -0.004044 0.000000
0.000384 -0.001243 0.000000
0.001247 -0.006652 0.000000
0.000688 -0.009434 0.000000
0.007930 -0.006736 0.000000
-0.000128 -0.006926 0.000000
0.000745 -0.009827 0.000000
0.001453 -0.007437 0.000000
0.004874 -0.001144 0.000000
0.007063 -0.011235 0.000000
0.007068 -0.011162 0.000000
0.007953 -0.006758 0.000000
0.004737 -0.014518 0.000000
0.007947 -0.007212 0.000000
0.003458 -0.003640 0.000000
0.005241 -0.001297 0.000000
0.005865 -0.013510 0.000000
0.007877 -0.007175 0.000000
0.007012 -0.004150 0.000000
0.005891 -0.013647 0.000000
0.002700 -0.003835 0.000000
0.000683 -0.009490 0.000000
0.005576 -0.013423 0.000000
0.005092 -0.001245 0.000000
0.005842 -0.013709 0.000000
0.007847 -0.006747 0.000000
0.004382 -0.014250 0.000000
0.007852 -0.006771 0.000000
0.005242 -0.001430 0.000000
0.002828 -0.003945 0.000000
0.007872 -0.007047 0.000000
0.004722 -0.014484 0.000000
0.001268 -0.006557 0.000000
0.000714 -0.009791 0.000000
0.005846 -0.013462 0.000000
0.000689 -0.009515 0.000000
0.002528 -0.004790 0.000000
0.000435 -0.001196 0.000000
0.005734 -0.013314 0.000000
0.001694 -0.006592 0.000000
0.006439 -0.003790 0.000000
0.003530 -0.008320 0.000000
0.007973 -0.007220 0.000000
0.007022 -0.004177 0.000000
0.005584 -0.013490 0.000000
0.002473 -0.004691 0.000000
0.005572 -0.013217 0.000000
0.004710 -0.014452 0.000000
0.004773 -0.014637 0.000000
0.000696 -0.009549 0.000000
0.005887 -0.013556 0.000000
0.002577 -0.004883 0.000000
0.006398 -0.004003 0.000000
-0.000137 -0.007298 0.000000
0.005014 -0.001151 0.000000
0.002954 -0.004049 0.000000
0.000265 -0.001153 0.000000
0.001346 -0.011178 0.000000
0.000702 -0.012265 0.000000
0.005673 -0.013256 0.000000
0.007551 -0.010711 0.000000
-0.000079 -0.006265 0.000000
0.002408 -0.004203 0.000000
0.004346 -0.014148 0.000000
0.008870 -0.010161 0.000000
0.005591 -0.013553 0.000000
0.007465 -0.011114 0.000000
0.001385 -0.007703 0.000000
0.001209 -0.011459 0.000000
0.000371 -0.001249 0.000000
0.000727 -0.009153 0.000000
0.000757 -0.009008 0.000000
0.001273 -0.011530 0.000000
0.005117 -0.001258 0.000000
0.000278 -0.001197 0.000000
0.001284 -0.006447 0.000000
0.004559 -0.014412 0.000000
0.000727 -0.012328 0.000000
0.003128 -0.008928 0.000000
0.000707 -0.009253 0.000000
0.006874 -0.015835 0.000000
0.006954 -0.015827 0.000000
0.007883 -0.007199 0.000000
0.008806 -0.012004 0.000000
0.008614 -0.012478 0.000000
0.006195 -0.003650 0.000000
0.003537 -0.000715 0.000000
0.000870 -0.008223 0.000000
0.001572 -0.006442 0.000000
0.001719 -0.007928 0.000000
0.008327 -0.009155 0.000000
0.000282 -0.004280 0.000000
0.008171 -0.011522 0.000000
-0.000067 -0.006672 0.000000
0.004777 -0.014652 0.000000
0.004773 -0.014623 0.000000
0.000784 -0.012350 0.000000
0.000156 -0.004515 0.000000
0.003425 -0.001095 0.000000
0.006994 -0.004271 0.000000
0.002267 -0.004405 0.000000
0.004087 -0.000628 0.000000
0.007094 -0.015638 0.000000
0.000734 -0.012277 0.000000
-0.000135 -0.003139 0.000000
0.000718 -0.009764 0.000000
0.006608 -0.015737 0.000000
0.004166 -0.000497 0.000000
0.002329 -0.004170 0.000000
0.008636 -0.009955 0.000000
0.007223 -0.010554 0.000000
0.000408 -0.001180 0.000000
0.007509 -0.010493 0.000000
0.002260 -0.003097 0.000000
0.000470 -0.001496 0.000000
0.002034 -0.011848 0.000000
0.000960 -0.008269 0.000000
0.000944 -0.008026 0.000000
0.001508 -0.007056 0.000000
0.000294 -0.009614 0.000000
0.002928 -0.001477 0.000000
0.000999 -0.000672 0.000000
0.007306 -0.015127 0.000000
0.005276 -0.001487 0.000000
0.007159 -0.015607 0.000000
0.004588 -0.003293 0.000000
0.008413 -0.012344 0.000000
0.000198 -0.003913 0.000000
0.000540 -0.002524 0.000000
0.002523 -0.002998 0.000000
0.000243 -0.004897 0.000000
0.007265 -0.015178 0.000000
0.003460 -0.004321 0.000000
-0.000007 -0.001559 0.000000
-0.000070 -0.006516 0.000000
0.005738 -0.013760 0.000000
0.000934 -0.000524 0.000000
0.007442 -0.009439 0.000000
0.000212 -0.009514 0.000000
0.007213 -0.011938 0.000000
0.000393 -0.003016 0.000000
0.007241 -0.015327 0.000000
0.008646 -0.012657 0.000000
0.001332 -0.007319 0.000000
0.002818 -0.005042 0.000000
0.000913 -0.000569 0.000000
0.001037 -0.000482 0.000000
0.004763 -0.014614 0.000000
0.000037 -0.001432 0.000000
0.000432 -0.005003 0.000000
0.003822 -0.000438 0.000000
0.003263 -0.000228 0.000000
0.000291 -0.001394 0.000000
0.004026 -0.015022 0.000000
0.000443 -0.001201 0.000000
0.006420 -0.014287 0.000000
0.006971 -0.015760 0.000000
0.005278 -0.001357 0.000000
0.008407 -0.011527 0.000000
0.001553 -0.007017 0.000000
0.000199 -0.001279 0.000000
0.007545 -0.008870 0.000000
0.003165 -0.000235 0.000000
0.001291 -0.011033 0.000000
0.005138 -0.001272 0.000000
0.000330 -0.002182 0.000000
0.007209 -0.015303 0.000000
0.000343 -0.001392 0.000000
0.000851 -0.010912 0.000000
0.001399 -0.007082 0.000000
-0.000587 -0.006489 0.000000
0.007788 -0.003583 0.000000
0.000238 -0.001264 0.000000
0.000078 -0.001432 0.000000
0.006268 -0.003913 0.000000
0.000250 -0.009484 0.000000
0.002657 -0.000543 0.000000
-0.000696 -0.002891 0.000000
0.000754 -0.012462 0.000000
0.008021 -0.004468 0.000000
0.002141 -0.000817 0.000000
0.008102 -0.004497 0.000000
0.007859 -0.006777 0.000000
0.002260 -0.004173 0.000000
0.007216 -0.015266 0.000000
0.000741 -0.012428 0.000000
0.006569 -0.003886 0.000000
0.008019 -0.004359 0.000000
0.004694 -0.002169 0.000000
0.007228 -0.009858 0.000000
0.007906 -0.004008 0.000000
0.001201 -0.010451 0.000000
0.008288 -0.012482 0.000000
0.000546 -0.000728 0.000000
0.002210 -0.000793 0.000000
0.001893 -0.010276 0.000000
0.001298 -0.006323 0.000000
-0.000070 -0.001665 0.000000
0.003304 -0.000969 0.000000
0.000825 -0.010943 0.000000
0.004351 -0.014144 0.000000
0.005424 -0.001824 0.000000
0.002697 -0.005135 0.000000
0.005499 -0.013033 0.000000
0.003208 -0.013039 0.000000
0.003025 -0.016461 0.000000
0.003738 -0.013305 0.000000
-0.000589 -0.003665 0.000000
0.008472 -0.010929 0.000000
0.000532 -0.012858 0.000000
0.001302 -0.007043 0.000000
0.008392 -0.007260 0.000000
0.006271 -0.001776 0.000000
0.008796 -0.009088 0.000000
0.008508 -0.011639 0.000000
0.000532 -0.012887 0.000000
0.005846 -0.011658 0.000000
0.003958 -0.014936 0.000000
0.007774 -0.008322 0.000000
0.005052 -0.001515 0.000000
0.006230 -0.015692 0.000000
0.000561 -0.000772 0.000000
0.006324 -0.012503 0.000000
0.008566 -0.007537 0.000000
-0.000009 -0.004375 0.000000
0.000102 -0.001195 0.000000
-0.000535 -0.004125 0.000000
0.000221 -0.002859 0.000000
0.006936 -0.014991 0.000000
0.000575 -0.001610 0.000000
0.005880 -0.011592 0.000000
0.008874 -0.012070 0.000000
0.005822 -0.013411 0.000000
0.000208 -0.003418 0.000000
-0.000345 -0.004645 0.000000
0.000333 -0.001130 0.000000
0.004908 -0.001535 0.000000
0.007344 -0.011902 0.000000
0.000890 -0.001169 0.000000
0.000313 -0.001379 0.000000
0.001927 -0.001238 0.000000
0.007013 -0.004134 0.000000
0.007132 -0.011578 0.000000
0.007845 -0.006684 0.000000
0.005861 -0.012677 0.000000
0.003065 -0.000266 0.000000
0.000155 -0.000864 0.000000
0.000127 -0.002372 0.000000
0.007374 -0.015123 0.000000
0.003012 -0.000354 0.000000
0.003434 -0.000662 0.000000
0.000734 -0.012388 0.000000
0.000398 -0.003041 0.000000
0.005444 -0.001118 0.000000
0.001557 -0.007435 0.000000
0.009088 -0.009110 0.000000
0.001275 -0.000945 0.000000
0.000784 -0.011413 0.000000
0.000463 -0.000722 0.000000
0.000236 -0.001777 0.000000
0.000518 -0.002051 0.000000
0.008514 -0.007465 0.000000
0.007610 -0.002959 0.000000
0.005741 -0.002341 0.000000
0.000644 -0.001138 0.000000
-0.000049 -0.002223 0.000000
0.001198 -0.000547 0.000000
0.002994 -0.009032 0.000000
0.003715 -0.003625 0.000000
0.000111 -0.001094 0.000000
0.000558 -0.001890 0.000000
0.002330 -0.004517 0.000000
0.000187 -0.004987 0.000000
0.001715 -0.001182 0.000000
0.001351 -0.000488 0.000000
0.001063 -0.012885 0.000000
0.000767 -0.006259 0.000000
0.000739 -0.009111 0.000000
0.006219 -0.001745 0.000000
0.000215 -0.001371 0.000000
0.001003 -0.007190 0.000000
-0.000196 -0.007442 0.000000
0.000672 -0.011136 0.000000
0.000872 -0.001114 0.000000
0.001470 -0.005802 0.000000
0.003341 -0.002089 0.000000
0.002362 -0.000720 0.000000
0.006974 -0.015693 0.000000
0.002325 -0.000686 0.000000
0.000289 -0.004669 0.000000
0.005078 -0.000879 0.000000
0.000457 -0.004303 0.000000
0.005933 -0.013912 0.000000
0.000890 -0.010265 0.000000
-0.000451 -0.004621 0.000000
0.001213 -0.011037 0.000000
0.000170 -0.001239 0.000000
0.008255 -0.012906 0.000000
0.005933 -0.002428 0.000000
0.000228 -0.001369 0.000000
0.002592 -0.000561 0.000000
0.000158 -0.004239 0.000000
0.006051 -0.003602 0.000000
0.007966 -0.008659 0.000000
0.005589 -0.012151 0.000000
0.007799 -0.008814 0.000000
0.000251 -0.009661 0.000000
0.004944 -0.011235 0.000000
0.001064 -0.012912 0.000000
0.001035 -0.012872 0.000000
0.001151 -0.001007 0.000000
0.003412 -0.000758 0.000000
0.000113 -0.001098 0.000000
0.002795 -0.008974 0.000000
0.001397 -0.001012 0.000000
0.000713 -0.010579 0.000000
0.000738 -0.008319 0.000000
-0.000078 -0.006571 0.000000
0.000902 -0.001138 0.000000
0.000759 -0.012303 0.000000
0.000781 -0.009755 0.000000
0.000218 -0.001214 0.000000
0.003857 -0.014959 0.000000
0.001004 -0.012946 0.000000
0.000343 -0.004839 0.000000
0.000889 -0.010180 0.000000
0.003693 -0.004132 0.000000
-0.000010 -0.004442 0.000000
-0.000412 -0.006204 0.000000
0.000334 -0.001361 0.000000
0.001470 -0.001154 0.000000
0.007496 -0.010432 0.000000
0.001458 -0.007113 0.000000
0.008164 -0.006295 0.000000
0.000984 -0.011060 0.000000
-0.000151 -0.007385 0.000000
0.000649 -0.006871 0.000000
0.008319 -0.011554 0.000000
0.004883 -0.001619 0.000000
0.002945 -0.016314 0.000000
0.001045 -0.011003 0.000000
0.008107 -0.006424 0.000000
0.001403 -0.006106 0.000000
-0.000076 -0.006683 0.000000
0.000532 -0.012832 0.000000
0.000143 -0.003495 0.000000
0.000559 -0.000373 0.000000
0.004676 -0.014338 0.000000
0.002585 -0.000602 0.000000
0.000183 -0.001415 0.000000
0.000865 -0.001198 0.000000
0.000388 -0.000911 0.000000
0.005329 -0.012004 0.000000
0.004641 -0.014306 0.000000
0.000495 -0.000768 0.000000
0.000725 -0.009757 0.000000
0.000533 -0.012902 0.000000
0.007308 -0.010460 0.000000
0.000431 -0.005412 0.000000
0.000457 -0.011583 0.000000
-0.000206 -0.007620 0.000000
0.002226 -0.003167 0.000000
0.001694 -0.011556 0.000000
0.008215 -0.006181 0.000000
0.006293 -0.005500 0.000000
0.001034 -0.010485 0.000000
-0.000079 -0.006270 0.000000
0.008555 -0.007480 0.000000
0.000173 -0.003530 0.000000
0.004652 -0.011784 0.000000
0.002004 -0.000598 0.000000
0.000486 -0.002202 0.000000
0.007140 -0.010680 0.000000
0.000260 -0.001167 0.000000
0.000298 -0.001233 0.000000
0.001296 -0.010907 0.000000
0.007770 -0.005341 0.000000
0.000633 -0.000794 0.000000
0.001383 -0.011049 0.000000
0.001191 -0.007058 0.000000
0.001181 -0.012568 0.000000
0.007060 -0.011470 0.000000
0.007003 -0.012065 0.000000
0.008906 -0.007997 0.000000
0.000567 -0.000998 0.000000
0.003080 -0.016493 0.000000
0.000064 -0.000554 0.000000
0.000981 -0.012930 0.000000
0.005395 -0.010952 0.000000
0.000607 -0.004478 0.000000
0.004832 -0.009334 0.000000
0.000845 -0.004436 0.000000
0.000569 -0.001600 0.000000
0.004940 -0.002032 0.000000
0.004042 -0.014950 0.000000
0.001058 -0.012853 0.000000
0.004228 -0.000551 0.000000
0.008973 -0.007734 0.000000
0.003129 -0.002882 0.000000
0.001214 -0.005786 0.000000
0.007089 -0.005911 0.000000
0.008364 -0.004640 0.000000
0.001086 -0.010863 0.000000
0.007854 -0.006942 0.000000
0.000722 -0.009187 0.000000
0.003969 -0.015109 0.000000
0.006208 -0.012084 0.000000
0.004755 -0.000708 0.000000
0.007079 -0.010816 0.000000
0.000620 -0.012822 0.000000
0.002290 -0.003570 0.000000
0.004522 -0.014261 0.000000
0.001008 -0.012901 0.000000
0.000470 -0.003213 0.000000
0.000494 -0.001716 0.000000
0.000906 -0.006675 0.000000
0.006972 -0.011767 0.000000
0.007003 -0.011381 0.000000
0.003726 -0.004025 0.000000
0.003928 -0.005074 0.000000
0.000789 -0.009841 0.000000
0.002926 -0.001346 0.000000
0.000729 -0.000544 0.000000
0.003807 -0.000793 0.000000
0.002351 -0.003618 0.000000
0.002963 -0.000346 0.000000
0.002421 -0.000726 0.000000
0.008172 -0.004532 0.000000
0.004852 -0.002980 0.000000
0.000229 -0.005683 0.000000
0.001593 -0.000585 0.000000
0.000376 -0.000913 0.000000
0.000166 -0.001163 0.000000
0.000138 -0.000890 0.000000
0.001357 -0.013012 0.000000
-0.000196 -0.005928 0.000000
-0.000248 -0.010415 0.000000
0.000850 -0.011487 0.000000
0.000720 -0.008788 0.000000
0.002880 -0.015065 0.000000
0.000767 -0.011754 0.000000
0.000789 -0.011838 0.000000
0.000270 -0.001407 0.000000
0.000139 -0.000806 0.000000
0.006105 -0.013995 0.000000
0.007055 -0.012673 0.000000
0.001908 -0.014380 0.000000
0.005837 -0.014139 0.000000
0.007972 -0.005391 0.000000
0.005648 -0.013792 0.000000
0.007325 -0.007893 0.000000
0.001744 -0.000699 0.000000
0.001519 -0.012557 0.000000
0.007318 -0.004872 0.000000
0.002274 -0.012633 0.000000
0.000608 -0.009149 0.000000
0.000450 -0.005213 0.000000
0.000168 -0.000830 0.000000
0.005563 -0.013241 0.000000
0.008011 -0.005605 0.000000
0.000812 -0.012490 0.000000
-0.000133 -0.001771 0.000000
0.000765 -0.009001 0.000000
0.006219 -0.001566 0.000000
0.001267 -0.011033 0.000000
0.004004 -0.014905 0.000000
0.007601 -0.009157 0.000000
0.002025 -0.011917 0.000000
0.005620 -0.011782 0.000000
0.002636 -0.005071 0.000000
0.000272 -0.001119 0.000000
0.001041 -0.012798 0.000000
0.008243 -0.011868 0.000000
0.001308 -0.007938 0.000000
0.008717 -0.011954 0.000000
0.002567 -0.002644 0.000000
0.000421 -0.001237 0.000000
0.000090 -0.000485 0.000000
0.002210 -0.015006 0.000000
0.000516 -0.004057 0.000000
0.000706 -0.012247 0.000000
0.000549 -0.012893 0.000000
0.007090 -0.004973 0.000000
0.005599 -0.011067 0.000000
0.008518 -0.007555 0.000000
0.001552 -0.000777 0.000000
0.002749 -0.006880 0.000000
0.005607 -0.014404 0.000000
0.008430 -0.006529 0.000000
0.000068 -0.000538 0.000000
0.001615 -0.011744 0.000000
0.004298 -0.015492 0.000000
0.000496 -0.011609 0.000000
0.005041 -0.015085 0.000000
0.001462 -0.007171 0.000000
0.001538 -0.013145 0.000000
0.005032 -0.015112 0.000000
0.003369 -0.000242 0.000000
0.001540 -0.005721 0.000000
0.001460 -0.000413 0.000000
0.004294 -0.015464 0.000000
0.000509 -0.001162 0.000000
0.004905 -0.001785 0.000000
0.003460 -0.000330 0.000000
0.003441 -0.000360 0.000000
0.000667 -0.001210 0.000000
-0.000392 -0.001974 0.000000
0.002619 -0.007271 0.000000
0.000382 -0.011470 0.000000
0.000191 -0.000616 0.000000
0.003069 -0.002143 0.000000
0.002762 -0.000989 0.000000
-0.000567 -0.007259 0.000000
-0.000488 -0.007170 0.000000
0.000933 -0.000924 0.000000
0.000154 -0.002537 0.000000
-0.000127 -0.003936 0.000000
0.000821 -0.001161 0.000000
0.006050 -0.003655 0.000000
0.001750 -0.002904 0.000000
0.005152 -0.001202 0.000000
0.000093 -0.001279 0.000000
-0.000159 -0.007090 0.000000
0.002406 -0.000791 0.000000
0.002841 -0.013865 0.000000
0.002877 -0.000704 0.000000
0.000557 -0.010371 0.000000
0.002640 -0.000469 0.000000
0.006176 -0.003824 0.000000
0.002024 -0.000623 0.000000
0.003075 -0.004262 0.000000
0.007862 -0.006790 0.000000
0.002811 -0.000384 0.000000
0.006823 -0.004209 0.000000
0.007880 -0.004405 0.000000
0.007357 -0.015157 0.000000
0.003333 -0.003355 0.000000
0.005234 -0.001417 0.000000
0.000297 -0.009577 0.000000
0.001845 -0.000660 0.000000
0.007093 -0.015340 0.000000
0.000432 -0.001227 0.000000
0.000447 -0.001217 0.000000
0.008619 -0.007538 0.000000
0.008191 -0.006096 0.000000
0.006928 -0.015607 0.000000
0.005544 -0.013097 0.000000
0.002648 -0.015691 0.000000
0.002910 -0.006012 0.000000
0.008142 -0.007160 0.000000
0.007537 -0.005826 0.000000
0.000927 -0.011683 0.000000
0.000081 -0.004861 0.000000
0.001259 -0.005983 0.000000
-0.000363 -0.005152 0.000000
0.001199 -0.006136 0.000000
0.003857 -0.015008 0.000000
0.001260 -0.000636 0.000000
0.007894 -0.007227 0.000000
0.000081 -0.000557 0.000000
0.005929 -0.013729 0.000000
0.007458 -0.011867 0.000000
0.005641 -0.011762 0.000000
0.006123 -0.004102 0.000000
0.004471 -0.014018 0.000000
0.000091 -0.004694 0.000000
0.000200 -0.000584 0.000000
0.002101 -0.000881 0.000000
0.000932 -0.010489 0.000000
0.001104 -0.011403 0.000000
0.008207 -0.007002 0.000000
0.007499 -0.011021 0.000000
0.007562 -0.010827 0.000000
0.002975 -0.012982 0.000000
0.005545 -0.001638 0.000000
0.001092 -0.000747 0.000000
0.004833 -0.001141 0.000000
0.008628 -0.010467 0.000000
0.006985 -0.005599 0.000000
0.003041 -0.003058 0.000000
0.000685 -0.012217 0.000000
0.007055 -0.015393 0.000000
0.003150 -0.014149 0.000000
0.000481 -0.000703 0.000000
0.008944 -0.007640 0.000000
0.001741 -0.000763 0.000000
0.008142 -0.007296 0.000000
0.000623 -0.008743 0.000000
0.000113 -0.000837 0.000000
0.001695 -0.000729 0.000000
0.004891 -0.001115 0.000000
0.003272 -0.016243 0.000000
0.000276 -0.005138 0.000000
0.008016 -0.007307 0.000000
0.002244 -0.010207 0.000000
0.001695 -0.010486 0.000000
0.002419 -0.000473 0.000000
0.003730 -0.008803 0.000000
0.003303 -0.014246 0.000000
0.000540 -0.010131 0.000000
0.004436 -0.014235 0.000000
0.008785 -0.007644 0.000000
0.000835 -0.007401 0.000000
0.008224 -0.004540 0.000000
0.002171 -0.001148 0.000000
0.003687 -0.003812 0.000000
0.002454 -0.002222 0.000000
0.006285 -0.003938 0.000000
0.000127 -0.000999 0.000000
0.001935 -0.000649 0.000000
0.000822 -0.012454 0.000000
0.008294 -0.004950 0.000000
0.000304 -0.003087 0.000000
0.002018 -0.000607 0.000000
0.000299 -0.009788 0.000000
0.006648 -0.003974 0.000000
0.003530 -0.001435 0.000000
0.000147 -0.009315 0.000000
0.000996 -0.007845 0.000000
0.001109 -0.000883 0.000000
0.002365 -0.001480 0.000000
0.000502 -0.002349 0.000000
0.008375 -0.004563 0.000000
0.004180 -0.000420 0.000000
0.007947 -0.005889 0.000000
0.000852 -0.008387 0.000000
0.007078 -0.005200 0.000000
0.002010 -0.000756 0.000000
0.000407 -0.001078 0.000000
0.002594 -0.004407 0.000000
0.003482 -0.008057 0.000000
0.000808 -0.011090 0.000000
0.005036 -0.015133 0.000000
0.006268 -0.001671 0.000000
0.001171 -0.010782 0.000000
0.004727 -0.014435 0.000000
0.006195 -0.001597 0.000000
0.002829 -0.004798 0.000000
0.007543 -0.013674 0.000000
0.000680 -0.012208 0.000000
0.005948 -0.013641 0.000000
0.000151 -0.012114 0.000000
0.007230 -0.010536 0.000000
-0.000144 -0.001809 0.000000
0.001024 -0.012821 0.000000
0.000679 -0.012563 0.000000
0.000993 -0.001649 0.000000
0.008480 -0.009804 0.000000
0.000435 -0.012811 0.000000
0.002472 -0.013600 0.000000
0.004790 -0.000640 0.000000
0.001356 -0.012301 0.000000
0.000494 -0.003241 0.000000
0.000778 -0.009616 0.000000
0.002243 -0.003277 0.000000
-0.000366 -0.001480 0.000000
0.000478 -0.004165 0.000000
0.002691 -0.001725 0.000000
0.000145 -0.001285 0.000000
0.002366 -0.000508 0.000000
0.002420 -0.009483 0.000000
0.005066 -0.001156 0.000000
0.000041 -0.005228 0.000000
0.001443 -0.000941 0.000000
0.004856 -0.001159 0.000000
0.000358 -0.001254 0.000000
0.008099 -0.007002 0.000000
0.001137 -0.006672 0.000000
0.004982 -0.015048 0.000000
0.002908 -0.005448 0.000000
0.007739 -0.013201 0.000000
0.001860 -0.000626 0.000000
0.008395 -0.007430 0.000000
0.000820 -0.012422 0.000000
0.001041 -0.010522 0.000000
0.008506 -0.013262 0.000000
0.008549 -0.012841 0.000000
0.000607 -0.002814 0.000000
0.004297 -0.015496 0.000000
-0.000091 -0.007039 0.000000
0.004024 -0.000726 0.000000
0.002930 -0.000875 0.000000
0.002236 -0.005880 0.000000
0.007215 -0.004905 0.000000
0.000273 -0.010984 0.000000
0.000978 -0.012949 0.000000
0.005564 -0.013735 0.000000
0.001290 -0.005012 0.000000
0.002725 -0.000715 0.000000
0.000490 -0.012747 0.000000
0.007981 -0.012556 0.000000
0.000267 -0.000597 0.000000
-0.000297 -0.001164 0.000000
0.000169 -0.001430 0.000000
0.005618 -0.014977 0.000000
0.006672 -0.004150 0.000000
0.001323 -0.005461 0.000000
0.005821 -0.013774 0.000000
0.001389 -0.006345 0.000000
0.003380 -0.004383 0.000000
0.008102 -0.008449 0.000000
0.008014 -0.006336 0.000000
0.001827 -0.000620 0.000000
0.003608 -0.000800 0.000000
0.004291 -0.007934 0.000000
0.002819 -0.012607 0.000000
0.000690 -0.009399 0.000000
-0.000064 -0.006544 0.000000
-0.000097 -0.006776 0.000000
0.001019 -0.010953 0.000000
0.001406 -0.011772 0.000000
0.003312 -0.016137 0.000000
0.007390 -0.010403 0.000000
0.006715 -0.004007 0.000000
0.000370 -0.004168 0.000000
0.000228 -0.000948 0.000000
0.008456 -0.008575 0.000000
0.007035 -0.011024 0.000000
0.000717 -0.000667 0.000000
0.002463 -0.003735 0.000000
0.002385 -0.012051 0.000000
0.001680 -0.011618 0.000000
0.001124 -0.010514 0.000000
0.002750 -0.004623 0.000000
0.000475 -0.004915 0.000000
0.000827 -0.012173 0.000000
0.007404 -0.001805 0.000000
0.002860 -0.007402 0.000000
0.000441 -0.001176 0.000000
0.000040 -0.002624 0.000000
0.000174 -0.000730 0.000000
0.003046 -0.002702 0.000000
0.001149 -0.001057 0.000000
0.000518 -0.012746 0.000000
0.004658 -0.008040 0.000000
0.002639 -0.003199 0.000000
0.000068 -0.001507 0.000000
0.007872 -0.007157 0.000000
0.006150 -0.003780 0.000000
0.000978 -0.001892 0.000000
0.004838 -0.001472 0.000000
0.000562 -0.009327 0.000000
0.007379 -0.011008 0.000000
0.007182 -0.001668 0.000000
0.003273 -0.012824 0.000000
0.004159 -0.000392 0.000000
0.001419 -0.002257 0.000000
0.006087 -0.001273 0.000000
0.007036 -0.015564 0.000000
0.000102 -0.002316 0.000000
0.000945 -0.005895 0.000000
0.007813 -0.005418 0.000000
0.000146 -0.009341 0.000000
0.001843 -0.008060 0.000000
0.002796 -0.001656 0.000000
0.006390 -0.012864 0.000000
0.006474 -0.014317 0.000000
0.000370 -0.009804 0.000000
0.001085 -0.010907 0.000000
0.000407 -0.005640 0.000000
0.000509 -0.010309 0.000000
0.006363 -0.012907 0.000000
0.003115 -0.009129 0.000000
0.001238 -0.007401 0.000000
0.001359 -0.005897 0.000000
-0.000178 -0.007265 0.000000
0.000049 -0.000346 0.000000
0.000698 -0.012268 0.000000
0.008574 -0.008941 0.000000
0.000513 -0.001461 0.000000
0.002854 -0.001111 0.000000
-0.000057 -0.004462 0.000000
0.002474 -0.004259 0.000000
-0.000661 -0.003156 0.000000
0.005315 -0.001417 0.000000
0.003421 -0.001087 0.000000
0.004352 -0.001845 0.000000
0.000091 -0.002422 0.000000
0.007125 -0.010207 0.000000
0.000705 -0.003906 0.000000
0.001007 -0.012833 0.000000
0.002078 -0.011936 0.000000
0.000242 -0.004617 0.000000
0.000267 -0.001297 0.000000
0.004294 -0.015505 0.000000
0.008647 -0.012827 0.000000
0.003287 -0.010988 0.000000
0.001847 -0.010945 0.000000
0.001501 -0.011273 0.000000
0.000147 -0.001445 0.000000
0.000287 -0.001121 0.000000
0.000318 -0.001128 0.000000
0.000407 -0.004047 0.000000
0.000583 -0.004183 0.000000
0.002493 -0.000574 0.000000
0.008267 -0.004719 0.000000
-0.000393 -0.005129 0.000000
-0.000379 -0.005121 0.000000
-0.000072 -0.006373 0.000000
0.000697 -0.009345 0.000000
0.002351 -0.002097 0.000000
0.000605 -0.000544 0.000000
0.002909 -0.013381 0.000000
0.001090 -0.012987 0.000000
0.000911 -0.001200 0.000000
0.000725 -0.009120 0.000000
0.007267 -0.011491 0.000000
0.000991 -0.007811 0.000000
0.000548 -0.001213 0.000000
0.004039 -0.015243 0.000000
0.004134 -0.014091 0.000000
0.004211 -0.000382 0.000000
0.007792 -0.011700 0.000000
0.003473 -0.000640 0.000000
0.000219 -0.011364 0.000000
0.006940 -0.003120 0.000000
0.001716 -0.005654 0.000000
0.000204 -0.009399 0.000000
0.005661 -0.001544 0.000000
0.001202 -0.010991 0.000000
0.000836 -0.011474 0.000000
0.004891 -0.001188 0.000000
0.000317 -0.001333 0.000000
0.000315 -0.001243 0.000000
0.000661 -0.001575 0.000000
0.000864 -0.000779 0.000000
0.006036 -0.013830 0.000000
0.000867 -0.007193 0.000000
0.000585 -0.004798 0.000000
0.005574 -0.002645 0.000000
-0.000181 -0.010244 0.000000
0.007137 -0.004345 0.000000
0.000262 -0.007135 0.000000
0.005319 -0.001479 0.000000
0.004881 -0.001184 0.000000
0.004416 -0.014355 0.000000
0.003226 -0.007774 0.000000
0.007857 -0.006989 0.000000
0.004108 -0.000475 0.000000
0.007701 -0.004462 0.000000
0.008015 -0.013489 0.000000
0.002561 -0.001908 0.000000
0.001893 -0.001594 0.000000
0.000344 -0.001619 0.000000
0.003662 -0.000282 0.000000
0.008496 -0.007935 0.000000
0.000604 -0.005220 0.000000
-0.000381 -0.006548 0.000000
0.002652 -0.012610 0.000000
0.004513 -0.010346 0.000000
0.004463 -0.000440 0.000000
0.002983 -0.007523 0.000000
0.001061 -0.007511 0.000000
0.005318 -0.001460 0.000000
0.007747 -0.008259 0.000000
0.000182 -0.012153 0.000000
0.003760 -0.008525 0.000000
0.000385 -0.001159 0.000000
0.000737 -0.009880 0.000000
0.000894 -0.011836 0.000000
0.008037 -0.006832 0.000000
0.002827 -0.006573 0.000000
0.004185 -0.015438 0.000000
0.006419 -0.005953 0.000000
0.000707 -0.009889 0.000000
0.008655 -0.007492 0.000000
0.001267 -0.007245 0.000000
0.004086 -0.000403 0.000000
0.007362 -0.006484 0.000000
0.007867 -0.005609 0.000000
0.004935 -0.001115 0.000000
0.000345 -0.009797 0.000000
0.007747 -0.006666 0.000000
0.005169 -0.001312 0.000000
0.000711 -0.009525 0.000000
0.007108 -0.004237 0.000000
-0.000052 -0.004898 0.000000
-0.000227 -0.006383 0.000000
-0.000233 -0.002295 0.000000
-0.000085 -0.007433 0.000000
0.007305 -0.004853 0.000000
0.004843 -0.001118 0.000000
-0.000386 -0.005332 0.000000
0.008045 -0.005517 0.000000
0.008873 -0.007648 0.000000
0.000297 -0.012400 0.000000
0.000865 -0.011426 0.000000
0.004940 -0.014896 0.000000
0.002704 -0.006621 0.000000
0.006008 -0.003551 0.000000
0.007699 -0.006648 0.000000
0.007157 -0.009591 0.000000
0.007572 -0.010539 0.000000
0.000457 -0.011059 0.000000
0.000808 -0.012277 0.000000
0.000203 -0.001143 0.000000
0.003034 -0.005586 0.000000
0.006102 -0.013075 0.000000
0.008226 -0.012393 0.000000
0.006915 -0.004403 0.000000
0.000281 -0.011431 0.000000
0.000870 -0.011914 0.000000
0.002225 -0.004216 0.000000
0.008283 -0.004801 0.000000
0.000465 -0.011561 0.000000
0.008300 -0.008486 0.000000
0.000743 -0.000378 0.000000
0.005022 -0.014590 0.000000
0.004086 -0.015191 0.000000
0.007310 -0.015223 0.000000
0.000237 -0.000982 0.000000
-0.000042 -0.006172 0.000000
0.000165 -0.000487 0.000000
-0.000082 -0.002593 0.000000
-0.000070 -0.004016 0.000000
0.000114 -0.000795 0.000000
0.005185 -0.000969 0.000000
-0.000173 -0.007527 0.000000
0.001449 -0.000754 0.000000
-0.000376 -0.005146 0.000000
0.001466 -0.005903 0.000000
0.004459 -0.000352 0.000000
-0.000210 -0.007549 0.000000
0.001443 -0.007237 0.000000
0.000158 -0.000889 0.000000
0.006129 -0.009967 0.000000
0.000018 -0.010149 0.000000
0.000316 -0.006200 0.000000
0.007896 -0.008369 0.000000
0.000309 -0.010764 0.000000
0.002163 -0.000554 0.000000
-0.000288 -0.001387 0.000000
0.001316 -0.007209 0.000000
0.002115 -0.000609 0.000000
0.002258 -0.005531 0.000000
0.004849 -0.014683 0.000000
0.004775 -0.012209 0.000000
0.007814 -0.005549 0.000000
0.004815 -0.001604 0.000000
0.003078 -0.000724 0.000000
0.000157 -0.009369 0.000000
0.000947 -0.012892 0.000000
0.000079 -0.012367 0.000000
0.005060 -0.015125 0.000000
0.000709 -0.001934 0.000000
-0.000071 -0.010723 0.000000
0.000311 -0.000803 0.000000
0.001584 -0.000707 0.000000
0.006489 -0.009605 0.000000
0.004473 -0.000887 0.000000
0.005658 -0.002202 0.000000
0.001085 -0.011597 0.000000
0.000004 -0.007756 0.000000
0.000510 -0.012772 0.000000
0.002914 -0.000532 0.000000
0.000074 -0.002227 0.000000
0.000888 -0.000984 0.000000
0.005050 -0.001052 0.000000
0.000178 -0.000352 0.000000
0.002546 -0.005711 0.000000
0.001615 -0.011419 0.000000
0.002373 -0.006099 0.000000
0.000315 -0.008498 0.000000
0.005560 -0.013621 0.000000
0.000959 -0.012866 0.000000
0.000229 -0.000966 0.000000
0.002679 -0.005903 0.000000
0.004081 -0.003854 0.000000
0.006244 -0.001792 0.000000
0.002524 -0.003718 0.000000
-0.000258 -0.008181 0.000000
0.003331 -0.000609 0.000000
0.000193 -0.007997 0.000000
-0.000218 -0.002939 0.000000
0.000793 -0.012618 0.000000
0.000970 -0.010795 0.000000
0.000736 -0.012043 0.000000
0.000182 -0.001465 0.000000
0.000514 -0.009011 0.000000
0.000752 -0.002014 0.000000
0.000223 -0.000728 0.000000
0.001042 -0.001027 0.000000
0.004730 -0.014957 0.000000
0.002538 -0.012412 0.000000
0.000236 -0.000448 0.000000
0.000212 -0.000982 0.000000
0.003552 -0.000490 0.000000
0.000569 -0.009563 0.000000
0.000064 -0.000400 0.000000
0.002573 -0.004056 0.000000
0.006717 -0.014782 0.000000
0.000252 -0.010802 0.000000
0.000712 -0.010292 0.000000
0.000713 -0.001061 0.000000
0.001164 -0.007239 0.000000
0.000989 -0.001028 0.000000
0.000778 -0.008922 0.000000
0.008046 -0.012195 0.000000
0.008156 -0.012669 0.000000
-0.000406 -0.007031 0.000000
0.007528 -0.010291 0.000000
-0.000217 -0.000922 0.000000
0.002427 -0.004541 0.000000
0.001188 -0.001297 0.000000
0.001117 -0.005787 0.000000
0.000715 -0.012714 0.000000
0.000152 -0.012408 0.000000
0.000734 -0.004335 0.000000
0.000117 -0.000990 0.000000
0.005683 -0.013949 0.000000
-0.000287 -0.003172 0.000000
0.003605 -0.000545 0.000000
0.000798 -0.011800 0.000000
0.007983 -0.006738 0.000000
0.001666 -0.012541 0.000000
0.008681 -0.007351 0.000000
0.001058 -0.001053 0.000000
0.006162 -0.003788 0.000000
0.002373 -0.004758 0.000000
0.007226 -0.006451 0.000000
0.002297 -0.000666 0.000000
0.007121 -0.010622 0.000000
0.000145 -0.004426 0.000000
0.007570 -0.004244 0.000000
0.000065 -0.001513 0.000000
0.001799 -0.000546 0.000000
0.006936 -0.004276 0.000000
-0.000413 -0.008417 0.000000
0.004180 -0.000593 0.000000
0.001652 -0.013628 0.000000
0.007894 -0.005765 0.000000
0.007348 -0.015077 0.000000
0.001623 -0.006596 0.000000
0.002643 -0.012616 0.000000
0.000127 -0.009662 0.000000
-0.000071 -0.006784 0.000000
-0.000198 -0.007257 0.000000
0.000584 -0.000756 0.000000
0.004550 -0.015272 0.000000
0.000267 -0.008445 0.000000
-0.000065 -0.000477 0.000000
0.001885 -0.000461 0.000000
0.000340 -0.009150 0.000000
0.003365 -0.002840 0.000000
0.005058 -0.015030 0.000000
-0.000372 -0.008409 0.000000
0.002964 -0.014052 0.000000
0.000066 -0.012453 0.000000
0.001015 -0.011336 0.000000
0.000627 -0.004052 0.000000
0.000707 -0.012443 0.000000
0.000789 -0.008439 0.000000
0.005065 -0.015109 0.000000
0.001022 -0.007687 0.000000
0.000234 -0.001435 0.000000
0.007262 -0.015117 0.000000
0.000368 -0.000281 0.000000
0.000240 -0.004027 0.000000
0.005744 -0.003780 0.000000
0.006401 -0.012820 0.000000
0.000136 -0.003401 0.000000
0.000076 -0.012038 0.000000
0.007677 -0.006165 0.000000
-0.000113 -0.004262 0.000000
0.001078 -0.010672 0.000000
0.004704 -0.001529 0.000000
-0.000409 -0.002115 0.000000
0.008543 -0.007412 0.000000
0.000649 -0.012170 0.000000
0.000760 -0.001169 0.000000
0.001403 -0.000199 0.000000
0.001496 -0.011132 0.000000
0.007134 -0.015203 0.000000
0.000867 -0.010577 0.000000
0.000100 -0.002580 0.000000
0.004431 -0.000407 0.000000
0.001262 -0.011562 0.000000
0.007874 -0.012597 0.000000
0.000740 -0.009534 0.000000
0.006595 -0.004118 0.000000
0.003109 -0.003367 0.000000
0.000196 -0.001448 0.000000
0.000322 -0.001708 0.000000
0.007939 -0.006214 0.000000
0.000179 -0.001244 0.000000
0.000830 -0.001664 0.000000
0.003606 -0.000713 0.000000
0.008666 -0.007400 0.000000
0.007506 -0.005511 0.000000
0.007802 -0.005945 0.000000
0.000127 -0.008865 0.000000
0.004913 -0.014923 0.000000
0.002734 -0.000697 0.000000
0.008447 -0.007494 0.000000
0.006852 -0.004393 0.000000
0.003827 -0.008682 0.000000
0.004028 -0.015157 0.000000
0.004959 -0.015043 0.000000
0.007417 -0.011613 0.000000
0.007831 -0.008837 0.000000
-0.000069 -0.007085 0.000000
0.007020 -0.015454 0.000000
0.006324 -0.001729 0.000000
0.008452 -0.007460 0.000000
0.006787 -0.004089 0.000000
0.004798 -0.014633 0.000000
0.000093 -0.002204 0.000000
0.002451 -0.000676 0.000000
0.007437 -0.014161 0.000000
0.000111 -0.000787 0.000000
0.001922 -0.005433 0.000000
0.002502 -0.000489 0.000000
0.001475 -0.011967 0.000000
0.000110 -0.001893 0.000000
0.000144 -0.000428 0.000000
0.003100 -0.006709 0.000000
0.000236 -0.000779 0.000000
0.000837 -0.012495 0.000000
0.002612 -0.006433 0.000000
0.001008 -0.012962 0.000000
0.000885 -0.012536 0.000000
0.007165 -0.011596 0.000000
0.007964 -0.004428 0.000000
0.000577 -0.011635 0.000000
0.007657 -0.004839 0.000000
0.000958 -0.010732 0.000000
0.001348 -0.006269 0.000000
0.001039 -0.011368 0.000000
0.007381 -0.005780 0.000000
0.003572 -0.000701 0.000000
0.000062 -0.000484 0.000000
-0.000518 -0.001075 0.000000
-0.000050 -0.008708 0.000000
0.000538 -0.001236 0.000000
0.000166 -0.001404 0.000000
0.000173 -0.001163 0.000000
-0.000152 -0.002716 0.000000
0.000607 -0.004722 0.000000
0.000289 -0.004978 0.000000
0.002469 -0.008375 0.000000
0.001221 -0.006902 0.000000
0.001616 -0.011048 0.000000
0.001708 -0.006083 0.000000
0.004812 -0.000722 0.000000
0.000399 -0.001287 0.000000
0.001052 -0.007549 0.000000
0.000578 -0.001172 0.000000
0.001165 -0.010508 0.000000
0.004270 -0.015461 0.000000
0.002588 -0.002478 0.000000
0.000704 -0.012232 0.000000
-0.000043 -0.007711 0.000000
0.003102 -0.006545 0.000000
-0.000455 -0.002928 0.000000
-0.000221 -0.000891 0.000000
0.001765 -0.000544 0.000000
0.003217 -0.006959 0.000000
0.005137 -0.015190 0.000000
0.007704 -0.013945 0.000000
-0.000046 -0.001096 0.000000
0.005167 -0.001259 0.000000
0.000910 -0.012551 0.000000
0.000462 -0.000750 0.000000
0.006004 -0.003130 0.000000
0.001177 -0.012314 0.000000
0.000544 -0.004619 0.000000
0.001469 -0.011372 0.000000
0.000451 -0.011603 0.000000
0.000433 -0.001185 0.000000
-0.000506 -0.001497 0.000000
0.004281 -0.015459 0.000000
0.001140 -0.012239 0.000000
0.007255 -0.015363 0.000000
0.008091 -0.007074 0.000000
0.000076 -0.005421 0.000000
0.000848 -0.010332 0.000000
0.002352 -0.000679 0.000000
0.001151 -0.010428 0.000000
0.000143 -0.000372 0.000000
0.005009 -0.014845 0.000000
0.000933 -0.012589 0.000000
0.006821 -0.004558 0.000000
0.000842 -0.012559 0.000000
0.000939 -0.012869 0.000000
0.005063 -0.015112 0.000000
0.000777 -0.001056 0.000000
0.004847 -0.014633 0.000000
0.004916 -0.001347 0.000000
0.000092 -0.012091 0.000000
0.000157 -0.001043 0.000000
0.000728 -0.011178 0.000000
0.004476 -0.014228 0.000000
0.001197 -0.005118 0.000000
0.000984 -0.012792 0.000000
0.000615 -0.000801 0.000000
0.000367 -0.009638 0.000000
0.000169 -0.001268 0.000000
0.000092 -0.000618 0.000000
0.004910 -0.014854 0.000000
0.006176 -0.001329 0.000000
0.000815 -0.012383 0.000000
0.007076 -0.005372 0.000000
0.004909 -0.015001 0.000000
0.008161 -0.006125 0.000000
0.002693 -0.001366 0.000000
0.003672 -0.013166 0.000000
0.000669 -0.012199 0.000000
0.000126 -0.000351 0.000000
0.006800 -0.003884 0.000000
0.004963 -0.008372 0.000000
0.005482 -0.001228 0.000000
-0.000262 -0.000473 0.000000
0.001112 -0.004490 0.000000
0.000583 -0.001256 0.000000
0.001975 -0.011876 0.000000
0.000915 -0.005580 0.000000
0.000250 -0.001417 0.000000
0.000810 -0.011892 0.000000
0.000810 -0.010150 0.000000
0.000087 -0.002106 0.000000
0.006342 -0.012641 0.000000
0.000984 -0.010287 0.000000
0.000223 -0.008257 0.000000
0.001190 -0.006852 0.000000
0.006728 -0.004090 0.000000
0.002034 -0.000282 0.000000
0.000306 -0.000352 0.000000
0.000226 -0.000317 0.000000
0.000727 -0.011778 0.000000
0.001040 -0.010457 0.000000
0.000322 -0.010059 0.000000
0.000151 -0.001418 0.000000
0.000126 -0.003661 0.000000
0.000787 -0.000938 0.000000
0.001217 -0.010543 0.000000
0.005978 -0.003201 0.000000
0.000098 -0.001505 0.000000
0.005886 -0.002315 0.000000
0.000723 -0.011719 0.000000
0.002120 -0.001362 0.000000
0.007061 -0.004518 0.000000
0.006219 -0.001486 0.000000
0.000757 -0.009510 0.000000
0.005484 -0.001716 0.000000
0.000581 -0.000732 0.000000
0.008462 -0.007306 0.000000
0.004470 -0.000715 0.000000
0.005723 -0.015757 0.000000
0.001029 -0.001182 0.000000
0.003379 -0.000514 0.000000
0.001284 -0.010986 0.000000
0.002313 -0.000480 0.000000
0.002898 -0.004969 0.000000
0.000384 -0.001915 0.000000
0.000872 -0.012083 0.000000
0.007320 -0.004886 0.000000
0.001181 -0.011113 0.000000
0.001665 -0.000827 0.000000
0.004294 -0.015413 0.000000
0.004918 -0.001186 0.000000
0.003966 -0.015172 0.000000
0.000220 -0.000567 0.000000
0.005964 -0.002740 0.000000
0.007893 -0.004371 0.000000
-0.000107 -0.010784 0.000000
0.004869 -0.014988 0.000000
0.005720 -0.001253 0.000000
0.001691 -0.000679 0.000000
0.000314 -0.011365 0.000000
0.006074 -0.013127 0.000000
0.008718 -0.007487 0.000000
0.004579 -0.000934 0.000000
0.002611 -0.006176 0.000000
0.001183 -0.010536 0.000000
0.008268 -0.005402 0.000000
0.006807 -0.012214 0.000000
0.001846 -0.000433 0.000000
0.000692 -0.011657 0.000000
0.001194 -0.000384 0.000000
0.004530 -0.000410 0.000000
0.001215 -0.010400 0.000000
0.000459 -0.001204 0.000000
0.000073 -0.000893 0.000000
0.000952 -0.010487 0.000000
0.008537 -0.012261 0.000000
0.000982 -0.012954 0.000000
-0.000105 -0.001536 0.000000
0.000147 -0.001488 0.000000
0.001954 -0.006998 0.000000
0.000776 -0.008203 0.000000
0.005057 -0.015146 0.000000
0.004058 -0.000520 0.000000
0.007610 -0.010733 0.000000
0.000104 -0.000842 0.000000
-0.000413 -0.001515 0.000000
0.000521 -0.000471 0.000000
0.000510 -0.002052 0.000000
0.000324 -0.000243 0.000000
-0.000585 -0.002241 0.000000
0.000228 -0.012413 0.000000
0.000786 -0.001255 0.000000
0.000260 -0.003016 0.000000
0.002584 -0.004328 0.000000
0.008272 -0.005977 0.000000
0.001899 -0.000538 0.000000
0.000166 -0.001168 0.000000
-0.000248 -0.002030 0.000000
0.001257 -0.000813 0.000000
0.002813 -0.000565 0.000000
0.001371 -0.000246 0.000000
0.002891 -0.005346 0.000000
0.007189 -0.004281 0.000000
0.003284 -0.006320 0.000000
0.005303 -0.001349 0.000000
0.003357 -0.004609 0.000000
0.004061 -0.015109 0.000000
0.002414 -0.000710 0.000000
0.005047 -0.015123 0.000000
0.001001 -0.000879 0.000000
0.004856 -0.014673 0.000000
0.000059 -0.008984 0.000000
0.001206 -0.007421 0.000000
0.003996 -0.000671 0.000000
0.008649 -0.007624 0.000000
0.001944 -0.000805 0.000000
-0.000187 -0.008756 0.000000
0.006083 -0.003411 0.000000
0.007156 -0.015397 0.000000
-0.000481 -0.001805 0.000000
0.000332 -0.009689 0.000000
0.006163 -0.001396 0.000000
-0.000576 -0.001055 0.000000
0.000972 -0.011227 0.000000
0.007069 -0.004145 0.000000
-0.000056 -0.008704 0.000000
0.003472 -0.003483 0.000000
0.000537 -0.009767 0.000000
0.000086 -0.000468 0.000000
0.008090 -0.007098 0.000000
0.001356 -0.000827 0.000000
0.000375 -0.001318 0.000000
0.001379 -0.010970 0.000000
0.000388 -0.000936 0.000000
0.000219 -0.000415 0.000000
0.000028 -0.001543 0.000000
0.000009 -0.012619 0.000000
0.008655 -0.012311 0.000000
0.008225 -0.007188 0.000000
0.003068 -0.007631 0.000000
0.000288 -0.000985 0.000000
0.001189 -0.001063 0.000000
0.005055 -0.015151 0.000000
0.005914 -0.002646 0.000000
-0.000138 -0.001421 0.000000
0.000371 -0.000733 0.000000
0.007279 -0.004822 0.000000
0.000190 -0.011804 0.000000
0.000133 -0.000361 0.000000
0.006258 -0.003929 0.000000
0.001082 -0.008258 0.000000
0.001961 -0.012272 0.000000
0.000301 -0.001200 0.000000
0.005057 -0.015170 0.000000
0.001446 -0.000707 0.000000
0.002531 -0.005968 0.000000
0.000946 -0.010922 0.000000
0.004376 -0.015489 0.000000
0.001126 -0.006741 0.000000
0.001824 -0.001700 0.000000
0.001710 -0.006062 0.000000
0.001126 -0.001121 0.000000
0.004242 -0.015308 0.000000
0.000430 -0.000682 0.000000
0.001219 -0.000968 0.000000
0.000100 -0.000652 0.000000
0.006570 -0.012426 0.000000
0.001102 -0.006849 0.000000
0.000447 -0.012630 0.000000
0.007496 -0.006683 0.000000
0.000532 -0.009908 0.000000
0.006675 -0.004019 0.000000
0.006367 -0.013658 0.000000
0.000330 -0.012636 0.000000
0.003884 -0.014890 0.000000
0.000885 -0.011733 0.000000
0.002490 -0.000640 0.000000
0.002234 -0.001645 0.000000
0.000063 -0.000605 0.000000
0.004543 -0.002006 0.000000
0.002004 -0.004024 0.000000
-0.000073 -0.003211 0.000000
0.000205 -0.012237 0.000000
0.001586 -0.000702 0.000000
0.000110 -0.003772 0.000000
0.005544 -0.013327 0.000000
0.003065 -0.000875 0.000000
0.004289 -0.014164 0.000000
0.007144 -0.004273 0.000000
0.004890 -0.008852 0.000000
0.000816 -0.000804 0.000000
0.000413 -0.003974 0.000000
0.007003 -0.015023 0.000000
0.005306 -0.001491 0.000000
0.004341 -0.015456 0.000000
0.002075 -0.002424 0.000000
0.008504 -0.007334 0.000000
0.000087 -0.001527 0.000000
0.000897 -0.001092 0.000000
0.000799 -0.000903 0.000000
0.007901 -0.012647 0.000000
0.000177 -0.012237 0.000000
0.004264 -0.015425 0.000000
0.005209 -0.001282 0.000000
0.000705 -0.009790 0.000000
0.005016 -0.001222 0.000000
0.003098 -0.007765 0.000000
0.000720 -0.009166 0.000000
0.005135 -0.001222 0.000000
0.003240 -0.008706 0.000000
0.000716 -0.009196 0.000000
0.006807 -0.004066 0.000000
0.006762 -0.004041 0.000000
0.004910 -0.001186 0.000000
0.005293 -0.001427 0.000000
0.000384 -0.001234 0.000000
0.000732 -0.009109 0.000000
-0.000127 -0.007243 0.000000
0.000370 -0.001238 0.000000
-0.000112 -0.007160 0.000000
0.006699 -0.004140 0.000000
0.007881 -0.007125 0.000000
0.006442 -0.004010 0.000000
0.007920 -0.006773 0.000000
0.007499 -0.010729 0.000000
-0.000078 -0.006481 0.000000
0.000317 -0.001142 0.000000
0.002058 -0.007046 0.000000
0.000689 -0.009478 0.000000
0.000739 -0.009087 0.000000
0.007473 -0.010977 0.000000
0.007114 -0.011168 0.000000
0.007942 -0.006795 0.000000
0.000694 -0.009336 0.000000
0.007937 -0.007159 0.000000
0.004697 -0.014470 0.000000
0.006428 -0.003795 0.000000
0.007862 -0.006796 0.000000
0.001363 -0.006713 0.000000
0.006968 -0.004156 0.000000
0.006210 -0.003826 0.000000
0.005833 -0.013518 0.000000
-0.000142 -0.007328 0.000000
0.000326 -0.001238 0.000000
0.007439 -0.011065 0.000000
-0.000169 -0.007204 0.000000
0.003218 -0.007893 0.000000
0.004401 -0.014197 0.000000
0.007961 -0.007162 0.000000
0.004747 -0.014586 0.000000
0.002821 -0.003825 0.000000
0.002521 -0.004698 0.000000
0.005296 -0.001448 0.000000
0.004682 -0.014437 0.000000
0.000430 -0.001202 0.000000
0.004460 -0.014250 0.000000
0.002575 -0.004798 0.000000
0.000332 -0.001145 0.000000
0.003784 -0.000737 0.000000
0.005611 -0.013479 0.000000
0.008079 -0.007034 0.000000
0.008032 -0.006884 0.000000
0.002952 -0.003934 0.000000
0.006223 -0.003849 0.000000
0.000686 -0.009395 0.000000
0.000427 -0.001223 0.000000
0.002729 -0.004655 0.000000
0.002861 -0.007512 0.000000
0.001799 -0.007896 0.000000
0.005112 -0.001262 0.000000
0.000804 -0.012411 0.000000
0.005692 -0.013311 0.000000
0.002520 -0.004365 0.000000
0.005286 -0.001473 0.000000
0.005621 -0.013542 0.000000
0.004038 -0.000438 0.000000
0.000765 -0.009809 0.000000
0.003068 -0.003216 0.000000
0.000756 -0.009052 0.000000
0.006687 -0.003986 0.000000
0.001074 -0.011007 0.000000
0.004562 -0.014292 0.000000
0.007218 -0.010597 0.000000
0.008100 -0.007111 0.000000
0.001163 -0.011022 0.000000
0.006963 -0.004134 0.000000
0.001394 -0.006614 0.000000
0.003589 -0.004013 0.000000
0.000376 -0.001164 0.000000
0.002461 -0.004318 0.000000
0.002347 -0.003239 0.000000
0.007397 -0.010456 0.000000
0.001605 -0.011610 0.000000
-0.000188 -0.007528 0.000000
0.000712 -0.009224 0.000000
0.000708 -0.009724 0.000000
0.000279 -0.001174 0.000000
0.004920 -0.001194 0.000000
0.001624 -0.006631 0.000000
0.004130 -0.000440 0.000000
0.002257 -0.000993 0.000000
0.008945 -0.010258 0.000000
0.008218 -0.011390 0.000000
0.002343 -0.004449 0.000000
0.006978 -0.015736 0.000000
0.002357 -0.001250 0.000000
0.001482 -0.011330 0.000000
0.001266 -0.011441 0.000000
0.002793 -0.001362 0.000000
0.002658 -0.001505 0.000000
0.001466 -0.007177 0.000000
0.001545 -0.011408 0.000000
0.002487 -0.003097 0.000000
-0.000077 -0.006392 0.000000
0.000355 -0.001241 0.000000
0.000689 -0.012235 0.000000
0.002612 -0.000963 0.000000
0.007136 -0.015679 0.000000
0.008763 -0.011843 0.000000
0.001042 -0.011241 0.000000
0.007288 -0.015248 0.000000
0.003610 -0.000527 0.000000
0.000309 -0.001229 0.000000
0.002793 -0.004832 0.000000
0.002183 -0.008288 0.000000
0.007458 -0.010502 0.000000
0.000719 -0.012272 0.000000
0.006763 -0.015537 0.000000
0.008312 -0.012591 0.000000
-0.000159 -0.007118 0.000000
0.005136 -0.001278 0.000000
0.005596 -0.013664 0.000000
0.000312 -0.009727 0.000000
0.008771 -0.010973 0.000000
0.000178 -0.009392 0.000000
0.003033 -0.013032 0.000000
0.004656 -0.014339 0.000000
0.008227 -0.007286 0.000000
0.005790 -0.013421 0.000000
0.006404 -0.015297 0.000000
0.000287 -0.001139 0.000000
0.007865 -0.006948 0.000000
0.003337 -0.008031 0.000000
0.000096 -0.004202 0.000000
-0.000094 -0.003490 0.000000
0.006626 -0.004112 0.000000
-0.000093 -0.006726 0.000000
0.001241 -0.007018 0.000000
0.005966 -0.014840 0.000000
0.008656 -0.011794 0.000000
0.005551 -0.013125 0.000000
0.000750 -0.012411 0.000000
0.008540 -0.011012 0.000000
0.000188 -0.009425 0.000000
0.001553 -0.007592 0.000000
0.008493 -0.012750 0.000000
0.007859 -0.006796 0.000000
0.007857 -0.009448 0.000000
0.001170 -0.000587 0.000000
0.001424 -0.011670 0.000000
0.003907 -0.014972 0.000000
0.003695 -0.000740 0.000000
0.000450 -0.002563 0.000000
0.002665 -0.005026 0.000000
0.007111 -0.011476 0.000000
0.000976 -0.000564 0.000000
0.000503 -0.001107 0.000000
0.000520 -0.001022 0.000000
0.006749 -0.008886 0.000000
0.003577 -0.003840 0.000000
0.005560 -0.013175 0.000000
0.000766 -0.009761 0.000000
0.000266 -0.001326 0.000000
0.008671 -0.009575 0.000000
0.007031 -0.015760 0.000000
0.002635 -0.004490 0.000000
0.008007 -0.007309 0.000000
0.001405 -0.006492 0.000000
0.001455 -0.007561 0.000000
0.004713 -0.006553 0.000000
-0.000536 -0.004441 0.000000
0.000057 -0.004265 0.000000
0.008572 -0.012367 0.000000
0.002460 -0.003605 0.000000
-0.000063 -0.006377 0.000000
-0.000559 -0.003036 0.000000
0.007894 -0.007180 0.000000
0.000315 -0.009674 0.000000
0.000206 -0.005433 0.000000
0.003539 -0.001101 0.000000
0.006571 -0.014551 0.000000
0.003314 -0.004276 0.000000
0.007241 -0.015275 0.000000
0.000930 -0.011413 0.000000
0.003743 -0.001296 0.000000
0.001286 -0.007436 0.000000
-0.000187 -0.007366 0.000000
0.003414 -0.013249 0.000000
0.000291 -0.001372 0.000000
0.006939 -0.005607 0.000000
0.007261 -0.004140 0.000000
0.003705 -0.008693 0.000000
0.000105 -0.001904 0.000000
0.007529 -0.003558 0.000000
0.000750 -0.009606 0.000000
0.008871 -0.011920 0.000000
0.007722 -0.003971 0.000000
0.004209 -0.003019 0.000000
0.003596 -0.003063 0.000000
0.000068 -0.002103 0.000000
0.004643 -0.014478 0.000000
0.008571 -0.011750 0.000000
0.005252 -0.001447 0.000000
0.002159 -0.001805 0.000000
0.000240 -0.003175 0.000000
0.007140 -0.010725 0.000000
0.003201 -0.000258 0.000000
0.000771 -0.009701 0.000000
0.000944 -0.011548 0.000000
0.006343 -0.005343 0.000000
0.007960 -0.004476 0.000000
0.000175 -0.004717 0.000000
0.000426 -0.001817 0.000000
0.000874 -0.001156 0.000000
-0.000655 -0.003852 0.000000
0.003481 -0.001124 0.000000
0.000912 -0.011268 0.000000
0.004026 -0.015102 0.000000
0.000482 -0.012855 0.000000
0.007887 -0.006705 0.000000
0.004880 -0.001160 0.000000
0.000736 -0.012355 0.000000
0.005567 -0.013349 0.000000
0.007924 -0.012723 0.000000
0.003263 -0.000772 0.000000
0.006954 -0.004117 0.000000
0.003090 -0.000454 0.000000
0.007865 -0.006824 0.000000
0.003900 -0.015012 0.000000
0.006249 -0.003888 0.000000
0.000720 -0.009737 0.000000
0.002880 -0.000528 0.000000
0.000225 -0.003633 0.000000
0.003415 -0.000566 0.000000
0.001550 -0.000675 0.000000
0.006087 -0.003643 0.000000
0.007254 -0.015212 0.000000
0.002564 -0.002886 0.000000
0.000701 -0.009636 0.000000
0.000131 -0.005524 0.000000
0.007457 -0.009248 0.000000
0.005403 -0.003956 0.000000
0.008557 -0.010624 0.000000
0.006173 -0.003770 0.000000
0.007197 -0.011514 0.000000
0.005579 -0.013258 0.000000
0.000709 -0.009816 0.000000
0.000238 -0.001296 0.000000
0.000748 -0.009089 0.000000
0.001305 -0.007845 0.000000
0.004142 -0.000583 0.000000
0.003905 -0.001636 0.000000
0.007537 -0.012254 0.000000
0.001209 -0.010968 0.000000
0.008004 -0.007235 0.000000
0.000736 -0.009841 0.000000
0.000762 -0.009009 0.000000
0.000137 -0.000866 0.000000
0.000290 -0.005285 0.000000
0.000326 -0.002732 0.000000
0.001150 -0.011390 0.000000
0.000503 -0.012857 0.000000
0.008673 -0.008766 0.000000
0.006931 -0.003865 0.000000
0.007056 -0.011313 0.000000
0.003118 -0.016226 0.000000
0.004336 -0.014166 0.000000
0.001563 -0.007273 0.000000
0.002949 -0.001636 0.000000
0.007072 -0.011095 0.000000
0.007253 -0.009761 0.000000
0.002877 -0.016272 0.000000
0.007843 -0.004322 0.000000
0.000534 -0.002024 0.000000
0.002791 -0.013908 0.000000
0.000251 -0.003590 0.000000
0.005608 -0.013728 0.000000
0.008492 -0.007479 0.000000
0.000566 -0.001902 0.000000
0.000269 -0.001385 0.000000
0.000156 -0.001424 0.000000
0.000105 -0.002502 0.000000
0.001818 -0.001479 0.000000
0.005704 -0.013790 0.000000
0.007056 -0.011391 0.000000
0.002235 -0.007080 0.000000
0.000113 -0.001828 0.000000
0.003310 -0.000370 0.000000
0.006886 -0.004234 0.000000
0.000128 -0.001129 0.000000
0.007018 -0.004131 0.000000
0.007738 -0.008641 0.000000
0.000344 -0.002655 0.000000
0.003080 -0.004145 0.000000
0.008321 -0.012372 0.000000
0.000565 -0.001170 0.000000
0.000808 -0.011846 0.000000
0.000695 -0.009346 0.000000
0.004360 -0.014160 0.000000
0.000213 -0.009423 0.000000
0.000258 -0.004772 0.000000
0.007337 -0.015116 0.000000
0.006241 -0.001662 0.000000
0.001407 -0.007244 0.000000
0.002500 -0.007249 0.000000
0.000276 -0.009561 0.000000
0.000465 -0.004065 0.000000
0.000124 -0.000833 0.000000
0.000994 -0.010991 0.000000
-0.000009 -0.005565 0.000000
0.000992 -0.012906 0.000000
0.007845 -0.006719 0.000000
0.001071 -0.008196 0.000000
0.007111 -0.010842 0.000000
0.001420 -0.011247 0.000000
0.003447 -0.008759 0.000000
-0.000067 -0.006803 0.000000
0.007560 -0.010763 0.000000
0.005161 -0.011247 0.000000
0.007030 -0.015702 0.000000
0.003663 -0.013931 0.000000
0.003088 -0.000284 0.000000
0.000520 -0.000762 0.000000
-0.000066 -0.006593 0.000000
0.000552 -0.004279 0.000000
-0.000080 -0.006968 0.000000
0.003315 -0.000264 0.000000
0.001428 -0.012572 0.000000
0.000247 -0.005213 0.000000
0.000767 -0.012325 0.000000
0.002385 -0.000718 0.000000
0.006135 -0.003711 0.000000
0.002327 -0.000700 0.000000
0.000131 -0.000817 0.000000
0.004154 -0.000461 0.000000
0.004934 -0.001128 0.000000
0.000409 -0.011521 0.000000
0.006295 -0.001742 0.000000
0.005849 -0.014203 0.000000
0.008409 -0.011437 0.000000
0.001829 -0.006742 0.000000
0.002406 -0.004579 0.000000
0.000151 -0.000798 0.000000
0.004029 -0.000667 0.000000
0.007210 -0.015531 0.000000
0.001619 -0.010217 0.000000
0.005770 -0.013737 0.000000
0.007874 -0.007096 0.000000
0.007625 -0.009020 0.000000
0.001393 -0.006370 0.000000
0.002350 -0.012934 0.000000
0.000208 -0.001253 0.000000
0.002359 -0.000695 0.000000
0.004771 -0.014599 0.000000
0.005217 -0.001386 0.000000
0.001032 -0.010791 0.000000
0.003215 -0.008879 0.000000
0.000605 -0.012751 0.000000
0.006279 -0.003693 0.000000
0.001498 -0.012094 0.000000
0.000682 -0.009447 0.000000
-0.000025 -0.004804 0.000000
0.005088 -0.001179 0.000000
0.000597 -0.000781 0.000000
0.001230 -0.006739 0.000000
0.000522 -0.005073 0.000000
0.006509 -0.003839 0.000000
0.004700 -0.014422 0.000000
0.004972 -0.002860 0.000000
0.003325 -0.002563 0.000000
0.002799 -0.005142 0.000000
0.006331 -0.003960 0.000000
0.000424 -0.001188 0.000000
0.007874 -0.006658 0.000000
0.002668 -0.000527 0.000000
0.000178 -0.003434 0.000000
0.000396 -0.005013 0.000000
0.001046 -0.012910 0.000000
0.008694 -0.009447 0.000000
0.001048 -0.012852 0.000000
-0.000199 -0.010582 0.000000
0.000895 -0.000611 0.000000
0.000290 -0.001216 0.000000
0.001530 -0.007695 0.000000
-0.000127 -0.006083 0.000000
0.000350 -0.001135 0.000000
-0.000110 -0.006824 0.000000
0.000289 -0.004954 0.000000
0.000412 -0.004624 0.000000
0.000817 -0.012477 0.000000
0.007200 -0.015346 0.000000
0.004280 -0.013874 0.000000
0.000577 -0.000756 0.000000
0.005883 -0.013675 0.000000
0.003392 -0.001943 0.000000
0.000494 -0.000731 0.000000
0.005902 -0.013623 0.000000
0.004036 -0.014904 0.000000
0.001483 -0.000590 0.000000
0.000475 -0.012809 0.000000
0.008644 -0.011786 0.000000
0.007021 -0.004255 0.000000
-0.000176 -0.002964 0.000000
0.003355 -0.003498 0.000000
0.000987 -0.012947 0.000000
0.007400 -0.011272 0.000000
0.001322 -0.000397 0.000000
0.000175 -0.001225 0.000000
0.006733 -0.004019 0.000000
0.008341 -0.007208 0.000000
0.006204 -0.010193 0.000000
0.000964 -0.010382 0.000000
0.001731 -0.000824 0.000000
0.001924 -0.000626 0.000000
-0.000174 -0.010262 0.000000
0.000889 -0.000939 0.000000
0.000067 -0.001749 0.000000
0.000509 -0.009375 0.000000
-0.000492 -0.006797 0.000000
-0.000309 -0.006266 0.000000
0.007136 -0.012262 0.000000
0.000305 -0.010946 0.000000
0.004466 -0.014354 0.000000
0.000139 -0.000915 0.000000
0.001028 -0.012914 0.000000
0.001336 -0.012164 0.000000
0.002710 -0.002005 0.000000
0.000798 -0.012375 0.000000
0.000272 -0.001140 0.000000
0.001106 -0.000495 0.000000
0.001141 -0.010605 0.000000
0.000687 -0.009525 0.000000
0.003253 -0.004969 0.000000
0.007521 -0.010551 0.000000
0.000726 -0.005532 0.000000
0.002107 -0.013126 0.000000
0.005943 -0.002257 0.000000
0.002825 -0.004941 0.000000
0.005605 -0.013184 0.000000
0.000828 -0.001208 0.000000
0.004880 -0.001136 0.000000
0.007473 -0.010914 0.000000
0.000104 -0.000640 0.000000
0.008514 -0.008279 0.000000
0.001462 -0.006305 0.000000
0.002216 -0.008440 0.000000
0.000445 -0.001205 0.000000
0.000668 -0.000428 0.000000
0.000717 -0.012304 0.000000
0.002796 -0.012348 0.000000
0.007109 -0.015289 0.000000
0.008958 -0.007661 0.000000
0.001542 -0.001430 0.000000
0.006974 -0.005143 0.000000
0.003468 -0.011996 0.000000
0.002892 -0.008938 0.000000
0.007167 -0.010154 0.000000
-0.000237 -0.001052 0.000000
0.000915 -0.011478 0.000000
0.005490 -0.001969 0.000000
-0.000208 -0.007514 0.000000
0.001931 -0.008032 0.000000
0.001268 -0.001049 0.000000
0.000755 -0.009817 0.000000
0.001420 -0.006072 0.000000
0.000845 -0.001137 0.000000
0.000990 -0.012703 0.000000
0.002960 -0.000308 0.000000
0.000094 -0.001434 0.000000
0.001025 -0.007887 0.000000
0.001364 -0.007286 0.000000
0.005175 -0.001321 0.000000
0.000709 -0.009564 0.000000
0.006971 -0.004957 0.000000
0.007042 -0.004212 0.000000
0.003616 -0.008465 0.000000
0.002609 -0.002523 0.000000
0.007049 -0.004280 0.000000
0.003998 -0.014940 0.000000
0.005726 -0.014001 0.000000
0.008610 -0.007483 0.000000
0.005273 -0.001333 0.000000
0.002581 -0.008778 0.000000
0.002432 -0.002546 0.000000
0.000862 -0.008153 0.000000
0.008913 -0.007647 0.000000
0.001338 -0.006197 0.000000
0.000709 -0.012661 0.000000
0.000663 -0.010785 0.000000
0.000224 -0.001333 0.000000
0.001242 -0.008056 0.000000
0.002335 -0.003057 0.000000
0.000637 -0.001179 0.000000
0.002746 -0.007021 0.000000
0.005345 -0.002575 0.000000
0.000874 -0.008296 0.000000
0.003537 -0.004261 0.000000
0.007314 -0.011421 0.000000
0.001552 -0.009549 0.000000
0.004501 -0.014295 0.000000
0.001034 -0.011078 0.000000
0.001573 -0.000735 0.000000
0.000349 -0.003883 0.000000
0.007078 -0.011938 0.000000
0.007280 -0.005428 0.000000
0.008352 -0.012887 0.000000
0.000356 -0.009744 0.000000
0.000709 -0.012284 0.000000
-0.000181 -0.002523 0.000000
0.000671 -0.002125 0.000000
0.000795 -0.010943 0.000000
0.002198 -0.004292 0.000000
0.001601 -0.000743 0.000000
0.008596 -0.012746 0.000000
0.007270 -0.003000 0.000000
0.002774 -0.000874 0.000000
0.000160 -0.000631 0.000000
0.000836 -0.010861 0.000000
0.000401 -0.000958 0.000000
0.004242 -0.015356 0.000000
0.000813 -0.008276 0.000000
0.000705 -0.009836 0.000000
0.000723 -0.009839 0.000000
0.007718 -0.005970 0.000000
0.002708 -0.009016 0.000000
0.004753 -0.014556 0.000000
0.005781 -0.012609 0.000000
0.005560 -0.013273 0.000000
0.000985 -0.010235 0.000000
0.002186 -0.014851 0.000000
-0.000185 -0.007343 0.000000
0.003913 -0.000424 0.000000
-0.000137 -0.003216 0.000000
0.005285 -0.001383 0.000000
0.003560 -0.015558 0.000000
0.005061 -0.001232 0.000000
0.000355 -0.012685 0.000000
0.007088 -0.010979 0.000000
0.007874 -0.007132 0.000000
-0.000092 -0.007052 0.000000
0.004786 -0.014669 0.000000
0.008560 -0.007851 0.000000
0.008504 -0.009699 0.000000
0.003105 -0.000861 0.000000
0.005533 -0.011060 0.000000
0.000329 -0.001769 0.000000
0.005501 -0.002198 0.000000
0.000400 -0.011555 0.000000
0.005596 -0.011643 0.000000
0.000957 -0.000472 0.000000
0.007910 -0.006804 0.000000
0.006244 -0.005639 0.000000
0.000411 -0.001234 0.000000
0.005619 -0.011769 0.000000
0.002106 -0.000592 0.000000
0.000148 -0.000837 0.000000
0.000641 -0.001038 0.000000
0.006101 -0.010947 0.000000
0.006618 -0.003933 0.000000
0.000979 -0.007562 0.000000
0.002452 -0.000731 0.000000
0.005046 -0.015125 0.000000
0.002533 -0.015618 0.000000
0.000220 -0.009572 0.000000
0.007185 -0.005127 0.000000
0.000727 -0.012429 0.000000
0.000119 -0.000724 0.000000
0.000972 -0.012655 0.000000
0.005884 -0.011517 0.000000
0.007485 -0.010370 0.000000
0.003807 -0.014924 0.000000
-0.000561 -0.006826 0.000000
0.003454 -0.013017 0.000000
0.001296 -0.012474 0.000000
0.008150 -0.012901 0.000000
0.005153 -0.001286 0.000000
0.001048 -0.012883 0.000000
0.003636 -0.007328 0.000000
0.002190 -0.010115 0.000000
0.008681 -0.012558 0.000000
0.008747 -0.007588 0.000000
0.002706 -0.002745 0.000000
0.001549 -0.007103 0.000000
0.005643 -0.002240 0.000000
0.002699 -0.004550 0.000000
0.001420 -0.012145 0.000000
0.006695 -0.014522 0.000000
0.004064 -0.015395 0.000000
0.001798 -0.000714 0.000000
-0.000081 -0.007319 0.000000
-0.000033 -0.002145 0.000000
0.003024 -0.016416 0.000000
0.005805 -0.013722 0.000000
0.000452 -0.001212 0.000000
0.001116 -0.010815 0.000000
-0.000426 -0.001416 0.000000
0.000672 -0.002522 0.000000
-0.000263 -0.002141 0.000000
0.006686 -0.003993 0.000000
-0.000428 -0.004510 0.000000
0.007952 -0.004388 0.000000
0.000412 -0.001025 0.000000
0.001290 -0.005855 0.000000
0.002316 -0.002250 0.000000
0.002547 -0.013265 0.000000
0.007277 -0.015140 0.000000
0.007884 -0.005526 0.000000
-0.000654 -0.006840 0.000000
0.002319 -0.013296 0.000000
0.008055 -0.012672 0.000000
0.004709 -0.014553 0.000000
0.008356 -0.004570 0.000000
0.001161 -0.007123 0.000000
0.000232 -0.000750 0.000000
0.008269 -0.004551 0.000000
0.000415 -0.012777 0.000000
0.003086 -0.009008 0.000000
-0.000423 -0.001531 0.000000
0.007340 -0.004911 0.000000
0.001064 -0.007670 0.000000
0.007147 -0.010626 0.000000
0.003918 -0.014933 0.000000
0.000340 -0.011456 0.000000
0.000406 -0.012543 0.000000
0.007661 -0.012180 0.000000
0.000592 -0.003448 0.000000
0.008328 -0.007412 0.000000
-0.000301 -0.002180 0.000000
0.001381 -0.011438 0.000000
0.005055 -0.015163 0.000000
0.007851 -0.006764 0.000000
0.002705 -0.006395 0.000000
0.003610 -0.000346 0.000000
0.003731 -0.000454 0.000000
0.000193 -0.000989 0.000000
0.001064 -0.000694 0.000000
0.001767 -0.000411 0.000000
0.000778 -0.012323 0.000000
0.006110 -0.012089 0.000000
0.002472 -0.004509 0.000000
0.000378 -0.000943 0.000000
0.000518 -0.004460 0.000000
0.000840 -0.004269 0.000000
0.000720 -0.009177 0.000000
0.000946 -0.000320 0.000000
0.001135 -0.006758 0.000000
0.001928 -0.010581 0.000000
0.000817 -0.011196 0.000000
0.008106 -0.006253 0.000000
0.000338 -0.001340 0.000000
0.002655 -0.000608 0.000000
0.000436 -0.004174 0.000000
0.000431 -0.010012 0.000000
0.007264 -0.015295 0.000000
0.001021 -0.012896 0.000000
0.007769 -0.008327 0.000000
0.004607 -0.014279 0.000000
0.004533 -0.014475 0.000000
0.001089 -0.010641 0.000000
0.001142 -0.000972 0.000000
-0.000070 -0.001918 0.000000
0.000916 -0.000890 0.000000
0.002457 -0.000397 0.000000
0.000204 -0.004606 0.000000
0.001391 -0.010982 0.000000
0.004912 -0.000822 0.000000
0.006338 -0.012935 0.000000
-0.000044 -0.004831 0.000000
0.007392 -0.005085 0.000000
0.004956 -0.014872 0.000000
0.000897 -0.001115 0.000000
-0.000210 -0.007592 0.000000
0.004386 -0.000677 0.000000
0.008137 -0.005503 0.000000
0.005673 -0.002262 0.000000
0.008093 -0.012080 0.000000
0.000281 -0.009537 0.000000
0.006130 -0.003751 0.000000
0.000473 -0.010187 0.000000
0.002194 -0.004164 0.000000
0.000525 -0.010250 0.000000
0.007147 -0.015161 0.000000
0.001544 -0.006984 0.000000
0.007303 -0.004859 0.000000
0.000178 -0.001405 0.000000
0.005010 -0.015082 0.000000
0.000150 -0.007984 0.000000
0.001139 -0.010987 0.000000
0.000718 -0.009223 0.000000
0.003070 -0.006524 0.000000
0.000720 -0.001194 0.000000
0.002531 -0.009062 0.000000
0.001151 -0.006830 0.000000
0.000993 -0.012967 0.000000
0.004720 -0.014409 0.000000
0.000029 -0.002694 0.000000
-0.000054 -0.002451 0.000000
0.007224 -0.015228 0.000000
0.000772 -0.012474 0.000000
-0.000637 -0.002769 0.000000
0.007813 -0.005214 0.000000
0.008211 -0.005449 0.000000
0.004940 -0.014883 0.000000
0.001015 -0.012921 0.000000
0.005169 -0.000923 0.000000
0.004104 -0.007716 0.000000
0.002153 -0.000388 0.000000
0.000849 -0.012062 0.000000
0.000124 -0.000473 0.000000
0.003332 -0.000430 0.000000
0.003885 -0.000676 0.000000
0.000653 -0.000781 0.000000
0.007324 -0.004235 0.000000
0.000560 -0.001847 0.000000
0.000746 -0.010126 0.000000
0.000112 -0.004957 0.000000
0.000267 -0.005004 0.000000
0.001507 -0.007542 0.000000
0.000125 -0.000891 0.000000
0.005336 -0.015358 0.000000
0.001757 -0.000803 0.000000
0.005524 -0.013087 0.000000
0.000340 -0.001446 0.000000
0.000785 -0.009673 0.000000
0.002444 -0.000721 0.000000
0.002289 -0.000772 0.000000
0.006108 -0.003610 0.000000
0.000135 -0.000607 0.000000
0.001276 -0.007601 0.000000
-0.000016 -0.001002 0.000000
0.004675 -0.015097 0.000000
0.008344 -0.004546 0.000000
0.001746 -0.000772 0.000000
0.000014 -0.012476 0.000000
0.003964 -0.000765 0.000000
0.001260 -0.007207 0.000000
0.002761 -0.005200 0.000000
0.000135 -0.002582 0.000000
-0.000066 -0.006441 0.000000
0.001257 -0.005058 0.000000
0.002950 -0.002917 0.000000
0.000245 -0.001061 0.000000
0.006144 -0.001287 0.000000
0.002482 -0.001375 0.000000
0.000641 -0.004407 0.000000
0.001314 -0.005091 0.000000
0.006183 -0.001374 0.000000
0.002323 -0.012831 0.000000
0.005050 -0.015039 0.000000
0.000551 -0.002238 0.000000
-0.000081 -0.001258 0.000000
-0.000002 -0.010843 0.000000
-0.000048 -0.003799 0.000000
0.005286 -0.001493 0.000000
0.005267 -0.001478 0.000000
0.000704 -0.006857 0.000000
0.000377 -0.001387 0.000000
0.002177 -0.001601 0.000000
0.007025 -0.011091 0.000000
0.000576 -0.012055 0.000000
0.001581 -0.007330 0.000000
0.000839 -0.010346 0.000000
0.000132 -0.005003 0.000000
0.000893 -0.001191 0.000000
0.008051 -0.007334 0.000000
0.005394 -0.001270 0.000000
0.001062 -0.010711 0.000000
0.003002 -0.002734 0.000000
0.000708 -0.009881 0.000000
0.001122 -0.010508 0.000000
0.000525 -0.000783 0.000000
0.000430 -0.001238 0.000000
0.000751 -0.009883 0.000000
0.000824 -0.012261 0.000000
0.002183 -0.000719 0.000000
0.000880 -0.011829 0.000000
0.006243 -0.001743 0.000000
0.007325 -0.004869 0.000000
0.004686 -0.012671 0.000000
0.007803 -0.005801 0.000000
0.003662 -0.000691 0.000000
0.000130 -0.001130 0.000000
0.000189 -0.001189 0.000000
0.006195 -0.001342 0.000000
0.008301 -0.013405 0.000000
0.007755 -0.005621 0.000000
0.002194 -0.003244 0.000000
0.007387 -0.015095 0.000000
0.000118 -0.000457 0.000000
0.006049 -0.001269 0.000000
0.000495 -0.000378 0.000000
0.000022 -0.008764 0.000000
0.003665 -0.000394 0.000000
0.000845 -0.010918 0.000000
0.000824 -0.011830 0.000000
0.000233 -0.000861 0.000000
0.000437 -0.002234 0.000000
0.005323 -0.010777 0.000000
0.003263 -0.003038 0.000000
0.005711 -0.012286 0.000000
0.008068 -0.004506 0.000000
0.000132 -0.012100 0.000000
0.004193 -0.000587 0.000000
0.004296 -0.015404 0.000000
0.007925 -0.008771 0.000000
0.008200 -0.012045 0.000000
0.001055 -0.011331 0.000000
0.003451 -0.003465 0.000000
0.005454 -0.012974 0.000000
0.000272 -0.001182 0.000000
-0.000169 -0.008159 0.000000
0.001053 -0.011456 0.000000
0.000039 -0.004631 0.000000
0.000704 -0.011371 0.000000
0.004574 -0.014166 0.000000
0.008727 -0.008709 0.000000
0.005066 -0.015103 0.000000
0.001444 -0.005343 0.000000
0.002030 -0.000608 0.000000
0.003651 -0.008822 0.000000
0.003344 -0.000423 0.000000
0.000726 -0.012348 0.000000
0.005204 -0.001958 0.000000
0.001462 -0.010010 0.000000
-0.000341 -0.001267 0.000000
0.001739 -0.013630 0.000000
0.003015 -0.003136 0.000000
-0.000038 -0.001699 0.000000
0.000147 -0.002397 0.000000
0.001119 -0.012426 0.000000
0.001672 -0.006403 0.000000
0.007856 -0.006899 0.000000
0.003004 -0.000820 0.000000
0.004275 -0.015415 0.000000
0.000187 -0.001206 0.000000
0.002297 -0.005651 0.000000
0.000246 -0.008404 0.000000
0.000731 -0.009773 0.000000
0.004439 -0.000364 0.000000
0.000713 -0.009716 0.000000
-0.000277 -0.007240 0.000000
0.007694 -0.005308 0.000000
0.001046 -0.012987 0.000000
0.000176 -0.002508 0.000000
0.001475 -0.011844 0.000000
0.007098 -0.015381 0.000000
-0.000096 -0.010341 0.000000
0.000164 -0.001440 0.000000
0.000581 -0.009443 0.000000
0.001135 -0.005937 0.000000
0.000187 -0.001454 0.000000
0.000674 -0.011690 0.000000
0.000786 -0.011464 0.000000
0.000316 -0.000757 0.000000
0.004195 -0.000433 0.000000
-0.000080 -0.006289 0.000000
0.000481 -0.000745 0.000000
0.000739 -0.012454 0.000000
0.006191 -0.003843 0.000000
0.002820 -0.004736 0.000000
0.002311 -0.014372 0.000000
0.005036 -0.015136 0.000000
-0.000130 -0.004473 0.000000
0.000896 -0.001214 0.000000
0.007472 -0.006680 0.000000
0.004533 -0.000893 0.000000
0.006868 -0.010049 0.000000
0.002323 -0.005746 0.000000
0.007355 -0.013169 0.000000
0.001197 -0.006025 0.000000
0.000141 -0.001441 0.000000
0.001384 -0.002601 0.000000
0.000823 -0.012412 0.000000
0.005801 -0.015517 0.000000
0.000088 -0.001517 0.000000
0.002919 -0.000662 0.000000
0.004171 -0.015422 0.000000
0.001147 -0.000750 0.000000
0.002509 -0.007173 0.000000
0.000333 -0.000968 0.000000
0.000171 -0.000770 0.000000
-0.000083 -0.006980 0.000000
0.000101 -0.000908 0.000000
0.000213 -0.000826 0.000000
0.006018 -0.003623 0.000000
0.000643 -0.004299 0.000000
0.001226 -0.000681 0.000000
0.007905 -0.007252 0.000000
0.006378 -0.012520 0.000000
0.000189 -0.002773 0.000000
0.000900 -0.007869 0.000000
0.000152 -0.003360 0.000000
0.005790 -0.013361 0.000000
0.000820 -0.007320 0.000000
0.004228 -0.000515 0.000000
0.000805 -0.012498 0.000000
0.002445 -0.003790 0.000000
0.000207 -0.000634 0.000000
0.000314 -0.004143 0.000000
0.000390 -0.001580 0.000000
0.002253 -0.011959 0.000000
0.002378 -0.004618 0.000000
0.008085 -0.006942 0.000000
0.002331 -0.005064 0.000000
0.001458 -0.011207 0.000000
-0.000071 -0.003718 0.000000
0.003780 -0.004313 0.000000
0.002592 -0.000627 0.000000
0.000450 -0.000958 0.000000
0.002669 -0.002758 0.000000
0.004285 -0.015411 0.000000
0.003465 -0.000703 0.000000
-0.000454 -0.005406 0.000000
0.006279 -0.014175 0.000000
0.000887 -0.005545 0.000000
0.000802 -0.000714 0.000000
0.008128 -0.006104 0.000000
0.000771 -0.010481 0.000000
0.001106 -0.005585 0.000000
-0.000011 -0.004529 0.000000
0.000802 -0.004433 0.000000
0.000075 -0.001355 0.000000
0.005593 -0.013144 0.000000
0.000347 -0.001257 0.000000
0.005721 -0.014029 0.000000
0.000601 -0.012034 0.000000
0.000167 -0.000903 0.000000
0.007350 -0.010416 0.000000
0.007919 -0.011963 0.000000
0.004472 -0.014248 0.000000
0.006202 -0.001705 0.000000
0.008570 -0.007383 0.000000
0.005096 -0.001202 0.000000
0.002571 -0.004340 0.000000
0.008446 -0.011477 0.000000
0.003082 -0.009226 0.000000
0.000279 -0.010115 0.000000
0.006932 -0.012022 0.000000
0.004480 -0.000411 0.000000
0.002263 -0.003505 0.000000
0.004419 -0.000387 0.000000
0.001033 -0.007580 0.000000
0.006290 -0.003952 0.000000
0.002689 -0.001345 0.000000
-0.000062 -0.006605 0.000000
0.005691 -0.013842 0.000000
0.007270 -0.010508 0.000000
0.004987 -0.015073 0.000000
0.002165 -0.000554 0.000000
0.001806 -0.002974 0.000000
0.003930 -0.015094 0.000000
0.002214 -0.012223 0.000000
0.002718 -0.006503 0.000000
0.000684 -0.000582 0.000000
0.005945 -0.002672 0.000000
0.002525 -0.000823 0.000000
0.000130 -0.000445 0.000000
0.007784 -0.004343 0.000000
0.006065 -0.005776 0.000000
-0.000165 -0.001760 0.000000
0.000038 -0.003232 0.000000
0.002135 -0.002266 0.000000
0.000243 -0.004757 0.000000
-0.000194 -0.000717 0.000000
0.004706 -0.014366 0.000000
0.001688 -0.000795 0.000000
0.001034 -0.007142 0.000000
0.002066 -0.000592 0.000000
0.008134 -0.007366 0.000000
0.001480 -0.012420 0.000000
0.002447 -0.007296 0.000000
0.002149 -0.008140 0.000000
0.002327 -0.007223 0.000000
0.005236 -0.001416 0.000000
0.000707 -0.009239 0.000000
0.006734 -0.004030 0.000000
0.002551 -0.008636 0.000000
0.003094 -0.007878 0.000000
0.006229 -0.003792 0.000000
0.001898 -0.007886 0.000000
0.000685 -0.009395 0.000000
0.005201 -0.001362 0.000000
-0.000118 -0.006873 0.000000
-0.000120 -0.007181 0.000000
0.000726 -0.009791 0.000000
0.000681 -0.009450 0.000000
-0.000081 -0.006516 0.000000
0.001554 -0.007468 0.000000
0.000371 -0.001228 0.000000
0.004913 -0.001154 0.000000
0.007136 -0.010937 0.000000
0.000734 -0.009782 0.000000
0.007147 -0.010864 0.000000
-0.000068 -0.006820 0.000000
0.000724 -0.009162 0.000000
-0.000158 -0.007141 0.000000
0.006213 -0.003762 0.000000
0.005271 -0.001415 0.000000
0.006655 -0.004106 0.000000
-0.000075 -0.006910 0.000000
0.006273 -0.003871 0.000000
0.000332 -0.001158 0.000000
0.007930 -0.006828 0.000000
0.006913 -0.004134 0.000000
0.000703 -0.009267 0.000000
0.003320 -0.003603 0.000000
0.005838 -0.013623 0.000000
0.007343 -0.011285 0.000000
0.000742 -0.009772 0.000000
0.000356 -0.001231 0.000000
0.004950 -0.001200 0.000000
0.007416 -0.011017 0.000000
0.004583 -0.014413 0.000000
0.007877 -0.007041 0.000000
0.007949 -0.007107 0.000000
0.002942 -0.003818 0.000000
0.004655 -0.014423 0.000000
0.000695 -0.009577 0.000000
0.005606 -0.013292 0.000000
0.000321 -0.001224 0.000000
0.005793 -0.013671 0.000000
0.006884 -0.004098 0.000000
0.000777 -0.012354 0.000000
0.003770 -0.000683 0.000000
0.005650 -0.013529 0.000000
0.003486 -0.008417 0.000000
0.000718 -0.012295 0.000000
0.006666 -0.003973 0.000000
-0.000103 -0.006769 0.000000
0.006835 -0.004193 0.000000
0.001389 -0.007598 0.000000
0.003104 -0.008803 0.000000
0.002568 -0.004701 0.000000
0.003874 -0.000467 0.000000
0.000747 -0.012365 0.000000
0.004092 -0.000482 0.000000
0.004036 -0.000609 0.000000
0.003474 -0.004153 0.000000
0.001058 -0.007951 0.000000
0.006264 -0.003709 0.000000
0.000729 -0.012317 0.000000
0.001485 -0.006774 0.000000
0.000701 -0.009314 0.000000
0.008061 -0.007079 0.000000
0.001418 -0.007305 0.000000
0.005135 -0.001283 0.000000
0.000738 -0.009136 0.000000
0.001044 -0.008140 0.000000
-0.000188 -0.007392 0.000000
0.001351 -0.011248 0.000000
0.002642 -0.003136 0.000000
0.001467 -0.011397 0.000000
0.002508 -0.004428 0.000000
0.001513 -0.007220 0.000000
0.007300 -0.010520 0.000000
0.000798 -0.012456 0.000000
0.002771 -0.004954 0.000000
0.000718 -0.009795 0.000000
0.005755 -0.013682 0.000000
0.001334 -0.011506 0.000000
0.007967 -0.006823 0.000000
0.005255 -0.001350 0.000000
0.008107 -0.007228 0.000000
0.005715 -0.013694 0.000000
0.005848 -0.013592 0.000000
0.007328 -0.015184 0.000000
-0.000060 -0.006467 0.000000
0.002407 -0.004490 0.000000
0.002677 -0.003025 0.000000
0.006898 -0.015451 0.000000
0.002330 -0.004261 0.000000
0.007286 -0.015193 0.000000
0.006561 -0.003882 0.000000
0.002693 -0.003711 0.000000
0.004930 -0.001138 0.000000
0.004977 -0.001211 0.000000
0.000692 -0.009551 0.000000
0.000275 -0.009599 0.000000
0.008225 -0.011200 0.000000
0.008566 -0.010362 0.000000
0.000411 -0.001189 0.000000
0.000286 -0.001191 0.000000
0.005632 -0.013605 0.000000
0.008377 -0.012526 0.000000
0.008090 -0.007290 0.000000
0.002306 -0.008408 0.000000
0.001038 -0.011092 0.000000
0.007996 -0.006794 0.000000
0.007314 -0.015155 0.000000
0.006640 -0.015140 0.000000
0.005576 -0.013313 0.000000
0.002300 -0.000877 0.000000
0.001218 -0.007984 0.000000
0.005068 -0.003889 0.000000
0.001154 -0.007623 0.000000
0.008437 -0.010950 0.000000
0.007576 -0.010692 0.000000
0.007493 -0.010671 0.000000
-0.000200 -0.007505 0.000000
0.000305 -0.001215 0.000000
0.006513 -0.004046 0.000000
0.000274 -0.004932 0.000000
0.005596 -0.013198 0.000000
0.007511 -0.010838 0.000000
0.008298 -0.012803 0.000000
0.002778 -0.008843 0.000000
0.000442 -0.001214 0.000000
0.002882 -0.002981 0.000000
0.001544 -0.010835 0.000000
0.000221 -0.004405 0.000000
0.006478 -0.014583 0.000000
0.000432 -0.001208 0.000000
0.008524 -0.012472 0.000000
0.007003 -0.004246 0.000000
0.006699 -0.014785 0.000000
0.008226 -0.012737 0.000000
0.004945 -0.001199 0.000000
0.008820 -0.011230 0.000000
0.001516 -0.007319 0.000000
0.000776 -0.012456 0.000000
0.008477 -0.011052 0.000000
0.008830 -0.011765 0.000000
0.001257 -0.011109 0.000000
0.003947 -0.015022 0.000000
0.002634 -0.007371 0.000000
0.004734 -0.014545 0.000000
-0.000172 -0.007486 0.000000
0.000804 -0.012396 0.000000
0.008396 -0.007778 0.000000
-0.000075 -0.006372 0.000000
0.001049 -0.000636 0.000000
0.007919 -0.007160 0.000000
0.001159 -0.000669 0.000000
0.007172 -0.010686 0.000000
0.002753 -0.001138 0.000000
-0.000105 -0.003482 0.000000
-0.000156 -0.007422 0.000000
0.003314 -0.008669 0.000000
0.001910 -0.006936 0.000000
0.002201 -0.007155 0.000000
0.000692 -0.009399 0.000000
0.008458 -0.010570 0.000000
0.007407 -0.011150 0.000000
0.002321 -0.003336 0.000000
0.004504 -0.014272 0.000000
0.005688 -0.013725 0.000000
0.005598 -0.013417 0.000000
0.005271 -0.001465 0.000000
0.003537 -0.000650 0.000000
0.000068 -0.004940 0.000000
0.002478 -0.003193 0.000000
0.000297 -0.003203 0.000000
0.002771 -0.004737 0.000000
0.004359 -0.003893 0.000000
0.007866 -0.006823 0.000000
0.007864 -0.006772 0.000000
0.008060 -0.006955 0.000000
0.001095 -0.011318 0.000000
0.003172 -0.013650 0.000000
0.006106 -0.014344 0.000000
0.000291 -0.001157 0.000000
0.001065 -0.000529 0.000000
0.007360 -0.009575 0.000000
0.000756 -0.009713 0.000000
0.007074 -0.015661 0.000000
0.002628 -0.004903 0.000000
0.007380 -0.012617 0.000000
0.000101 -0.004729 0.000000
0.007990 -0.007170 0.000000
0.003957 -0.000711 0.000000
0.008696 -0.011649 0.000000
0.003530 -0.008733 0.000000
0.006498 -0.003838 0.000000
0.006349 -0.003750 0.000000
0.000172 -0.004730 0.000000
0.000254 -0.009622 0.000000
0.003171 -0.008757 0.000000
0.007107 -0.011394 0.000000
0.001663 -0.007758 0.000000
0.006243 -0.005011 0.000000
0.003207 -0.003357 0.000000
0.000520 -0.002204 0.000000
0.006308 -0.003929 0.000000
0.001202 -0.011375 0.000000
0.002798 -0.001499 0.000000
0.004697 -0.014398 0.000000
0.007074 -0.015277 0.000000
0.000359 -0.001154 0.000000
0.001216 -0.006819 0.000000
0.000743 -0.012299 0.000000
0.002726 -0.005086 0.000000
0.002523 -0.001495 0.000000
0.000959 -0.008184 0.000000
0.002305 -0.001118 0.000000
0.000342 -0.001245 0.000000
0.000465 -0.001021 0.000000
0.004396 -0.014204 0.000000
0.007863 -0.006903 0.000000
0.000130 -0.004945 0.000000
0.000419 -0.001227 0.000000
0.001515 -0.007116 0.000000
0.007908 -0.007205 0.000000
0.000233 -0.009467 0.000000
0.006714 -0.004010 0.000000
0.000132 -0.002480 0.000000
0.000597 -0.001079 0.000000
0.000640 -0.001187 0.000000
0.001762 -0.006777 0.000000
0.006312 -0.004662 0.000000
0.001194 -0.006429 0.000000
0.005297 -0.001468 0.000000
0.004897 -0.001175 0.000000
0.005085 -0.001248 0.000000
0.002258 -0.001852 0.000000
0.007868 -0.006996 0.000000
0.007607 -0.008927 0.000000
0.003086 -0.004039 0.000000
0.001344 -0.011602 0.000000
0.001963 -0.012343 0.000000
0.005289 -0.001405 0.000000
0.000268 -0.002633 0.000000
0.004750 -0.014604 0.000000
0.003336 -0.000914 0.000000
0.007862 -0.006732 0.000000
-0.000146 -0.007027 0.000000
0.007269 -0.015260 0.000000
0.000706 -0.009752 0.000000
0.004423 -0.014219 0.000000
0.002751 -0.012603 0.000000
0.007087 -0.005069 0.000000
0.004612 -0.014309 0.000000
0.000705 -0.009268 0.000000
0.007470 -0.010560 0.000000
0.006850 -0.004085 0.000000
0.000920 -0.011257 0.000000
0.000165 -0.001418 0.000000
0.002780 -0.001246 0.000000
0.001337 -0.006808 0.000000
0.003389 -0.004210 0.000000
0.007901 -0.006755 0.000000
0.007150 -0.011502 0.000000
0.000302 -0.001141 0.000000
0.000092 -0.005295 0.000000
0.001523 -0.011692 0.000000
-0.000069 -0.006289 0.000000
0.000966 -0.012889 0.000000
0.008493 -0.013334 0.000000
0.004185 -0.000536 0.000000
0.001223 -0.011061 0.000000
0.006658 -0.003964 0.000000
0.001056 -0.012941 0.000000
0.003826 -0.013664 0.000000
0.000709 -0.009696 0.000000
0.003379 -0.013431 0.000000
0.004794 -0.007792 0.000000
0.005540 -0.013122 0.000000
0.004111 -0.000421 0.000000
0.000121 -0.001238 0.000000
0.004672 -0.014410 0.000000
0.003439 -0.008170 0.000000
0.007108 -0.011244 0.000000
0.002684 -0.004576 0.000000
0.007300 -0.008780 0.000000
0.000696 -0.012249 0.000000
0.007031 -0.015629 0.000000
0.002979 -0.007637 0.000000
0.007650 -0.004300 0.000000
-0.000529 -0.004493 0.000000
0.006981 -0.004184 0.000000
0.001524 -0.007415 0.000000
-0.000491 -0.006514 0.000000
0.003871 -0.000727 0.000000
0.004420 -0.014300 0.000000
0.007596 -0.008768 0.000000
0.002575 -0.004424 0.000000
0.000392 -0.001172 0.000000
0.007838 -0.004476 0.000000
0.001503 -0.006491 0.000000
-0.000079 -0.006635 0.000000
0.000703 -0.009785 0.000000
0.005156 -0.001294 0.000000
0.007235 -0.006023 0.000000
0.000397 -0.001230 0.000000
0.006257 -0.001714 0.000000
0.007118 -0.011093 0.000000
-0.000602 -0.006826 0.000000
0.000870 -0.011237 0.000000
0.005094 -0.001196 0.000000
0.004975 -0.001140 0.000000
-0.000178 -0.007287 0.000000
0.002341 -0.008557 0.000000
0.007863 -0.006813 0.000000
0.006373 -0.003971 0.000000
0.003347 -0.013139 0.000000
0.000714 -0.009706 0.000000
0.000698 -0.012247 0.000000
0.000200 -0.009463 0.000000
0.005511 -0.013072 0.000000
0.000184 -0.009379 0.000000
0.008306 -0.011778 0.000000
0.004285 -0.015408 0.000000
0.005173 -0.001250 0.000000
0.000140 -0.000847 0.000000
0.000333 -0.009737 0.000000
0.000540 -0.001092 0.000000
0.000726 -0.009136 0.000000
0.000464 -0.011566 0.000000
0.001106 -0.010978 0.000000
0.000268 -0.001357 0.000000
-0.000078 -0.006564 0.000000
0.000527 -0.002042 0.000000
0.007491 -0.005645 0.000000
0.004887 -0.001127 0.000000
-0.000094 -0.010400 0.000000
0.000306 -0.003128 0.000000
0.000848 -0.001159 0.000000
0.007843 -0.008163 0.000000
0.006770 -0.004168 0.000000
0.008607 -0.012583 0.000000
0.005814 -0.013471 0.000000
0.007445 -0.010443 0.000000
0.001482 -0.006435 0.000000
0.000805 -0.012428 0.000000
0.006225 -0.001692 0.000000
0.000831 -0.011873 0.000000
0.002839 -0.015468 0.000000
0.000292 -0.009716 0.000000
0.003614 -0.000732 0.000000
0.000292 -0.001346 0.000000
0.003122 -0.000867 0.000000
0.007362 -0.015114 0.000000
0.001276 -0.001015 0.000000
0.007532 -0.010605 0.000000
-0.000565 -0.003786 0.000000
0.000125 -0.000863 0.000000
0.004746 -0.014594 0.000000
0.008558 -0.012660 0.000000
0.001608 -0.011491 0.000000
0.005592 -0.013607 0.000000
0.000225 -0.002288 0.000000
0.007886 -0.007152 0.000000
0.007227 -0.015316 0.000000
-0.000006 -0.003441 0.000000
0.007204 -0.003670 0.000000
0.006091 -0.002661 0.000000
0.002502 -0.013410 0.000000
0.008491 -0.012328 0.000000
0.000977 -0.000612 0.000000
0.002349 -0.003484 0.000000
-0.000262 -0.010511 0.000000
0.001159 -0.010886 0.000000
0.006202 -0.008905 0.000000
0.006965 -0.004123 0.000000
0.000197 -0.003819 0.000000
0.001218 -0.001158 0.000000
0.001298 -0.010977 0.000000
0.005582 -0.010043 0.000000
0.000970 -0.010295 0.000000
0.000616 -0.000473 0.000000
0.002392 -0.000735 0.000000
0.004372 -0.011192 0.000000
0.004348 -0.014205 0.000000
0.001042 -0.012996 0.000000
0.005786 -0.012249 0.000000
0.001269 -0.012786 0.000000
0.001655 -0.011674 0.000000
0.002630 -0.002836 0.000000
0.000779 -0.011800 0.000000
0.000378 -0.002189 0.000000
0.000515 -0.012821 0.000000
0.003058 -0.000629 0.000000
0.001070 -0.010760 0.000000
0.006551 -0.004080 0.000000
0.004708 -0.014544 0.000000
0.005758 -0.013367 0.000000
0.000654 -0.007585 0.000000
0.001126 -0.000707 0.000000
-0.000160 -0.003219 0.000000
0.001271 -0.002570 0.000000
0.003174 -0.000580 0.000000
0.000049 -0.000886 0.000000
0.003515 -0.000547 0.000000
0.006941 -0.004255 0.000000
0.008079 -0.006337 0.000000
0.003124 -0.000301 0.000000
-0.000076 -0.007208 0.000000
0.000620 -0.002143 0.000000
0.004926 -0.010669 0.000000
0.005263 -0.001462 0.000000
0.003694 -0.008588 0.000000
0.001476 -0.000502 0.000000
0.005979 -0.013984 0.000000
0.003550 -0.004092 0.000000
0.000074 -0.001955 0.000000
0.000246 -0.001396 0.000000
-0.000027 -0.003812 0.000000
0.002409 -0.013304 0.000000
0.000874 -0.001135 0.000000
0.003619 -0.003937 0.000000
0.000244 -0.001690 0.000000
0.000156 -0.003910 0.000000
0.000499 -0.005488 0.000000
0.001037 -0.012845 0.000000
0.001683 -0.000697 0.000000
0.000758 -0.010960 0.000000
0.001284 -0.007153 0.000000
0.005233 -0.001415 0.000000
0.008196 -0.004534 0.000000
0.001627 -0.011559 0.000000
0.003168 -0.016288 0.000000
0.008505 -0.007518 0.000000
0.001645 -0.000658 0.000000
0.000625 -0.011160 0.000000
0.002352 -0.000704 0.000000
0.000773 -0.009799 0.000000
0.003529 -0.002561 0.000000
0.000824 -0.012470 0.000000
0.000516 -0.012856 0.000000
0.000920 -0.007891 0.000000
0.003549 -0.003744 0.000000
0.000765 -0.009653 0.000000
0.005429 -0.011443 0.000000
0.000186 -0.001223 0.000000
0.000318 -0.012457 0.000000
0.008946 -0.007832 0.000000
0.003995 -0.002436 0.000000
0.006219 -0.001629 0.000000
0.002760 -0.007254 0.000000
0.007081 -0.015715 0.000000
0.000727 -0.009570 0.000000
0.001561 -0.002672 0.000000
0.001009 -0.011144 0.000000
0.003185 -0.004237 0.000000
0.005320 -0.014425 0.000000
0.000448 -0.012247 0.000000
0.000459 -0.000704 0.000000
0.004025 -0.014980 0.000000
0.000152 -0.004831 0.000000
0.001007 -0.005693 0.000000
0.008394 -0.013485 0.000000
0.008117 -0.007177 0.000000
0.007160 -0.015116 0.000000
0.000616 -0.006950 0.000000
0.000150 -0.003555 0.000000
0.005876 -0.013703 0.000000
0.008151 -0.006187 0.000000
0.007437 -0.011194 0.000000
0.000741 -0.012379 0.000000
0.004007 -0.014875 0.000000
0.007208 -0.015571 0.000000
0.007850 -0.006649 0.000000
0.007874 -0.005358 0.000000
0.000536 -0.000747 0.000000
0.001033 -0.012803 0.000000
0.000511 -0.012882 0.000000
0.007779 -0.012179 0.000000
0.001348 -0.001036 0.000000
0.002436 -0.002398 0.000000
0.001169 -0.000505 0.000000
0.008135 -0.004512 0.000000
0.008921 -0.012102 0.000000
0.004025 -0.015065 0.000000
0.000576 -0.012038 0.000000
0.003988 -0.001564 0.000000
0.007241 -0.015244 0.000000
0.006191 -0.003799 0.000000
0.007831 -0.005497 0.000000
-0.000068 -0.006740 0.000000
0.008283 -0.007094 0.000000
0.004976 -0.002393 0.000000
0.000750 -0.004455 0.000000
0.000617 -0.000772 0.000000
0.000137 -0.000760 0.000000
0.008330 -0.004512 0.000000
0.005898 -0.011556 0.000000
0.000356 -0.001341 0.000000
0.002917 -0.006404 0.000000
0.001651 -0.011683 0.000000
0.000330 -0.011419 0.000000
0.006146 -0.012036 0.000000
0.008330 -0.004573 0.000000
0.000263 -0.005463 0.000000
0.000249 -0.010937 0.000000
0.000459 -0.004495 0.000000
0.001794 -0.000662 0.000000
0.004865 -0.001149 0.000000
0.002837 -0.000725 0.000000
0.007181 -0.015624 0.000000
0.000154 -0.000826 0.000000
0.001166 -0.008098 0.000000
0.008323 -0.007387 0.000000
0.007009 -0.005210 0.000000
0.001610 -0.007826 0.000000
0.006016 -0.015284 0.000000
0.005049 -0.001160 0.000000
0.008477 -0.011020 0.000000
0.003005 -0.000339 0.000000
0.000103 -0.000720 0.000000
0.005908 -0.013599 0.000000
0.000998 -0.012927 0.000000
0.001059 -0.011195 0.000000
0.007068 -0.011041 0.000000
0.005352 -0.001932 0.000000
0.001523 -0.012262 0.000000
0.005382 -0.002285 0.000000
0.002848 -0.000409 0.000000
-0.000032 -0.005803 0.000000
0.006223 -0.003861 0.000000
0.000706 -0.009841 0.000000
0.003402 -0.000620 0.000000
0.000091 -0.002432 0.000000
0.006110 -0.003677 0.000000
0.000795 -0.008384 0.000000
0.003192 -0.000424 0.000000
0.000451 -0.001045 0.000000
0.001106 -0.008030 0.000000
0.000109 -0.002419 0.000000
0.003469 -0.000269 0.000000
0.002391 -0.000708 0.000000
0.007398 -0.015063 0.000000
0.000794 -0.011680 0.000000
-0.000120 -0.010694 0.000000
0.003212 -0.002511 0.000000
0.001274 -0.011766 0.000000
0.004121 -0.007777 0.000000
0.000308 -0.004930 0.000000
0.003820 -0.014966 0.000000
0.005026 -0.015052 0.000000
0.000803 -0.001240 0.000000
0.000994 -0.012961 0.000000
0.006150 -0.007161 0.000000
0.002424 -0.005799 0.000000
0.000520 -0.004146 0.000000
0.000299 -0.003412 0.000000
0.000153 -0.001435 0.000000
0.008970 -0.007671 0.000000
0.000549 -0.004379 0.000000
0.000242 -0.001245 0.000000
0.000537 -0.001957 0.000000
0.001039 -0.004483 0.000000
0.000464 -0.012837 0.000000
0.000158 -0.001155 0.000000
0.007124 -0.010779 0.000000
0.000514 -0.000722 0.000000
0.000929 -0.010164 0.000000
-0.000084 -0.002368 0.000000
0.000462 -0.003993 0.000000
0.005603 -0.001972 0.000000
0.004007 -0.015122 0.000000
0.008456 -0.007449 0.000000
0.000835 -0.000888 0.000000
-0.000268 -0.001184 0.000000
0.000941 -0.007652 0.000000
0.000122 -0.000634 0.000000
0.007191 -0.005066 0.000000
0.003674 -0.007145 0.000000
0.001869 -0.000411 0.000000
0.002428 -0.007370 0.000000
0.003118 -0.008636 0.000000
0.005175 -0.001267 0.000000
0.000699 -0.009736 0.000000
0.000690 -0.009518 0.000000
0.002322 -0.007307 0.000000
0.002140 -0.007208 0.000000
0.000696 -0.009312 0.000000
0.005099 -0.001212 0.000000
0.006284 -0.003812 0.000000
0.000680 -0.009453 0.000000
0.003048 -0.008679 0.000000
0.000710 -0.009745 0.000000
0.007454 -0.010735 0.000000
0.006485 -0.004016 0.000000
0.006420 -0.003808 0.000000
0.006819 -0.004077 0.000000
-0.000073 -0.006852 0.000000
0.007185 -0.010883 0.000000
-0.000110 -0.006828 0.000000
0.005017 -0.001225 0.000000
0.007873 -0.006848 0.000000
0.007163 -0.011102 0.000000
0.000723 -0.009737 0.000000
0.000357 -0.001219 0.000000
0.007160 -0.011174 0.000000
0.005797 -0.013565 0.000000
0.006652 -0.003969 0.000000
0.002861 -0.007623 0.000000
0.003473 -0.003886 0.000000
0.004452 -0.014248 0.000000
0.007890 -0.007100 0.000000
0.005779 -0.013472 0.000000
0.006788 -0.004156 0.000000
0.000419 -0.001206 0.000000
0.006345 -0.003771 0.000000
0.004484 -0.014268 0.000000
0.001187 -0.011096 0.000000
-0.000061 -0.006488 0.000000
-0.000160 -0.007399 0.000000
0.000698 -0.009347 0.000000
0.000296 -0.001187 0.000000
0.001805 -0.006932 0.000000
0.000700 -0.009682 0.000000
0.000788 -0.012400 0.000000
0.000415 -0.001222 0.000000
0.003061 -0.003337 0.000000
0.004518 -0.014289 0.000000
0.001355 -0.007143 0.000000
0.007872 -0.006950 0.000000
0.000367 -0.001169 0.000000
0.004710 -0.014535 0.000000
-0.000106 -0.007098 0.000000
0.005017 -0.001165 0.000000
0.007420 -0.010570 0.000000
0.002735 -0.004777 0.000000
0.002665 -0.004609 0.000000
0.008023 -0.006929 0.000000
0.000728 -0.012292 0.000000
0.003311 -0.008135 0.000000
0.000737 -0.012325 0.000000
-0.000061 -0.006636 0.000000
0.004922 -0.001176 0.000000
0.002869 -0.008813 0.000000
0.004454 -0.014296 0.000000
0.001605 -0.006849 0.000000
0.002445 -0.003367 0.000000
0.006169 -0.003694 0.000000
0.005264 -0.001443 0.000000
0.001327 -0.011419 0.000000
0.007208 -0.011438 0.000000
0.005742 -0.013625 0.000000
0.000731 -0.009145 0.000000
0.002403 -0.001081 0.000000
0.001225 -0.007883 0.000000
0.000314 -0.001211 0.000000
0.001094 -0.011244 0.000000
0.002653 -0.001254 0.000000
0.008026 -0.007184 0.000000
0.005610 -0.013330 0.000000
0.000786 -0.012386 0.000000
0.004668 -0.014451 0.000000
0.007868 -0.006860 0.000000
0.003402 -0.008644 0.000000
0.001550 -0.011533 0.000000
0.001289 -0.011187 0.000000
0.007869 -0.006853 0.000000
0.000726 -0.009608 0.000000
0.002789 -0.003172 0.000000
0.002450 -0.004387 0.000000
0.002647 -0.001148 0.000000
0.003333 -0.004099 0.000000
0.002490 -0.001224 0.000000
0.008481 -0.012640 0.000000
0.000743 -0.009723 0.000000
0.001145 -0.011311 0.000000
0.003919 -0.000671 0.000000
0.006556 -0.003886 0.000000
0.004707 -0.014539 0.000000
0.001471 -0.011619 0.000000
0.008394 -0.012615 0.000000
0.007100 -0.011320 0.000000
0.002689 -0.004971 0.000000
0.001127 -0.007801 0.000000
0.003576 -0.008571 0.000000
0.002514 -0.004608 0.000000
0.001467 -0.007351 0.000000
0.000805 -0.012446 0.000000
0.007145 -0.011402 0.000000
0.006280 -0.003895 0.000000
0.006258 -0.003843 0.000000
0.007453 -0.010921 0.000000
0.007897 -0.007130 0.000000
0.000703 -0.009782 0.000000
0.002995 -0.008908 0.000000
0.007975 -0.007111 0.000000
0.007167 -0.010739 0.000000
0.008081 -0.007154 0.000000
0.006920 -0.004159 0.000000
0.000681 -0.009499 0.000000
0.002763 -0.012823 0.000000
0.000755 -0.012396 0.000000
0.000216 -0.009464 0.000000
0.006161 -0.003661 0.000000
0.002743 -0.013297 0.000000
0.004407 -0.014236 0.000000
0.001049 -0.008051 0.000000
0.000685 -0.009543 0.000000
0.005828 -0.013657 0.000000
0.007096 -0.015509 0.000000
0.003577 -0.000585 0.000000
0.000741 -0.009113 0.000000
0.003229 -0.004147 0.000000
0.005710 -0.013636 0.000000
0.003615 -0.000672 0.000000
0.007927 -0.007106 0.000000
0.004957 -0.001205 0.000000
0.006910 -0.004118 0.000000
0.002621 -0.004520 0.000000
0.008717 -0.011568 0.000000
0.002350 -0.004367 0.000000
0.001771 -0.007754 0.000000
0.003699 -0.000505 0.000000
0.000335 -0.003039 0.000000
0.000726 -0.009176 0.000000
0.002499 -0.000879 0.000000
0.000749 -0.012315 0.000000
0.005222 -0.001395 0.000000
0.008476 -0.010237 0.000000
0.000238 -0.009555 0.000000
0.004939 -0.001190 0.000000
0.007878 -0.006776 0.000000
0.007379 -0.011112 0.000000
0.001315 -0.006897 0.000000
-0.000086 -0.006598 0.000000
0.007266 -0.015234 0.000000
0.002621 -0.003240 0.000000
0.003986 -0.015072 0.000000
0.003073 -0.003920 0.000000
0.004065 -0.000460 0.000000
0.001128 -0.011055 0.000000
0.000339 -0.001232 0.000000
0.000119 -0.004097 0.000000
0.000692 -0.009338 0.000000
0.002274 -0.004260 0.000000
0.004833 -0.004710 0.000000
0.003951 -0.014978 0.000000
0.006948 -0.004235 0.000000
0.007118 -0.011018 0.000000
0.007348 -0.010473 0.000000
0.002726 -0.002906 0.000000
0.002810 -0.003709 0.000000
0.004173 -0.003233 0.000000
0.007342 -0.015148 0.000000
0.000349 -0.001160 0.000000
0.000712 -0.009210 0.000000
0.005241 -0.001318 0.000000
0.000303 -0.001156 0.000000
0.000738 -0.012339 0.000000
0.008471 -0.010761 0.000000
0.005266 -0.001394 0.000000
-0.000090 -0.006668 0.000000
0.006619 -0.003933 0.000000
0.005109 -0.001266 0.000000
0.006778 -0.004055 0.000000
0.006693 -0.004002 0.000000
0.008746 -0.011743 0.000000
0.005635 -0.013470 0.000000
0.000855 -0.001179 0.000000
0.005587 -0.013209 0.000000
0.007911 -0.006807 0.000000
0.004923 -0.001148 0.000000
0.007951 -0.006852 0.000000
0.000297 -0.009666 0.000000
0.001448 -0.006868 0.000000
-0.000178 -0.007311 0.000000
0.002578 -0.003722 0.000000
0.006609 -0.003921 0.000000
0.005663 -0.013669 0.000000
0.001357 -0.007370 0.000000
0.002025 -0.008014 0.000000
0.002396 -0.004277 0.000000
0.005861 -0.013569 0.000000
-0.000200 -0.007471 0.000000
0.002977 -0.007751 0.000000
-0.000085 -0.006993 0.000000
0.004638 -0.014392 0.000000
0.000710 -0.012277 0.000000
0.002273 -0.008262 0.000000
0.001659 -0.007619 0.000000
0.000137 -0.004222 0.000000
0.001456 -0.007311 0.000000
0.002429 -0.008524 0.000000
0.000710 -0.009793 0.000000
0.007878 -0.007100 0.000000
0.002743 -0.007389 0.000000
0.005054 -0.001174 0.000000
0.002616 -0.004794 0.000000
0.005179 -0.001330 0.000000
0.001282 -0.011112 0.000000
0.000318 -0.001157 0.000000
0.001412 -0.011322 0.000000
-0.000098 -0.007078 0.000000
0.007875 -0.006996 0.000000
0.005732 -0.013377 0.000000
0.003957 -0.000453 0.000000
0.000385 -0.001225 0.000000
0.005505 -0.004254 0.000000
0.000708 -0.009595 0.000000
0.006982 -0.015631 0.000000
-0.000168 -0.007227 0.000000
0.008388 -0.012785 0.000000
0.007095 -0.011565 0.000000
0.000792 -0.012468 0.000000
0.007363 -0.010172 0.000000
0.002689 -0.008880 0.000000
0.000184 -0.004520 0.000000
0.004714 -0.014505 0.000000
0.000314 -0.010467 0.000000
0.008476 -0.012406 0.000000
-0.000040 -0.003662 0.000000
0.004693 -0.014372 0.000000
0.001586 -0.011668 0.000000
0.002002 -0.001506 0.000000
0.000138 -0.001206 0.000000
0.001609 -0.010741 0.000000
0.004132 -0.000541 0.000000
0.003042 -0.000781 0.000000
-0.000133 -0.006967 0.000000
0.005598 -0.013252 0.000000
0.002464 -0.004602 0.000000
0.006999 -0.004216 0.000000
0.000757 -0.011798 0.000000
0.002431 -0.002346 0.000000
0.007482 -0.010616 0.000000
0.007508 -0.010780 0.000000
0.002618 -0.004973 0.000000
0.001472 -0.007249 0.000000
0.004113 -0.000508 0.000000
0.008411 -0.008272 0.000000
0.000118 -0.005056 0.000000
0.006584 -0.004077 0.000000
0.000186 -0.005134 0.000000
0.001230 -0.010916 0.000000
0.008333 -0.010013 0.000000
0.001273 -0.010900 0.000000
0.005261 -0.001373 0.000000
0.007176 -0.010635 0.000000
0.003485 -0.000604 0.000000
0.000174 -0.001417 0.000000
0.000891 -0.011498 0.000000
-0.000147 -0.007057 0.000000
0.005053 -0.001234 0.000000
0.000544 -0.002058 0.000000
0.000236 -0.003292 0.000000
0.008210 -0.012826 0.000000
0.007835 -0.008291 0.000000
0.007976 -0.006784 0.000000
0.001043 -0.011029 0.000000
0.002230 -0.000906 0.000000
0.000988 -0.012712 0.000000
0.005658 -0.013747 0.000000
0.004397 -0.014192 0.000000
0.007311 -0.015212 0.000000
0.008506 -0.007636 0.000000
-0.000390 -0.003845 0.000000
0.001091 -0.007749 0.000000
0.000567 -0.002412 0.000000
0.007965 -0.004479 0.000000
0.000435 -0.001218 0.000000
0.005822 -0.007890 0.000000
-0.000063 -0.006512 0.000000
0.007220 -0.015348 0.000000
0.007289 -0.015160 0.000000
0.001003 -0.000525 0.000000
0.000408 -0.001227 0.000000
0.007637 -0.008704 0.000000
0.001103 -0.000663 0.000000
0.002553 -0.015678 0.000000
0.007313 -0.012219 0.000000
0.008542 -0.007505 0.000000
0.007249 -0.015295 0.000000
0.002899 -0.007410 0.000000
0.001052 -0.010404 0.000000
0.000148 -0.000871 0.000000
0.003221 -0.004350 0.000000
0.008518 -0.010392 0.000000
0.007646 -0.005996 0.000000
0.005214 -0.010658 0.000000
0.008303 -0.010807 0.000000
0.000422 -0.001195 0.000000
0.005640 -0.013245 0.000000
0.000973 -0.012910 0.000000
0.000314 -0.001357 0.000000
-0.000077 -0.006459 0.000000
0.007049 -0.005129 0.000000
0.001123 -0.000553 0.000000
0.007757 -0.012876 0.000000
0.000276 -0.009712 0.000000
0.007433 -0.009251 0.000000
0.007506 -0.010899 0.000000
0.006328 -0.004971 0.000000
0.003303 -0.000468 0.000000
0.003627 -0.002453 0.000000
0.000868 -0.005395 0.000000
0.000208 -0.002315 0.000000
0.004776 -0.010970 0.000000
0.008283 -0.011993 0.000000
0.008385 -0.012433 0.000000
0.007866 -0.006696 0.000000
0.007497 -0.003951 0.000000
0.000682 -0.012223 0.000000
0.000244 -0.001333 0.000000
0.007172 -0.015062 0.000000
0.005593 -0.013370 0.000000
0.008546 -0.008088 0.000000
0.003454 -0.006236 0.000000
-0.000198 -0.007540 0.000000
0.003246 -0.000286 0.000000
0.006751 -0.014793 0.000000
0.001401 -0.006361 0.000000
0.000398 -0.001182 0.000000
0.008015 -0.006830 0.000000
0.007258 -0.010565 0.000000
0.003612 -0.008705 0.000000
0.000690 -0.012234 0.000000
0.000205 -0.009426 0.000000
0.000142 -0.002290 0.000000
0.002551 -0.007364 0.000000
0.004749 -0.014579 0.000000
0.008830 -0.008735 0.000000
0.002373 -0.003170 0.000000
0.000443 -0.001210 0.000000
0.008247 -0.012652 0.000000
0.000345 -0.001145 0.000000
0.002403 -0.001378 0.000000
0.006320 -0.014775 0.000000
-0.000666 -0.003209 0.000000
0.001047 -0.000579 0.000000
0.000292 -0.001204 0.000000
0.008489 -0.011277 0.000000
0.005460 -0.003659 0.000000
0.000247 -0.001366 0.000000
0.003916 -0.013546 0.000000
0.007386 -0.011222 0.000000
-0.000076 -0.006183 0.000000
0.001135 -0.010928 0.000000
0.002540 -0.001605 0.000000
0.000264 -0.009521 0.000000
0.001203 -0.006889 0.000000
0.001065 -0.012933 0.000000
0.000511 -0.012784 0.000000
0.008772 -0.011667 0.000000
0.007790 -0.004428 0.000000
0.000708 -0.009680 0.000000
0.008654 -0.011256 0.000000
0.000938 -0.000652 0.000000
0.006861 -0.005577 0.000000
0.000224 -0.001393 0.000000
-0.000682 -0.003387 0.000000
0.000314 -0.004716 0.000000
0.000424 -0.001231 0.000000
0.001213 -0.007510 0.000000
0.008792 -0.010864 0.000000
0.006770 -0.015066 0.000000
0.000694 -0.009580 0.000000
0.002723 -0.001049 0.000000
0.001193 -0.000631 0.000000
0.000161 -0.004565 0.000000
0.001475 -0.011749 0.000000
0.000280 -0.001160 0.000000
0.005726 -0.012203 0.000000
0.000224 -0.004870 0.000000
0.000594 -0.001137 0.000000
0.002399 -0.014876 0.000000
0.002880 -0.000427 0.000000
0.008590 -0.007509 0.000000
0.000759 -0.012443 0.000000
0.001020 -0.012788 0.000000
0.008032 -0.006424 0.000000
0.000161 -0.001431 0.000000
0.002239 -0.008118 0.000000
0.002978 -0.007863 0.000000
0.002414 -0.007452 0.000000
0.002986 -0.008553 0.000000
0.006706 -0.004023 0.000000
0.001993 -0.007873 0.000000
0.005245 -0.001382 0.000000
0.002236 -0.007366 0.000000
0.006747 -0.004050 0.000000
0.002862 -0.007735 0.000000
-0.000115 -0.007115 0.000000
0.004964 -0.001193 0.000000
-0.000078 -0.006554 0.000000
-0.000155 -0.007164 0.000000
-0.000144 -0.007078 0.000000
0.006325 -0.003884 0.000000
0.007918 -0.006862 0.000000
0.004957 -0.001168 0.000000
0.007288 -0.010583 0.000000
0.005180 -0.001335 0.000000
0.007387 -0.010976 0.000000
0.001558 -0.007359 0.000000
0.002516 -0.008496 0.000000
0.005238 -0.001361 0.000000
0.006629 -0.003964 0.000000
0.000345 -0.001172 0.000000
0.007936 -0.007053 0.000000
0.003270 -0.008547 0.000000
0.006403 -0.003821 0.000000
0.007211 -0.011108 0.000000
0.000684 -0.009551 0.000000
0.002930 -0.003707 0.000000
-0.000086 -0.006630 0.000000
0.003914 -0.000495 0.000000
0.000398 -0.001190 0.000000
0.000716 -0.009221 0.000000
0.005134 -0.001288 0.000000
0.004617 -0.014395 0.000000
0.006856 -0.004111 0.000000
0.005201 -0.001363 0.000000
0.005644 -0.013365 0.000000
0.007878 -0.006992 0.000000
-0.000176 -0.007337 0.000000
0.006862 -0.004133 0.000000
0.000694 -0.009598 0.000000
0.000318 -0.001170 0.000000
0.004019 -0.000507 0.000000
0.006333 -0.003912 0.000000
0.007207 -0.010693 0.000000
0.001308 -0.007489 0.000000
-0.000071 -0.006470 0.000000
0.001469 -0.007207 0.000000
0.001193 -0.011294 0.000000
0.005682 -0.013336 0.000000
0.000725 -0.009194 0.000000
0.004599 -0.014324 0.000000
0.005680 -0.013521 0.000000
0.004637 -0.014375 0.000000
0.002556 -0.004608 0.000000
0.006616 -0.004074 0.000000
0.000765 -0.012398 0.000000
0.001157 -0.011133 0.000000
0.007901 -0.007079 0.000000
0.004542 -0.014313 0.000000
0.001290 -0.011254 0.000000
0.001139 -0.011236 0.000000
0.007976 -0.006883 0.000000
0.002647 -0.007478 0.000000
0.001369 -0.007437 0.000000
0.002607 -0.004561 0.000000
0.003470 -0.003984 0.000000
0.007997 -0.006855 0.000000
-0.000066 -0.006767 0.000000
0.004484 -0.014300 0.000000
0.002617 -0.004701 0.000000
0.007876 -0.006949 0.000000
0.001912 -0.007054 0.000000
0.005251 -0.001434 0.000000
0.000785 -0.012426 0.000000
0.007345 -0.011207 0.000000
0.001093 -0.011093 0.000000
0.002760 -0.008708 0.000000
0.001161 -0.007832 0.000000
0.005633 -0.013289 0.000000
0.002683 -0.003591 0.000000
0.006272 -0.003779 0.000000
0.000733 -0.009677 0.000000
0.001398 -0.011481 0.000000
0.000738 -0.012311 0.000000
0.006853 -0.004179 0.000000
0.008008 -0.007116 0.000000
0.007880 -0.006818 0.000000
0.002365 -0.000974 0.000000
0.007159 -0.011342 0.000000
0.004663 -0.014479 0.000000
0.000710 -0.009268 0.000000
0.007153 -0.011247 0.000000
0.005057 -0.001188 0.000000
0.002594 -0.003328 0.000000
0.000770 -0.012373 0.000000
0.000694 -0.009587 0.000000
0.000692 -0.009413 0.000000
0.007173 -0.010957 0.000000
0.006294 -0.003843 0.000000
0.005802 -0.013528 0.000000
0.007194 -0.010815 0.000000
0.002984 -0.008725 0.000000
0.002449 -0.003475 0.000000
0.000680 -0.009504 0.000000
-0.000096 -0.006716 0.000000
0.006495 -0.003851 0.000000
0.000729 -0.009723 0.000000
-0.000123 -0.006923 0.000000
0.000413 -0.001198 0.000000
0.006286 -0.003748 0.000000
0.001311 -0.007743 0.000000
0.000421 -0.001212 0.000000
0.002497 -0.004502 0.000000
0.007431 -0.010625 0.000000
0.000699 -0.009711 0.000000
0.001672 -0.006800 0.000000
0.000305 -0.001171 0.000000
-0.000065 -0.006418 0.000000
0.003427 -0.003746 0.000000
0.000400 -0.001222 0.000000
0.000384 -0.001179 0.000000
0.000702 -0.012259 0.000000
0.002537 -0.007435 0.000000
0.005276 -0.001434 0.000000
0.005786 -0.013596 0.000000
0.000701 -0.009743 0.000000
0.000372 -0.001218 0.000000
0.000685 -0.009396 0.000000
0.007468 -0.010847 0.000000
0.002518 -0.001365 0.000000
0.005049 -0.001237 0.000000
0.004907 -0.001162 0.000000
-0.000082 -0.006937 0.000000
0.007874 -0.006877 0.000000
0.005622 -0.013413 0.000000
0.008327 -0.012699 0.000000
0.001426 -0.006969 0.000000
0.000700 -0.009284 0.000000
0.001291 -0.006977 0.000000
0.000330 -0.001217 0.000000
0.003434 -0.008486 0.000000
0.008043 -0.007129 0.000000
0.007294 -0.015217 0.000000
0.008806 -0.011539 0.000000
-0.000060 -0.006559 0.000000
-0.000064 -0.006731 0.000000
0.000746 -0.009658 0.000000
0.001138 -0.008006 0.000000
0.006967 -0.015310 0.000000
0.006938 -0.004188 0.000000
0.006723 -0.004130 0.000000
0.005663 -0.013585 0.000000
0.002765 -0.003281 0.000000
0.000716 -0.009741 0.000000
0.003844 -0.000681 0.000000
0.008755 -0.011431 0.000000
0.001560 -0.006931 0.000000
0.004717 -0.014535 0.000000
0.000959 -0.008099 0.000000
0.002930 -0.003205 0.000000
0.002428 -0.004435 0.000000
0.007305 -0.011358 0.000000
0.001255 -0.011357 0.000000
0.002748 -0.007496 0.000000
0.007885 -0.007069 0.000000
0.004503 -0.014353 0.000000
0.006608 -0.003932 0.000000
0.003174 -0.008568 0.000000
0.000232 -0.009517 0.000000
0.007166 -0.011029 0.000000
0.006853 -0.004096 0.000000
0.004454 -0.014244 0.000000
0.005157 -0.001302 0.000000
0.007759 -0.010161 0.000000
0.003397 -0.008269 0.000000
0.008582 -0.011457 0.000000
0.004976 -0.001153 0.000000
0.003990 -0.014980 0.000000
-0.000184 -0.007457 0.000000
0.003988 -0.015025 0.000000
0.008742 -0.011838 0.000000
0.008043 -0.007004 0.000000
0.000752 -0.009765 0.000000
0.001535 -0.011607 0.000000
0.000764 -0.012427 0.000000
0.008065 -0.007207 0.000000
0.000750 -0.012351 0.000000
0.000276 -0.009648 0.000000
0.008461 -0.012554 0.000000
0.000240 -0.009496 0.000000
0.000374 -0.002644 0.000000
0.005157 -0.004224 0.000000
0.001460 -0.007456 0.000000
0.006418 -0.003980 0.000000
0.000054 -0.004047 0.000000
0.002278 -0.004339 0.000000
0.000746 -0.009072 0.000000
0.000254 -0.009540 0.000000
0.003199 -0.004019 0.000000
0.002749 -0.005018 0.000000
0.001119 -0.000616 0.000000
0.005139 -0.001239 0.000000
0.003939 -0.015060 0.000000
0.002563 -0.004469 0.000000
0.003208 -0.007999 0.000000
0.002705 -0.004695 0.000000
0.006269 -0.004961 0.000000
0.007409 -0.010512 0.000000
0.001529 -0.011462 0.000000
0.004557 -0.014307 0.000000
0.003673 -0.000560 0.000000
0.000300 -0.001202 0.000000
0.008704 -0.011289 0.000000
0.003639 -0.000613 0.000000
0.005638 -0.013696 0.000000
0.002661 -0.004876 0.000000
0.000718 -0.009184 0.000000
-0.000135 -0.007264 0.000000
0.002757 -0.004870 0.000000
0.003197 -0.003473 0.000000
0.007877 -0.007082 0.000000
0.003054 -0.013203 0.000000
0.003983 -0.000651 0.000000
0.000052 -0.004664 0.000000
0.008551 -0.009568 0.000000
0.003786 -0.000484 0.000000
0.000034 -0.003647 0.000000
0.003053 -0.000690 0.000000
0.002603 -0.002782 0.000000
0.004991 -0.001216 0.000000
0.004933 -0.001198 0.000000
0.002376 -0.002117 0.000000
0.006895 -0.004216 0.000000
0.003693 -0.000683 0.000000
0.001240 -0.011128 0.000000
0.008087 -0.007740 0.000000
0.007894 -0.006787 0.000000
0.005766 -0.013430 0.000000
0.002214 -0.004243 0.000000
0.000784 -0.012372 0.000000
0.001054 -0.011179 0.000000
0.002363 -0.000845 0.000000
0.001395 -0.010712 0.000000
0.006645 -0.003957 0.000000
0.000442 -0.010251 0.000000
0.005555 -0.013147 0.000000
0.007204 -0.010648 0.000000
0.005307 -0.004705 0.000000
0.001404 -0.011569 0.000000
0.007881 -0.006742 0.000000
0.007210 -0.015039 0.000000
0.006990 -0.015572 0.000000
0.000770 -0.011829 0.000000
0.006193 -0.003729 0.000000
0.000220 -0.001300 0.000000
-0.000174 -0.007451 0.000000
0.007547 -0.009667 0.000000
0.000700 -0.009288 0.000000
0.002540 -0.001150 0.000000
0.000766 -0.012336 0.000000
0.007905 -0.007158 0.000000
0.000182 -0.003332 0.000000
0.007866 -0.006868 0.000000
0.007172 -0.011423 0.000000
0.006230 -0.003811 0.000000
0.000170 -0.009365 0.000000
0.007157 -0.010799 0.000000
0.000859 -0.011205 0.000000
0.008874 -0.010758 0.000000
0.003120 -0.000340 0.000000
0.007572 -0.012490 0.000000
-0.000064 -0.003720 0.000000
0.005143 -0.001256 0.000000
0.005048 -0.001239 0.000000
0.002864 -0.007848 0.000000
0.005216 -0.001350 0.000000
0.000691 -0.009354 0.000000
0.000681 -0.009457 0.000000
0.000694 -0.009688 0.000000
0.006680 -0.004023 0.000000
0.005181 -0.001338 0.000000
0.006362 -0.003882 0.000000
-0.000082 -0.006884 0.000000
0.005019 -0.001226 0.000000
0.000691 -0.009547 0.000000
0.003149 -0.008441 0.000000
0.000701 -0.009692 0.000000
0.007223 -0.010898 0.000000
-0.000114 -0.006895 0.000000
-0.000083 -0.006658 0.000000
0.006804 -0.004106 0.000000
0.005063 -0.001203 0.000000
0.003261 -0.008215 0.000000
0.005228 -0.001397 0.000000
-0.000141 -0.007098 0.000000
0.007379 -0.010639 0.000000
0.000397 -0.001197 0.000000
0.008011 -0.006978 0.000000
0.001759 -0.007624 0.000000
0.000683 -0.009554 0.000000
0.007958 -0.006907 0.000000
-0.000063 -0.006589 0.000000
0.000706 -0.009692 0.000000
-0.000073 -0.006587 0.000000
-0.000093 -0.006731 0.000000
0.001850 -0.007089 0.000000
0.003166 -0.003571 0.000000
0.006464 -0.003989 0.000000
0.000358 -0.001208 0.000000
0.007880 -0.006902 0.000000
0.003766 -0.000631 0.000000
0.006751 -0.004120 0.000000
0.000696 -0.009377 0.000000
0.003042 -0.003447 0.000000
0.007215 -0.010969 0.000000
0.003838 -0.000631 0.000000
0.007989 -0.007060 0.000000
0.003193 -0.003903 0.000000
0.006338 -0.003824 0.000000
0.000695 -0.009641 0.000000
0.000323 -0.001203 0.000000
0.007227 -0.011358 0.000000
0.005744 -0.013462 0.000000
0.007323 -0.011151 0.000000
0.003318 -0.003792 0.000000
0.003741 -0.000586 0.000000
0.000372 -0.001182 0.000000
0.005747 -0.013540 0.000000
0.004504 -0.014294 0.000000
0.007372 -0.010579 0.000000
0.001568 -0.007267 0.000000
0.002361 -0.008238 0.000000
0.005107 -0.001270 0.000000
0.005228 -0.001323 0.000000
0.004639 -0.014431 0.000000
0.002638 -0.007569 0.000000
0.000767 -0.012351 0.000000
0.001665 -0.006993 0.000000
0.001317 -0.007562 0.000000
0.000319 -0.001182 0.000000
0.001230 -0.007703 0.000000
-0.000165 -0.007375 0.000000
0.006796 -0.004087 0.000000
0.004981 -0.001206 0.000000
-0.000101 -0.007031 0.000000
0.006473 -0.003856 0.000000
0.002523 -0.007516 0.000000
0.002709 -0.004819 0.000000
0.004985 -0.001212 0.000000
0.004532 -0.014355 0.000000
0.000770 -0.012384 0.000000
0.007879 -0.006937 0.000000
0.007903 -0.006839 0.000000
0.002857 -0.008676 0.000000
-0.000130 -0.007204 0.000000
0.001390 -0.011391 0.000000
0.004567 -0.014326 0.000000
0.001224 -0.011183 0.000000
0.005657 -0.013460 0.000000
0.000699 -0.009625 0.000000
0.006329 -0.003791 0.000000
0.006872 -0.004162 0.000000
0.002920 -0.008605 0.000000
0.000691 -0.009340 0.000000
0.000776 -0.012432 0.000000
0.004948 -0.001180 0.000000
0.000711 -0.009232 0.000000
0.007916 -0.007056 0.000000
0.007881 -0.007040 0.000000
0.001532 -0.007019 0.000000
0.004966 -0.001160 0.000000
0.001235 -0.007787 0.000000
-0.000188 -0.007423 0.000000
0.006661 -0.003992 0.000000
0.007289 -0.011296 0.000000
0.002712 -0.004901 0.000000
0.006680 -0.004097 0.000000
0.006594 -0.003932 0.000000
0.000789 -0.012415 0.000000
0.004665 -0.014382 0.000000
0.002649 -0.001364 0.000000
0.005639 -0.013327 0.000000
0.002740 -0.003389 0.000000
0.007893 -0.007048 0.000000
0.006350 -0.003940 0.000000
0.002798 -0.003600 0.000000
0.007207 -0.011185 0.000000
0.002117 -0.007996 0.000000
0.000386 -0.001217 0.000000
0.004052 -0.000527 0.000000
0.000698 -0.009728 0.000000
0.000710 -0.009631 0.000000
0.000332 -0.001171 0.000000
0.007960 -0.007054 0.000000
0.003064 -0.003805 0.000000
0.007244 -0.010631 0.000000
0.000728 -0.012306 0.000000
0.007998 -0.006919 0.000000
0.000723 -0.009682 0.000000
0.007872 -0.006902 0.000000
0.005158 -0.001308 0.000000
0.005697 -0.013577 0.000000
0.003989 -0.000482 0.000000
0.007937 -0.006882 0.000000
-0.000165 -0.007251 0.000000
0.002465 -0.000945 0.000000
0.000705 -0.009747 0.000000
0.004639 -0.014345 0.000000
-0.000148 -0.007343 0.000000
0.007417 -0.010890 0.000000
0.004674 -0.014481 0.000000
0.005252 -0.001403 0.000000
0.002552 -0.004526 0.000000
0.001089 -0.011165 0.000000
0.002668 -0.008742 0.000000
0.008043 -0.007258 0.000000
0.005637 -0.013267 0.000000
0.001396 -0.007059 0.000000
0.007443 -0.010680 0.000000
0.002390 -0.004344 0.000000
0.000424 -0.001218 0.000000
0.002464 -0.003279 0.000000
0.001472 -0.011543 0.000000
0.001236 -0.007557 0.000000
0.007257 -0.011437 0.000000
0.000722 -0.009199 0.000000
0.007911 -0.007113 0.000000
0.007451 -0.010804 0.000000
0.004691 -0.014491 0.000000
0.000344 -0.001222 0.000000
0.000294 -0.001174 0.000000
-0.000063 -0.006694 0.000000
0.001183 -0.011216 0.000000
0.004447 -0.014256 0.000000
0.005776 -0.013624 0.000000
0.000708 -0.012265 0.000000
0.007312 -0.015181 0.000000
-0.000093 -0.007020 0.000000
0.002820 -0.003064 0.000000
0.002023 -0.007127 0.000000
0.003488 -0.008614 0.000000
0.005080 -0.001251 0.000000
0.008539 -0.012560 0.000000
0.002570 -0.003599 0.000000
0.005605 -0.013356 0.000000
0.000755 -0.012349 0.000000
0.004671 -0.014368 0.000000
0.000438 -0.002231 0.000000
0.000722 -0.009203 0.000000
-0.000135 -0.007003 0.000000
0.006549 -0.004047 0.000000
0.007326 -0.010537 0.000000
0.008415 -0.012697 0.000000
0.001123 -0.008088 0.000000
0.004652 -0.014477 0.000000
0.007874 -0.006826 0.000000
0.006913 -0.004110 0.000000
0.005676 -0.013637 0.000000
-0.000070 -0.006360 0.000000
0.006959 -0.004217 0.000000
0.000690 -0.009458 0.000000
0.005218 -0.001388 0.000000
0.001426 -0.007367 0.000000
0.005624 -0.013647 0.000000
0.000263 -0.009596 0.000000
0.002463 -0.004528 0.000000
0.008893 -0.011992 0.000000
0.008608 -0.011487 0.000000
0.003037 -0.008836 0.000000
0.007202 -0.010751 0.000000
0.007239 -0.014888 0.000000
0.005277 -0.001449 0.000000
0.008444 -0.012480 0.000000
0.002951 -0.003106 0.000000
0.002319 -0.007389 0.000000
0.006248 -0.003744 0.000000
-0.000061 -0.006560 0.000000
0.007040 -0.015496 0.000000
0.006894 -0.015077 0.000000
0.007142 -0.011312 0.000000
0.002362 -0.007511 0.000000
0.002329 -0.008099 0.000000
0.002494 -0.007593 0.000000
0.002083 -0.007857 0.000000
0.005048 -0.001238 0.000000
0.002865 -0.008466 0.000000
0.005001 -0.001208 0.000000
0.006634 -0.004064 0.000000
0.006461 -0.003869 0.000000
0.007407 -0.010741 0.000000
0.007242 -0.010761 0.000000
0.006585 -0.003950 0.000000
-0.000110 -0.007039 0.000000
0.007908 -0.006894 0.000000
0.001979 -0.007196 0.000000
0.002800 -0.008528 0.000000
0.007360 -0.010937 0.000000
0.006746 -0.004078 0.000000
0.007260 -0.010910 0.000000
0.007924 -0.006913 0.000000
0.007926 -0.007005 0.000000
-0.000089 -0.006765 0.000000
0.007287 -0.010641 0.000000
0.000704 -0.009292 0.000000
0.002994 -0.007979 0.000000
-0.000124 -0.007125 0.000000
-0.000078 -0.006691 0.000000
0.007886 -0.006864 0.000000
0.003982 -0.000556 0.000000
0.007332 -0.010646 0.000000
0.003966 -0.000611 0.000000
0.007414 -0.010790 0.000000
0.002626 -0.007665 0.000000
-0.000162 -0.007276 0.000000
0.006695 -0.004086 0.000000
0.007260 -0.011109 0.000000
0.002919 -0.003602 0.000000
0.007884 -0.006951 0.000000
0.000346 -0.001185 0.000000
0.003019 -0.003558 0.000000
0.001656 -0.007383 0.000000
0.000696 -0.009329 0.000000
0.004623 -0.014427 0.000000
0.004593 -0.014381 0.000000
0.003231 -0.008419 0.000000
0.000691 -0.009439 0.000000
0.005133 -0.001291 0.000000
0.004994 -0.001177 0.000000
0.000711 -0.009673 0.000000
0.000693 -0.009635 0.000000
0.000398 -0.001214 0.000000
0.006388 -0.003912 0.000000
0.004555 -0.014360 0.000000
0.005225 -0.001371 0.000000
-0.000128 -0.006997 0.000000
0.000707 -0.009280 0.000000
0.006727 -0.004055 0.000000
0.003839 -0.000579 0.000000
0.005210 -0.001331 0.000000
0.005015 -0.001222 0.000000
0.005204 -0.001365 0.000000
0.000690 -0.009596 0.000000
0.005176 -0.001283 0.000000
0.003753 -0.000533 0.000000
0.003053 -0.008434 0.000000
0.007196 -0.011268 0.000000
0.005732 -0.013570 0.000000
-0.000066 -0.006694 0.000000
0.007971 -0.007005 0.000000
0.001395 -0.007490 0.000000
0.006809 -0.004128 0.000000
0.000341 -0.001209 0.000000
0.005687 -0.013400 0.000000
0.007903 -0.007029 0.000000
0.007887 -0.007010 0.000000
0.000694 -0.009680 0.000000
-0.000147 -0.007301 0.000000
0.000373 -0.001209 0.000000
0.005722 -0.013406 0.000000
0.000688 -0.009378 0.000000
0.000696 -0.009698 0.000000
0.000681 -0.009510 0.000000
0.007357 -0.011062 0.000000
0.000332 -0.001184 0.000000
0.002892 -0.003410 0.000000
0.003093 -0.007989 0.000000
0.003194 -0.003800 0.000000
0.001466 -0.011468 0.000000
0.006635 -0.003990 0.000000
0.002645 -0.004653 0.000000
0.005701 -0.013508 0.000000
0.004590 -0.014353 0.000000
0.001655 -0.007089 0.000000
0.005245 -0.001415 0.000000
0.002674 -0.003468 0.000000
-0.000073 -0.006795 0.000000
0.003339 -0.003912 0.000000
0.008022 -0.007053 0.000000
0.006347 -0.003853 0.000000
0.005755 -0.013508 0.000000
0.001307 -0.011338 0.000000
-0.000066 -0.006529 0.000000
0.002751 -0.007604 0.000000
0.002394 -0.008380 0.000000
0.005641 -0.013400 0.000000
0.003348 -0.008343 0.000000
0.007234 -0.010828 0.000000
0.006908 -0.004198 0.000000
0.000749 -0.012334 0.000000
0.006399 -0.003953 0.000000
0.001872 -0.007750 0.000000
0.001314 -0.007647 0.000000
0.000719 -0.012286 0.000000
0.000756 -0.012371 0.000000
0.001655 -0.007494 0.000000
0.000757 -0.012333 0.000000
0.005106 -0.001229 0.000000
0.005673 -0.013354 0.000000
-0.000151 -0.007187 0.000000
0.001183 -0.007677 0.000000
0.001257 -0.007599 0.000000
0.007292 -0.011227 0.000000
0.007868 -0.006907 0.000000
0.005078 -0.001253 0.000000
0.007212 -0.011039 0.000000
0.004076 -0.000554 0.000000
0.000713 -0.009246 0.000000
0.002612 -0.001045 0.000000
0.000309 -0.001198 0.000000
0.000724 -0.009636 0.000000
0.000701 -0.009654 0.000000
0.007365 -0.010522 0.000000
0.002505 -0.001051 0.000000
0.000706 -0.009255 0.000000
-0.000103 -0.006801 0.000000
0.002944 -0.008787 0.000000
0.001241 -0.011272 0.000000
0.004518 -0.014300 0.000000
0.005233 -0.001342 0.000000
0.004629 -0.014354 0.000000
0.000769 -0.012362 0.000000
0.001519 -0.007134 0.000000
0.007890 -0.006815 0.000000
0.003692 -0.000636 0.000000
0.000385 -0.001189 0.000000
0.000432 -0.001214 0.000000
0.005585 -0.013299 0.000000
0.002663 -0.004802 0.000000
0.003414 -0.004042 0.000000
0.007875 -0.006904 0.000000
0.003282 -0.003681 0.000000
0.000358 -0.001173 0.000000
0.006224 -0.003709 0.000000
0.000773 -0.012399 0.000000
0.007257 -0.011378 0.000000
0.001141 -0.007926 0.000000
0.001736 -0.006973 0.000000
0.006556 -0.003897 0.000000
0.006788 -0.004073 0.000000
0.004939 -0.001169 0.000000
0.003358 -0.008527 0.000000
-0.000090 -0.006963 0.000000
0.007194 -0.011343 0.000000
0.002240 -0.007279 0.000000
0.001132 -0.011168 0.000000
0.005188 -0.001320 0.000000
0.002468 -0.007676 0.000000
0.005148 -0.001273 0.000000
0.002885 -0.007967 0.000000
0.002600 -0.007749 0.000000
0.000689 -0.009399 0.000000
0.000690 -0.009641 0.000000
0.000690 -0.009633 0.000000
0.002246 -0.007476 0.000000
0.006612 -0.003993 0.000000
0.005194 -0.001337 0.000000
0.006428 -0.003919 0.000000
0.003033 -0.008327 0.000000
0.005075 -0.001221 0.000000
0.005183 -0.001339 0.000000
0.000682 -0.009516 0.000000
0.002742 -0.008383 0.000000
0.001852 -0.007624 0.000000
0.006568 -0.003959 0.000000
0.002447 -0.008219 0.000000
0.001909 -0.007230 0.000000
0.007337 -0.010714 0.000000
0.005047 -0.001234 0.000000
0.007284 -0.010773 0.000000
0.006449 -0.003965 0.000000
0.005106 -0.001272 0.000000
-0.000114 -0.006953 0.000000
0.000373 -0.001192 0.000000
0.004973 -0.001183 0.000000
-0.000121 -0.007055 0.000000
0.006398 -0.003865 0.000000
0.000692 -0.009644 0.000000
0.007363 -0.010812 0.000000
-0.000084 -0.006841 0.000000
0.005207 -0.001365 0.000000
0.001646 -0.007268 0.000000
0.000694 -0.009400 0.000000
0.004988 -0.001196 0.000000
0.002933 -0.008411 0.000000
0.003932 -0.000535 0.000000
0.004574 -0.014348 0.000000
0.006522 -0.003902 0.000000
0.006527 -0.004020 0.000000
0.007258 -0.011191 0.000000
0.003119 -0.008124 0.000000
0.000684 -0.009568 0.000000
0.004501 -0.014301 0.000000
0.007895 -0.006998 0.000000
0.007916 -0.006954 0.000000
0.007887 -0.006914 0.000000
0.007242 -0.011281 0.000000
0.007981 -0.006950 0.000000
0.002726 -0.008574 0.000000
0.007946 -0.006996 0.000000
0.007263 -0.011038 0.000000
0.002207 -0.007977 0.000000
0.003206 -0.008286 0.000000
0.000362 -0.001197 0.000000
0.002479 -0.008356 0.000000
0.007320 -0.011028 0.000000
0.005677 -0.013424 0.000000
0.006394 -0.003839 0.000000
0.003050 -0.003691 0.000000
0.005017 -0.001178 0.000000
0.007894 -0.006857 0.000000
0.002746 -0.007711 0.000000
0.004022 -0.000573 0.000000
0.006753 -0.004100 0.000000
0.000699 -0.009648 0.000000
0.005158 -0.001312 0.000000
0.000690 -0.009480 0.000000
0.002793 -0.003507 0.000000
0.002117 -0.007309 0.000000
0.004601 -0.014415 0.000000
0.007328 -0.010588 0.000000
0.000408 -0.001210 0.000000
0.002565 -0.003487 0.000000
0.002913 -0.003310 0.000000
0.007393 -0.010689 0.000000
0.000707 -0.009644 0.000000
0.006814 -0.004149 0.000000
0.003296 -0.003994 0.000000
0.007943 -0.006935 0.000000
0.000694 -0.009664 0.000000
0.000702 -0.009295 0.000000
0.007882 -0.006988 0.000000
0.000699 -0.009699 0.000000
0.004094 -0.000583 0.000000
0.000704 -0.009313 0.000000
0.000310 -0.001188 0.000000
0.005205 -0.001296 0.000000
0.003315 -0.008413 0.000000
0.000695 -0.009613 0.000000
0.007391 -0.010855 0.000000
-0.000062 -0.006632 0.000000
0.004591 -0.014386 0.000000
0.004616 -0.014383 0.000000
0.001350 -0.011312 0.000000
0.000386 -0.001210 0.000000
-0.000172 -0.007364 0.000000
0.006387 -0.003928 0.000000
0.000713 -0.009695 0.000000
0.007913 -0.007005 0.000000
0.000411 -0.001217 0.000000
0.002596 -0.004611 0.000000
0.003834 -0.000508 0.000000
0.000685 -0.009403 0.000000
0.004607 -0.014358 0.000000
0.002676 -0.004738 0.000000
0.003804 -0.000549 0.000000
0.005205 -0.001312 0.000000
0.003052 -0.008522 0.000000
0.007246 -0.010695 0.000000
0.002418 -0.008082 0.000000
0.002170 -0.007839 0.000000
0.005165 -0.001306 0.000000
0.002558 -0.007828 0.000000
0.000690 -0.009461 0.000000
0.000691 -0.009599 0.000000
0.000686 -0.009585 0.000000
0.006580 -0.004030 0.000000
0.006679 -0.004050 0.000000
0.005134 -0.001292 0.000000
0.005077 -0.001252 0.000000
0.005013 -0.001200 0.000000
0.005026 -0.001213 0.000000
0.000694 -0.009364 0.000000
0.006542 -0.003965 0.000000
0.001748 -0.007386 0.000000
0.002153 -0.007460 0.000000
0.003067 -0.008194 0.000000
-0.000147 -0.007210 0.000000
-0.000107 -0.006972 0.000000
0.007904 -0.006934 0.000000
0.002559 -0.008336 0.000000
0.000683 -0.009448 0.000000
-0.000095 -0.006940 0.000000
-0.000102 -0.006840 0.000000
0.005187 -0.001339 0.000000
0.006511 -0.003915 0.000000
0.007341 -0.010889 0.000000
0.002793 -0.008320 0.000000
0.002744 -0.007830 0.000000
0.005181 -0.001301 0.000000
0.007289 -0.010706 0.000000
0.006533 -0.003892 0.000000
0.007272 -0.010844 0.000000
-0.000155 -0.007291 0.000000
0.005114 -0.001247 0.000000
0.007364 -0.010750 0.000000
0.000345 -0.001197 0.000000
0.001776 -0.007141 0.000000
0.003911 -0.000589 0.000000
0.006411 -0.003892 0.000000
0.000686 -0.009588 0.000000
0.000686 -0.009423 0.000000
0.005237 -0.001394 0.000000
0.004549 -0.014341 0.000000
0.000394 -0.001205 0.000000
0.007307 -0.010967 0.000000
-0.000074 -0.006738 0.000000
0.000379 -0.001202 0.000000
-0.000128 -0.007042 0.000000
0.003166 -0.003681 0.000000
0.005713 -0.013485 0.000000
0.001964 -0.007737 0.000000
0.006441 -0.003943 0.000000
0.002638 -0.008605 0.000000
0.002353 -0.007609 0.000000
0.004597 -0.014340 0.000000
0.001749 -0.007504 0.000000
0.007304 -0.011107 0.000000
0.007931 -0.006961 0.000000
0.007960 -0.006958 0.000000
0.003869 -0.000533 0.000000
0.007995 -0.007008 0.000000
0.000359 -0.001184 0.000000
0.007257 -0.010977 0.000000
0.002954 -0.008328 0.000000
0.000713 -0.009252 0.000000
0.002880 -0.003497 0.000000
0.005077 -0.001254 0.000000
0.000692 -0.009656 0.000000
0.001616 -0.007151 0.000000
0.003197 -0.008093 0.000000
0.000700 -0.009633 0.000000
0.006573 -0.003928 0.000000
0.000700 -0.009342 0.000000
0.000689 -0.009603 0.000000
0.007890 -0.006965 0.000000
0.007880 -0.006871 0.000000
0.005017 -0.001219 0.000000
0.002550 -0.003388 0.000000
0.002910 -0.008206 0.000000
0.005122 -0.001263 0.000000
0.001931 -0.007599 0.000000
0.005076 -0.001246 0.000000
0.002650 -0.008225 0.000000
0.002810 -0.007981 0.000000
0.005086 -0.001238 0.000000
0.000688 -0.009449 0.000000
0.006591 -0.003998 0.000000
0.000683 -0.009490 0.000000
0.002273 -0.007623 0.000000
0.001866 -0.007309 0.000000
0.000687 -0.009576 0.000000
0.002423 -0.007759 0.000000
0.006490 -0.003953 0.000000
0.006496 -0.003974 0.000000
0.006460 -0.003903 0.000000
0.005161 -0.001315 0.000000
0.006646 -0.004053 0.000000
0.005031 -0.001197 0.000000
0.002298 -0.007959 0.000000
0.007904 -0.006977 0.000000
-0.000096 -0.006875 0.000000
0.002536 -0.008209 0.000000
0.000692 -0.009413 0.000000
0.005107 -0.001272 0.000000
0.005212 -0.001365 0.000000
-0.000140 -0.007217 0.000000
0.002846 -0.008258 0.000000
0.006651 -0.004025 0.000000
-0.000137 -0.007123 0.000000
0.000690 -0.009505 0.000000
0.002601 -0.008469 0.000000
0.005714 -0.013455 0.000000
0.007895 -0.006900 0.000000
0.007310 -0.010859 0.000000
0.000328 -0.001195 0.000000
0.002996 -0.008074 0.000000
-0.000069 -0.006639 0.000000
0.005039 -0.001226 0.000000
0.003120 -0.008318 0.000000
0.000698 -0.009348 0.000000
0.002035 -0.007335 0.000000
0.005258 -0.001422 0.000000
0.006581 -0.004047 0.000000
0.000386 -0.001198 0.000000
0.000690 -0.009623 0.000000
0.003898 -0.000636 0.000000
0.000691 -0.009571 0.000000
0.004560 -0.014343 0.000000
0.007295 -0.010921 0.000000
0.001830 -0.007509 0.000000
0.000406 -0.001203 0.000000
0.004993 -0.001185 0.000000
0.005677 -0.013455 0.000000
0.002775 -0.008114 0.000000
0.002064 -0.007457 0.000000
0.002517 -0.008093 0.000000
0.002546 -0.007930 0.000000
0.005107 -0.001268 0.000000
0.002258 -0.007820 0.000000
0.001869 -0.007437 0.000000
0.002328 -0.007780 0.000000
0.002932 -0.008108 0.000000
0.000689 -0.009529 0.000000
0.005060 -0.001231 0.000000
0.000687 -0.009600 0.000000
0.006607 -0.004021 0.000000
0.001747 -0.007260 0.000000
0.005158 -0.001290 0.000000
0.005159 -0.001314 0.000000
0.000685 -0.009520 0.000000
0.005049 -0.001216 0.000000
0.006474 -0.003929 0.000000
-0.000084 -0.006781 0.000000
0.006445 -0.003878 0.000000
0.002680 -0.008440 0.000000
0.006703 -0.004073 0.000000
0.007896 -0.006947 0.000000
0.002046 -0.007717 0.000000
0.006511 -0.003998 0.000000
0.002685 -0.007888 0.000000
0.005226 -0.001388 0.000000
0.005165 -0.001313 0.000000
0.006544 -0.003985 0.000000
-0.000134 -0.007147 0.000000
0.007321 -0.010793 0.000000
0.000684 -0.009548 0.000000
0.002002 -0.007575 0.000000
0.005138 -0.001288 0.000000
0.002661 -0.007969 0.000000
0.002392 -0.007943 0.000000
0.002600 -0.008080 0.000000
0.002211 -0.007683 0.000000
0.000684 -0.009537 0.000000
0.000688 -0.009473 0.000000
0.000685 -0.009469 0.000000
0.003007 -0.008227 0.000000
0.002437 -0.007872 0.000000
0.002634 -0.008318 0.000000
0.006512 -0.003935 0.000000
0.006550 -0.004003 0.000000
0.000688 -0.009569 0.000000
0.005112 -0.001266 0.000000
0.002843 -0.008090 0.000000
0.002499 -0.007987 0.000000
0.002726 -0.008182 0.000000
0.002161 -0.007561 0.000000
0.002128 -0.007701 0.000000
0.005136 -0.001292 0.000000
0.001974 -0.007454 0.000000
0.000687 -0.009519 0.000000
0.002089 -0.007573 0.000000
0.005092 -0.001249 0.000000
0.002753 -0.008009 0.000000
0.001969 -0.007356 0.000000
0.005139 -0.001282 0.000000
0.002665 -0.008058 0.000000
0.000814 -0.001137 0.000000
0.001808 -0.012386 0.000000
0.000815 -0.011788 0.000000
0.000387 -0.002819 0.000000
0.002986 -0.002799 0.000000
0.000831 -0.011893 0.000000
0.001809 -0.000652 0.000000
0.006336 -0.001795 0.000000
0.008375 -0.007479 0.000000
0.002337 -0.013398 0.000000
0.006942 -0.004624 0.000000
-0.000179 -0.008039 0.000000
0.001053 -0.001038 0.000000
0.007921 -0.006446 0.000000
0.001739 -0.000636 0.000000
0.000243 -0.000587 0.000000
0.000753 -0.012604 0.000000
0.006691 -0.004064 0.000000
0.002299 -0.000697 0.000000
0.000105 -0.004519 0.000000
0.000114 -0.001095 0.000000
0.001504 -0.006577 0.000000
0.007062 -0.004249 0.000000
0.001528 -0.006665 0.000000
0.004307 -0.015393 0.000000
CELL_DATA 22890
SCALARS group float 1
LOOKUP_TABLE table1
1
2
1
1
1
2
1
2
1
2
1
2
2
2
2
2
2
1
1
2
1
1
2
1
2
2
2
2
1
2
1
2
2
1
2
1
2
1
2
1
1
1
2
2
2
1
2
1
1
2
2
2
2
2
2
2
2
1
2
2
2
1
2
2
2
1
2
1
1
2
1
1
2
1
2
1
1
1
2
2
1
2
1
1
1
1
2
2
2
1
2
1
1
2
1
1
1
2
1
1
1
1
1
1
2
1
2
1
1
2
1
1
1
2
2
1
2
2
2
2
2
2
1
2
1
2
2
1
2
2
2
2
1
2
2
1
1
2
1
2
1
2
1
2
2
2
1
2
1
1
2
1
2
2
2
2
2
1
1
1
1
1
1
1
1
2
2
2
1
1
2
1
1
1
2
2
2
2
1
2
1
2
1
1
1
2
1
2
1
2
1
1
1
2
2
1
1
2
1
2
2
2
2
1
1
2
1
2
2
2
2
2
2
2
1
2
2
2
1
1
1
1
1
1
2
2
1
1
2
1
2
1
2
2
1
1
1
2
2
2
1
1
1
1
1
2
2
2
1
2
2
2
2
2
1
1
2
1
1
1
2
1
1
2
2
2
1
2
1
2
1
2
2
2
2
2
1
1
1
1
2
1
1
1
1
1
1
2
2
2
1
2
2
2
2
2
2
1
1
2
1
2
2
1
1
1
1
2
2
2
1
1
2
1
2
2
2
1
1
2
1
2
1
1
2
1
2
2
2
1
2
2
1
1
1
1
1
2
2
2
2
2
2
1
1
1
1
2
1
1
1
1
2
1
2
1
2
2
1
2
1
2
1
1
1
1
1
1
2
2
1
1
1
2
1
2
2
1
2
1
1
2
1
1
1
1
2
1
1
2
2
2
2
1
1
1
1
1
2
2
1
1
1
2
1
1
1
1
1
2
1
1
1
1
1
1
2
2
2
2
1
2
1
1
2
1
1
2
2
2
1
2
1
1
1
1
1
2
1
1
1
1
1
2
2
2
1
2
2
2
2
2
2
1
2
2
2
1
2
2
2
2
1
2
2
2
2
2
1
2
2
1
1
2
2
2
2
2
2
2
2
1
2
2
1
2
2
2
2
2
2
2
2
1
1
2
2
2
2
1
1
1
2
1
1
2
2
2
2
2
2
1
2
2
1
1
1
2
2
1
2
1
1
2
2
2
2
2
2
2
1
2
2
2
2
2
2
1
2
1
2
2
1
1
2
2
2
2
2
2
2
1
2
2
1
2
1
1
1
2
2
1
2
1
1
1
2
2
2
1
1
1
2
1
1
2
2
2
2
2
1
2
2
1
1
1
2
2
2
2
2
2
2
2
2
2
2
1
2
2
1
2
2
1
2
2
2
2
1
1
2
2
1
2
2
2
1
2
2
1
2
1
2
1
2
1
2
2
1
2
1
1
2
1
2
2
2
2
2
1
1
2
1
2
2
1
2
2
1
2
1
1
1
2
2
2
2
2
1
2
2
1
2
1
1
2
1
1
1
1
1
1
2
1
2
1
1
2
1
1
2
2
1
1
1
2
2
1
1
1
1
2
2
1
1
1
1
1
1
1
1
1
2
1
2
1
1
1
1
1
2
2
1
1
2
1
1
1
2
2
1
1
2
2
1
1
1
2
1
1
1
2
2
2
2
2
2
2
2
1
1
1
2
2
2
2
2
2
1
2
1
2
2
2
2
2
2
1
1
1
1
1
1
1
1
2
2
1
2
1
2
2
1
2
1
1
2
2
1
2
1
1
1
1
1
2
1
1
2
2
2
2
2
2
2
1
2
2
2
2
2
2
2
2
2
1
2
1
2
1
1
1
1
2
1
1
2
2
2
2
2
2
2
1
2
1
2
2
1
2
2
2
2
2
2
1
1
1
2
1
2
1
2
1
1
2
1
1
2
1
1
1
1
1
2
1
2
2
2
2
2
1
2
2
1
2
2
2
1
2
1
1
1
2
2
1
2
2
2
1
2
1
1
2
2
1
2
1
1
1
1
1
1
1
2
2
1
1
2
1
2
2
2
2
1
1
2
1
2
1
2
2
2
2
2
2
2
2
1
2
2
1
1
2
1
2
2
1
1
2
2
2
2
2
2
1
1
2
1
2
2
2
1
2
1
1
1
2
1
1
1
2
1
1
1
1
2
2
2
2
1
2
1
2
2
1
2
2
1
2
2
1
1
2
2
1
1
1
1
1
1
1
2
1
1
1
1
1
2
1
2
1
2
1
1
1
1
2
1
1
1
2
1
1
1
2
1
2
2
2
2
1
1
2
2
2
1
2
1
2
2
2
2
2
2
2
1
1
2
1
2
1
1
1
1
1
1
1
2
2
1
1
1
1
1
1
2
1
1
1
1
1
1
1
2
2
1
1
1
1
1
2
2
2
1
2
2
1
1
2
1
1
1
1
1
1
1
1
1
2
1
1
2
2
2
1
1
2
2
1
1
1
2
2
2
2
1
1
1
1
2
1
2
1
2
1
2
2
2
2
2
2
2
2
1
1
2
1
2
1
2
1
1
1
1
2
1
2
2
2
1
1
1
1
2
2
1
2
2
1
2
2
2
2
2
2
2
1
2
1
1
1
1
1
1
1
1
2
1
2
1
2
1
2
2
2
2
2
2
2
1
1
1
2
1
1
1
1
1
2
1
2
1
1
2
2
1
1
1
2
1
1
1
2
1
1
1
1
2
2
1
1
1
1
1
2
2
1
2
2
2
2
1
1
1
2
2
2
2
2
1
1
1
2
2
2
2
2
1
1
2
1
1
1
2
2
2
1
2
2
2
2
1
2
1
1
2
1
2
2
2
2
1
2
2
2
1
2
2
2
2
2
2
2
2
2
2
2
2
1
2
1
1
1
1
2
1
2
1
1
1
2
2
2
2
1
2
1
1
2
2
2
2
1
1
1
2
2
1
1
2
2
2
2
2
1
1
2
2
1
2
1
2
1
2
1
1
1
1
1
1
1
1
1
1
1
1
2
1
1
1
2
1
1
1
1
2
1
2
1
1
1
1
1
1
1
2
2
1
2
1
2
1
1
1
1
1
1
2
1
2
2
2
1
1
2
1
2
2
2
2
1
2
2
1
1
1
1
1
1
1
2
1
1
1
2
1
1
2
1
1
1
1
1
1
2
1
2
1
1
1
2
1
2
2
1
2
2
1
1
1
1
1
1
1
2
1
1
2
2
1
2
1
1
2
1
2
2
2
2
1
2
1
2
1
1
2
2
1
2
2
1
2
1
1
1
2
1
1
2
2
1
1
1
1
2
1
1
1
1
1
1
1
1
2
1
1
2
1
1
1
1
1
1
1
1
1
1
1
2
1
2
1
2
1
1
1
2
2
1
1
2
2
2
1
2
1
2
2
1
1
1
1
2
1
1
1
1
2
1
1
2
2
1
1
2
1
1
1
1
1
1
1
1
1
1
1
2
1
1
1
2
1
2
1
2
2
1
1
2
2
1
1
2
2
1
1
1
2
2
2
2
2
2
2
2
1
1
1
1
1
2
1
1
2
1
1
1
2
1
2
1
1
1
1
1
1
1
1
1
1
1
1
1
1
2
1
2
1
2
2
1
1
1
2
1
1
1
1
1
1
1
2
1
2
2
2
2
2
2
1
1
1
1
1
1
1
2
1
2
1
2
2
2
1
1
1
1
1
1
1
1
1
1
1
1
1
1
1
1
1
1
1
1
1
1
1
1
1
1
1
1
1
1
1
1
1
1
1
1
2
1
2
2
1
1
1
1
1
1
1
1
1
2
1
2
1
2
2
2
2
1
1
2
2
2
2
2
1
1
1
1
1
1
1
1
2
2
1
2
1
1
1
1
1
1
1
1
1
1
1
1
1
1
1
1
1
1
1
1
1
1
1
1
2
1
1
1
2
1
1
1
1
1
1
1
2
1
1
1
1
1
1
1
1
1
1
1
2
1
1
2
1
1
2
2
1
1
1
2
1
2
2
2
1
2
2
1
1
1
1
2
2
1
1
2
1
2
2
1
1
2
2
1
1
1
1
1
2
1
2
1
2
2
2
1
2
1
1
1
1
1
1
2
2
1
1
2
2
2
2
2
2
2
1
2
1
2
2
2
2
2
2
2
2
2
2
1
2
2
1
2
2
2
2
2
2
2
2
2
2
2
2
2
2
2
1
2
2
2
2
2
1
2
2
2
1
1
1
1
1
1
1
1
2
2
2
1
1
1
1
1
1
1
1
2
2
2
2
2
1
2
2
2
2
2
1
1
2
1
2
1
1
1
1
2
1
1
1
1
2
1
1
1
1
1
1
1
1
1
1
1
1
1
1
1
1
1
1
1
1
2
2
2
2
1
2
1
2
2
1
2
2
1
2
1
1
2
1
2
2
2
2
2
2
2
2
2
1
2
1
2
2
2
2
1
1
2
2
1
2
2
2
2
2
2
2
2
2
2
2
2
2
2
2
1
1
1
2
2
2
2
2
2
1
2
2
2
2
2
2
2
2
2
2
2
2
2
2
1
2
2
2
2
2
2
2
2
1
2
1
2
2
2
1
1
1
1
2
2
2
2
2
1
2
2
2
1
1
2
2
2
1
1
1
2
2
2
2
1
2
1
2
2
2
1
1
2
2
2
2
2
2
2
2
2
2
2
2
2
2
2
2
2
2
2
2
2
2
2
2
1
1
1
1
1
1
2
1
2
1
2
2
1
1
2
1
1
2
1
1
1
2
1
2
1
2
2
1
2
1
1
1
2
1
2
1
2
2
2
2
2
2
2
2
2
1
2
2
2
2
2
1
2
1
1
2
1
2
1
1
1
1
2
1
2
1
2
2
2
2
2
2
2
2
2
2
2
2
2
2
2
1
1
1
1
1
1
1
2
2
2
1
2
2
2
2
2
1
2
2
2
2
2
2
2
2
2
2
2
2
2
1
2
1
1
1
1
1
2
2
1
2
1
1
2
1
2
2
2
2
2
2
1
2
1
2
2
2
1
2
2
2
2
1
2
2
2
2
1
2
2
2
2
2
1
2
1
1
2
2
2
2
2
2
2
2
2
2
2
2
2
2
2
2
2
2
2
2
2
2
2
2
1
1
1
1
1
2
1
1
1
1
1
1
1
1
2
2
2
1
1
2
1
1
2
2
1
2
2
1
2
2
2
2
1
1
2
2
2
1
1
1
1
1
1
1
2
1
1
1
1
1
1
2
2
2
1
2
1
1
1
1
1
2
2
2
2
2
1
1
2
2
2
2
2
2
1
2
2
2
2
1
1
2
1
2
2
2
2
2
2
2
2
2
2
1
2
1
1
1
1
1
1
1
1
2
2
2
2
2
2
2
2
2
2
2
1
2
2
2
2
2
2
2
1
1
1
2
1
1
2
2
2
2
2
2
2
2
2
2
2
2
2
2
2
2
2
2
2
2
2
2
2
2
2
2
2
2
2
2
2
2
2
2
2
1
2
2
1
1
1
2
2
2
2
2
2
1
2
1
2
1
2
1
2
2
2
2
2
2
2
2
2
2
1
2
2
2
2
2
1
2
2
2
1
2
1
2
2
2
1
1
1
2
1
1
1
1
1
1
2
1
2
1
2
2
2
1
2
1
2
1
1
1
2
1
2
2
1
1
2
2
2
2
2
2
2
2
2
1
2
1
2
1
1
1
1
2
2
2
2
2
2
1
2
2
2
1
1
1
1
2
2
2
2
2
2
2
2
2
2
2
2
2
2
1
2
2
2
2
2
2
2
2
2
2
1
1
2
2
1
2
2
2
2
2
1
1
2
1
1
1
1
1
2
2
1
1
2
1
2
1
1
2
1
1
1
1
2
2
2
2
2
2
1
2
2
1
2
1
2
2
1
1
2
1
1
1
1
1
1
1
1
1
1
1
1
1
1
1
1
1
2
2
2
2
2
2
2
2
1
1
2
1
2
1
2
2
1
1
1
1
2
2
2
2
2
1
1
1
2
2
1
1
2
1
2
2
2
2
1
2
2
2
2
1
2
2
2
2
1
2
2
2
2
2
1
2
2
2
1
1
1
2
1
1
2
1
1
1
1
1
1
1
1
1
1
1
1
1
1
1
1
1
2
1
2
1
1
1
2
1
2
2
2
1
2
1
1
2
1
1
1
1
1
1
1
1
1
1
2
2
2
2
1
1
2
1
1
2
1
1
2
1
2
1
1
1
2
1
2
2
2
2
2
2
2
1
1
2
2
1
1
2
2
1
2
2
2
2
2
1
2
1
1
1
2
1
2
2
2
2
2
2
2
2
2
2
2
2
2
1
1
2
1
1
2
1
2
2
1
1
1
2
1
1
1
2
1
1
2
2
2
1
2
1
2
1
1
1
1
1
2
1
1
1
1
1
1
1
1
1
1
1
1
1
1
1
1
1
1
1
1
1
1
1
1
1
1
1
1
1
1
1
1
1
1
1
1
1
1
1
1
1
1
1
2
2
1
1
2
1
2
1
2
1
2
2
2
2
1
1
1
2
2
2
1
2
1
1
1
1
1
1
1
1
1
1
1
1
1
2
2
1
2
2
2
1
2
1
1
1
1
1
1
1
1
1
1
1
1
1
2
2
1
1
1
2
2
1
2
2
1
2
2
2
2
1
2
1
2
1
1
1
2
1
1
2
1
1
2
1
1
2
1
2
2
2
2
2
2
2
2
2
2
1
2
1
1
2
1
1
1
2
2
2
2
2
1
2
1
1
2
1
2
1
2
1
1
2
1
1
1
1
1
2
1
1
1
1
2
2
2
2
2
1
1
1
1
1
2
2
1
1
1
1
2
2
2
2
2
2
2
2
2
2
2
2
2
2
2
2
2
1
2
2
2
2
2
2
2
2
1
2
1
2
2
1
2
1
2
1
1
2
1
1
1
2
2
1
2
2
2
2
2
1
2
2
2
2
2
1
2
2
2
2
2
2
1
1
1
1
2
1
1
1
1
2
2
1
1
1
1
1
1
1
1
2
1
1
1
2
2
2
1
1
2
2
1
1
2
1
1
1
1
1
1
1
1
1
1
1
1
1
1
1
1
1
1
2
1
1
1
2
1
2
1
2
1
1
1
2
2
2
1
1
1
1
1
1
2
1
1
1
1
2
1
2
1
1
1
2
1
1
1
1
1
1
1
2
2
1
2
1
1
1
1
1
1
1
1
1
1
1
1
1
1
1
1
2
1
1
1
1
1
1
1
1
1
1
1
1
1
2
2
1
2
1
2
1
2
2
1
2
1
2
1
1
2
1
2
1
2
1
2
1
2
1
1
2
2
1
2
2
1
2
2
2
1
2
2
2
2
1
2
1
1
2
2
2
2
2
2
2
2
2
2
2
2
2
2
2
2
2
2
2
1
2
2
2
2
2
2
1
2
2
2
2
2
2
2
2
2
2
2
2
2
2
2
2
1
2
2
2
2
2
1
2
1
2
1
2
1
2
2
2
2
2
2
2
2
2
2
1
2
2
2
1
1
1
1
1
2
2
2
2
2
2
2
2
2
2
2
2
2
2
2
2
2
1
2
2
2
2
2
2
2
2
2
2
2
2
2
2
2
2
2
2
2
1
2
2
1
1
1
1
1
1
2
1
2
2
1
1
2
2
2
2
1
2
2
1
2
2
2
2
1
1
2
2
1
1
2
1
2
2
2
1
1
2
2
2
2
1
2
1
2
1
1
1
1
1
1
1
1
1
1
2
1
2
1
1
2
1
1
1
1
1
1
2
1
2
1
2
1
2
1
2
2
2
2
1
1
2
2
1
1
1
2
2
2
2
2
2
2
1
2
1
2
2
2
2
1
1
2
2
1
1
2
2
1
1
1
1
1
2
1
2
2
2
2
2
2
1
2
2
2
2
2
2
2
2
2
2
2
2
2
1
1
2
1
1
1
2
1
1
1
1
1
2
2
1
2
1
1
2
1
2
2
2
2
2
1
2
2
2
1
1
2
1
2
2
2
2
2
2
2
1
2
2
2
1
1
1
1
1
2
2
1
2
2
1
1
2
2
2
1
2
1
2
1
2
2
1
2
2
1
2
2
1
1
1
2
1
1
1
2
2
1
2
1
1
2
1
1
2
1
1
1
2
1
1
2
1
1
1
1
1
1
1
2
1
1
1
2
2
2
1
1
2
2
2
1
2
2
2
2
1
2
1
1
2
1
1
1
1
2
2
1
2
1
1
1
1
1
1
2
1
1
2
1
1
1
1
2
1
1
2
2
1
2
2
2
2
2
2
2
2
2
2
2
2
2
2
2
2
2
2
2
2
2
2
2
1
2
2
2
1
1
2
1
1
1
2
1
2
1
2
1
2
2
2
2
2
2
2
2
2
2
2
2
2
2
2
2
2
2
2
2
2
2
2
2
2
1
2
2
2
2
2
2
2
2
2
2
2
2
2
2
2
1
2
1
1
2
2
2
2
1
2
2
2
2
2
2
1
1
1
1
1
1
1
2
1
1
1
1
1
1
2
2
2
2
2
2
2
2
2
2
1
1
1
2
1
1
1
1
1
1
1
1
1
1
2
1
2
2
1
2
2
1
2
2
2
1
2
1
2
2
2
2
2
1
2
1
2
2
2
2
2
2
2
2
2
2
2
2
2
2
2
2
2
2
2
2
2
2
1
2
1
2
2
1
2
2
1
2
1
2
2
2
2
2
2
2
2
2
2
1
1
2
1
1
1
2
2
1
1
1
2
2
2
2
2
1
1
2
2
2
2
1
1
1
2
2
2
1
1
1
1
1
1
1
2
1
1
1
1
1
1
2
1
1
2
2
2
2
2
1
2
2
2
2
2
2
2
1
2
2
2
1
2
2
1
1
1
1
1
2
1
2
2
2
2
2
2
1
1
2
2
1
1
2
1
1
1
1
1
1
1
2
1
1
1
2
2
2
1
2
1
1
1
1
2
2
2
2
1
1
2
1
1
1
1
1
1
1
1
1
1
2
1
1
1
1
1
1
2
1
1
1
1
1
1
1
1
1
1
1
1
1
1
1
1
1
1
1
1
1
1
1
1
1
1
1
1
1
1
1
1
1
1
1
1
1
1
2
1
1
1
1
1
1
1
1
2
1
1
2
1
1
2
1
2
1
2
2
2
1
1
1
2
1
1
1
1
1
1
1
1
1
1
1
2
1
2
2
1
1
1
1
1
1
1
1
1
1
1
1
1
1
1
1
1
1
1
2
2
1
2
2
2
2
1
2
2
1
2
2
2
2
1
1
1
2
1
2
2
1
1
1
2
2
2
2
1
1
1
2
2
2
1
2
2
2
2
2
1
2
2
2
1
2
2
1
1
1
1
1
1
1
2
1
2
2
1
1
1
2
1
1
1
2
1
1
1
1
1
1
1
2
2
2
2
2
2
2
2
1
1
1
1
1
1
2
2
1
2
2
1
2
1
2
2
2
2
2
2
1
2
2
1
1
1
1
1
1
1
1
2
1
1
1
1
1
1
2
1
2
1
1
1
1
1
1
1
1
1
1
1
1
1
1
1
1
1
1
2
1
1
2
1
2
2
2
1
1
2
2
1
1
1
1
1
1
1
1
1
2
2
1
1
1
1
1
1
1
1
1
1
1
1
1
1
1
1
1
1
1
1
2
1
1
1
1
1
1
2
1
2
1
1
1
2
2
2
1
2
2
2
2
1
1
1
1
1
1
1
2
1
1
2
2
1
1
1
1
1
2
2
2
2
2
1
2
1
2
2
2
2
2
2
1
2
2
1
1
2
1
1
2
2
2
1
2
2
1
2
2
1
1
2
1
1
1
1
1
1
1
1
1
1
1
1
1
1
1
1
2
1
1
1
1
1
1
1
1
1
1
1
1
1
2
2
2
2
1
1
2
2
1
1
2
2
1
1
2
2
2
2
2
1
1
1
1
2
1
1
2
1
1
1
2
2
1
2
1
1
1
1
1
1
1
1
1
1
2
1
1
1
1
2
1
2
1
1
1
2
2
2
2
2
1
2
2
2
1
2
2
2
2
2
1
2
2
2
1
1
1
1
1
1
2
1
2
2
2
2
2
1
2
2
2
1
2
2
1
1
2
1
1
1
2
1
2
1
1
1
1
1
1
1
1
2
1
1
2
2
1
1
2
2
2
2
2
2
2
2
2
2
2
2
1
2
1
1
2
2
2
2
2
2
2
1
2
2
2
2
2
1
1
1
2
2
1
1
2
2
2
2
2
2
1
1
2
2
2
1
2
2
2
2
2
1
1
2
1
1
2
1
2
1
2
2
1
2
1
1
1
1
1
1
1
2
1
1
1
1
2
1
1
2
2
2
2
2
2
2
2
1
2
2
2
2
1
1
1
1
1
1
2
1
1
2
2
1
1
1
1
1
1
1
1
1
1
2
2
2
2
2
2
2
1
1
1
2
1
2
1
2
1
2
2
2
2
1
2
2
2
1
2
2
2
2
2
1
1
1
1
1
2
1
1
1
1
2
2
2
2
2
2
2
2
2
2
2
2
1
1
2
2
1
2
2
2
1
1
1
2
2
2
2
2
1
1
1
2
2
2
1
1
1
1
1
1
1
1
2
1
2
2
2
1
1
1
1
1
2
1
1
1
1
1
1
1
2
1
2
1
2
2
1
1
1
2
2
2
2
2
2
2
2
2
2
2
1
2
1
1
1
1
1
1
2
1
2
2
2
2
2
2
2
2
1
1
1
1
2
2
2
1
1
1
2
1
2
2
2
2
1
2
1
2
1
1
1
2
1
1
2
2
2
2
1
1
1
1
2
1
2
2
1
2
1
1
1
2
2
2
2
2
1
2
1
2
2
2
1
2
1
2
2
2
2
2
2
1
1
2
2
1
2
2
2
2
2
2
1
2
2
2
2
2
2
2
2
2
2
2
2
2
2
2
1
1
2
2
1
1
1
2
2
1
2
2
2
2
2
1
2
1
2
1
2
2
2
2
1
2
1
2
1
1
1
2
1
2
1
1
2
2
1
1
2
2
1
1
2
2
2
2
2
2
2
2
2
2
2
2
2
2
2
2
2
2
2
2
2
2
2
1
2
2
2
2
2
2
2
2
2
1
2
2
2
2
2
2
2
2
2
2
2
2
2
2
1
2
2
2
2
2
2
2
2
2
2
2
2
2
2
2
1
2
1
1
2
2
1
2
2
2
2
2
2
2
2
2
2
2
2
2
2
2
1
2
1
2
2
1
1
1
1
1
2
2
1
1
1
1
2
2
2
2
2
2
1
2
2
2
2
2
1
1
2
2
2
2
1
1
2
1
1
1
1
1
1
1
2
2
2
2
1
1
2
2
1
2
2
2
1
2
2
2
2
2
1
1
1
1
1
1
1
2
1
1
1
1
1
2
1
1
2
2
2
2
1
1
2
2
1
2
1
2
2
2
2
2
2
2
2
2
2
2
1
1
2
2
1
2
2
2
2
2
2
2
2
1
2
1
1
2
1
1
2
1
1
2
2
1
2
2
1
2
1
1
1
1
2
2
2
2
2
2
2
2
1
2
2
2
2
2
2
2
1
2
2
1
2
2
2
2
2
2
2
2
2
2
2
2
2
1
2
2
2
2
2
2
2
2
2
2
2
2
2
2
2
2
1
2
2
2
2
2
2
1
1
2
1
2
2
1
2
1
2
2
2
2
2
1
2
2
2
1
2
1
2
1
2
2
2
1
2
2
2
2
1
1
1
1
1
1
1
1
1
2
2
2
1
1
1
1
1
1
1
1
2
1
1
2
2
1
2
1
1
2
2
1
2
1
1
1
1
1
2
2
2
1
2
1
1
1
1
1
1
1
1
2
1
2
2
2
1
2
1
2
2
2
2
2
2
1
1
2
2
1
2
1
1
2
2
2
2
2
2
1
1
1
1
1
1
1
2
1
1
1
1
1
2
1
1
2
2
2
1
2
1
2
1
2
2
2
2
2
2
2
2
2
1
1
1
2
2
1
1
1
2
2
1
1
1
1
1
1
1
1
1
1
2
1
2
1
1
2
1
1
1
1
1
1
1
1
1
1
1
1
1
1
1
1
1
1
1
1
1
1
1
1
1
1
2
1
1
1
2
1
1
1
1
1
1
1
1
1
1
1
1
1
1
1
1
1
1
1
1
1
1
1
1
1
1
1
1
1
1
1
1
1
1
1
1
1
1
1
1
2
1
1
1
2
1
2
1
1
1
1
1
1
1
1
1
1
1
2
2
1
1
1
1
1
1
1
1
1
2
1
1
1
1
1
1
1
2
1
1
1
2
1
1
1
1
1
1
1
1
1
1
2
1
1
1
1
1
2
1
1
2
2
1
1
1
1
1
1
1
2
1
2
2
1
1
1
1
2
2
1
1
1
2
2
2
1
2
1
2
1
2
1
1
1
1
2
1
2
2
2
2
1
2
1
1
2
2
2
1
1
2
2
1
1
1
1
2
2
1
1
1
2
1
1
2
2
1
1
1
2
1
1
2
1
2
1
2
2
2
2
2
2
1
2
1
1
2
2
2
2
2
2
1
1
1
1
2
2
1
2
1
1
2
1
2
2
1
1
1
1
2
2
1
1
1
1
2
2
2
1
2
2
1
1
2
1
1
2
1
2
2
2
1
2
1
2
2
2
1
1
1
1
2
2
1
1
2
2
2
1
1
2
1
1
1
1
1
1
1
1
1
1
1
1
1
1
1
1
2
1
1
1
2
2
1
2
1
1
2
1
1
1
2
1
1
1
1
1
1
1
1
1
1
1
1
1
1
1
1
1
1
1
1
1
1
1
1
1
1
1
1
1
1
2
1
1
2
1
1
1
1
1
1
1
1
1
1
1
1
1
1
1
1
1
1
1
1
1
1
1
1
1
2
1
1
1
1
1
1
2
2
2
2
2
2
2
2
2
2
1
2
2
2
1
2
1
1
1
1
1
2
2
1
1
1
1
1
1
1
1
1
1
1
1
1
1
1
2
1
1
1
1
1
1
1
1
1
1
1
1
1
1
1
1
1
1
1
1
1
1
1
1
1
2
1
2
1
1
1
2
1
1
1
1
2
1
1
1
1
1
1
1
1
1
1
1
1
1
2
1
2
2
2
2
2
2
2
2
2
2
2
2
2
2
1
2
1
1
1
1
1
1
1
2
1
2
2
2
1
1
1
1
1
1
1
1
1
1
2
1
2
1
1
1
1
1
1
1
1
1
2
2
2
1
2
2
1
1
2
2
2
2
2
2
2
2
2
2
2
2
2
2
1
2
1
1
2
2
2
2
2
2
1
2
2
1
2
2
1
1
1
1
2
2
2
2
2
2
2
2
2
2
2
2
2
2
2
1
2
1
1
1
1
1
1
2
1
2
2
1
1
1
1
1
2
2
1
2
2
2
1
1
1
1
1
1
1
1
1
1
1
1
1
1
1
1
1
1
1
1
1
1
1
1
2
1
2
2
2
2
2
2
1
1
1
1
1
1
1
1
1
1
1
2
1
1
1
2
1
1
1
1
1
1
1
1
1
1
1
1
1
1
1
1
1
1
1
1
1
1
1
1
1
1
1
1
1
1
1
1
1
1
1
1
1
1
1
1
1
1
1
1
1
2
1
1
1
1
1
1
1
2
2
2
2
2
2
2
2
2
2
2
2
2
2
2
2
2
1
2
2
2
1
1
2
2
1
1
1
1
1
1
1
1
1
2
2
2
2
1
1
1
2
1
2
1
1
2
2
2
2
2
2
2
2
2
2
2
2
2
2
1
2
2
2
2
2
2
2
1
2
2
2
1
2
2
2
2
2
1
1
1
1
1
1
1
1
1
1
1
1
1
1
1
1
1
1
1
1
1
1
1
1
1
1
1
1
1
1
1
1
1
1
1
1
1
1
1
1
1
1
1
1
1
1
2
1
1
1
1
2
2
2
1
1
1
1
1
1
1
1
1
2
2
2
2
2
2
2
2
2
2
2
2
2
2
1
1
1
1
1
1
1
1
1
1
1
1
1
1
1
1
1
1
1
1
1
1
1
2
2
2
2
2
2
2
1
2
2
2
2
2
2
1
2
1
2
1
2
1
1
2
2
2
2
2
2
2
2
2
2
2
2
2
1
2
2
2
1
2
2
2
2
2
2
2
2
2
2
2
2
2
1
1
2
2
2
1
1
2
2
2
1
1
1
1
2
1
2
2
1
2
2
2
2
1
2
1
1
1
1
1
1
1
1
1
1
1
2
1
1
1
2
1
2
1
1
1
1
1
1
1
2
2
1
1
1
1
1
1
1
1
2
1
1
1
1
1
1
1
2
2
2
2
2
2
2
1
1
1
1
1
1
2
2
1
1
2
1
1
2
1
1
1
1
1
1
1
1
1
1
1
1
1
1
1
1
1
1
1
1
1
1
1
1
1
1
1
1
1
1
1
1
1
1
1
1
1
1
1
1
1
1
1
1
2
1
1
1
2
1
1
1
1
1
1
1
1
1
1
1
1
1
1
1
1
2
1
2
2
2
2
2
1
1
1
2
2
1
1
1
1
1
1
2
2
2
2
2
2
2
2
2
2
2
2
1
1
2
2
1
2
1
2
2
2
2
2
2
2
2
1
1
1
2
2
2
1
1
1
1
1
1
1
1
1
1
1
1
1
1
1
2
2
1
1
1
1
1
1
1
1
1
1
1
1
1
1
1
1
1
1
2
1
1
1
2
2
1
2
1
1
1
1
1
1
1
1
1
1
1
1
1
1
1
1
1
1
1
1
1
1
2
1
2
2
2
2
2
2
1
1
1
2
2
2
2
1
1
1
1
1
1
1
1
1
1
1
1
1
2
1
1
1
1
1
1
1
1
1
2
1
1
2
2
1
2
1
2
1
2
2
1
1
2
2
2
2
2
2
2
2
2
2
1
1
2
1
1
1
1
1
1
1
1
1
1
1
1
1
1
1
1
1
1
1
1
1
1
1
1
1
1
1
1
1
1
1
1
1
1
1
2
1
1
1
2
2
2
2
2
2
1
1
1
2
1
1
1
1
1
1
1
1
1
1
1
1
1
1
1
1
1
1
1
1
1
1
1
1
1
1
1
1
1
1
1
1
1
1
1
1
1
1
1
1
1
1
1
1
1
1
1
1
1
1
1
1
1
1
1
1
1
1
1
1
1
1
1
1
1
1
1
1
1
1
1
1
1
1
1
1
1
1
1
1
1
1
1
1
1
1
1
1
1
1
1
1
1
1
1
1
1
1
1
1
1
1
1
1
1
1
1
1
1
1
1
1
1
1
1
1
1
1
1
1
1
1
1
1
1
1
1
1
1
2
1
1
2
2
1
1
2
1
2
1
1
1
2
1
1
1
1
1
1
1
1
1
1
1
1
1
1
1
1
1
1
1
2
1
2
2
2
2
1
2
1
1
1
1
1
1
1
1
1
1
2
2
2
2
2
2
2
2
2
2
2
2
2
2
2
2
2
2
2
2
2
2
2
1
2
2
2
1
2
2
2
1
2
2
2
2
2
2
2
2
2
2
2
2
1
1
1
1
1
1
2
1
1
2
2
1
2
2
1
1
2
2
1
1
1
2
1
1
1
1
2
2
2
2
2
2
2
2
2
2
2
2
1
2
2
2
1
1
1
1
1
1
1
1
1
1
1
1
1
1
2
2
2
2
2
1
2
2
1
2
1
1
1
1
1
1
1
1
1
1
1
1
1
1
1
1
1
1
1
1
1
1
1
1
1
1
1
1
1
1
1
1
1
1
1
1
1
1
1
1
1
1
1
1
1
1
1
1
1
1
1
1
1
1
1
1
1
1
1
1
1
1
1
1
1
1
1
1
1
1
1
2
2
1
1
1
1
1
1
1
1
1
1
1
1
2
2
2
2
2
2
2
2
1
1
1
1
2
1
1
2
2
2
2
2
2
2
1
1
1
1
1
2
1
1
1
2
1
1
1
2
1
1
1
1
1
1
1
1
1
1
1
2
1
1
1
1
1
2
1
2
1
1
1
1
1
1
1
1
1
1
1
1
1
1
1
1
1
1
1
1
1
1
1
1
1
1
1
1
1
1
1
1
1
1
1
2
1
1
1
2
2
2
1
1
1
2
1
2
2
2
2
2
2
2
1
2
2
2
2
2
1
2
2
1
1
2
2
1
1
1
2
1
2
2
2
2
2
2
2
2
2
2
2
1
1
2
2
2
2
2
2
2
2
2
1
2
2
2
2
2
2
2
2
2
2
2
2
1
1
2
1
1
2
1
1
1
1
1
1
1
2
1
1
1
1
1
1
2
2
2
2
1
1
1
1
1
1
1
2
1
1
1
1
1
1
2
2
2
2
2
2
2
2
2
2
2
2
2
2
2
2
2
2
2
1
2
2
2
2
2
2
2
2
1
2
2
2
2
2
2
2
2
1
2
2
1
1
1
1
2
2
1
1
1
1
1
1
1
1
1
1
1
1
1
1
1
1
1
1
1
1
2
1
2
1
1
2
1
2
1
1
1
1
1
1
1
1
1
2
1
1
1
2
1
2
1
1
1
1
1
1
1
1
1
1
1
1
1
1
1
1
1
2
1
1
1
1
1
1
1
1
2
2
1
2
2
2
2
2
2
2
2
2
2
2
2
2
2
2
2
2
2
2
2
1
2
2
2
2
2
2
2
2
2
2
2
2
2
2
2
2
2
2
2
2
2
2
2
2
2
2
2
2
2
2
2
2
2
1
2
2
2
1
2
2
2
2
1
2
2
2
2
2
2
2
2
2
2
2
2
2
2
2
2
2
2
2
2
2
2
2
2
2
2
2
2
2
2
2
2
2
2
2
2
2
2
2
2
2
2
2
2
2
2
2
2
2
2
2
2
2
2
1
2
2
2
2
2
2
2
1
2
1
2
2
2
2
2
2
2
2
2
2
2
2
2
2
2
2
2
1
2
2
2
2
2
1
2
1
2
2
2
2
2
2
2
2
2
2
2
2
2
2
2
2
2
2
2
2
2
2
2
2
2
2
2
2
2
1
2
2
2
2
2
2
2
2
2
2
2
2
2
2
2
2
2
2
2
2
2
2
2
2
1
1
1
2
1
1
1
1
2
1
1
1
1
2
2
1
1
1
2
1
1
1
1
1
1
1
1
1
1
1
1
1
1
1
1
1
2
2
1
1
2
2
2
1
1
2
1
1
1
1
1
2
2
2
2
2
2
1
2
2
1
1
2
1
2
2
2
1
2
2
2
2
1
2
1
1
2
1
2
1
2
2
2
1
2
2
2
2
2
2
2
2
2
2
2
2
2
2
2
1
2
2
1
1
1
1
1
1
2
2
2
2
1
1
1
1
2
2
2
2
2
2
2
2
1
1
1
1
2
2
1
1
1
1
1
1
1
1
1
1
2
1
1
1
1
1
1
1
2
1
2
2
1
1
2
2
2
2
2
1
2
2
1
2
1
1
1
1
2
1
2
2
1
1
1
1
1
1
1
1
1
1
1
1
1
1
1
1
1
1
1
1
1
1
1
1
1
1
1
1
1
1
1
1
1
1
1
1
1
1
1
1
1
1
1
1
1
1
1
1
1
1
1
1
1
1
1
1
1
1
1
1
1
1
2
1
2
1
1
1
2
2
2
2
2
2
2
2
2
2
1
1
2
1
1
1
1
1
1
1
1
1
2
1
1
1
1
1
2
2
2
2
2
2
2
2
1
1
1
1
2
2
1
1
2
2
2
2
2
2
2
2
2
2
2
2
2
1
2
1
2
2
2
2
2
2
2
2
2
2
2
2
2
2
2
2
2
2
2
2
2
2
1
2
1
2
2
1
1
1
1
1
1
1
1
1
1
1
1
1
1
1
2
1
2
2
2
2
1
1
1
1
1
1
2
1
1
1
1
1
1
1
2
2
2
2
2
2
2
2
2
2
2
2
2
2
2
2
2
2
2
2
2
2
2
2
2
2
2
2
2
2
2
2
2
2
2
2
2
2
2
2
2
2
2
2
2
2
2
2
2
2
2
2
2
2
2
2
2
2
2
2
2
2
2
2
2
2
2
2
1
2
2
2
2
2
2
2
1
1
1
1
1
1
1
2
1
2
2
2
1
2
1
1
1
1
2
1
2
1
1
1
2
1
1
1
1
1
1
1
2
1
1
1
2
1
2
1
2
2
1
2
1
1
1
1
1
1
2
2
2
2
2
2
2
2
2
2
2
2
2
2
2
2
1
2
2
2
2
1
2
2
2
2
2
2
2
2
2
2
2
2
1
2
1
2
1
1
1
2
1
1
1
1
1
2
1
2
1
2
2
2
2
2
2
2
2
2
2
2
2
2
2
2
2
2
2
2
2
2
2
2
2
2
2
2
2
2
2
2
2
2
2
2
2
2
2
2
2
2
2
2
2
2
2
2
2
2
2
2
2
2
2
2
2
2
2
2
2
2
2
2
2
2
2
2
2
2
2
2
2
2
2
2
2
2
2
1
2
1
2
1
1
2
1
2
2
2
2
2
2
2
2
2
2
2
2
2
2
2
2
2
2
2
2
1
1
2
2
2
2
2
1
1
1
1
1
1
1
1
1
2
2
2
2
1
2
1
1
1
2
2
2
2
2
2
2
2
2
2
2
2
2
2
2
2
2
2
2
2
1
2
1
2
1
1
1
1
1
1
1
1
1
1
1
1
1
1
1
1
1
1
1
1
1
1
1
1
1
1
1
2
1
1
1
1
1
1
1
1
2
2
2
2
1
2
1
1
2
2
2
2
2
2
2
2
2
2
2
2
2
2
2
2
2
2
2
2
2
2
2
2
2
2
2
2
2
2
2
2
2
2
2
2
2
2
2
2
2
2
2
2
2
2
2
2
2
2
2
2
2
2
2
2
2
2
2
2
2
2
2
2
2
2
2
2
2
2
2
2
2
2
2
2
2
2
2
2
2
2
2
2
2
2
2
2
2
2
2
2
2
2
2
2
2
2
2
2
2
2
2
2
2
2
2
2
2
2
2
2
2
2
2
2
2
2
2
2
2
2
2
2
2
2
2
2
2
2
2
2
2
2
2
2
2
2
2
2
2
2
2
2
2
2
2
2
2
2
2
2
2
2
2
2
2
2
2
2
2
2
2
1
2
1
2
1
2
2
1
2
2
2
2
2
1
1
1
1
2
2
2
2
1
2
2
1
2
2
2
1
2
1
2
1
1
1
2
2
2
2
2
2
1
1
2
2
2
2
2
2
2
2
2
2
2
2
2
2
2
2
2
2
2
2
2
2
2
2
2
2
2
2
1
2
1
1
1
1
1
1
1
1
2
2
2
2
1
2
1
2
1
1
1
1
1
2
1
2
1
1
1
1
1
1
1
2
2
1
2
2
2
2
2
2
2
2
2
2
2
2
1
2
2
2
2
2
2
2
2
2
2
2
2
2
2
2
2
2
2
2
2
2
2
2
2
2
2
2
2
2
2
2
2
2
2
2
2
2
2
2
2
2
2
2
2
2
2
2
2
2
2
2
2
2
2
1
2
2
2
2
2
2
2
2
2
2
2
2
2
2
2
2
2
1
1
1
1
1
1
2
1
1
1
1
1
2
1
1
1
1
1
2
2
1
1
1
2
1
1
1
1
1
1
1
1
1
1
1
1
1
1
1
1
1
1
1
1
1
1
1
1
1
1
1
1
1
1
1
1
1
1
2
2
2
2
1
2
2
2
2
2
2
2
2
1
1
1
1
1
1
1
1
2
1
2
2
2
2
2
2
2
1
2
2
1
1
1
2
1
1
2
1
2
2
1
1
1
1
2
1
1
1
2
2
2
2
2
1
2
1
1
1
1
2
1
1
1
1
1
1
1
1
1
1
1
1
1
1
1
1
1
2
1
2
1
1
1
2
2
1
2
2
1
2
1
1
2
2
2
2
2
2
2
2
2
2
2
2
2
2
2
2
2
2
2
1
2
2
2
2
2
2
1
1
2
2
1
2
1
1
1
2
1
1
1
2
1
2
2
1
1
1
2
2
1
1
1
1
1
2
2
2
2
2
2
2
2
1
2
2
2
2
2
1
1
1
1
1
1
1
2
1
2
1
1
2
2
1
2
1
2
1
1
2
2
2
2
2
2
2
2
2
2
2
1
1
2
1
2
2
1
2
1
1
2
2
1
2
1
2
2
2
1
2
1
1
1
1
1
1
1
1
2
2
1
1
2
2
2
2
1
1
1
1
1
1
1
1
1
2
1
1
1
1
1
1
2
1
2
2
1
1
2
2
2
2
2
2
2
2
2
2
2
2
2
2
2
2
2
2
2
2
2
2
2
2
2
2
2
2
2
2
2
2
2
2
2
2
2
2
2
2
2
2
2
2
2
2
2
2
2
2
2
2
2
2
2
2
2
2
2
2
2
2
2
2
2
2
2
2
2
2
2
2
2
2
2
2
2
2
2
2
2
2
2
2
2
2
2
2
2
2
2
2
2
2
2
2
2
2
2
2
2
2
2
2
2
2
2
2
2
2
2
2
2
2
2
2
2
2
2
2
2
2
2
2
2
2
2
2
2
2
2
2
2
2
2
2
2
2
2
2
2
2
2
2
2
2
2
2
2
2
2
2
2
2
2
2
2
2
2
2
2
2
2
2
2
2
2
2
2
2
2
2
2
2
2
2
2
2
2
2
2
2
2
2
2
2
2
2
2
2
2
2
2
2
2
2
2
2
2
2
2
2
2
2
2
2
2
2
2
2
2
2
2
2
1
2
1
2
1
2
1
1
1
1
1
1
2
2
2
1
2
2
2
2
2
2
2
1
1
1
1
1
1
1
1
1
1
1
2
1
2
1
2
2
1
1
2
2
2
2
2
2
2
2
2
2
2
2
2
2
2
2
2
2
2
2
2
2
2
2
2
2
2
2
2
2
2
2
2
1
2
1
1
1
2
1
2
2
1
1
1
1
1
1
1
1
1
1
1
1
1
1
2
1
1
1
1
1
1
1
1
1
1
2
1
2
1
1
1
1
2
1
1
1
1
1
1
1
1
1
1
1
1
1
1
1
1
1
1
1
1
1
1
1
1
1
1
1
2
1
2
2
2
2
2
1
1
2
2
2
2
2
2
2
2
2
2
2
2
1
2
2
2
2
2
2
1
2
1
2
1
2
2
1
2
2
2
1
1
1
1
1
1
1
1
1
1
1
1
1
1
1
1
1
1
1
1
1
1
1
1
1
1
1
1
1
1
1
1
1
1
1
2
1
1
1
2
2
2
2
2
1
1
2
2
2
1
1
1
1
1
1
1
2
2
2
2
2
2
1
2
2
2
2
2
2
2
2
2
2
2
2
2
2
2
2
2
2
2
2
2
2
2
2
2
2
2
2
2
2
2
2
2
2
2
2
2
2
2
2
2
2
2
2
2
2
2
2
2
2
2
1
2
2
2
2
1
1
2
1
1
1
1
2
1
1
1
1
1
1
1
1
2
2
2
2
2
2
2
2
2
2
2
2
2
2
2
2
2
2
2
2
2
2
2
2
2
2
2
2
2
2
2
2
2
2
1
2
1
1
2
2
1
1
1
1
1
1
1
1
1
1
1
1
1
1
1
1
1
1
1
1
2
1
1
1
1
1
1
1
1
1
1
1
1
1
1
1
1
2
1
2
2
2
2
2
1
2
2
2
2
2
2
2
2
2
2
2
2
2
2
2
2
2
2
2
2
2
2
2
2
2
2
2
2
2
2
2
2
2
2
2
2
2
2
2
2
2
2
2
2
2
2
2
2
2
2
2
2
2
2
2
2
2
2
2
2
2
2
2
2
2
2
2
2
2
2
2
2
2
2
2
2
2
2
1
2
1
1
1
1
1
1
1
1
2
2
2
2
2
2
1
2
2
1
1
2
1
2
1
1
1
1
1
1
2
1
1
2
2
2
2
1
2
2
2
2
2
2
2
2
2
2
2
2
2
2
2
2
2
2
2
2
2
2
2
2
2
2
2
2
2
2
2
2
2
2
2
2
2
2
2
1
2
2
2
2
2
2
1
1
2
2
1
1
1
2
1
1
2
1
2
1
2
2
2
2
2
2
1
1
2
2
2
1
1
1
1
1
2
2
2
2
1
1
2
2
2
2
2
2
2
2
2
2
2
2
2
2
2
2
2
2
2
2
2
2
2
2
2
2
2
2
2
2
2
2
2
2
2
2
2
2
2
2
2
2
2
2
2
2
2
2
2
2
2
2
2
2
2
2
1
1
2
2
2
2
1
2
2
2
2
2
1
2
1
1
2
1
2
1
2
2
2
2
2
2
2
2
2
1
1
1
2
2
2
2
2
2
2
2
1
2
2
2
2
2
2
2
2
2
2
2
2
2
2
2
1
2
1
2
2
1
1
2
1
1
2
1
2
2
2
2
2
2
2
2
2
2
2
2
2
2
2
2
2
2
2
1
2
2
2
2
2
2
2
2
2
2
2
1
2
2
1
1
1
1
1
1
1
1
1
1
1
1
1
2
1
1
1
1
1
1
2
1
1
1
1
1
2
2
1
1
1
1
1
1
2
1
1
1
2
1
2
2
2
2
2
2
2
1
1
2
1
2
2
1
1
1
1
1
1
1
1
1
1
1
1
1
1
1
1
1
1
1
1
1
1
1
1
2
1
1
1
1
1
1
1
1
1
1
1
1
2
1
1
1
1
2
1
1
1
1
1
2
1
2
2
2
1
2
2
2
2
2
1
1
2
2
2
2
2
2
2
2
2
2
2
2
2
2
2
2
2
2
2
2
2
1
2
1
2
2
2
2
1
1
1
1
1
1
1
1
2
1
1
2
1
2
2
2
2
2
2
2
2
1
1
1
2
1
2
1
1
2
1
2
1
1
2
2
2
2
2
2
2
2
2
2
2
2
2
2
2
2
2
2
2
2
2
2
2
2
2
2
2
2
2
2
2
2
2
2
2
2
2
2
2
2
2
2
2
2
2
2
2
1
2
2
2
2
2
2
2
2
2
2
2
2
2
2
2
2
2
1
2
1
1
2
2
2
2
1
1
1
1
1
1
1
1
1
1
2
1
2
2
1
1
1
1
1
2
1
1
1
1
1
2
1
1
1
1
1
1
1
2
1
2
1
1
1
1
1
1
2
2
1
1
1
2
1
1
1
1
2
2
1
1
2
1
2
2
2
2
2
2
2
2
2
2
1
1
2
2
2
1
2
2
2
2
2
2
2
2
2
2
2
1
2
1
1
1
1
1
1
2
1
1
2
1
2
2
2
2
2
2
2
2
2
2
2
2
2
2
2
2
2
2
2
2
2
2
2
2
2
2
2
2
2
1
2
2
1
2
1
2
2
2
2
2
2
2
2
2
1
2
1
2
1
2
2
2
1
2
2
2
2
2
2
2
2
2
2
2
2
2
2
2
2
2
2
2
2
2
2
2
2
2
2
2
2
2
2
2
1
2
2
1
2
2
2
2
2
2
1
2
1
1
1
1
1
1
1
2
2
1
1
1
1
1
1
2
1
1
1
1
1
1
1
1
2
1
1
1
1
1
1
1
1
1
1
1
1
1
1
1
1
2
2
1
1
1
1
1
1
1
1
2
2
2
2
2
2
2
1
2
2
2
2
1
1
1
1
1
1
1
1
1
1
1
1
1
1
2
2
1
1
2
1
1
1
2
1
1
1
1
1
2
1
2
1
2
2
2
2
2
2
2
2
2
2
2
2
2
2
2
2
2
2
2
2
2
2
2
1
2
2
2
1
1
2
1
2
1
2
1
2
1
2
2
2
1
2
2
1
1
2
2
1
1
1
1
1
1
1
1
1
1
1
1
1
1
1
1
1
1
1
1
1
1
1
1
1
1
1
1
1
1
1
1
1
1
1
1
1
1
1
1
2
1
1
1
1
1
2
1
1
1
1
1
1
1
2
1
1
1
2
2
2
2
2
2
2
2
2
2
2
2
1
1
1
1
1
2
1
1
1
1
2
1
2
2
1
2
2
2
2
2
2
2
2
2
2
2
1
2
2
2
1
2
1
1
1
1
2
1
2
2
2
2
2
2
2
2
2
2
2
2
2
2
2
2
2
2
2
2
2
2
2
2
2
2
2
1
1
1
1
2
1
1
2
2
2
2
1
2
2
2
1
2
1
1
1
1
2
1
1
1
2
2
2
2
2
2
2
2
2
2
2
2
2
2
2
2
2
2
2
2
2
2
2
2
2
2
2
2
2
2
2
2
2
2
2
2
2
2
2
2
2
2
2
2
2
2
2
2
1
1
2
2
2
2
2
2
2
2
2
2
2
1
2
1
2
2
1
2
2
2
2
2
2
2
2
2
2
2
2
2
2
2
2
2
2
2
2
2
2
2
2
1
1
2
1
1
1
1
1
1
2
1
1
2
2
2
2
2
2
2
1
1
2
2
1
1
1
2
1
1
1
1
1
1
1
1
1
1
2
2
1
2
2
2
2
2
2
2
2
2
1
2
1
2
1
1
1
1
1
1
1
1
1
2
1
2
1
1
1
1
1
2
2
1
2
1
1
2
1
1
1
1
2
2
2
2
2
2
2
2
1
1
1
1
1
1
1
1
1
1
2
1
1
1
1
1
1
1
1
1
1
1
1
1
1
1
1
1
1
1
1
1
1
1
1
1
1
1
2
1
2
2
2
1
2
2
2
2
2
1
2
2
2
2
1
2
2
1
1
2
2
2
2
2
2
2
2
2
2
2
2
2
2
2
2
2
1
1
1
1
1
2
1
1
1
1
1
1
1
1
2
1
2
1
1
1
1
1
1
1
1
1
1
1
1
1
1
1
1
1
1
1
1
1
1
1
1
1
1
1
1
1
1
1
1
1
1
1
1
2
1
1
1
1
1
2
1
2
1
1
2
1
1
1
1
2
1
1
1
1
1
1
1
1
1
1
1
1
1
1
1
1
1
1
1
1
1
1
1
1
1
1
1
1
1
1
1
1
1
1
1
1
1
1
1
1
1
1
1
1
1
2
1
2
2
1
1
1
2
2
1
2
1
1
1
1
1
2
1
1
1
2
2
2
2
1
2
2
2
2
2
2
1
2
1
2
2
2
2
2
2
2
2
2
2
2
2
2
2
2
2
2
2
1
1
1
1
1
1
1
1
1
2
1
1
1
1
1
1
1
1
1
2
2
1
1
1
1
1
1
1
1
1
1
2
2
2
1
1
1
1
1
1
2
2
2
2
2
2
2
2
1
1
1
1
1
1
1
1
1
2
2
1
1
2
2
2
2
2
2
2
2
2
2
1
2
1
1
1
2
2
2
1
2
1
1
2
2
2
2
2
2
2
2
2
2
2
2
2
2
2
2
2
2
2
2
2
2
2
2
2
2
2
2
2
2
2
2
2
2
2
2
2
2
2
2
2
2
2
2
2
2
2
2
2
2
1
2
2
2
2
2
2
2
2
2
2
2
2
2
1
2
2
2
2
2
2
2
2
2
2
2
2
2
2
2
2
2
2
2
2
2
2
2
2
2
2
2
2
2
2
2
2
2
2
2
2
2
2
2
2
2
2
2
2
2
1
1
2
2
2
2
2
2
1
1
1
1
1
1
1
1
1
2
1
1
1
1
2
2
1
2
1
2
1
2
1
1
1
1
1
1
1
1
1
1
1
1
2
2
2
1
2
1
2
2
1
1
1
1
2
2
1
1
2
1
1
1
1
1
1
1
1
1
1
1
2
1
2
1
2
2
2
2
2
2
1
2
2
2
1
1
2
1
1
1
1
2
2
2
2
1
2
2
2
2
2
2
2
2
1
1
1
1
1
1
1
1
2
1
2
2
2
1
2
1
2
2
2
1
1
1
1
1
1
1
1
1
1
1
1
1
1
1
1
2
2
2
1
1
1
1
1
1
1
1
1
1
1
1
1
1
1
1
1
1
1
1
1
1
1
1
1
1
1
1
1
1
1
1
1
1
1
1
1
1
1
1
1
1
1
1
1
1
1
1
1
1
1
1
1
1
1
1
1
1
1
1
1
1
1
1
1
1
1
1
1
1
1
1
1
1
1
1
1
1
1
1
1
1
1
1
1
1
1
1
1
1
1
1
1
1
1
1
1
1
1
1
1
1
1
1
1
1
1
1
1
1
1
1
1
1
1
1
1
1
1
1
1
1
1
1
1
1
1
1
1
1
2
1
1
2
2
2
2
1
2
2
1
1
1
1
1
1
1
1
1
1
1
1
1
1
1
1
1
1
2
1
1
1
1
2
2
2
1
1
1
1
1
1
1
1
2
1
1
1
2
2
2
2
2
2
2
2
2
2
2
2
2
2
2
2
2
2
2
2
2
1
2
2
2
1
1
1
1
1
2
1
1
1
1
1
2
2
2
2
2
2
2
2
2
2
2
2
2
1
2
2
2
2
1
1
1
2
2
2
2
1
2
2
2
2
1
1
1
1
1
1
1
1
1
1
1
1
1
1
1
1
1
1
1
1
1
1
1
1
1
1
1
1
1
1
1
1
1
1
1
1
1
1
1
1
1
1
1
1
1
1
1
1
1
1
1
1
1
1
1
1
1
1
1
1
1
1
1
1
1
1
1
1
1
1
1
1
1
1
1
1
1
1
1
1
2
1
1
1
2
1
1
1
1
1
1
1
1
1
1
1
1
1
1
1
1
1
1
1
1
1
1
1
1
1
1
1
1
1
1
1
1
1
1
1
1
1
1
1
1
1
1
1
1
1
1
1
1
1
1
1
1
1
1
1
1
1
1
1
1
1
1
1
1
1
1
1
1
1
2
1
1
1
1
1
1
1
2
2
1
1
1
2
1
2
2
2
2
2
2
2
2
2
1
2
1
2
1
2
2
2
2
2
2
2
2
2
2
1
1
1
2
1
1
1
1
1
1
1
1
1
1
2
1
1
1
1
1
2
1
1
1
2
1
1
1
1
1
1
1
1
1
1
1
1
1
1
2
1
2
1
1
1
1
1
1
1
1
1
1
1
1
1
1
1
2
1
1
1
1
1
1
1
2
1
1
1
2
1
1
2
2
2
2
1
2
1
1
1
2
1
1
2
2
2
2
2
2
2
2
2
2
2
2
2
2
2
1
2
2
2
2
2
2
1
2
1
1
2
2
2
2
2
2
2
2
2
2
1
1
2
1
2
1
2
1
2
2
2
2
2
2
2
2
2
2
2
2
2
2
1
2
1
2
1
1
2
2
2
2
2
2
1
2
1
1
1
1
1
1
1
1
1
1
1
1
1
2
1
1
2
2
2
1
2
2
2
2
2
2
2
2
2
2
2
2
2
2
2
2
2
2
2
2
2
2
2
2
2
2
2
2
2
2
2
1
2
1
1
1
1
1
1
1
1
1
1
1
1
1
1
1
1
1
1
2
2
2
2
2
2
2
2
2
2
2
2
2
2
2
2
2
1
1
2
2
1
1
1
1
2
1
2
2
2
2
2
2
2
2
1
2
1
2
1
1
1
1
1
1
1
1
1
1
1
1
1
1
2
1
2
1
2
2
2
2
2
2
2
2
2
2
1
2
2
1
1
1
1
1
1
1
1
1
1
1
1
1
1
1
1
1
1
1
1
1
1
1
1
1
1
1
2
2
1
1
1
1
1
1
2
1
1
1
2
1
1
1
1
1
1
1
1
1
1
2
1
1
1
1
1
1
1
1
1
1
1
1
1
2
1
1
1
2
1
1
2
2
2
2
2
2
2
2
2
2
2
2
2
2
2
2
2
2
2
2
2
2
2
2
2
2
2
2
2
2
2
2
2
2
2
2
2
2
2
2
2
2
2
2
2
2
2
2
2
2
2
2
2
2
2
2
2
2
2
2
2
2
2
2
2
2
1
1
2
2
1
1
1
1
2
2
2
2
2
2
2
2
2
2
2
2
2
2
2
2
2
2
1
2
2
2
2
2
2
2
2
2
2
1
1
2
2
1
1
1
1
1
1
1
1
1
1
1
2
2
2
2
1
2
1
1
2
1
1
1
1
1
2
1
2
2
1
1
2
2
1
2
2
2
2
2
2
2
1
1
2
1
1
1
2
1
1
1
2
2
2
2
2
2
2
2
2
2
2
2
2
2
2
2
2
2
1
2
2
2
2
2
2
2
2
2
2
2
2
2
2
2
2
2
2
2
2
2
2
2
2
2
2
2
2
2
2
2
2
2
2
2
2
2
2
2
2
2
2
2
2
1
2
2
1
1
1
1
1
1
1
1
2
2
1
2
1
2
2
2
1
1
1
1
1
1
1
1
1
1
1
1
1
1
2
1
2
1
2
2
2
2
1
2
2
2
2
2
1
1
2
1
1
1
1
1
1
1
1
1
1
1
1
1
1
1
1
1
1
1
1
1
1
1
1
1
1
1
1
1
1
1
1
1
1
1
1
1
1
1
1
1
1
2
1
1
1
1
1
1
1
1
1
1
1
1
1
1
1
1
1
1
1
1
1
2
2
2
2
1
1
2
1
1
1
2
1
2
1
2
1
2
1
1
1
1
1
1
2
1
1
1
1
1
1
1
1
1
1
1
1
1
1
1
1
1
1
1
1
1
1
1
1
1
1
1
1
1
1
1
1
1
1
2
1
2
2
2
1
2
2
1
1
1
2
1
1
1
1
2
2
2
2
2
2
2
2
1
2
2
1
2
2
2
2
1
1
2
1
1
1
1
2
1
1
1
1
1
1
1
1
1
1
1
1
1
1
2
2
1
1
2
1
2
2
2
2
2
2
2
1
1
1
1
1
1
1
1
1
1
1
1
2
1
1
1
1
1
2
2
2
1
2
2
2
1
1
2
1
2
2
2
2
2
1
2
1
1
1
2
2
2
2
2
1
2
2
2
2
2
2
2
2
1
1
1
1
1
1
1
1
1
1
1
1
1
1
1
1
1
1
1
1
1
1
1
1
1
1
1
1
1
1
1
1
1
1
1
1
1
1
1
1
1
1
1
1
1
1
1
1
1
1
1
1
1
2
1
1
1
1
1
2
1
1
1
2
1
1
1
1
2
1
2
2
2
2
2
2
2
2
2
2
1
1
1
1
1
1
1
1
1
1
1
2
1
1
1
1
1
1
1
1
1
1
1
1
1
1
1
1
1
1
1
1
1
1
1
1
1
1
1
1
1
1
1
1
1
1
1
1
1
1
1
1
1
1
1
1
1
1
1
1
1
1
1
1
1
1
1
1
1
1
1
1
1
1
1
1
1
2
1
1
2
2
1
1
2
2
2
1
1
1
1
1
1
1
1
1
1
1
2
1
1
1
1
1
1
1
1
1
1
1
1
1
1
1
1
1
1
1
1
1
1
1
1
1
1
1
1
1
1
1
1
1
1
1
1
1
1
1
1
1
1
1
1
1
1
1
1
1
1
1
1
2
1
1
2
2
1
2
1
1
1
1
1
1
2
1
1
2
2
2
2
1
2
2
2
2
2
1
2
1
1
1
2
1
2
1
2
1
1
1
1
1
1
1
1
1
1
1
1
1
1
1
1
2
1
1
2
2
2
1
1
2
2
1
1
1
2
2
1
2
1
1
1
2
1
2
1
1
2
2
2
2
1
1
2
1
2
1
1
1
2
2
2
2
2
2
2
2
1
2
2
1
1
1
1
1
1
2
1
1
1
1
1
2
1
2
2
1
1
1
2
2
2
1
2
2
1
2
2
2
1
1
1
1
2
2
1
2
2
2
2
2
2
2
2
2
2
2
2
2
1
2
2
2
2
2
2
2
2
2
2
2
2
2
2
2
2
2
2
1
2
1
2
2
1
1
2
2
2
2
2
2
2
2
2
2
2
2
2
2
2
2
2
2
2
2
2
2
2
2
2
2
2
2
2
2
2
2
2
2
2
2
2
2
2
2
2
2
2
2
2
2
2
2
2
2
2
2
2
2
1
2
2
2
2
2
2
2
2
2
2
2
2
2
2
2
2
2
2
2
2
2
2
2
2
2
2
2
2
2
2
2
2
2
2
2
2
2
2
2
2
2
2
2
2
2
2
2
2
2
2
2
2
2
2
2
2
2
2
2
2
2
2
2
2
2
2
2
2
2
2
2
2
2
2
2
2
2
2
2
2
2
2
2
2
2
2
2
2
2
2
2
2
2
2
2
2
1
2
2
2
2
2
2
2
2
2
2
2
2
1
2
2
2
1
1
1
1
2
2
1
1
2
2
2
2
2
2
2
2
2
2
1
2
1
1
1
1
1
1
1
2
1
2
1
2
2
2
2
2
2
2
2
2
2
2
2
2
2
2
2
2
1
2
1
2
1
1
1
1
1
1
1
1
1
1
2
1
1
1
1
1
1
1
1
1
1
1
1
1
1
1
1
1
1
1
1
1
1
1
1
1
1
1
1
1
1
1
2
1
1
1
2
2
2
2
2
1
2
1
1
1
1
2
2
2
2
2
2
2
2
2
2
2
2
2
2
2
2
2
2
2
2
2
1
1
1
2
2
2
2
2
2
2
2
2
2
2
1
1
1
2
2
2
1
2
1
2
2
2
2
2
2
2
2
2
2
2
2
2
2
2
2
2
2
2
2
2
2
2
2
2
2
2
2
2
2
2
2
2
2
2
2
2
2
2
2
2
2
2
2
2
2
2
2
2
2
2
2
2
2
2
2
2
1
2
2
2
2
2
2
2
2
2
1
2
2
2
2
2
1
1
2
2
1
2
2
1
1
1
1
1
2
1
2
2
2
2
2
2
2
2
1
1
1
2
1
1
1
1
1
1
1
1
1
1
1
1
1
1
1
1
1
1
1
1
1
1
1
2
1
1
2
2
1
1
1
1
1
1
1
1
1
1
1
1
1
1
1
1
1
1
1
1
1
1
1
2
1
1
1
1
1
1
1
1
1
1
1
1
2
1
1
1
1
1
2
2
2
1
2
2
2
1
1
2
2
2
2
2
1
1
2
1
1
1
1
2
1
1
1
1
1
1
2
1
2
2
2
2
2
2
2
2
2
2
2
2
2
2
2
2
2
2
2
2
2
2
1
2
1
1
1
1
1
1
2
1
2
1
1
1
1
1
1
1
1
1
1
1
1
1
1
2
1
1
1
1
1
2
1
1
2
2
1
2
2
2
2
2
1
1
2
1
1
1
1
1
1
1
2
1
2
1
2
2
1
2
2
2
2
2
2
2
2
2
1
1
1
1
2
2
1
1
1
1
1
2
1
2
2
1
2
1
1
1
2
1
1
1
2
2
2
2
2
2
2
2
2
2
2
1
2
1
1
1
2
1
1
1
1
1
1
2
2
2
2
2
2
2
1
2
2
2
2
1
2
2
2
1
1
2
1
1
1
1
1
1
1
1
2
1
2
2
1
1
1
1
1
1
1
1
1
1
1
1
1
1
1
2
1
1
2
2
1
1
2
2
2
2
2
2
2
2
2
2
2
2
2
1
2
2
2
2
2
2
2
2
2
2
2
2
2
2
2
2
2
2
2
2
2
2
2
2
2
2
2
1
2
1
2
2
1
1
2
2
2
1
2
1
2
2
2
2
2
2
2
2
2
2
1
1
2
2
2
2
2
2
2
2
2
2
2
2
1
2
2
2
2
2
2
2
2
2
1
1
2
2
1
2
1
1
1
1
1
2
1
1
1
2
1
1
2
1
2
2
2
2
1
1
2
2
2
2
2
2
2
2
2
2
2
2
1
2
2
1
1
2
2
1
1
1
2
2
2
1
1
1
1
1
1
2
1
1
2
2
2
2
2
2
1
2
2
2
2
1
2
1
2
2
2
2
2
2
2
2
1
2
2
2
1
1
1
1
2
1
1
1
1
1
2
1
1
2
1
1
1
1
1
1
1
1
2
2
2
2
2
2
2
2
2
2
2
2
2
2
2
2
2
2
2
2
2
2
2
2
2
2
2
2
2
2
2
2
2
2
2
2
2
2
2
2
2
1
2
1
2
2
2
2
2
2
2
2
2
2
2
2
2
2
1
2
1
2
1
1
1
2
1
2
1
1
1
1
1
1
2
2
1
1
1
1
1
1
1
1
1
1
1
1
1
1
1
1
1
1
1
1
1
1
1
1
1
1
1
1
1
1
1
1
1
1
1
1
1
1
1
1
1
1
1
1
1
2
1
1
2
1
2
2
2
2
2
2
2
1
1
1
1
1
1
1
1
1
1
1
1
1
1
1
2
2
1
1
1
1
1
1
1
1
1
1
1
1
1
1
1
1
1
1
1
1
2
2
2
2
2
1
2
1
2
1
1
1
1
1
2
2
2
1
2
2
1
1
2
2
2
2
2
2
2
2
2
2
2
1
1
1
2
2
2
1
2
2
1
1
1
1
1
2
2
2
2
2
1
1
1
1
1
1
1
1
1
2
1
1
1
1
1
1
1
1
1
1
1
1
1
1
2
1
1
2
1
2
1
1
1
1
1
1
1
1
1
1
1
1
1
1
1
2
2
2
1
1
1
1
1
1
2
2
1
1
2
2
1
1
1
1
2
2
1
2
1
1
1
1
1
1
2
1
1
1
2
2
1
1
2
2
2
2
2
2
2
2
2
2
2
2
2
2
2
2
2
1
2
2
2
2
1
1
1
2
1
1
1
2
2
2
1
2
2
2
1
1
2
1
2
1
2
2
2
2
2
1
2
2
2
1
2
2
2
2
1
2
1
2
1
1
1
1
1
1
1
1
2
2
1
2
1
2
1
1
1
1
1
1
1
2
1
1
1
1
1
2
1
1
1
2
2
2
1
1
2
1
2
1
2
2
2
2
2
1
2
1
1
2
1
2
1
1
1
1
1
1
1
1
1
1
1
1
1
1
1
1
2
2
1
2
2
1
2
1
1
1
1
2
1
1
2
1
2
1
2
2
2
2
2
2
2
2
1
1
1
1
1
1
1
1
1
1
1
1
1
1
1
1
1
1
1
1
1
1
1
1
1
1
2
1
1
1
1
2
1
1
1
1
1
1
1
1
1
1
2
2
1
1
1
1
1
1
1
1
1
2
1
1
2
1
1
1
2
1
1
1
1
1
1
2
1
2
2
1
2
2
2
2
2
1
2
2
2
2
1
1
2
2
2
2
2
2
2
2
2
2
2
2
1
1
1
2
1
1
1
1
2
2
2
1
2
1
1
1
1
1
1
1
1
1
1
1
1
1
1
1
1
1
1
1
2
1
1
1
1
1
1
1
2
2
1
1
1
2
1
1
1
1
1
1
1
1
2
2
1
1
1
1
1
1
1
1
1
2
1
1
1
2
1
1
2
1
1
1
1
1
1
1
1
1
1
1
1
1
1
1
2
1
1
1
1
2
1
2
1
2
2
2
2
2
2
2
1
1
2
1
2
2
2
2
2
2
2
2
2
2
2
2
2
2
2
2
1
1
2
2
2
1
2
1
2
2
2
2
2
2
2
2
2
2
2
2
2
2
2
2
2
2
2
2
2
2
2
2
2
2
2
2
2
2
2
2
2
2
2
2
2
2
2
2
2
2
2
2
2
2
2
2
2
2
2
2
2
2
2
2
2
2
2
2
2
2
2
2
2
2
2
2
2
2
2
2
2
2
2
1
2
2
2
1
2
2
2
2
2
2
2
2
2
2
2
2
2
2
1
2
2
1
1
1
2
2
2
2
1
1
1
2
1
1
1
1
1
1
1
1
1
1
1
1
1
1
1
1
1
1
1
1
2
1
1
1
1
1
2
1
1
1
1
1
2
1
1
1
1
1
1
1
2
1
1
1
2
2
2
2
2
2
2
2
2
2
2
2
2
1
1
1
2
1
1
1
1
1
1
1
1
1
1
1
1
1
1
1
1
1
1
2
1
1
1
1
1
1
1
1
1
1
1
1
2
1
2
1
2
2
2
2
2
2
2
2
2
2
2
2
2
2
2
2
2
2
2
2
2
2
2
2
2
2
2
2
2
2
2
2
2
2
2
2
2
2
2
2
2
2
2
2
2
2
2
2
2
2
2
2
2
2
2
2
2
2
2
2
2
2
2
2
2
2
1
2
2
2
2
2
2
1
2
2
2
1
2
1
2
2
1
2
2
2
2
2
2
2
2
2
2
2
2
2
2
2
2
2
2
2
2
2
2
2
2
2
2
2
2
2
2
2
2
1
2
2
2
2
1
1
1
2
2
1
1
2
1
2
1
1
1
2
1
1
1
1
2
1
1
1
1
1
1
1
1
1
1
1
1
1
1
1
1
1
1
1
1
1
1
1
1
1
1
1
1
1
1
1
1
1
1
1
2
2
2
1
2
2
2
2
2
2
2
2
2
2
2
2
2
2
2
2
2
2
2
2
2
1
1
2
1
1
2
2
2
2
2
2
2
2
2
2
2
2
2
2
2
2
2
2
2
2
2
2
2
2
2
2
2
2
2
2
2
2
2
2
2
2
2
2
2
2
2
2
2
2
2
2
2
2
2
2
2
2
2
2
2
2
2
2
2
2
2
2
2
2
2
2
2
2
2
2
2
2
2
2
2
2
2
2
2
2
2
2
2
2
2
2
2
2
2
2
2
2
2
2
2
2
2
2
2
2
2
2
2
2
2
2
2
2
2
2
2
2
2
2
2
2
2
2
2
2
2
2
2
2
2
2
2
2
2
2
2
2
2
2
2
2
2
2
2
2
2
2
2
2
2
2
2
2
2
2
2
2
2
2
2
2
1
2
2
2
1
2
2
2
2
1
2
2
1
1
1
2
1
1
1
2
2
2
1
1
1
1
1
1
1
1
2
2
1
1
1
2
1
2
1
1
1
1
1
1
1
1
1
2
1
2
1
1
1
1
1
1
1
1
1
2
1
1
2
2
2
2
2
2
2
2
2
2
2
2
2
2
2
2
2
2
2
2
2
2
2
2
2
2
2
2
2
2
2
2
2
2
2
2
2
2
2
2
2
2
2
2
2
2
2
2
2
2
2
2
2
2
2
2
2
2
2
2
2
2
2
2
2
1
2
2
1
2
2
2
1
2
2
2
1
1
1
2
1
1
1
1
1
1
1
1
1
1
2
1
1
1
1
1
1
2
2
2
2
2
1
1
1
1
1
1
1
1
2
1
1
1
2
2
2
2
2
2
2
2
2
2
2
2
2
2
2
2
2
2
2
2
2
2
2
2
2
1
2
2
2
1
2
2
2
2
2
2
2
2
2
2
2
2
1
2
1
2
2
2
2
2
2
2
2
1
2
1
2
1
1
1
1
1
1
1
1
1
1
1
1
1
1
1
2
2
1
1
2
2
2
2
1
1
2
1
1
1
1
1
1
1
1
1
1
1
1
1
1
1
1
1
1
1
1
1
1
1
1
1
1
1
1
1
1
2
1
1
1
1
1
1
1
1
1
1
1
1
1
1
2
2
2
2
1
2
1
1
1
1
1
1
1
1
1
1
2
1
1
1
1
1
2
1
1
1
2
2
1
1
2
2
2
1
2
1
2
1
1
1
1
2
1
2
2
1
1
1
1
1
1
1
1
1
2
1
1
2
1
1
2
2
2
2
1
2
1
2
2
2
2
1
2
2
2
2
2
2
2
2
2
2
2
2
2
2
1
1
2
2
2
2
2
2
2
2
2
1
1
1
2
1
2
2
2
2
2
2
1
2
1
2
2
1
2
2
2
2
1
2
2
2
2
2
2
2
2
2
2
2
2
2
2
2
2
2
2
2
2
1
2
2
2
2
2
2
2
2
2
2
2
2
2
2
1
2
2
2
1
2
1
2
2
2
1
2
1
2
2
1
2
2
2
2
2
1
1
1
1
1
1
1
1
1
1
1
1
1
1
1
1
1
1
1
1
1
1
1
1
1
1
1
1
1
1
1
1
1
1
1
1
2
1
2
1
2
1
1
2
2
2
2
2
2
2
1
2
2
2
2
1
2
1
1
2
2
1
2
1
1
2
1
2
1
1
1
1
1
1
1
1
1
1
1
1
1
1
1
1
1
1
1
1
1
2
1
1
1
1
1
1
1
1
1
1
1
1
1
2
1
1
1
1
1
1
1
1
1
1
1
1
1
1
1
1
1
1
1
1
1
2
1
1
1
2
1
1
2
2
2
2
2
2
2
2
2
2
2
2
2
2
2
2
2
2
2
2
2
2
2
2
2
2
2
2
2
2
2
2
2
2
2
2
1
1
1
1
1
2
1
1
1
1
2
1
1
1
2
1
2
2
2
2
2
2
2
2
2
2
2
2
2
2
2
2
2
2
2
2
2
2
2
2
2
2
2
2
2
2
2
2
2
2
2
2
2
2
2
2
2
2
2
2
2
2
2
1
2
2
2
2
2
1
2
2
2
2
2
2
2
2
2
2
2
2
2
2
2
2
2
2
2
1
2
2
2
2
1
2
1
2
1
1
1
2
1
1
1
1
1
1
1
1
1
1
1
1
1
2
1
1
2
1
1
1
1
1
1
1
1
1
1
1
1
1
1
1
1
2
1
2
1
2
2
2
2
2
1
2
2
1
1
2
2
2
2
1
1
1
1
1
1
1
1
2
1
1
1
1
1
1
1
1
1
1
1
1
1
1
1
1
1
1
1
1
1
1
1
1
1
1
1
1
1
1
1
1
1
1
1
1
1
1
1
1
1
1
1
1
1
1
1
1
1
1
1
1
1
1
1
1
1
1
1
1
1
1
1
1
1
1
2
2
2
2
1
1
1
1
1
1
1
1
1
1
2
2
2
1
2
2
1
1
1
1
1
1
1
1
1
1
1
2
1
1
1
1
1
1
1
1
1
1
1
1
1
1
1
1
1
1
2
2
1
2
2
2
1
2
1
1
1
1
1
1
1
2
2
2
2
2
1
2
2
2
1
2
2
2
2
2
1
1
2
2
1
1
1
1
1
1
1
1
1
1
1
1
1
1
1
1
1
1
1
2
1
1
1
1
1
1
1
1
1
1
2
1
1
1
1
1
1
1
2
2
1
2
2
2
2
2
2
2
2
2
1
2
2
1
1
1
2
1
1
1
2
2
2
2
1
2
1
2
1
1
1
1
1
1
1
1
1
1
1
1
1
1
1
1
1
1
2
2
1
1
1
1
1
1
1
1
1
1
1
1
1
1
1
1
1
1
1
1
1
1
1
1
1
1
1
1
2
1
1
1
1
2
1
1
2
2
1
1
2
1
2
1
2
1
2
2
2
2
2
2
2
2
2
2
2
2
2
2
2
2
2
2
1
1
2
1
1
1
1
1
1
1
1
1
1
1
1
1
1
1
1
1
1
1
1
2
1
1
1
2
1
1
1
1
1
1
1
2
1
1
1
1
2
1
2
2
1
1
1
2
2
2
2
2
2
2
2
2
2
2
2
2
1
2
1
2
1
2
1
1
2
2
2
2
2
2
2
2
2
2
1
2
1
2
1
1
1
2
2
2
2
2
2
2
2
1
2
2
2
2
2
2
2
2
2
2
2
2
2
2
2
2
2
2
2
2
2
2
2
2
2
2
2
2
2
1
2
2
2
1
1
2
1
1
1
2
1
1
1
1
2
1
1
1
1
1
2
2
2
2
1
1
1
1
2
1
2
2
2
2
2
2
2
2
2
2
2
1
2
2
2
2
2
2
2
1
2
1
2
2
2
2
1
2
2
2
1
1
1
1
2
2
2
1
1
1
1
1
1
1
1
1
2
1
2
2
2
2
2
2
2
2
2
2
2
2
2
2
1
1
2
2
2
2
1
1
1
2
1
1
1
1
1
1
1
1
1
1
1
1
2
1
1
1
1
1
1
1
1
1
1
1
1
1
1
1
1
1
1
1
1
1
1
2
1
1
1
1
1
1
2
1
1
1
1
1
1
1
1
1
1
1
1
1
1
1
1
1
1
1
1
1
2
2
1
1
2
2
2
2
2
1
2
2
2
2
2
2
1
1
1
1
1
1
1
2
1
2
1
1
2
2
1
2
1
1
2
2
2
2
2
2
2
2
2
2
2
2
2
2
2
2
2
2
2
2
2
2
2
2
2
2
2
2
2
2
2
2
2
2
2
2
2
2
2
2
1
2
2
2
1
1
2
2
2
2
2
2
2
2
2
2
1
2
1
2
1
2
1
1
1
2
1
2
1
2
1
1
1
2
1
1
1
1
1
2
1
2
2
1
1
1
1
1
1
1
1
1
1
1
1
1
1
1
1
1
1
1
1
1
2
2
2
2
2
2
2
2
1
1
1
1
2
1
2
1
1
1
1
1
1
1
2
1
1
1
1
1
1
1
1
2
1
2
1
1
1
1
1
1
1
1
2
1
1
1
1
2
1
1
2
2
2
2
2
2
1
1
1
2
1
2
2
1
1
1
1
1
1
2
2
2
1
2
1
2
1
1
1
1
1
1
1
1
1
1
1
1
1
1
1
1
1
1
1
1
1
1
1
1
1
1
1
1
1
1
1
1
1
1
1
1
2
1
2
1
2
2
2
2
1
2
1
1
1
1
1
1
1
1
2
2
1
1
2
2
2
1
2
2
2
1
2
2
2
2
1
2
2
2
2
1
2
2
2
2
2
2
2
2
2
2
2
2
1
1
2
1
1
2
1
1
1
2
2
2
2
2
2
2
2
2
2
2
2
2
2
2
1
1
2
2
2
1
1
2
1
2
1
1
2
2
1
2
2
2
1
1
2
1
2
2
2
1
2
1
1
2
2
2
1
2
1
1
2
1
1
1
2
2
1
2
1
1
1
1
1
1
1
1
1
1
1
2
1
1
2
2
2
2
2
2
2
1
2
1
2
2
2
2
1
1
2
2
1
1
1
1
1
1
1
1
1
1
1
1
1
1
1
1
1
1
1
1
1
1
1
1
1
1
1
1
1
1
1
1
1
1
1
1
1
1
1
1
1
1
1
1
1
1
1
1
1
1
1
1
1
1
1
1
1
1
1
1
1
1
1
1
1
1
1
1
1
1
1
1
1
1
1
1
1
1
1
1
1
1
1
1
1
1
1
1
1
1
1
1
1
1
1
1
1
1
1
1
1
1
1
1
1
1
1
1
1
1
1
1
1
1
1
1
1
1
1
1
1
1
2
1
1
1
1
1
1
1
1
1
2
1
1
1
1
1
1
1
1
1
1
1
1
1
1
1
1
1
1
1
1
1
1
1
1
1
2
2
2
2
1
1
2
2
1
1
1
1
1
1
2
2
2
2
2
1
2
1
2
1
1
1
1
1
1
1
1
1
1
1
1
1
1
1
1
1
1
1
1
1
1
1
1
1
1
1
1
1
1
1
1
1
1
1
1
1
2
1
1
1
1
1
1
2
1
1
1
1
2
1
1
2
2
1
2
2
2
2
2
2
1
1
2
1
1
1
1
1
1
1
1
2
2
2
2
2
1
2
2
2
2
2
1
2
2
2
1
1
1
1
1
1
2
2
2
2
2
2
1
2
2
1
2
2
2
2
2
2
2
2
2
2
2
2
2
2
2
2
2
2
2
2
2
2
2
2
2
2
2
2
2
2
2
1
1
1
1
2
2
2
2
2
2
2
1
2
2
2
2
1
2
1
2
1
2
2
1
1
1
1
2
2
2
2
2
1
1
2
2
2
2
2
2
2
2
2
2
1
1
1
1
2
2
2
2
2
2
2
2
2
2
2
2
2
2
2
1
1
1
1
1
2
2
2
1
2
2
2
2
2
2
2
2
2
2
1
2
1
1
1
1
1
2
1
1
2
2
1
1
1
2
1
1
1
1
1
1
1
1
1
1
1
1
1
1
1
1
1
1
1
1
1
1
1
1
1
1
1
1
1
1
1
1
1
1
1
1
1
1
1
1
1
1
1
1
1
1
2
2
2
1
2
2
1
2
1
1
1
1
1
2
1
1
1
2
1
1
1
1
1
1
1
1
1
1
1
1
1
1
1
1
1
1
1
1
1
1
1
1
1
1
1
1
1
1
1
1
1
1
1
1
2
1
1
1
1
1
1
1
1
1
1
2
1
1
1
1
1
2
1
1
1
2
1
1
1
1
1
1
1
2
2
2
1
1
2
2
2
2
2
2
2
2
1
1
1
1
1
1
2
2
1
2
1
1
1
1
1
1
1
2
1
2
1
1
2
1
1
1
1
1
1
2
1
2
1
1
1
1
2
2
2
1
1
2
1
2
2
2
1
1
1
1
2
2
1
1
1
1
2
1
1
1
2
2
1
1
1
1
1
1
2
2
1
1
1
1
1
1
1
1
1
1
1
1
1
1
1
1
1
1
1
2
1
1
1
1
1
1
1
1
1
1
1
1
1
1
1
1
1
1
1
1
1
1
1
1
1
1
1
1
1
1
1
1
1
1
1
1
1
1
1
1
1
1
2
1
1
1
1
1
1
1
1
1
1
1
1
1
1
1
1
1
1
1
1
1
1
1
1
1
1
2
1
1
1
1
1
1
1
1
2
1
1
1
2
2
1
2
2
2
2
2
2
2
2
2
2
1
2
2
2
2
2
2
1
1
1
2
2
2
2
1
1
1
2
1
1
1
1
1
1
2
2
2
2
2
2
2
2
1
1
2
2
2
2
2
1
2
1
1
1
2
1
1
2
2
1
1
2
2
2
2
2
2
1
2
1
1
1
1
1
2
2
2
2
2
2
1
1
2
2
2
2
1
2
1
1
1
1
1
1
2
2
1
1
1
1
1
1
1
2
2
2
2
2
2
2
2
2
1
1
2
2
1
1
2
2
2
1
1
1
1
1
2
2
2
2
2
2
2
2
1
1
1
2
1
1
1
1
2
2
2
2
2
2
2
2
2
2
2
2
2
1
1
1
1
1
1
1
1
2
2
2
2
2
1
1
1
1
2
2
2
2
2
2
2
2
2
2
2
2
2
2
2
2
2
2
1
1
2
2
2
2
1
2
1
1
1
1
1
1
1
1
1
1
1
1
1
1
1
1
1
1
1
1
1
1
2
2
1
1
1
1
1
1
1
1
1
1
2
2
1
1
1
1
2
2
1
1
2
1
1
1
1
1
1
1
1
1
1
1
1
1
1
1
1
1
2
1
1
1
1
1
2
2
2
1
2
1
2
2
2
2
2
2
2
2
2
2
2
2
2
2
2
2
2
2
2
2
2
2
2
2
1
1
2
2
2
2
2
2
2
2
2
2
1
1
2
2
2
2
2
2
2
2
1
1
1
2
1
1
1
1
1
1
1
1
1
1
1
1
2
2
1
1
2
2
1
1
1
2
1
1
1
1
1
1
2
1
2
2
2
2
2
2
2
2
2
2
1
1
2
2
2
2
2
2
2
2
2
2
2
2
2
2
2
2
2
2
2
2
2
2
2
2
2
2
1
1
1
1
1
1
1
2
1
1
2
2
2
2
2
2
2
2
1
2
2
1
1
1
1
2
2
2
2
2
2
2
2
2
2
2
2
2
2
2
2
2
2
2
2
2
1
2
2
2
2
2
2
2
1
1
2
2
2
2
2
2
2
2
2
2
2
2
2
2
2
2
2
2
2
2
2
2
2
2
1
2
1
2
2
2
1
1
2
2
2
1
1
1
1
1
1
1
1
1
1
1
1
1
2
2
1
1
1
1
2
2
2
2
2
2
1
1
1
1
1
1
2
2
2
1
2
1
2
1
2
1
1
1
1
2
1
1
2
2
1
2
2
2
1
1
2
1
2
2
2
2
1
1
2
1
2
1
1
1
1
1
1
2
1
1
2
2
2
2
2
2
1
2
1
1
1
1
2
1
1
1
1
1
2
1
1
1
1
1
1
1
2
2
2
2
2
1
2
2
2
2
1
1
1
1
1
1
1
1
1
1
1
1
1
1
2
2
1
2
1
2
2
2
1
1
1
1
2
2
1
1
2
2
2
2
1
2
2
2
2
2
2
1
1
1
1
1
2
2
2
2
1
1
1
1
2
2
2
2
2
2
2
2
2
1
1
1
2
2
2
2
2
2
2
2
2
2
2
2
2
2
1
1
2
2
2
1
2
1
1
1
1
1
1
1
1
1
1
2
1
1
2
1
2
1
1
1
1
1
1
1
1
1
1
1
1
2
2
2
2
1
1
2
1
1
1
1
1
1
2
2
2
2
1
1
2
2
2
2
1
2
2
2
2
2
2
2
2
2
2
2
2
2
1
1
2
2
2
2
2
2
2
2
2
2
2
2
2
2
2
2
2
1
1
2
2
2
1
1
2
2
2
2
1
2
2
2
1
2
1
1
2
2
1
2
2
2
2
2
2
2
2
1
1
1
1
1
1
1
1
2
1
1
1
2
2
2
2
2
2
2
2
2
2
1
1
2
2
1
1
1
1
1
1
1
1
1
1
1
1
1
1
1
1
1
1
2
2
1
1
2
2
1
1
1
1
1
1
2
2
2
2
2
2
1
1
2
2
2
2
2
2
2
2
1
1
1
1
1
2
2
2
2
2
2
2
2
2
2
2
2
2
2
2
2
2
2
1
2
1
2
2
2
1
2
2
2
2
2
2
2
2
2
2
2
2
2
2
2
2
2
2
2
2
2
1
2
2
2
2
2
2
2
2
2
2
2
2
2
2
2
2
1
2
2
1
2
1
2
2
2
2
2
2
1
1
1
1
1
1
2
2
2
2
1
1
1
1
1
1
1
1
2
1
2
2
2
2
2
2
2
2
2
2
2
2
2
2
2
2
2
2
2
2
2
2
1
1
1
1
1
1
1
1
1
2
1
1
1
1
1
1
1
1
1
1
1
1
1
1
1
1
1
1
1
1
1
1
2
1
2
2
2
2
2
2
2
2
1
1
2
2
1
1
1
1
1
1
1
2
2
2
1
2
1
2
1
2
1
1
1
1
1
2
1
1
1
1
1
1
1
1
1
1
1
1
1
1
2
1
1
1
2
2
1
1
2
2
2
2
2
2
1
1
2
1
1
1
1
2
2
2
1
2
2
2
2
2
1
1
1
1
1
2
1
1
1
1
1
1
1
1
1
1
1
1
1
1
1
1
1
1
1
1
1
1
1
1
1
1
1
1
1
1
1
1
1
1
1
1
1
1
2
1
2
1
1
2
1
2
1
1
2
2
2
2
2
2
2
2
2
2
2
1
2
2
1
1
2
2
2
2
2
1
1
1
2
2
2
2
2
2
2
2
1
1
2
1
2
2
2
2
2
2
2
2
2
2
2
2
2
2
2
2
2
2
2
2
2
2
2
2
2
1
2
2
2
1
2
2
2
2
1
1
2
1
1
1
1
1
1
1
1
1
1
1
1
1
2
1
1
1
1
1
1
1
1
1
2
2
2
1
1
2
1
1
1
1
1
1
1
1
1
1
1
1
2
2
1
1
1
1
2
2
2
2
2
2
2
2
2
2
2
2
2
2
2
2
2
2
2
2
2
2
2
2
2
2
2
2
2
2
2
2
2
2
2
2
1
1
1
1
1
1
2
2
1
1
1
1
1
1
1
1
1
1
1
1
1
1
1
1
1
1
1
1
1
1
2
1
1
1
1
1
2
2
1
2
1
1
2
1
1
2
1
1
1
2
1
1
1
2
1
1
1
1
1
1
2
1
1
1
2
2
1
2
1
1
1
1
1
1
1
2
1
1
2
1
2
2
2
2
1
2
1
1
2
2
1
1
1
2
1
1
2
2
2
2
2
2
2
2
2
2
1
1
2
2
2
1
1
1
1
1
1
1
1
1
2
2
2
1
2
2
2
2
2
2
2
2
1
1
2
2
1
1
2
1
2
2
1
1
2
2
2
2
1
2
1
1
2
1
2
1
2
1
1
1
1
2
1
1
1
2
1
1
1
1
1
1
2
1
1
1
1
1
2
2
1
1
1
1
1
1
1
1
2
2
2
2
2
2
2
2
1
2
2
2
1
1
1
2
2
2
2
2
2
2
2
2
2
2
2
2
2
2
2
2
2
2
2
1
2
2
2
2
2
2
2
2
2
2
2
2
2
2
2
2
1
1
2
2
1
2
2
2
2
2
2
2
2
1
1
2
1
1
1
1
2
2
2
2
2
2
2
2
1
2
2
2
2
2
2
1
1
1
2
2
1
1
2
2
2
2
2
2
2
2
2
2
2
2
2
2
2
2
2
2
2
2
2
1
2
2
2
2
2
2
2
2
2
2
2
2
2
2
1
1
2
2
2
2
2
2
1
1
1
1
1
1
1
1
2
2
2
2
1
2
2
2
2
2
2
1
2
2
2
2
1
1
1
1
1
1
1
2
2
2
1
2
1
1
1
1
1
1
1
1
2
2
1
1
1
1
2
2
2
2
1
1
1
1
1
1
2
1
2
2
1
1
1
1
1
2
1
1
2
2
2
2
1
2
2
2
2
1
1
1
1
1
1
1
2
1
1
1
2
2
1
1
1
1
2
1
1
1
1
1
1
1
1
1
1
1
1
1
1
2
2
2
1
1
1
2
1
1
1
1
2
2
2
2
2
2
2
2
2
1
2
2
1
2
1
1
2
1
2
2
2
2
2
2
2
2
1
1
1
1
2
1
2
2
1
1
1
1
1
1
2
2
1
2
1
1
2
2
2
1
2
1
1
1
1
1
1
1
1
1
1
2
2
2
2
1
2
2
2
2
2
2
1
1
1
1
1
1
1
1
1
1
2
1
1
1
2
2
2
2
2
2
2
2
1
2
2
2
2
2
2
2
2
2
2
2
2
2
2
2
1
1
2
2
2
2
2
2
2
2
2
2
2
2
1
2
2
2
2
2
2
2
2
2
2
2
2
2
1
1
2
2
1
2
2
2
2
2
2
2
2
2
2
2
2
2
1
1
2
2
2
2
2
2
2
2
2
2
2
2
2
2
2
2
2
2
2
2
1
1
2
2
2
2
1
1
2
2
2
1
2
2
2
2
2
2
2
2
2
2
1
2
2
2
2
2
2
2
2
2
2
2
2
2
2
2
2
2
2
2
2
2
2
2
2
2
2
2
2
1
2
2
2
2
2
2
2
1
2
1
2
2
2
2
2
2
2
2
1
1
2
2
2
2
2
2
2
1
2
2
2
2
2
2
2
2
2
2
2
2
2
2
2
1
2
2
1
1
2
2
2
2
2
2
2
2
2
2
2
2
2
2
2
2
2
2
2
2
2
2
2
2
2
2
2
1
2
2
2
2
2
2
2
2
2
2
2
2
2
2
2
2
2
2
2
2
2
2
2
2
2
2
2
2
2
2
2
2
2
2
2
2
2
2
2
2
2
2
2
1
2
2
2
2
2
2
2
2
2
2
2
2
2
2
2
2
2
2
2
2
2
2
2
2
2
2
2
2
2
2
2
2
1
2
2
2
1
2
2
2
2
2
1
1
1
1
2
2
2
2
2
2
1
1
1
1
1
1
2
2
1
1
2
2
2
1
2
2
2
2
1
1
2
2
2
2
1
1
2
2
1
1
2
1
1
1
1
1
1
1
1
1
1
1
1
1
1
1
2
1
1
1
1
1
1
1
1
1
1
1
2
2
2
1
2
2
2
2
2
2
2
2
2
2
2
2
1
1
2
2
1
2
1
1
2
2
1
1
1
1
2
2
2
2
1
1
2
2
2
2
1
2
2
2
1
1
1
1
1
1
2
2
2
2
2
2
2
2
2
2
2
2
2
2
2
2
2
2
2
1
2
2
2
2
2
2
2
2
2
2
2
2
2
2
2
2
2
2
2
2
2
2
1
1
2
2
2
2
1
2
1
1
1
1
2
1
1
1
2
2
2
1
2
2
1
1
1
1
1
2
2
2
2
2
2
2
2
2
2
2
2
2
2
2
2
2
2
2
2
2
1
1
1
1
1
1
1
1
1
1
2
1
1
1
2
1
1
1
2
2
2
2
1
1
1
1
1
1
1
1
1
1
1
1
2
1
1
1
2
2
2
2
1
2
2
1
2
2
1
2
1
1
1
2
2
2
2
1
1
1
1
1
2
1
2
2
2
2
1
1
2
2
2
1
1
1
2
1
2
1
1
2
1
1
1
1
1
1
1
1
1
1
1
1
1
1
1
1
2
1
1
1
1
2
1
2
2
1
2
2
1
1
2
1
1
1
1
1
1
1
1
1
1
1
1
1
1
1
1
1
1
1
1
1
1
1
2
2
2
2
2
2
2
2
2
2
2
2
2
2
2
2
2
2
2
2
2
2
2
1
2
2
1
1
1
1
1
2
1
2
1
2
2
2
1
1
2
1
2
2
2
1
1
1
1
1
2
2
2
2
2
2
2
2
2
2
2
2
2
2
2
2
2
2
2
2
2
2
2
2
2
2
2
2
2
2
2
2
2
2
2
2
2
2
2
1
1
1
2
2
2
2
1
1
1
1
1
1
2
2
2
2
2
1
1
1
2
1
1
1
1
1
1
1
2
2
2
2
2
2
2
2
2
2
2
1
2
2
2
2
2
2
1
1
2
1
2
2
2
2
2
2
2
1
1
2
1
1
1
1
1
2
1
2
1
1
1
1
2
1
1
2
2
2
2
2
2
2
2
2
2
2
2
2
2
2
1
2
2
1
1
1
1
1
1
2
2
1
1
2
1
1
2
2
2
2
2
1
2
1
2
2
1
1
1
1
2
1
2
1
2
1
2
2
2
1
2
2
2
2
2
2
2
1
2
1
1
2
1
2
2
2
2
2
1
1
2
2
2
2
1
1
1
2
2
2
1
1
2
2
2
2
2
2
2
2
2
2
2
2
1
1
2
2
1
2
2
1
2
2
1
1
1
2
2
2
2
2
2
2
2
2
2
1
2
2
2
1
2
2
1
1
1
1
2
2
2
2
2
2
2
2
2
2
2
2
2
2
2
2
2
2
2
2
2
2
2
2
2
1
2
1
2
1
1
2
2
2
2
2
2
2
2
2
2
2
2
1
1
1
2
2
2
2
2
2
2
2
2
2
2
2
1
1
2
2
1
2
2
2
1
2
1
1
2
2
2
2
2
2
2
2
2
2
2
2
2
2
2
2
2
2
2
2
1
2
2
2
2
2
1
1
1
1
2
2
2
2
2
2
2
2
2
2
2
2
1
1
1
1
1
1
1
1
1
1
2
2
2
2
2
2
2
2
2
2
2
2
1
2
2
2
1
2
2
2
2
2
2
2
2
2
2
2
2
2
2
2
2
2
2
1
1
2
2
1
2
2
2
2
2
2
2
2
2
2
2
2
2
2
2
2
2
2
2
2
1
1
2
2
1
1
2
2
1
1
2
2
2
2
2
2
2
2
2
2
2
2
2
2
2
1
2
1
2
1
2
2
2
2
2
2
2
2
2
2
2
2
1
1
1
1
1
1
2
2
2
2
2
2
2
2
2
2
2
2
2
1
2
1
2
2
1
1
2
1
1
1
2
2
2
2
2
2
2
2
2
2
2
2
1
1
2
1
2
2
1
1
2
1
2
2
2
2
2
2
2
2
2
2
2
2
1
2
1
2
1
1
1
1
1
1
1
1
1
1
1
1
1
1
2
2
2
2
2
2
2
2
1
1
1
1
1
1
1
1
1
1
1
2
1
2
1
2
1
1
2
1
2
1
1
1
2
1
1
1
1
1
1
1
1
1
1
1
1
1
1
1
1
1
1
2
1
1
1
1
1
1
1
1
1
1
1
1
1
1
1
1
2
2
2
2
1
1
2
2
1
1
1
1
1
2
1
1
1
1
1
1
2
2
2
2
2
2
2
2
2
2
1
2
1
1
1
1
2
2
1
1
1
1
2
2
2
2
1
1
2
2
2
1
1
1
2
2
1
1
2
2
2
2
1
2
1
1
2
2
2
2
2
2
2
2
1
1
2
2
1
1
1
2
2
2
2
2
1
1
1
1
2
2
2
2
2
2
2
2
1
1
1
1
1
1
2
1
1
1
2
2
2
2
2
2
2
2
2
2
2
2
2
2
2
2
2
1
2
2
2
2
2
2
2
2
2
2
2
2
2
2
2
1
2
2
2
2
2
2
2
2
2
2
2
1
1
1
1
2
1
1
2
2
2
2
2
2
2
2
1
1
2
2
2
1
1
2
1
2
1
1
2
1
2
2
2
2
2
2
2
2
1
1
2
2
1
2
1
1
1
1
2
2
2
2
2
2
2
2
2
2
2
2
2
2
2
1
2
2
1
1
2
2
2
2
2
2
2
2
2
2
2
2
1
1
2
2
2
2
1
1
2
2
1
2
1
1
1
1
1
1
1
2
1
2
2
1
1
1
1
1
1
1
1
1
1
1
1
1
1
1
1
1
2
1
1
1
2
1
2
2
2
2
1
1
1
2
1
1
1
1
2
2
2
2
2
2
2
2
2
2
2
2
2
2
2
2
1
1
2
2
2
1
2
2
2
2
2
2
2
2
2
2
2
2
2
2
2
2
1
2
2
2
2
2
1
1
1
1
1
1
1
1
1
1
1
1
2
2
1
2
1
1
1
2
2
2
1
2
1
1
2
1
2
1
2
2
1
1
2
1
1
1
1
1
1
1
1
1
1
1
1
1
1
1
1
1
1
1
2
2
1
1
1
1
2
1
2
2
2
2
2
1
1
2
2
2
2
1
2
1
2
2
2
2
2
2
2
2
2
2
2
2
1
2
2
2
2
2
1
1
1
1
1
1
1
1
1
1
1
1
1
2
1
2
1
1
1
1
1
1
1
1
1
1
1
1
1
1
1
1
1
1
1
1
1
1
1
1
1
1
1
1
1
1
1
1
1
1
1
1
1
1
1
1
1
1
1
1
1
1
1
1
1
1
1
1
1
1
1
1
1
1
1
1
1
1
1
1
1
1
1
1
1
1
1
1
1
1
1
1
1
1
1
1
1
1
1
1
1
1
1
1
1
1
1
1
1
1
1
1
1
1
1
1
1
1
1
1
1
1
2
1
1
1
2
1
2
1
1
1
1
2
1
1
2
2
2
2
1
1
1
2
1
1
1
1
1
1
1
1
1
1
1
1
1
1
1
1
1
1
1
1
1
1
1
1
1
1
1
1
1
1
1
1
1
1
1
2
1
1
1
1
1
1
1
1
1
1
1
1
1
1
1
1
1
1
1
1
1
1
1
1
1
1
1
1
1
1
1
1
1
1
1
1
1
1
1
1
1
1
1
1
1
1
1
1
1
1
1
1
1
1
1
1
1
1
1
1
1
1
1
1
1
1
1
1
1
1
1
1
1
1
1
1
1
2
1
1
1
1
1
1
1
1
1
1
1
1
1
1
1
1
1
1
1
1
1
1
1
1
1
1
1
1
1
1
1
1
1
1
1
1
1
1
1
1
1
1
1
1
1
1
1
1
1
1
1
1
2
1
1
1
1
1
1
1
1
1
1
1
1
1
1
1
1
1
1
2
1
1
1
1
1
2
2
1
2
2
1
2
1
2
2
2
1
1
1
2
1
2
2
1
2
1
1
2
2
2
1
1
1
1
1
1
1
1
1
2
2
1
1
1
1
1
1
1
1
1
1
1
1
1
1
1
1
1
1
1
1
1
1
1
1
1
1
1
1
1
1
1
1
1
1
1
1
1
1
1
1
1
1
1
1
1
1
1
1
1
1
1
1
1
1
1
1
1
1
1
1
1
1
1
1
1
1
2
1
1
1
1
1
1
1
1
1
1
1
1
1
1
1
1
1
1
1
1
2
1
1
1
1
1
2
1
1
1
2
1
1
1
1
1
1
1
1
1
1
1
1
1
1
1
1
1
1
1
1
1
1
2
1
1
1
1
1
1
1
1
1
2
1
1
1
1
1
1
1
1
1
1
2
1
1
1
1
1
1
1
1
1
1
2
1
1
1
1
1
1
1
1
1
1
1
1
2
1
2
1
1
1
1
1
1
1
2
1
2
2
2
1
1
2
1
1
1
1
1
2
1
1
1
1
1
1
2
2
1
1
1
1
1
1
2
1
1
1
1
1
2
1
1
1
2
2
1
1
1
1
2
2
2
2
2
2
2
2
1
1
2
2
1
1
1
1
1
2
1
1
1
1
1
2
2
2
1
2
1
2
2
2
1
1
2
2
1
1
2
2
1
1
1
2
2
2
1
1
2
1
2
2
1
1
1
1
1
1
1
1
2
2
1
1
1
1
1
1
1
1
1
1
1
1
1
1
1
2
2
2
1
1
2
2
2
2
2
1
1
1
2
1
2
2
2
2
2
2
2
2
2
2
2
1
1
1
2
2
2
2
1
1
1
2
2
2
2
1
1
1
1
1
1
1
1
2
1
2
1
1
1
1
1
1
1
1
1
1
2
2
1
1
2
2
1
1
2
2
2
1
2
1
1
2
2
2
2
2
2
2
2
2
2
2
2
2
2
2
2
1
1
2
1
1
1
2
2
2
2
2
2
2
2
2
2
2
2
2
2
2
1
2
1
1
2
2
1
1
1
1
1
1
1
1
1
1
1
1
1
1
1
1
2
2
1
1
1
2
1
1
1
1
1
1
1
1
1
1
1
1
2
2
2
2
1
1
2
2
1
1
1
1
1
1
1
2
1
1
1
2
2
2
2
2
2
2
2
2
2
2
1
1
1
1
2
2
1
1
2
2
2
2
1
1
2
2
2
2
2
2
1
2
2
1
2
2
1
2
1
1
1
1
2
2
1
2
2
2
2
1
2
2
1
2
1
1
2
2
1
1
2
2
2
2
1
1
2
2
1
1
1
1
2
2
2
2
2
2
2
2
2
2
1
1
1
1
1
1
1
1
2
2
2
2
2
2
2
2
1
2
2
2
1
1
1
1
2
2
1
1
1
2
2
1
2
2
1
2
2
2
2
2
2
1
2
2
1
2
2
1
1
1
1
2
1
1
1
1
1
1
1
1
1
1
1
1
1
1
2
1
1
1
1
1
1
1
1
2
2
1
1
1
1
2
1
2
2
1
1
1
2
2
2
2
1
2
2
2
2
2
2
1
2
1
2
2
1
1
1
2
2
2
2
1
2
2
1
1
2
2
2
2
2
2
2
1
1
1
1
1
1
1
1
1
1
1
1
2
2
2
1
1
1
1
2
2
2
2
2
2
2
2
1
2
2
2
2
1
1
1
1
2
1
2
1
1
2
2
2
1
1
1
1
2
2
1
2
2
2
2
2
2
2
2
2
2
2
2
1
2
2
2
1
1
2
2
2
2
2
2
2
2
2
2
2
2
2
1
1
1
1
2
1
2
1
1
1
1
1
1
1
1
1
1
1
1
1
1
1
1
2
1
2
2
1
1
1
1
1
1
1
1
1
1
1
1
1
2
1
2
2
1
1
2
2
2
2
2
2
2
2
2
2
2
2
2
2
2
2
1
2
2
2
2
2
2
2
2
2
2
2
1
2
2
2
2
2
2
2
1
2
1
2
1
2
1
2
2
2
2
1
1
2
2
1
2
1
1
2
1
1
2
1
2
1
1
2
1
1
1
1
1
2
2
1
1
1
1
1
1
1
1
1
1
1
1
1
1
1
1
1
2
1
1
1
1
1
1
1
1
1
1
1
1
1
1
1
1
1
1
2
2
1
1
1
1
2
2
2
2
1
1
1
1
2
2
1
1
1
1
1
1
1
1
1
1
1
1
1
1
1
1
1
1
2
2
2
2
2
2
2
2
2
1
2
1
2
2
1
1
1
1
2
2
1
1
1
1
1
2
1
1
1
1
1
1
1
1
1
1
1
1
1
1
1
1
1
1
1
1
1
1
1
1
1
1
1
1
1
1
1
1
1
1
1
1
1
1
1
1
1
1
1
1
1
1
1
1
1
1
1
1
1
1
1
1
1
1
1
1
1
1
1
1
1
1
1
1
1
1
1
1
1
1
1
1
1
1
1
1
1
1
1
1
1
1
1
1
1
1
1
1
1
1
1
1
1
1
1
1
1
1
1
1
1
1
1
1
1
1
1
1
1
2
1
1
1
1
1
1
1
1
1
1
1
1
1
1
1
1
1
1
1
1
1
1
1
2
SCALARS stress float 4
LOOKUP_TABLE table2
-62.506455 -95.846746 3.680696 -62.556785
-236.738942 -338.475542 77.238381 -172.564345
-164.848506 -195.934612 29.614095 -147.829721
-100.513452 -144.807208 2.135095 -98.687904
-197.981327 -269.991107 -21.838946 -192.964349
-82.658513 -203.857296 -1.071396 -85.954743
-69.797623 -106.309532 3.005786 -70.040092
-136.323726 -238.535011 85.697071 -112.457621
-1.292183 -5.463090 4.240529 -2.026582
-108.617383 -155.011363 34.325437 -79.088624
-110.694329 -75.335881 7.833463 -74.190202
-7.557949 -58.749581 3.733155 -19.892259
-55.921833 -79.815995 29.713338 -40.721348
-100.894693 -80.978382 23.192340 -54.561922
-100.051208 -273.096075 0.549815 -111.944185
-41.630679 -17.900181 -1.996723 -17.859258
-46.404603 -65.632638 -0.653394 -33.611172
-7.688156 -5.773365 -0.260607 -4.038456
-62.549323 -38.107994 2.278579 -38.227563
-121.325263 -260.013399 -42.201298 -114.401599
-191.421183 -271.627117 -11.531462 -190.381394
-286.324171 -403.535754 -13.304542 -286.324171
-101.822629 -243.598094 3.754074 -103.626217
-148.893257 -216.009381 0.558588 -149.604705
-128.807793 -233.884338 -13.071521 -108.807639
-61.958130 -103.808795 -29.505512 -49.730077
-72.792886 -206.730237 5.923390 -83.856937
-234.207629 -273.035139 17.168698 -152.172830
-31.675871 -48.332331 6.783602 -29.551987
-118.066987 -275.720770 -8.146058 -118.136327
-124.034450 -143.650125 24.179386 -108.485144
-189.182154 -451.239010 -8.074647 -192.126349
-131.631855 -221.336597 -24.631361 -105.890535
-226.661189 -314.338887 -19.106657 -223.768552
-86.403571 -226.502785 -6.801691 -93.871907
-69.184845 -102.037174 -7.371755 -68.076020
-78.732721 -217.549461 -3.571455 -88.884655
-64.655634 -84.710441 -12.873068 -58.509079
-57.648252 -145.719326 -18.071306 -61.010274
-11.349703 -24.534366 -2.686066 -11.010908
-26.590972 -17.394368 -3.323421 -13.195602
-25.510226 -45.400752 0.683674 -25.797015
-19.304881 -58.549370 11.790924 -23.356275
-56.237966 -97.122899 -28.649156 -46.008259
26.486155 -137.299205 -59.267007 -33.243915
5.263054 0.488761 3.124254 1.725545
-71.451057 -193.803319 13.300619 -79.576313
-27.826126 -48.900787 -0.990557 -28.059945
7.158473 2.529318 2.828931 2.906337
-76.400436 -231.787537 5.906718 -92.456392
3.511900 -69.406696 8.460215 -19.768439
-82.501749 -178.346653 12.206828 -78.254521
-110.474034 -237.019646 20.707893 -104.248104
-77.499637 -203.168936 13.543534 -84.200572
-58.230209 -241.500081 -61.940539 -89.919087
30.073360 -71.345884 -67.804907 -12.381757
-49.057443 -78.840503 -33.528060 -38.369384
-43.133619 -26.354652 -5.369805 -25.069671
-8.448422 -51.694149 1.794999 -18.042771
-63.090729 -100.040894 -31.106862 -48.939487
-28.688031 -38.825013 11.235341 -20.253913
-278.241653 -282.540663 49.706284 -231.963856
-72.305913 -145.073574 -23.149936 -65.213846
-85.262100 -182.393224 11.653429 -80.296597
-85.742637 -94.736417 30.649047 -54.143716
-108.207692 -119.851431 21.985918 -93.831691
-143.493468 -162.314490 38.698170 -91.742388
-10.476898 -1.810633 1.594955 -3.686259
-22.498289 -9.018605 -0.514571 -9.537195
-104.454055 -256.748681 -6.294139 -108.360821
-239.139642 -326.191322 -6.698684 -228.333675
-36.233838 -31.841096 9.547298 -24.499827
-49.147425 -35.855941 26.727111 -25.501010
-55.704314 -60.824630 13.421364 -44.963163
-107.229979 -85.531817 23.464941 -57.828539
-216.543697 -260.471620 36.948691 -196.657486
-48.816782 -28.009953 0.944579 -28.243682
-37.516017 -23.968151 0.745567 -19.822810
-50.139557 -61.987858 5.402518 -33.638225
-26.882073 -34.333163 -3.591331 -18.364571
-37.201872 -43.917897 4.338511 -26.275804
-156.226992 -405.666591 -8.161138 -168.568075
-94.857910 -96.832190 -13.369512 -75.260629
-224.097424 -277.634484 -35.966000 -207.173981
-148.814769 -212.393321 5.933896 -146.335891
-159.174107 -213.702718 -10.018036 -148.273224
-192.819369 -384.656589 -27.619939 -173.242787
-176.828681 -348.085704 -30.344413 -157.474315
-134.950177 -191.144747 -3.154031 -97.828477
-115.821437 -166.530780 -5.852048 -113.734742
-140.324348 -264.763669 1.362799 -121.526405
-212.132330 -272.752353 -23.180506 -195.141055
-267.001792 -341.260761 38.392671 -251.964157
-180.868880 -337.407145 -53.806912 -155.482808
-231.166555 -325.817111 5.277609 -230.183538
-170.660803 -235.108166 3.934896 -164.451408
-209.237311 -282.278147 -24.605727 -202.935050
-193.683396 -312.947262 -10.578940 -151.989197
-194.041807 -206.948042 34.046613 -162.311004
-137.653334 -191.394850 14.078168 -133.261038
-183.391549 -242.834357 24.868294 -175.384087
-203.681828 -245.828870 34.784415 -185.196866
-201.030662 -288.375382 4.177259 -201.989261
-153.631071 -208.116909 19.628372 -148.186954
-102.943695 -292.432439 -11.834929 -118.612840
-190.286806 -207.197148 35.450034 -163.261686
-105.922780 -327.032686 -59.093934 -129.886640
-190.489855 -245.666898 25.948058 -180.179231
-150.784760 -194.840414 11.679195 -135.452897
-135.470351 -254.988726 -25.382453 -117.137723
-166.289307 -222.029310 20.466752 -157.728302
-200.610679 -285.040269 -7.675262 -198.792686
-141.680088 -129.451704 25.465420 -110.070527
-197.603896 -342.799808 -12.251674 -162.121111
-110.555844 -261.915410 -6.916278 -111.741376
-226.225146 -300.499872 0.841968 -211.609858
-117.730795 -265.696374 -0.545000 -115.028151
-133.574706 -305.640675 -27.793538 -131.764614
-177.293679 -289.434620 37.473724 -140.018490
-119.636246 -206.377179 -13.595829 -97.804027
-147.243456 -290.419201 18.575829 -131.298797
-117.464079 -109.492588 34.835077 -68.087000
-76.262442 -96.341889 15.354710 -68.441574
-77.806626 -197.620445 9.775160 -82.628121
-74.984848 -93.696501 15.423684 -66.794512
-127.569831 -233.006830 -9.680005 -108.172998
-58.269666 -217.985855 8.035887 -82.876656
-34.577917 -35.803782 3.259025 -25.048816
-98.200893 -251.252842 2.734029 -104.836120
-21.382695 -112.004022 29.593650 -40.016015
-81.740465 -217.516668 -4.660107 -89.777140
-84.512751 -189.603675 6.962146 -82.234928
-183.436857 -260.529461 -2.071358 -180.839701
-121.432181 -263.246114 10.852191 -115.403488
-129.545872 -283.119672 28.484134 -123.799663
-137.857946 -197.076552 -1.406145 -135.270551
-181.339480 -249.986860 -18.863980 -177.532462
-113.000616 -234.003179 39.180298 -104.101138
-139.935286 -171.583632 -18.374147 -123.510186
-111.365084 -199.796899 4.902992 -93.348595
-87.477403 -85.438683 -17.993438 -68.721765
-111.431703 -217.434826 -3.489340 -98.659959
-69.018818 -99.061983 -9.605379 -66.781827
-92.405213 -183.254083 1.807741 -82.697789
-61.241772 -133.529481 11.506230 -58.431376
-85.362104 -239.588379 2.946720 -97.485145
-76.293261 -115.263985 -3.129021 -76.604846
-70.583458 -130.123832 10.635022 -60.212187
-85.667213 -96.889283 5.415996 -67.365748
-210.466947 -197.626347 4.379924 -145.511241
-46.623281 -152.577447 -42.815215 -59.760218
-103.891016 -137.289778 -16.784514 -97.482646
-78.827068 -202.491115 -2.005672 -84.395455
-36.006572 -77.295683 2.118577 -33.990677
-68.615890 -136.700331 5.805377 -61.594866
-72.192879 -134.938810 4.131157 -62.139507
-63.635958 -180.379012 1.126678 -73.204491
90.190772 90.410919 0.777996 92.586693
-70.927253 -70.780716 -1.461166 -46.185116
10.371530 4.498935 1.442249 4.461139
-90.812044 -135.377944 3.433212 -91.145218
-6.508173 -17.843001 2.482649 -7.305352
-58.870308 -77.199349 1.814532 -55.554267
-113.913634 -164.451916 -7.892490 -112.208664
-107.475176 -97.102789 2.975366 -70.965231
-24.605143 -54.460055 -0.340909 -23.719560
-27.636850 -136.823293 0.502262 -49.338043
-78.370284 -133.313767 -4.095808 -63.505215
-25.583834 -45.523617 -0.252180 -25.844286
18.579754 15.651477 0.037188 15.689621
-16.381709 -48.510836 -3.992768 -19.467763
0.653628 -7.861696 -1.258604 -2.162420
-2.755761 -5.378822 -4.691272 -2.440375
-4.972542 -11.878075 1.370135 -5.055185
-10.294403 -45.449567 -4.447787 -16.723191
-15.157174 -36.186410 -1.543472 -15.403075
-5.904001 -33.551418 -3.360978 -11.836626
-61.889184 -106.487251 24.611173 -50.512930
-0.947655 -9.056776 -2.998886 -3.001329
-3.304830 -25.089888 -2.865951 -8.518415
-110.699247 -158.199246 -10.743464 -109.073886
34.298078 -84.991109 -16.540454 -15.207909
-115.132762 -114.375694 -22.815941 -92.535163
-75.460456 -91.806654 -15.956377 -66.191390
-7.746769 -19.723424 -2.425041 -8.241058
-2.851632 -73.088853 15.085048 -22.782145
-7.430775 -17.110806 -3.969353 -7.362474
-11.667325 -76.795778 -8.624455 -26.538931
-5.231770 -10.817311 4.771932 -4.814724
-7.705117 -26.521631 2.267351 -10.268024
-7.538056 -18.570764 0.138763 -7.832646
-2.417146 -1.944327 1.294868 -1.308442
-78.703074 -95.901343 -16.392294 -69.281742
-51.021252 -86.039548 -8.815012 -41.118240
-24.986146 -59.508190 4.634771 -25.348301
-4.578901 -12.440568 -4.023782 -5.105841
-170.458961 -215.108408 27.704323 -158.143259
-8.764280 -36.161242 6.055487 -13.477657
-71.219271 -84.932200 -15.571233 -64.204536
-100.916413 -201.063599 -24.811188 -90.594003
-76.500951 -151.440105 4.340654 -68.382317
-21.105479 -73.237475 -4.766390 -28.302886
-85.801629 -232.450645 4.529604 -95.475682
-56.894455 -87.212493 -4.879910 -57.678786
-85.818600 -121.583914 11.353368 -83.090822
-88.759865 -167.833564 10.976553 -76.978029
-72.357915 -110.244937 1.995462 -72.830813
-97.399054 -280.569281 6.002260 -113.390501
-71.754670 -210.636735 11.605383 -84.717421
-85.085750 -249.606403 2.784105 -100.407646
-70.144208 -213.016233 10.836545 -84.948132
-91.373699 -178.387974 0.765208 -80.928502
-22.433435 -90.662016 6.176395 -33.928635
-126.010251 -244.445775 -15.199156 -111.136808
-91.910324 -123.090520 0.572502 -83.987277
-128.144239 -190.621881 32.209164 -95.629836
-52.132777 -160.389037 7.886845 -63.756544
-117.913168 -210.520026 24.968671 -98.529958
-85.053017 -87.647410 18.222099 -68.947017
-91.580582 -133.795956 7.918884 -91.420694
-143.927168 -178.842875 24.871413 -131.958374
-122.071947 -135.751350 24.163653 -104.464529
-64.936070 -89.919426 11.228211 -61.085180
-51.114532 -73.575182 9.488851 -49.753333
-96.798230 -114.630406 27.919952 -63.428591
-104.194062 -145.426798 44.660799 -74.886258
-23.953821 -19.564146 7.529129 -14.145364
-138.930702 -178.825549 2.274037 -123.903803
-38.305678 -85.695196 20.490778 -37.200262
-33.727608 -43.100579 9.398762 -28.201721
-82.649979 -113.434016 26.450053 -58.825199
-114.062159 -134.443988 22.120597 -100.542523
-59.463976 -108.891521 7.688939 -50.506649
-73.050771 -126.606064 7.853187 -59.897050
-37.821694 -60.256999 4.334255 -36.783289
-61.390124 -89.721342 8.426700 -59.510952
-48.219063 -74.466907 5.478463 -47.577550
16.255094 -65.131236 -11.053182 -14.662842
-24.220095 -32.812573 15.782880 -17.109800
-40.534277 -29.489661 25.977794 -21.007182
-23.393331 -37.484127 2.881800 -21.074881
-49.981782 -67.566254 10.560916 -45.444412
-30.297844 -41.779939 8.322384 -26.203716
-26.342785 -31.103808 6.646564 -20.461701
-37.987817 -38.981779 10.454211 -28.298053
-29.389809 -37.583824 10.701544 -20.092090
-51.567177 -112.990637 41.691349 -49.367344
-95.945341 -126.372671 22.383067 -66.695403
-25.531004 -28.162989 8.504424 -18.472457
-31.625425 -65.990972 36.840480 -29.284919
-37.561192 -62.180327 22.834321 -29.922456
-91.817555 -116.977620 23.092932 -62.638553
-27.887500 -40.129563 25.652053 -20.405119
-37.554610 -69.448039 19.047218 -32.100795
-37.638793 -38.007724 10.410612 -28.053737
-0.708746 -6.660065 3.797785 -2.210643
-37.990780 -39.226646 11.566622 -23.165228
-56.051106 -34.298923 3.937065 -33.920790
-4.210374 -6.826962 -0.353631 -3.311201
-26.122680 -31.877901 8.483751 -20.285239
-4.154393 -65.805593 24.314510 -20.987996
-1.725758 -0.373829 4.720782 -0.629876
-14.747975 -14.060778 0.894803 -8.642626
-53.405834 -45.495666 22.424409 -29.670450
-21.534184 -35.104983 17.272099 -16.991750
-38.963087 -32.999645 6.261772 -21.588820
-15.188214 -12.685568 -3.235833 -8.362135
-47.506929 -53.496329 42.359636 -30.300977
-94.674120 -141.322669 3.358438 -95.053120
-111.926338 -57.847345 61.369181 -50.932105
-26.200747 -29.668217 8.574165 -19.474421
-75.956134 -125.049477 66.467546 -60.301683
-62.832928 -99.012074 30.866917 -48.553501
14.312050 -100.695717 76.498692 -25.915100
-144.322513 -162.615885 48.608393 -92.081520
-51.101877 -23.389780 0.103161 -22.347497
-32.579422 -18.300654 -0.394541 -17.490632
-32.352680 -16.844327 -2.727904 -17.596670
-17.134159 -5.142305 0.408715 -6.682939
-7.521789 -2.572017 0.417963 -3.028142
-71.465216 -129.444992 6.004159 -60.273063
-6.320132 -6.730328 -0.470199 -3.915138
-30.419722 -22.315189 -2.821421 -16.310629
-35.475270 -45.302739 -1.162536 -26.843870
-8.095397 -2.288270 -0.641062 -3.115100
-16.606388 -18.333528 0.544487 -10.481975
-6.479147 -2.149832 -0.757128 -2.588694
-23.259513 -18.834267 -2.249909 -12.628134
-56.002989 -82.253115 10.140528 -41.476831
-111.791602 -99.927223 33.366226 -63.515647
-56.536245 -45.013486 5.037179 -34.880203
-65.292466 -100.667624 16.411498 -49.788027
-50.202131 -59.460965 6.722031 -32.898929
-68.327075 -68.178223 8.989928 -40.951590
-42.641054 -31.763727 8.349383 -22.321434
-21.059074 -9.042627 0.182311 -9.030510
-44.894738 -37.661083 10.004234 -24.766746
-29.342832 -16.422191 0.307663 -15.403743
-84.603340 -59.312992 9.615296 -56.493263
-102.871878 -46.489210 12.693816 -44.808326
-65.310495 -41.614097 5.211595 -41.322715
-106.811406 -74.702755 20.619604 -54.454248
-44.964335 -24.748635 18.195390 -20.913891
-19.019932 -7.715843 3.103507 -8.020732
-99.231910 -64.469879 -2.294530 -64.787219
-128.003267 -186.065778 6.369464 -128.101876
-199.307080 -281.816894 12.832691 -198.365246
-104.600480 -151.765905 46.404181 -76.909916
-146.646655 -113.450484 28.579751 -78.029142
-134.992499 -101.231181 24.622088 -70.867104
-131.771689 -96.868808 14.586754 -92.153375
-27.650436 -12.654372 -0.781035 -12.816794
-119.739559 -72.609408 30.143991 -57.704690
-40.332387 -22.051728 1.522125 -22.575659
-102.597833 -71.525312 14.758273 -52.236944
-103.042804 -162.571270 49.378907 -79.684222
-87.960389 -150.204629 40.275500 -71.449505
-83.901681 -65.953795 13.765306 -58.946188
-130.360317 -168.881073 20.957435 -121.285284
-105.985530 -244.680412 25.661538 -105.199782
-183.788478 -213.923041 33.226775 -163.342974
-97.739879 -145.299971 42.915711 -72.911955
-91.791263 -90.718020 19.057246 -72.698684
-153.328371 -162.469463 29.587270 -128.916398
-119.154012 -207.225606 26.023268 -97.913885
-103.679605 -95.239818 9.727688 -75.789446
-129.517069 -191.328104 36.389753 -96.253552
-132.093303 -101.933996 25.682003 -70.208190
-109.452476 -86.978629 20.678159 -58.929331
-108.131179 -81.023075 14.378375 -75.521068
-136.550757 -104.200468 22.014698 -72.225367
-98.519570 -47.846435 0.325324 -43.909802
-82.364605 -62.423949 7.954571 -54.149668
-47.279686 -61.452744 10.572735 -41.133732
-93.554771 -78.820759 13.845114 -66.205524
-73.496240 -45.774611 0.975591 -46.105139
-104.963624 -105.758182 21.358289 -84.566215
-84.171367 -83.196479 14.088951 -50.210354
-68.127515 -85.091848 18.674500 -45.965809
-52.369611 -65.107610 3.501835 -35.243166
-44.080512 -25.873081 3.679039 -20.986078
-58.756606 -85.197940 9.336218 -43.186364
-54.289130 -70.548358 5.069910 -37.451246
-71.588245 -108.076018 4.229115 -71.034193
-37.975064 -53.490528 -4.999764 -33.157637
-71.144767 -107.344720 1.191280 -70.187093
-187.769125 -253.659153 -22.543114 -181.807087
-211.240750 -341.180469 -22.727054 -165.726366
-212.614555 -255.782656 -16.772464 -181.357286
-160.075562 -229.064439 5.915858 -158.304788
-218.790879 -308.121334 -10.597709 -215.867586
-229.193564 -312.811520 18.642516 -221.505516
-163.537048 -302.698558 -39.225591 -139.870682
-167.960095 -238.422162 4.402342 -165.781994
-151.393628 -342.447695 -43.673030 -148.152397
-127.582362 -125.751465 23.198101 -100.834024
-178.001375 -451.219104 51.753789 -188.766144
-140.085969 -298.976743 35.559118 -131.718814
-199.531533 -255.795023 -29.945796 -187.640784
-169.354435 -394.871809 43.152991 -169.267873
-191.703274 -261.221713 -1.798754 -185.313037
-188.563240 -424.966793 45.934502 -184.059010
-136.613918 -133.964573 -4.952600 -94.103812
-162.388141 -230.644114 -11.637022 -161.412246
-183.396300 -238.125931 -25.550616 -172.961357
-168.476036 -215.566387 -7.074659 -156.636427
-190.184277 -249.331735 1.264048 -176.396543
-146.392877 -182.865910 -11.666205 -128.431415
-121.802172 -261.738836 -33.986781 -115.062302
-137.801179 -265.448373 -44.725932 -120.974866
-196.572733 -269.599062 -19.571320 -191.221029
-94.553204 -81.306629 -1.649026 -62.997498
-142.749534 -206.880831 1.150213 -142.708147
-161.338787 -276.437889 -50.344721 -131.333003
-149.342783 -203.458347 4.418955 -141.189049
-138.647674 -229.948001 -26.411051 -110.578703
-118.257795 -270.423467 -4.849348 -116.604379
-165.029956 -237.356949 -2.261747 -164.812443
-113.255572 -203.681878 1.793749 -95.081235
-140.628847 -199.261491 7.244796 -137.110064
-174.581454 -247.669327 11.531863 -173.690914
-135.014142 -256.987845 -40.717019 -117.600596
-144.300986 -208.075948 4.020106 -143.917027
-151.389963 -176.943480 27.739327 -134.133489
-161.749938 -193.969918 12.298161 -135.904817
-170.993222 -212.989111 28.181072 -157.484140
-172.069399 -276.860096 39.031871 -134.678848
-182.968472 -254.300803 6.046213 -178.103570
-83.897664 -125.205926 4.589901 -83.953547
-168.341586 -275.849831 16.526118 -133.257425
-155.351650 -289.600285 4.995417 -133.485580
-149.158682 -262.162186 14.060090 -123.396260
-188.054268 -332.339930 13.715749 -156.118260
-151.321681 -213.938945 8.766715 -147.912601
-163.386112 -225.095269 5.762088 -155.453260
-155.779646 -225.031026 5.072484 -156.028275
-196.776875 -280.796175 -8.723950 -196.776875
-157.246935 -219.461068 11.807517 -153.351259
-130.256291 -238.017127 -18.013774 -110.482025
-154.200050 -293.891152 3.906154 -134.427360
-57.796752 -44.554206 10.377562 -39.793631
-163.834218 -234.903263 1.665169 -163.456588
-165.326360 -220.811867 10.754160 -155.632238
-135.796315 -363.565828 -1.192244 -149.808643
-156.979784 -224.958877 4.514082 -155.197027
-201.949924 -248.740472 33.353764 -185.681768
-207.123242 -289.720969 -7.845416 -203.143311
-194.798037 -279.191547 -5.964518 -194.798037
-162.792118 -230.919855 -7.760395 -160.366576
-159.969749 -262.783307 10.579435 -126.825917
-214.027109 -304.223126 -10.041845 -214.027109
-253.480512 -354.779230 -8.662379 -252.005441
-203.708649 -289.036743 -2.770271 -202.963979
-140.093556 -203.900736 1.628869 -140.197356
-213.713476 -302.246638 2.100803 -211.567663
-306.226027 -396.394128 34.847919 -289.807872
-158.846950 -287.583858 1.083599 -133.929242
-192.268534 -332.229809 12.936599 -157.349503
-183.196218 -295.990336 15.110960 -143.755966
-159.820915 -286.734294 20.714884 -133.966563
-189.564727 -267.822606 -4.719685 -186.432553
-187.461468 -331.195078 1.697878 -155.596964
-215.143562 -296.086388 18.267309 -209.093025
-206.735595 -270.645155 15.546714 -190.654304
-172.439314 -383.273344 22.404503 -166.713797
-187.271757 -214.456496 34.165386 -165.066080
-237.564294 -321.958617 -5.817296 -233.750819
-108.217505 -221.015755 27.173467 -98.769978
-121.395720 -246.727251 20.713050 -110.436891
-107.809186 -203.946730 17.440312 -93.526775
-206.176740 -279.816814 0.374032 -195.494018
-153.879038 -363.038715 4.520255 -155.075326
-255.838916 -324.682841 32.468702 -237.180552
-178.935944 -257.248633 5.695153 -179.571498
-181.080498 -256.354195 9.721649 -179.849624
-158.543091 -145.177382 -10.853992 -111.447002
-215.278528 -269.205772 24.232938 -196.227834
-203.309425 -408.091693 -32.919234 -183.420335
-155.413830 -224.828012 -4.740467 -156.017806
-161.992147 -233.880291 -5.082825 -162.595838
-196.532665 -281.925054 -5.589036 -197.427083
-234.512547 -311.613293 5.654777 -217.873069
-199.990414 -243.690595 33.736674 -182.709995
-81.756780 -110.080524 67.459502 -57.551191
-200.520072 -301.490125 25.593671 -150.603059
-99.658081 -154.170917 -10.646407 -76.148700
-199.075171 -259.562213 28.284844 -189.004584
-137.549705 -247.672608 -1.215497 -115.566694
-136.242980 -241.498143 1.196304 -113.322337
-132.898428 -251.978091 -7.502177 -115.462956
-139.617767 -273.435672 7.503510 -123.916032
-126.277353 -201.919612 -2.342260 -98.459090
-133.722519 -274.727091 -13.226070 -122.534883
-122.770851 -179.068751 5.894129 -124.531133
-133.250824 -234.914223 51.745706 -110.449514
-150.480931 -258.500762 6.485751 -122.694508
-156.617785 -328.996762 9.642265 -145.684364
-292.691010 -389.755450 -34.468742 -283.270714
-112.305325 -309.120828 -31.830506 -126.427846
-75.802247 -291.637372 8.540441 -110.231886
-200.133974 -301.938209 -18.891145 -150.621655
-190.922828 -336.206851 0.512022 -158.138904
-324.199158 -449.461089 -23.698061 -321.644528
-145.349045 -337.037109 1.699195 -144.715846
-167.661004 -348.794200 42.493817 -154.936561
-161.107464 -264.742545 18.172903 -127.755003
-212.693579 -268.133576 13.007152 -144.248146
-170.534506 -300.437422 0.654155 -141.291579
-169.134203 -237.067166 14.844695 -167.072127
-52.766511 -292.271360 34.880102 -103.511361
-180.538206 -244.517397 70.649904 -127.516681
-219.793260 -302.136308 21.623935 -215.687836
-215.493927 -285.965257 -0.152770 -207.753677
-88.584550 -223.282176 43.403902 -93.560018
-116.681498 -260.951466 -23.242591 -113.289889
-77.333814 -221.826444 38.924784 -89.748077
-105.531538 -269.980168 -1.878087 -112.653512
-122.354552 -287.813807 -14.686658 -123.050508
-62.873493 -208.705421 30.146271 -81.473674
-48.245542 -198.080650 19.348684 -73.897857
-109.449734 -256.872669 -13.803366 -109.896721
-81.658268 -117.499166 9.776432 -79.717318
-111.843494 -263.801771 0.752198 -112.693579
-81.893797 -237.148589 5.312252 -95.712716
-158.140681 -221.345145 15.390206 -155.557086
-105.052970 -256.198652 3.612787 -108.375487
-164.567168 -267.879589 -11.636679 -129.734027
-113.567153 -261.190269 1.948386 -112.427227
-133.535820 -233.176014 36.581164 -110.013550
-105.641564 -245.135505 -11.742866 -105.233121
-135.243351 -226.478048 39.524658 -108.516420
-138.961501 -244.801465 -0.736215 -115.128890
-125.946426 -241.595383 -12.341823 -110.262543
-132.821392 -153.356884 16.296627 -113.788032
-95.091277 -141.674266 2.297596 -95.733101
-123.767378 -342.597180 11.444300 -139.909367
-117.276969 -209.221074 34.730203 -97.949413
-105.344995 -218.728724 5.076500 -97.222116
-156.428154 -153.809623 6.604246 -93.071333
-89.799798 -129.255505 9.867789 -88.067025
-126.917425 -124.036127 -6.064840 -92.898553
-106.208196 -113.832825 21.730251 -90.099306
-111.392514 -270.606239 3.328883 -114.599626
-108.684153 -154.783471 -3.845540 -105.142873
-112.537811 -127.086549 -10.273682 -91.969850
-96.473753 -180.857784 -21.274599 -83.199461
-127.990404 -168.285192 21.298338 -88.882679
-62.937525 -140.070393 5.244245 -60.902375
-88.763761 -242.427419 3.909236 -99.357354
-90.075808 -239.859855 -19.227602 -98.980699
-105.600371 -286.546447 -6.231173 -117.644045
-80.007265 -108.748671 13.213551 -76.726857
-140.921499 -272.235215 2.253217 -123.947014
-64.186274 -179.639416 39.271389 -73.147707
-106.072140 -106.273516 -16.787702 -82.590067
-164.946262 -226.961657 -17.423635 -160.253268
-64.700564 -96.288508 7.130736 -65.417733
-112.752142 -190.956565 2.547013 -91.112612
-65.701779 -137.197748 5.407462 -60.869858
-67.446334 -96.614192 9.965465 -64.852643
-111.457114 -162.116216 45.545146 -82.071999
-109.510757 -160.407432 -5.794775 -109.549712
-69.229346 -88.791444 -13.868643 -62.955939
-69.597334 -148.895221 38.060212 -65.547767
-72.956775 -226.290893 7.413634 -89.774301
-109.291967 -259.768610 2.322402 -110.718173
-86.290260 -242.718178 3.806121 -98.702532
-97.491482 -248.360233 3.667225 -103.755514
-94.680796 -250.758379 1.497500 -103.631753
-105.725932 -256.864528 0.496108 -108.777138
-90.342772 -134.976250 2.832460 -91.437885
-96.253640 -218.716278 -4.320543 -94.490975
-72.082963 -228.427490 7.749541 -90.153136
-65.208221 -196.807951 17.648085 -78.604852
-94.271238 -251.750576 1.127858 -103.806544
-84.299529 -260.386674 -0.587783 -103.405861
-51.544697 -192.401742 12.840058 -73.183931
-125.512176 -109.444836 21.993815 -94.695122
-42.349155 -178.702432 14.153216 -66.315476
-67.661042 -83.412252 -9.644887 -57.026780
-44.753687 -165.884406 8.597029 -63.191428
-60.591005 -256.396767 27.418935 -95.096332
-66.960961 -90.608242 8.834159 -60.771581
-130.271754 -100.519912 3.943905 -87.065425
-76.504637 -231.952826 -9.163945 -92.537239
-83.315151 -199.375134 -35.922130 -84.807085
-128.008670 -239.915549 -23.230027 -110.377266
-75.159322 -132.536353 -0.814902 -62.308702
-87.031970 -193.826878 2.507776 -84.257654
-82.952440 -213.769990 -16.257559 -89.016729
-85.791955 -226.341755 -6.915487 -93.640113
-71.415697 -81.466837 -9.167694 -55.413525
-98.336965 -210.585582 -7.380556 -92.676764
-100.549442 -223.246544 -33.162660 -97.138796
-61.972815 -81.395815 -9.729695 -54.356639
-82.287417 -195.742749 0.384010 -83.409050
-126.470996 -182.268761 4.212600 -125.409140
-147.082430 -170.385989 15.422897 -121.329136
-104.716087 -152.298622 7.807431 -104.129716
-109.538293 -265.165757 43.215321 -112.411215
-111.375994 -283.138068 30.242701 -118.354219
-165.388542 -214.188855 24.291342 -154.472069
-122.738158 -184.041736 -13.493062 -92.033968
-165.981461 -221.475573 -22.330980 -159.053296
-206.457566 -258.807544 31.823417 -190.213532
-126.404702 -165.578832 -7.378619 -114.725596
-133.541439 -212.167339 13.491535 -103.712633
-133.085614 -272.068421 -41.874302 -121.546211
-81.709401 -207.561041 -3.482719 -86.781133
-137.853717 -158.151430 -12.977689 -111.792812
-142.008509 -193.133559 17.994559 -137.060745
-143.201637 -204.880671 9.336336 -142.514225
-136.863562 -280.517195 -37.453403 -125.214227
-86.571961 -126.296290 3.018930 -84.721388
-140.280302 -202.771122 1.626942 -139.928882
-106.066388 -250.397227 -7.888059 -106.939085
-96.353455 -259.399057 -1.342120 -106.725753
-100.867529 -192.569557 5.759495 -88.031126
-89.579678 -186.046767 0.436450 -82.687934
-121.267659 -266.399653 -20.964133 -116.300194
-144.981983 -184.016640 -13.510023 -129.146210
-97.427921 -264.043777 7.883985 -108.441510
-121.010072 -177.124848 -8.945410 -89.440476
-165.715028 -197.360185 -2.098852 -136.255193
-80.580296 -81.590299 1.372650 -52.733290
-156.194563 -223.532135 -9.485878 -155.814363
-88.773315 -206.862153 1.462410 -88.690640
-94.330996 -254.329030 7.314202 -104.598008
-175.243276 -314.541915 45.700847 -146.935557
-86.077221 -241.496541 2.149554 -98.272128
-79.554880 -239.014397 2.290165 -95.570783
-86.803665 -221.783570 3.190239 -92.576171
-91.389448 -189.949771 2.671098 -84.401766
-77.877878 -238.484318 3.016503 -94.908659
-85.821582 -239.152049 3.447175 -97.492089
-84.946057 -246.489012 3.675875 -99.430521
-79.873989 -242.171621 3.572174 -96.613683
-47.917356 -57.145184 -11.534381 -40.168188
-79.542055 -241.200659 3.720344 -96.222814
-80.130683 -234.765460 5.499000 -94.468843
-146.662930 -209.629628 -10.157139 -145.938537
-88.641725 -174.508277 5.314100 -78.945000
-70.354642 -149.780008 7.215868 -66.040395
-77.513259 -107.085454 -6.480911 -70.957978
-81.743972 -239.069855 2.140871 -96.244148
-36.650017 -153.411276 -5.461362 -57.018388
-77.183320 -227.462983 -0.950639 -91.393891
-77.527543 -238.147489 3.741020 -94.702509
-139.713427 -192.367542 13.352815 -134.178277
-83.900235 -92.476128 4.707115 -63.302223
-85.922127 -231.458303 -8.903457 -95.214129
-80.484995 -215.535640 6.655109 -88.806191
-113.352740 -99.691499 2.865001 -74.907068
-57.063434 -202.739397 12.901567 -77.940849
-77.351480 -247.993405 2.122690 -97.603465
-97.787462 -195.767631 16.999186 -88.066528
-58.339199 -82.882589 9.725596 -55.366313
-76.928253 -132.144068 0.075488 -62.721696
-75.579203 -134.734024 -3.954848 -63.093968
-59.085835 -72.658014 -13.252771 -51.376097
-81.687244 -213.618451 11.182047 -88.591709
-7.219973 -19.057298 -2.274374 -7.883181
-66.202037 -119.469547 -10.128380 -55.701475
-161.982320 -187.257166 29.955294 -142.966565
-88.828927 -207.885263 -12.046033 -89.014257
-116.946041 -167.844115 4.050130 -116.323194
-59.522815 -178.271350 0.170662 -71.338250
-77.098581 -226.780826 -6.582156 -91.163822
-95.210298 -96.992972 18.641140 -75.913803
-80.094264 -138.131564 43.334190 -65.467748
-87.615896 -87.027369 18.463796 -70.150001
-94.483251 -141.080181 0.543222 -95.093425
-66.828482 -111.118748 12.892377 -53.384169
-100.470300 -148.999954 -2.834084 -100.950489
-60.323941 -105.209329 15.360687 -49.659981
-78.031672 -112.609675 36.381740 -57.192404
-25.739002 -49.529738 -10.903158 -22.580622
-8.899560 -51.940876 -1.201396 -18.252131
-71.760289 -141.458186 8.018390 -63.965543
-90.495201 -123.003067 1.858689 -86.394512
-99.235455 -135.532537 -7.713828 -94.804603
-76.229726 -154.778245 4.579646 -69.302391
-23.283736 -39.313172 4.691281 -22.288762
-75.672729 -116.773798 14.724710 -57.733958
-53.861439 -124.031382 -3.233332 -53.367846
-80.028449 -120.988851 1.060930 -80.542928
-57.509126 -139.073645 -10.820712 -58.974831
-41.022797 -95.434775 -4.099184 -40.937271
-60.816222 -91.911286 5.846913 -60.196268
17.494742 -94.232380 8.415000 -23.021291
-62.402976 -93.253109 6.773922 -61.427763
-62.375064 -96.593912 0.055608 -62.827129
-79.727241 -119.665891 -4.251349 -79.818081
-70.314327 -86.890752 -23.272802 -47.161524
-53.423617 -104.687256 -5.114278 -47.433262
-49.222057 -112.329447 -9.450595 -48.465451
22.912767 -79.867716 -12.155891 -17.086485
-55.135817 -130.855505 -17.134918 -55.797397
-34.881571 -36.923613 -8.362617 -24.904993
-45.449365 -87.686639 0.572673 -39.940801
-36.903933 -106.200568 16.477053 -42.931350
-34.004407 -56.582559 -2.478323 -34.083574
-56.061680 -105.164242 -18.437127 -48.367776
-56.296839 -82.427771 -8.248036 -54.175219
-84.810762 -120.411717 10.849708 -82.316235
-31.760522 -118.082900 9.086480 -44.953027
-57.819439 -68.743968 -11.535609 -47.588074
-24.963107 -43.636817 0.530371 -24.669712
-34.196721 -49.913725 6.867198 -31.134910
-159.267328 -230.386818 4.012124 -159.987029
-66.166242 -60.858435 4.622844 -43.153172
-97.907361 -107.413031 11.588199 -79.739585
-14.650706 -69.954331 -1.069043 -25.381511
-89.883541 -131.494199 6.436919 -89.065540
-53.172185 -127.511029 -18.157507 -54.204964
-69.074688 -96.182301 -11.231616 -65.490667
-40.474305 -54.308374 -0.620004 -35.560701
-7.837459 -75.174432 2.974455 -24.903567
-56.872266 -58.963710 2.697225 -40.372097
-57.475947 -79.027781 -9.681468 -52.414012
-37.138453 -97.125150 12.210067 -40.279081
-57.708962 -114.940294 -10.248235 -51.794777
-39.360306 -57.836787 -3.184586 -34.843119
-71.120707 -98.988465 -11.388039 -67.534075
-40.741100 -58.035051 3.148649 -37.125361
-6.636327 -61.806606 -7.062129 -20.532880
3.296297 -60.748661 -4.363419 -17.235709
-16.298137 -31.905752 -0.518555 -16.110890
-16.856520 -28.599317 -4.541043 -15.011566
-24.120477 -41.485337 -2.453987 -23.335097
-4.411154 -9.612854 -0.858168 -4.207202
-8.643821 -69.160074 -9.897188 -23.341168
-9.674564 -40.757982 3.359545 -15.129764
-1.555547 -11.788404 1.353509 -4.003185
0.117482 -9.801010 0.602555 -2.905059
-5.817719 -11.925694 2.582290 -5.323024
-1.192727 -11.651614 0.485593 -3.853302
-6.947098 -19.596129 0.715990 -7.962968
-0.380756 -4.212959 -1.724060 -1.378115
-3.813410 -14.749316 1.498568 -5.568818
0.123608 -2.959367 1.618096 -0.850728
-13.710728 -27.843361 -2.309833 -13.364936
-10.126341 -41.598522 3.100198 -15.517459
-2.762799 -13.599522 0.303191 -4.908696
1.988753 -70.508146 -15.684925 -20.555818
-18.552858 -35.391251 0.702119 -18.517006
0.476996 -2.109577 0.202957 -0.489774
-13.241713 -28.305342 0.607488 -13.268593
-8.091089 -18.196674 1.002259 -7.886329
29.211973 29.226462 -0.028496 29.070393
0.561588 -40.016433 16.040662 -11.836454
-68.502965 -107.078819 -21.610670 -52.674535
4.420190 -3.588250 -0.834620 0.249582
3.378096 -4.042225 2.269736 -0.199239
6.914172 -23.045161 1.875366 -4.839297
-4.672644 -15.739648 -1.952691 -6.123687
10.558044 5.156256 1.443375 4.878833
7.969781 1.897487 1.792987 2.960180
-1.374213 -24.035325 -1.553581 -7.622861
1.469520 -21.057319 0.503461 -5.876340
0.894211 -5.151759 3.721532 -1.277265
-6.389874 -18.113349 -2.085913 -7.350967
-5.812561 -25.880240 -1.887709 -9.507840
-11.113245 -31.839393 3.436205 -12.885791
-10.343474 -21.129495 -3.624701 -9.505878
-26.198392 -44.530390 3.971796 -25.646628
-20.979982 -39.351579 -1.669679 -21.088114
-12.810769 -34.372664 -1.586846 -14.155030
-32.291538 -46.128184 6.368290 -28.579384
7.217918 1.240075 1.985298 2.537398
-12.404969 -25.129688 -2.848107 -11.312900
-36.936046 -93.564098 -1.945443 -39.150043
-45.683365 -95.568558 -1.327055 -42.375577
-28.810105 -86.271185 1.303434 -34.524387
-32.028671 -86.511909 0.058701 -35.562174
-42.673302 -102.215121 -4.398958 -43.466527
-59.975828 -85.937333 -14.334303 -43.773949
-57.732089 -116.671867 -12.528576 -52.321187
-61.478273 -126.226622 -16.685542 -56.311469
-8.301123 -21.691520 -1.327553 -8.997793
-34.656985 -58.077464 1.404525 -34.884073
-39.201475 -55.803676 8.676219 -35.815094
-5.242422 -31.936608 -1.654766 -11.153709
-1.338054 -109.718507 25.433326 -33.316969
2.627624 -65.902100 8.983223 -18.982343
-12.908256 -90.744281 41.595199 -31.095761
5.567546 -61.667173 -1.414759 -16.829888
54.603646 -85.294364 -29.886537 -9.207215
-4.872433 -10.799902 -2.749989 -4.701701
-5.998208 -56.851805 2.206744 -18.855004
-19.447468 -35.392495 -2.458938 -18.542089
4.980441 -59.434568 0.129411 -16.336238
2.705329 -18.272235 -2.254146 -4.670072
-32.425227 -65.162993 11.997726 -29.276466
-4.022806 -21.848705 7.356311 -7.761453
-35.455349 -73.767452 3.658736 -32.766840
5.180176 -53.811628 -2.291606 -14.589436
-14.047933 -29.072582 -1.764209 -14.048855
-9.426544 -21.207743 3.300942 -9.190286
-33.114469 -56.025465 1.033337 -33.379455
-1.962541 -12.763567 0.437603 -4.417832
17.016251 13.636818 -0.467792 13.622559
-4.997017 -13.376671 -0.029229 -5.512106
-3.290941 -14.567443 0.364974 -5.357515
-9.937862 -19.765850 4.432170 -8.911114
1.623719 -18.879793 -2.044411 -5.176822
-14.153003 -41.616286 -4.542627 -16.730787
1.927528 -1.809062 -1.789322 0.035540
-3.426231 -27.909651 -5.875093 -9.400765
-21.239362 -35.522562 0.671582 -19.155273
-7.613842 -34.339300 -6.966624 -12.585943
15.659828 -56.067904 -23.742546 -12.122423
-23.599491 -41.080402 3.974471 -23.015431
16.985896 -54.115273 -26.492573 -11.138813
-20.736941 -38.302755 2.215322 -20.708146
-38.493797 -63.660062 0.652810 -38.819924
9.407483 -75.065169 2.879281 -19.697306
-17.144128 -42.762670 6.664620 -17.972040
30.451442 30.455276 0.038735 30.601124
-13.392467 -49.352687 -5.269743 -18.823546
-7.942810 -20.444249 2.282242 -8.516118
-3.593459 -13.472811 -1.426487 -5.119881
2.985136 -1.690377 -1.131018 0.388428
-12.718736 -20.225524 5.799847 -9.902793
1.582953 -5.047797 -0.765349 -1.039453
12.227655 -82.173876 -1.535245 -20.983866
-14.773309 -19.376298 3.316979 -10.244882
-4.824630 -9.889153 -0.389372 -4.414135
-11.527546 -37.060332 6.698516 -14.576364
-13.697811 -80.432241 -6.541607 -28.239016
-11.810932 -48.080038 9.272099 -17.967291
1.219743 -50.756389 10.829584 -14.860994
-19.050994 -69.458780 -1.233213 -26.552932
6.843750 -68.604790 -7.889026 -18.528312
42.434874 -73.891854 9.067398 -9.437094
-34.240340 -54.172594 5.779736 -32.996332
-12.991081 -117.439444 45.299457 -39.129157
53.982248 -82.730176 -4.294366 -8.624378
78.420681 -47.314375 -29.774230 9.331892
34.939917 -107.777569 -40.499389 -21.851295
62.878685 -80.590725 -36.450373 -5.313612
1.964521 -60.359423 4.409774 -17.518471
15.539467 -72.237247 6.865934 -17.009334
-3.271431 -42.179874 -16.448049 -13.635392
-25.310621 -79.396553 -25.986142 -31.412152
-34.455222 -55.453467 4.768919 -33.750794
11.681716 -41.571654 -6.188024 -8.966981
-7.151235 -20.397149 -1.270359 -8.264515
34.871985 -58.078659 -2.577633 -6.962002
-51.641640 -76.144245 7.901419 -49.710529
-29.668427 -51.124960 2.824045 -29.628305
-67.332249 -79.364334 -15.126873 -57.530903
-58.032680 -88.005716 5.878047 -58.852117
-65.710047 -118.212501 -2.264862 -55.176764
-59.940179 -84.025346 10.368278 -56.513170
-106.175791 -138.330399 -17.861517 -98.857714
-78.962111 -197.734592 17.808813 -83.009011
-26.752423 -84.657042 -14.177099 -33.422840
-46.882952 -86.166829 -27.187232 -39.914934
6.229455 -58.373136 4.964370 -15.643104
28.238106 -82.954639 -19.761017 -16.414960
-28.822451 -77.537727 -8.568245 -31.908053
-1.203058 -67.695293 -64.058904 -20.669505
125.622003 126.056080 0.068985 130.493008
23.277783 -104.709808 1.314355 -24.429607
-62.404260 -73.296402 14.413065 -52.921780
26.153954 -85.162633 -41.592074 -17.702604
-52.733594 -99.316167 28.642307 -45.614928
-55.130537 -84.061151 -5.615161 -54.494119
-29.037394 -108.277122 38.349912 -41.194355
20.330220 -125.716697 39.089295 -31.615943
-14.564994 -58.960826 45.458659 -22.057746
-64.701431 -171.910469 25.346740 -70.983570
-10.298453 -86.414273 38.912648 -29.013818
-88.771092 -237.581091 -11.287764 -97.905655
-94.134523 -63.297514 5.526916 -61.321029
-146.531645 -155.931758 28.426399 -123.180548
-170.713864 -229.154542 22.130014 -164.257635
13.210042 -93.817349 -50.370449 -24.182192
-74.818315 -101.475945 -12.858182 -70.121951
-105.495222 -195.265336 12.066621 -90.228167
-74.782499 -113.821604 -0.385653 -75.296079
-74.669474 -204.205170 11.415644 -83.662393
-117.493893 -168.048053 -10.522464 -116.113968
-87.506337 -104.998557 18.058358 -76.725092
-12.037989 -88.794715 38.662077 -30.249811
-92.164982 -131.720799 10.094208 -90.113127
-65.713368 -100.381349 -3.672451 -65.797704
-79.788598 -112.569609 50.220336 -57.707462
-93.052108 -112.044986 -18.646889 -82.178336
-97.279290 -122.540710 -13.077312 -88.380636
-92.851914 -96.461033 -19.539613 -76.403702
-100.937811 -129.368980 -17.948489 -92.999662
-200.651843 -262.668608 28.277539 -190.822059
-67.877989 -218.058329 9.870771 -85.780895
-96.796729 -111.222167 19.830278 -84.801259
-71.777184 -201.018131 11.525784 -81.838595
-73.861050 -205.232449 13.241759 -83.728050
-111.483627 -183.895806 17.973403 -88.613830
-79.732636 -180.655971 13.297800 -78.116582
-98.072762 -175.266172 -10.719021 -82.001680
-81.177592 -99.377714 16.581740 -71.866906
-35.033807 -111.218753 9.409528 -43.875768
-63.613102 -112.830579 -27.239706 -52.933104
-92.299250 -137.810694 2.477316 -92.774688
-57.330596 -103.045690 -27.356227 -48.112886
-56.532073 -143.194304 -9.656165 -59.917913
-34.558530 -93.939622 8.974918 -38.549446
-49.364450 -72.710561 7.957253 -47.287333
-58.305313 -111.891228 8.644307 -51.058962
-26.040461 -43.807689 4.422247 -29.273089
-94.304350 -131.628629 12.936196 -90.883479
-151.948979 -211.888208 15.834306 -148.923166
-53.650094 -123.663688 8.619476 -53.194135
-54.940394 -123.489128 9.060026 -53.528857
-77.909342 -115.807595 6.721639 -77.319163
-79.731036 -150.211613 11.895032 -68.982795
-139.599033 -198.965487 32.015372 -101.569356
-96.720035 -234.971356 38.782419 -99.507417
-79.055979 -119.685927 -1.130301 -82.526392
-131.377734 -154.015405 9.287906 -85.617942
-138.370195 -181.623753 21.162466 -130.548586
-73.420457 -108.026395 8.400078 -72.002623
-101.525101 -151.177092 21.347578 -75.810658
-76.667312 -136.893341 4.686248 -64.068196
-126.775066 -133.695903 25.087942 -105.578317
-78.504088 -109.910068 24.478806 -56.524247
-95.284493 -104.209169 18.076978 -79.725139
-97.874722 -127.220548 17.065663 -90.641056
-98.762449 -124.534043 15.408237 -90.533876
-92.518184 -114.035042 18.187055 -82.703795
-85.509884 -109.185507 16.347414 -77.712047
-114.291388 -146.116128 19.959356 -105.381105
-97.801340 -142.526605 8.244351 -96.978318
-107.331561 -135.793175 30.584396 -72.937421
-160.739635 -189.161093 45.515615 -104.970219
-205.171274 -225.012690 37.791798 -177.051411
-126.480509 -150.989230 8.944161 -106.402967
-141.660125 -170.714151 37.452568 -93.712283
-112.688721 -110.383695 22.257061 -89.837945
-147.484461 -167.612538 45.815463 -94.529100
-100.448610 -92.357418 41.646923 -57.841809
-150.089713 -146.406333 47.524872 -88.948814
-103.086428 -114.197607 19.297400 -65.185210
-106.439110 -97.762079 20.300635 -81.890842
-123.460982 -138.604819 24.300008 -106.573607
-107.194025 -123.180277 29.591824 -69.112291
-98.400436 -94.080410 19.733203 -76.923258
-97.453478 -160.501752 27.961474 -77.386569
-120.922658 -125.248579 24.068917 -99.557156
-86.215209 -126.520893 63.188894 -63.820830
-68.241824 -93.080647 23.616698 -48.396742
-121.416746 -127.056475 34.049748 -74.541966
-85.836081 -116.064345 26.245021 -60.570128
-42.948936 -85.283133 21.395211 -38.469621
-119.581327 -125.751726 9.498197 -73.599916
-62.126918 -102.758153 27.140104 -49.465521
-95.728532 -108.396750 19.304357 -61.237585
-90.419255 -93.218165 19.094662 -73.189402
-100.235667 -103.201202 50.435852 -61.031061
-39.885041 -77.885334 30.243912 -35.331113
-84.446644 -111.803687 14.748906 -78.539667
-13.632150 -18.172420 6.416258 -9.781315
-51.736505 -93.414714 33.401851 -43.545366
46.576526 46.812239 -0.003502 45.782494
-45.160215 -79.336168 34.489264 -37.348915
-28.360078 -19.116860 47.802422 -14.243081
-58.538184 -73.860746 12.832511 -51.647007
-63.777118 -88.958769 10.892474 -60.162929
-51.659692 -76.415112 24.632657 -38.422441
-57.338919 -100.094455 26.197131 -47.230012
-83.529366 -93.740994 26.890988 -53.181108
-63.796037 -141.755038 12.843331 -61.665322
-106.928425 -110.606828 29.918518 -65.260576
-122.957679 -123.267307 40.786389 -73.867496
-175.240398 -223.692994 27.685842 -163.654985
-73.314458 -64.391665 -0.240430 -52.794482
-81.094829 -91.711796 33.648544 -51.841988
-55.954268 -78.259105 10.240241 -52.367257
-41.195086 -95.785600 11.091278 -41.094206
-76.485753 -133.214442 5.025680 -62.910059
-67.215552 -133.458917 9.674043 -60.202341
-63.147737 -87.061049 11.252695 -59.122007
-107.331115 -219.186896 -18.400323 -97.955403
-56.363358 -72.164532 12.315745 -50.017643
-68.759190 -81.003153 8.896597 -54.530511
-53.718635 -80.924566 6.685826 -52.564330
-58.744399 -122.988787 8.675187 -54.519956
-59.426975 -88.487348 7.171882 -58.180815
-66.458157 -90.710779 11.870060 -62.063349
-55.962780 -74.507844 11.592682 -50.786083
-24.208916 -89.478433 17.698160 -34.106205
-44.233179 -64.765273 8.089148 -41.778146
-40.822100 -44.633722 -8.129177 -29.616827
-34.660947 -49.855395 8.153473 -31.414247
-26.004394 -30.105490 8.614811 -19.726003
-32.829289 -56.106729 7.773241 -26.680805
-51.784941 -108.131264 9.517832 -47.974861
-36.946891 -94.234474 9.347498 -39.354410
-57.997060 -139.868220 13.289789 -59.359584
-31.936944 -54.334959 0.411335 -32.224886
-40.080284 -64.675538 8.684604 -31.426747
1.092554 -5.593484 3.206717 -1.350279
-32.716728 -56.429724 8.581967 -26.743935
-7.913518 -42.590917 -2.677335 -15.151330
-38.350307 -61.710499 4.020178 -38.009101
-29.445397 -60.913723 3.300455 -27.107736
-43.687297 -60.309159 5.967087 -31.198937
-5.114038 -8.759161 5.254317 -4.161960
-14.774870 -47.964736 0.886438 -18.821882
-27.834912 -40.230391 13.440884 -20.419591
-3.688491 -12.153420 -1.499425 -4.752574
5.254971 4.525707 3.419061 2.934203
-36.398345 -61.268281 7.613785 -29.299988
-26.999671 -46.569358 6.718819 -22.070709
-1.897030 -8.230907 3.995379 -3.038381
-26.602555 -30.777021 8.638836 -20.039606
-16.513867 -22.505759 6.803447 -12.278735
-18.964899 -14.736372 6.707810 -10.110381
-45.017745 -51.895633 11.657009 -36.627914
-12.054366 -18.047279 6.069704 -9.030493
-12.202640 -6.644858 5.023773 -5.654249
-51.334383 -69.856143 27.131977 -36.357158
-14.492661 -15.364642 6.752720 -8.957191
-19.689555 -25.269635 7.405913 -14.779900
-20.725356 -26.559252 6.944947 -16.555548
-37.544719 -40.032934 9.434402 -28.972877
-15.539606 -11.479773 6.068398 -8.105814
-25.202612 -31.199833 11.610132 -16.920734
-8.132239 -11.839740 5.604483 -5.991594
-35.688277 -40.333179 13.176611 -22.806437
-25.940876 -27.282436 8.543254 -18.269771
-22.335018 -25.592996 12.778517 -14.378404
-2.232443 -1.448360 4.497334 -1.104241
-18.277164 -12.211030 5.966652 -9.146458
-22.958390 -27.086533 8.052330 -16.934766
-42.500755 -42.330473 11.108177 -31.604693
-30.042696 -3.459562 24.329276 -10.050677
-1.565345 -6.644284 4.206062 -2.462889
-66.653646 -80.912256 14.661409 -57.912971
-35.230282 -47.185770 9.173753 -31.095070
-47.706105 -53.838743 20.143084 -30.463454
-43.930101 -49.740049 11.484139 -35.309439
-36.597192 -52.281357 8.353335 -33.290652
-59.586339 -83.085723 10.608156 -55.930379
-39.689153 -97.641358 29.161846 -41.199153
-78.100675 -77.293386 16.887362 -61.260273
-46.459556 -85.908721 19.892589 -39.710483
-55.064219 -97.142640 40.574108 -45.662058
-38.673813 -81.605673 48.234396 -36.083846
-48.025292 -38.511249 16.803912 -25.960962
18.145763 17.538805 1.315439 16.458666
-33.927745 -29.454067 9.115240 -22.555277
-93.781437 -76.575068 37.356635 -51.106951
-88.973925 -122.466800 38.881931 -63.432218
-7.604870 -64.981486 43.391132 -21.775907
-13.311950 -12.496473 6.160191 -9.039135
-107.266937 -142.741554 47.786379 -75.002547
-78.047841 -60.155851 12.698073 -53.981694
-45.956475 -36.876894 18.576181 -24.850011
-103.835089 -144.161598 44.437436 -74.399006
-26.680759 -26.143202 22.900588 -15.847188
-42.873192 -54.410157 50.641764 -29.185005
-117.651862 -75.123157 32.223011 -57.832506
-11.740342 -15.964565 23.497383 -8.311472
-40.790005 -21.046428 22.057355 -18.550930
-18.768098 -22.987183 7.309826 -14.150201
-16.239559 -7.579858 3.735676 -7.145825
-39.856964 -24.116548 15.974852 -19.192054
-85.522676 -84.579033 18.000775 -67.522002
-21.380257 -36.286154 21.571926 -17.299923
-35.956304 -36.250335 10.114320 -26.263564
-108.825170 -86.207408 16.543879 -78.011192
-10.760933 -7.646969 5.518301 -5.522370
-9.362098 -6.093714 5.229374 -4.636744
-14.413146 -18.630684 6.571825 -10.922775
-10.595652 -11.342257 5.985132 -6.581373
-15.439836 -29.117253 3.156354 -15.777173
-45.637523 -50.525721 30.585806 -28.848973
-50.829020 -61.834749 35.403165 -33.799131
-52.442248 -43.029785 7.655706 -33.839265
-40.556488 -41.730640 5.816690 -27.735459
-33.349804 -39.659836 9.628184 -26.641178
-8.749202 -10.283361 5.713577 -5.802560
-19.741717 -23.393194 7.506424 -16.903884
-16.856070 -16.952136 4.333965 -10.601450
-73.511561 -60.659887 27.367385 -40.251434
-10.690168 -12.922992 6.035928 -7.715141
-6.237630 -9.157865 3.336911 -4.618649
-13.278569 -6.370468 4.685807 -5.894711
-6.290303 -9.415696 2.317833 -4.711800
-12.798525 -1.963943 0.047081 -4.428740
-14.536193 -6.041592 -2.087789 -6.173335
-8.933659 -11.125650 -1.516477 -6.017793
-26.046220 -7.274731 -2.784928 -9.996285
-25.016395 -21.696503 -2.581078 -14.013869
-4.679606 -2.440099 -0.152077 -2.135912
-18.143607 -6.963452 0.677668 -7.532118
-34.059427 -17.445779 1.671931 -17.507432
-26.448916 -11.723995 -0.220980 -11.925259
-20.227772 -17.299691 7.169445 -12.368182
-41.004165 -32.224856 24.272519 -21.968706
-56.017642 -33.399899 25.251683 -26.825262
-75.198124 -28.928827 14.269210 -31.238085
-22.996568 -11.082014 1.265842 -10.471365
-27.707824 -23.639890 14.717038 -15.404314
-66.652933 -26.758131 2.855914 -28.023319
-5.878403 -2.903265 1.010861 -2.634500
-17.518827 -5.390560 -0.190146 -6.872816
-24.938565 -15.621893 3.287512 -12.168137
-3.490424 -2.548591 0.003133 -1.811704
-18.462498 -16.951509 -0.274170 -10.624202
-19.448480 -24.585047 0.030872 -13.210058
-10.640669 -6.671008 1.070821 -5.193503
-19.728229 -16.409471 -5.631517 -10.841310
-11.787120 -2.017131 -0.608519 -4.141275
-22.406634 -11.395606 -0.206875 -10.385422
-8.335190 1.214904 -0.431898 -2.136086
-23.248991 -15.081789 -6.168916 -12.525802
-31.293338 -14.381474 -0.571346 -13.702443
-23.825388 -10.294496 1.991290 -10.235965
-44.187968 -25.797181 -3.857118 -25.285451
-30.642649 -12.307506 -2.876573 -12.885047
-70.112321 -37.845116 -5.532303 -32.387231
-58.279306 -42.019104 28.187447 -30.089523
-3.110699 -4.059292 4.781833 -2.150997
-25.546177 -13.776410 4.485527 -13.015378
-93.660239 -117.463721 49.165580 -63.337188
-103.870379 -97.530341 72.561716 -60.420216
-74.611928 -57.450403 12.268989 -51.490993
-87.578318 -69.345025 14.287111 -61.964923
-75.575958 -64.084785 14.386595 -54.534453
-46.481246 -151.648114 73.188754 -59.438808
-66.386821 -42.826908 29.126227 -32.764119
-22.287425 -25.421460 14.371766 -14.312665
-107.859160 -46.399577 16.509903 -46.277621
-19.833535 -11.933173 5.531712 -9.530012
-13.248162 -2.285452 -0.729724 -4.660084
-40.244234 -23.394628 1.743059 -22.845089
-29.022001 -15.185887 3.599543 -14.511402
-42.584453 -17.165690 1.225218 -17.925043
-48.082557 -28.278928 1.114759 -28.343222
-54.635758 -50.275389 31.447239 -31.473344
-34.794695 -17.866138 -0.522645 -18.437655
-72.275013 -32.362570 -2.815872 -31.391275
-90.128500 -71.011893 14.406810 -63.741152
-74.275436 -104.393278 39.924219 -53.600614
-95.508379 -49.138030 29.202253 -43.393923
-52.690891 -32.695423 23.538638 -25.615894
-64.415330 -96.101751 32.152463 -48.155125
-93.791109 -124.209458 61.729668 -65.400170
-91.262875 -71.339285 18.936455 -48.780648
-99.659515 -165.298601 44.753254 -79.487435
-78.846481 -66.934443 19.198812 -43.734277
-99.485388 -74.193524 13.226212 -69.026232
-24.175048 -10.086210 -0.644386 -10.606923
-38.932006 -20.080259 -3.073829 -17.703679
-34.638833 -18.914539 -0.779909 -18.680514
-107.422219 -47.766416 17.894804 -46.556590
-54.341831 -32.164452 -2.134133 -32.270255
-73.399388 -33.540202 -1.751648 -32.081877
-23.897694 -9.864104 0.357347 -10.128539
-49.641645 -28.644713 -1.289312 -28.844362
-17.152201 -15.382135 4.336571 -9.760301
-29.121557 -13.698529 -0.243485 -13.904888
-48.637163 -20.772416 -3.373655 -20.822874
-55.533289 -35.102280 -5.662094 -33.945068
-54.556337 -21.844598 2.103026 -22.920280
-66.496059 -46.576149 -0.066579 -33.921662
-53.863436 -39.192562 1.837052 -27.916799
-47.061518 -62.997380 3.986418 -40.794086
-39.933375 -21.649951 1.464161 -21.781622
-59.688356 -52.482377 12.802308 -42.867641
-57.053604 -37.713789 2.181144 -34.063525
-68.036137 -46.046523 1.552035 -34.224798
-36.007949 -36.513472 4.646036 -21.756426
-14.688055 -12.518982 -0.789972 -8.162111
-42.581811 -54.567104 7.141436 -29.144675
-23.200329 -14.981087 3.060572 -11.454425
-41.028459 -54.249985 6.666780 -33.970751
-25.899992 -38.527721 -4.850874 -19.328314
-49.960174 -59.352667 6.804587 -32.793852
-33.896402 -35.275667 4.399243 -20.751621
-42.750702 -43.668502 7.019351 -25.925761
-50.768524 -65.961962 6.727985 -35.019146
-45.728810 -55.936254 6.947559 -30.499519
-45.213260 -52.161170 5.829197 -29.212329
-33.333633 -45.438588 5.136740 -27.428244
-30.265419 -60.733355 -3.551677 -27.299632
-34.365962 -51.805096 0.430010 -30.946087
-28.695543 -36.015239 0.991116 -20.435535
-36.105819 -46.544789 -0.963809 -27.694853
-30.356665 -41.263348 -0.543919 -24.574574
-41.611318 -63.333355 -1.001152 -39.440767
-32.048679 -41.835880 -0.165485 -24.407115
-45.745519 -56.890318 -2.776154 -35.868082
-33.189400 -46.727997 -1.298007 -27.830347
-52.085586 -84.336500 2.955216 -40.926626
-49.460099 -52.892944 11.867683 -38.301694
-54.328414 -77.783203 -2.674897 -39.633485
-37.820220 -55.129191 -4.681339 -34.265185
-55.094990 -89.129440 10.416803 -43.267329
-43.855827 -57.896233 -1.466889 -37.710281
-66.930753 -144.292445 24.110222 -63.366960
-49.723618 -75.982292 0.435335 -37.711773
-53.715594 -71.732980 8.323451 -37.634572
-42.337776 -51.150235 6.599248 -28.046403
-50.314637 -62.536459 9.248505 -33.855329
-50.357030 -63.166495 7.185138 -34.057058
-52.476245 -69.579936 2.222916 -36.616854
-30.704557 -46.739883 3.719981 -27.723188
-60.764491 -46.691536 8.802773 -39.619823
-74.461744 -91.813944 15.422899 -65.909141
-58.136829 -60.863960 12.733285 -35.700237
-58.698985 -41.687723 8.946299 -37.946627
-39.324541 -36.451087 -3.215514 -26.181505
-69.931533 -70.194631 3.582824 -50.568773
-49.152133 -62.391490 10.873173 -42.148328
-42.650394 -49.487346 -2.003671 -33.262659
-81.744860 -76.008146 12.573358 -47.325902
-58.524002 -35.693884 3.458980 -35.507774
-68.502218 -80.953767 15.087381 -44.836796
-66.687506 -53.334174 11.908843 -45.867564
-74.902794 -48.924145 6.357615 -47.847961
-91.604435 -39.440680 -4.748974 -39.313534
-65.712912 -64.143762 5.956789 -38.957002
-58.401082 -36.348288 4.805445 -35.746825
-31.364582 -37.104421 1.603403 -23.286859
-62.409327 -44.561452 -8.853828 -40.934652
-45.664607 -22.785647 1.355724 -20.535076
-56.139050 -54.701798 12.973108 -42.081436
-40.239565 -26.718807 6.878343 -24.088475
-45.742235 -28.659931 5.676490 -27.218215
-43.130074 -43.489452 9.744429 -25.985858
-42.980060 -45.860097 2.321556 -30.452618
-40.056932 -34.386043 5.507999 -24.055909
-47.888481 -27.273936 0.305615 -27.542413
-39.902332 -34.435751 4.105612 -23.108992
-58.739072 -30.960498 5.119208 -26.909871
-75.841825 -41.285211 3.146675 -35.138111
-59.906897 -36.802110 -3.589968 -36.577322
-53.661319 -31.378912 1.179755 -31.614650
-62.933231 -41.096968 -4.629024 -38.791879
-49.066457 -28.305392 1.740218 -28.437553
-59.749394 -42.583769 9.089212 -38.776879
-119.875825 -60.387495 25.954859 -54.078996
-76.206928 -30.915804 2.470514 -32.136820
-73.087994 -46.957064 5.017593 -46.399060
-114.346526 -59.977931 17.986756 -52.297337
-119.953166 -65.193904 27.753616 -55.544121
-57.684040 -22.437957 -0.351479 -24.036599
-78.669079 -42.384228 3.267526 -36.315992
-90.867874 -60.902516 7.159757 -59.718452
-93.619718 -75.971106 15.686824 -67.275943
-148.898117 -129.524968 24.379912 -112.054427
-119.973858 -85.365986 21.307797 -61.601953
-166.986948 -165.216762 60.251171 -99.661113
-110.004585 -57.231982 17.981251 -50.170970
-66.240553 -46.597565 30.776371 -33.851435
-100.260358 -65.464120 12.742975 -49.717343
-91.877687 -59.558127 3.340078 -59.664037
-87.937391 -68.120690 13.708268 -61.721959
-86.323884 -68.137014 14.066492 -60.924324
-91.789988 -75.073369 15.252082 -50.059007
-90.444193 -71.062913 19.572458 -48.452132
-110.354590 -209.719569 33.050328 -96.022248
-116.055523 -188.091971 31.013989 -91.244248
-81.617847 -147.874069 14.237090 -68.847575
-103.079536 -117.157501 21.026466 -88.538302
-140.184183 -174.801485 24.220213 -128.516662
-108.612473 -231.199125 19.774611 -101.943479
-58.785724 -91.662061 0.877007 -63.045098
-116.579749 -147.088575 15.963068 -105.847265
-108.183720 -109.234355 21.434542 -89.227638
-116.314499 -220.714100 31.365572 -101.108580
-97.037698 -142.818370 41.165240 -71.956820
-108.934376 -141.189415 42.715983 -75.037137
-88.712301 -71.973032 15.106106 -63.532573
-104.811607 -124.543099 44.267370 -68.806412
-103.194034 -168.339526 63.917893 -81.460068
-74.779848 -124.915388 57.133050 -59.908571
-107.073290 -135.314968 41.845866 -72.716477
-148.662081 -171.946999 28.050621 -133.100674
-95.543610 -195.681424 47.631291 -87.367510
-115.152665 -156.329746 16.348508 -110.161356
-136.025376 -132.568687 25.927716 -109.218572
-62.064463 -173.482658 20.592058 -70.664136
-119.498591 -140.816441 23.006721 -105.472559
-116.309524 -157.036678 31.686319 -82.003861
-105.354344 -212.013070 52.274090 -95.210224
-76.320032 -350.937218 67.488496 -128.177175
-99.232181 -222.526091 39.051723 -96.527482
-95.497392 -136.937729 10.444304 -94.432621
-104.663646 -168.853606 62.914565 -82.055175
-133.248748 -209.164337 70.971327 -102.723926
-82.890771 -153.666160 51.042244 -70.967079
-237.620386 -254.177812 43.321826 -202.953439
-94.105817 -75.485340 24.075652 -50.877347
-116.551062 -116.581698 27.870727 -69.939828
-122.300197 -97.521175 32.195222 -65.946411
-103.572780 -70.175257 22.038038 -52.124411
-117.515726 -81.928362 22.055023 -59.833226
-107.392029 -68.840022 19.271995 -52.869615
-128.741186 -101.791921 24.062562 -69.159932
-139.954558 -104.793389 25.431035 -73.424384
-118.988647 -84.018096 22.530792 -60.902023
-109.706106 -75.667662 19.984028 -55.612131
-114.204478 -79.839928 20.932686 -58.213322
-107.050454 -76.795775 20.058249 -55.153869
-117.197445 -82.728534 10.807887 -79.491974
-102.076625 -44.614793 15.109874 -44.007425
-114.140011 -89.109475 16.667767 -81.341433
33.076953 33.252702 0.037485 33.347137
-71.201603 -46.127815 6.057074 -45.144492
-139.859097 -140.620991 27.122230 -113.866557
-118.002739 -96.187594 22.847296 -64.257100
-165.584935 -192.037255 30.624409 -146.560260
-132.915650 -101.256153 25.431066 -70.251541
-131.097591 -129.119476 25.295021 -106.071281
-124.776490 -116.882868 21.900845 -95.928369
-157.659025 -183.400020 29.212891 -139.592384
-129.795487 -102.867526 33.650342 -69.798904
-135.303131 -108.701571 24.409423 -73.201411
24.294172 -136.832374 61.684992 -33.761461
-85.528701 -218.974376 68.963545 -91.350923
-105.382433 -151.947382 8.530496 -103.404700
-68.091986 -162.375600 57.874370 -69.140276
-197.409844 -240.396818 33.377063 -180.251962
-110.334851 -163.618217 0.824384 -111.039190
-129.032382 -157.013559 44.626349 -85.813782
-108.443140 -151.648912 44.743246 -78.027616
-79.183727 -225.683296 34.964001 -91.460107
-85.835258 -191.884546 31.019503 -83.315941
-312.009073 -376.125511 50.774141 -285.607782
-55.922432 -76.792066 -10.948667 -51.742151
-183.687535 -256.437447 16.370830 -181.364824
-109.355545 -248.042682 20.646160 -107.219468
-109.333236 -221.485688 51.780076 -99.245677
-78.971135 -118.971484 -4.047799 -79.135317
-171.687042 -242.328327 13.458865 -171.064663
-123.953274 -210.743233 20.513215 -100.408952
-165.369951 -294.268802 80.642767 -137.891626
-121.059404 -233.952949 57.363921 -106.503706
-121.803287 -242.997209 48.707034 -109.440149
-36.468173 -190.866665 50.634140 -68.200451
-165.379580 -225.466248 19.801006 -160.409483
-132.535683 -179.431096 18.093488 -127.153000
-74.315355 -220.348348 49.029118 -88.399111
-94.866765 -232.704711 21.010985 -98.271443
-178.790400 -185.368758 33.709240 -149.120898
-132.242425 -231.100443 51.806520 -109.002860
-122.574348 -126.889776 24.350418 -101.271463
-87.728394 -215.695196 27.532199 -91.027077
-220.107291 -298.024004 24.885240 -214.061031
-114.218545 -271.099976 12.870399 -115.595556
-167.032738 -185.534421 31.572924 -144.736162
14.413323 10.221446 -1.139363 10.013146
-184.286072 -160.724261 30.011214 -141.128926
-89.169928 -123.555748 12.878180 -86.659636
-172.835313 -208.437158 30.321403 -156.413515
-150.349318 -137.399115 26.893109 -116.956657
-144.736214 -187.149120 22.784207 -135.640564
-163.572817 -195.683696 29.247551 -147.144649
-141.405345 -140.667822 27.843517 -114.562476
-170.177294 -207.137681 29.531680 -154.743780
-121.420156 -108.503057 18.888223 -90.046395
-134.417234 -162.666632 24.511676 -120.997959
-118.215933 -59.639552 46.528970 -53.356646
-158.248322 -134.018525 25.224916 -118.894250
-187.399046 -180.564391 34.260089 -150.519680
-144.248584 -117.548642 18.123842 -103.364385
-158.811595 -134.880342 69.482143 -88.107581
-117.784001 -130.023328 23.560589 -100.213279
-126.090276 -92.497318 14.102307 -87.941524
-88.949731 -85.839921 18.896733 -68.954318
-105.009955 -99.160185 20.576179 -81.855128
-115.794409 -89.949498 21.053498 -61.723172
-76.239502 -102.523784 13.315743 -71.167575
-80.274173 -102.920334 16.534922 -54.958352
-67.551099 -66.358925 7.095703 -46.165414
-69.635862 -80.268018 15.511876 -58.988906
-123.869285 -124.273156 24.465879 -100.273300
-101.500491 -89.617121 18.816637 -76.353689
-112.614940 -109.675759 22.312833 -89.395976
-80.317646 -54.436943 7.922330 -52.661348
-132.522802 -99.075694 15.923312 -93.331672
-114.660188 -101.415332 24.538351 -64.822656
-110.260642 -115.585042 43.183292 -67.753705
-120.737085 -94.607823 17.509430 -86.410310
-116.646034 -84.441130 18.907372 -60.326149
-103.126438 -77.818734 12.554669 -70.843375
-111.587969 -99.664604 34.315641 -63.375772
-103.931280 -86.451340 14.719924 -73.749128
-99.523398 -76.732132 14.586279 -70.107559
-76.373240 -52.268340 8.590683 -49.937074
-77.076688 -64.155780 14.269497 -55.366039
-62.914790 -50.122323 7.598162 -40.664796
-83.118743 -83.148487 17.762118 -67.301187
-83.213395 -77.798675 13.228866 -48.303621
-103.799619 -102.808983 21.015012 -82.849816
-65.994318 -79.870187 17.336498 -43.759352
-52.969194 -96.036777 16.266851 -44.701792
-64.414964 -91.247432 16.044436 -46.698719
-71.540365 -91.410358 14.304515 -64.518801
-54.962060 -79.823078 3.276616 -51.663093
-51.135405 -64.821104 5.744385 -34.786953
-73.968533 -92.929148 15.004665 -66.168808
-58.354860 -89.214404 15.237415 -44.270779
-65.801322 -80.120789 15.921419 -43.776633
-52.179821 -68.647215 7.582865 -36.248111
-51.243531 -61.058066 7.366573 -33.690479
-61.382016 -90.490088 -1.418799 -58.608934
-52.507852 -65.528005 6.078762 -35.410757
-46.416591 -75.522798 0.747174 -36.581817
-38.791519 -57.578040 -2.922992 -36.072368
-52.165742 -72.175053 6.701518 -47.012725
-48.847989 -76.185769 3.931324 -48.602346
-55.102938 -71.106719 8.003745 -46.418472
-68.098452 -101.558898 5.976045 -66.732492
-53.836782 -79.537332 4.022606 -50.550521
-54.235526 -76.928087 6.981975 -50.093708
-72.226101 -108.860714 16.209091 -54.326045
-75.233712 -113.013355 1.746696 -74.304521
-44.414310 -53.675549 -2.383848 -33.576912
-61.473901 -63.239848 -14.291051 -48.416966
-70.295961 -99.724655 16.870088 -51.006185
-57.372779 -60.232803 10.132773 -42.530487
-56.870597 -83.215774 3.048099 -53.949120
-83.431036 -111.242144 22.406950 -58.401954
-71.061812 -98.803904 10.513363 -66.546576
-66.196988 -85.196739 13.474984 -59.645982
-38.156940 -49.064521 -6.889816 -32.014392
-58.071603 -84.099876 8.837690 -55.769796
-64.261222 -93.509047 8.671224 -62.355134
-73.139276 -109.590132 5.430718 -72.849594
-54.386244 -94.685917 5.786629 -44.721648
-174.624552 -249.529801 9.098895 -174.508611
-158.424316 -362.611096 34.379251 -156.310624
-170.577946 -191.205596 31.898553 -148.253240
-116.477764 -134.728223 22.807641 -102.227154
-118.588078 -123.192254 -11.122642 -90.357383
-186.347442 -404.965815 0.535096 -177.393977
-114.981555 -150.865692 -17.918510 -107.642093
-201.628371 -403.219960 -43.885393 -181.454499
-122.610508 -285.821805 15.736672 -122.529694
-290.857333 -407.551778 -4.776181 -288.280479
-221.124958 -516.884866 -36.771546 -221.402947
-182.865297 -375.569731 -12.383555 -167.530509
-224.223914 -306.646410 -22.977039 -219.506837
-217.036163 -310.708042 -3.293313 -218.147948
-223.199685 -312.268888 16.705211 -221.391429
-250.902079 -321.781786 29.752561 -232.734369
-253.297403 -287.873218 20.186448 -207.135373
-210.396309 -276.064540 28.649764 -200.730133
-226.584513 -271.564209 14.408453 -192.228414
-146.762554 -372.435721 29.784855 -155.759483
-150.403893 -142.808745 -1.801324 -101.502085
-256.859426 -338.172476 10.552339 -237.591928
-205.379751 -439.495464 -27.545916 -193.462564
-198.095229 -367.633100 -2.791179 -169.718499
-203.693489 -290.487134 8.560585 -203.992536
-167.740403 -330.231673 7.782152 -149.391623
-243.641356 -344.134251 12.603651 -243.412288
-267.328538 -380.249980 -4.787286 -268.600789
-143.944812 -303.461111 -9.786677 -134.221777
-226.711628 -244.698206 -40.236513 -192.460056
-147.864336 -365.068490 28.301249 -153.879848
-196.478891 -374.117002 30.922997 -171.178768
-149.407094 -369.191410 35.176273 -155.579551
-158.907797 -319.281427 12.696294 -143.456767
-202.320187 -240.243343 0.996414 -168.671196
-175.663323 -371.510558 54.641354 -164.152164
-141.448730 -186.902921 7.605383 -130.297821
-193.819888 -537.702513 44.501371 -219.456720
-139.320505 -187.421766 18.853969 -133.474577
-171.907365 -235.380708 7.094718 -164.359561
-184.743675 -363.531535 18.581090 -164.482563
-156.944399 -339.469401 13.912927 -148.924140
-156.637133 -212.053119 19.172782 -150.668503
-140.718920 -376.541726 39.822230 -155.178194
-110.098270 -297.619432 0.826072 -122.315311
-147.500626 -203.713115 -16.648614 -143.792645
-150.256942 -279.937434 -20.953138 -129.058313
-134.810695 -186.869070 -15.462292 -131.369521
-117.874629 -118.050956 -23.308912 -95.244141
59.086396 59.087910 0.101057 57.602391
-158.993325 -322.666260 0.184400 -144.497875
-124.618538 -94.680334 -16.074816 -88.245959
-141.441506 -175.139335 8.412826 -126.820950
-182.980631 -436.388501 60.155076 -185.810740
-50.727674 -291.658222 13.545800 -102.715769
-148.274744 -173.713540 24.169257 -129.605316
-133.467260 -160.444236 10.963408 -117.894454
-165.347212 -193.332033 0.496933 -139.268297
-155.328119 -185.040034 27.307738 -137.888346
-163.963082 -362.765740 39.962917 -158.018647
-126.727430 -113.880579 22.819684 -97.227990
-157.135320 -182.093212 19.718069 -134.765907
-153.363885 -219.743096 -9.206263 -153.027374
-190.767928 -213.625388 30.665320 -162.154053
-223.079042 -306.568513 -21.791725 -218.906687
-157.829927 -225.775189 -5.827737 -156.905222
-237.273337 -339.097406 0.202461 -238.618312
-178.112879 -240.485612 -21.905963 -172.149958
-151.291297 -324.979855 2.221352 -142.881346
-173.423171 -233.477093 -4.192310 -165.894134
-191.249844 -261.945866 17.296619 -187.019295
-170.861853 -249.917235 27.905770 -126.233726
-223.807748 -310.561257 13.228419 -220.478177
-177.179589 -207.089391 -0.062868 -143.712213
-211.288519 -266.054949 25.054040 -191.621210
-166.576755 -235.550732 -7.721355 -163.635401
-168.555223 -235.375714 -15.758435 -165.970514
-127.412613 -176.309720 -4.437701 -120.187578
-180.106684 -248.983243 9.927358 -175.368571
-171.054392 -216.627126 -5.722767 -150.434525
-203.451336 -276.590466 19.996201 -195.885201
-104.380680 -144.358788 -12.884207 -99.583905
-144.746003 -181.275391 -14.279715 -127.595535
-143.940653 -300.141942 31.002289 -133.224779
-122.951045 -147.444215 -22.931327 -109.751518
-146.468938 -236.657183 1.792949 -114.937836
-164.861749 -234.311026 -11.420792 -163.997775
-96.203669 -240.442923 5.218792 -100.993977
-157.662271 -223.613613 -1.594226 -155.023631
-157.138257 -223.933706 -10.760472 -156.382652
-157.397931 -226.326558 -3.501352 -156.362045
-203.421960 -284.104895 44.647648 -146.258057
-173.553193 -250.877128 20.515867 -127.329096
-155.515232 -220.111365 3.368399 -153.510403
-162.276152 -229.711767 8.333263 -161.248445
-167.012912 -369.928752 1.217747 -161.082499
-153.830066 -339.330096 13.169033 -147.948049
-148.759340 -394.597073 39.191355 -163.006924
-148.123652 -158.633652 -7.929821 -110.764712
-146.286320 -276.872681 30.909587 -126.947700
-206.972888 -295.766861 2.040372 -207.708365
-108.583769 -311.348619 18.125698 -125.979716
-129.610562 -319.465453 21.872241 -134.722804
-199.073556 -275.165736 -14.278987 -195.225405
-144.521765 -186.320366 -1.308072 -129.257596
-133.457136 -182.117561 -8.216750 -125.629781
-139.183247 -159.805499 -18.331108 -115.932505
-173.374348 -481.023652 16.875663 -196.319400
-115.224204 -165.491907 -2.139108 -113.568797
-163.249901 -224.377945 16.290248 -158.626018
-150.776359 -193.904821 -6.061686 -134.535478
-165.262437 -224.689305 16.578842 -157.984822
-146.416429 -359.391402 46.790223 -151.742349
-153.585101 -215.331084 8.392923 -150.187643
-158.830039 -216.286677 10.402058 -151.149526
-175.608443 -399.821116 60.774050 -172.628868
-155.727405 -351.296932 21.159216 -152.107301
-158.541777 -176.365714 -11.021472 -123.795245
-121.702690 -176.912874 0.068374 -121.333685
-135.543975 -381.059883 2.178286 -154.981157
-213.948160 -301.388161 11.355200 -212.543196
-151.383519 -177.480910 -1.405971 -122.050608
-133.198351 -187.892838 -5.833056 -128.827763
-144.930258 -181.322373 -0.963669 -124.198698
-143.662895 -201.736341 9.048999 -140.273871
-144.861510 -204.494427 2.365455 -140.457039
-149.765198 -208.798148 8.018466 -144.708248
-145.375811 -206.402546 10.725245 -143.691961
-137.233743 -198.194573 6.039862 -136.884058
-114.083482 -153.264414 16.715936 -108.472133
-158.755717 -198.177727 -3.528489 -137.789285
-175.053736 -476.300562 -2.835112 -195.406289
-159.099425 -217.270835 16.119400 -153.032960
-172.378363 -227.597291 -24.008993 -164.348802
-96.752974 -143.415335 0.359615 -96.967395
-146.311026 -260.667851 -11.144377 -122.093663
-162.371953 -199.515703 27.562766 -148.267060
-143.201824 -299.319983 -33.033435 -132.756542
-195.811986 -262.139994 23.967608 -188.671964
-131.901254 -312.486891 -12.471630 -133.316443
-150.040272 -278.343103 1.890661 -128.515012
-130.859317 -187.181479 9.777593 -129.804437
-144.655202 -191.513442 -9.115940 -132.471982
-137.708219 -275.393580 -49.843604 -123.930540
-139.258670 -256.950243 -41.072689 -118.862674
-144.980296 -186.886311 -17.420777 -132.303926
-122.253837 -176.822033 -0.050018 -120.481433
-142.422906 -265.007632 -48.769978 -122.229161
-136.605889 -263.669759 -42.331804 -120.082695
-128.307981 -170.119602 -12.611849 -119.809220
-154.046076 -221.052947 -7.725714 -153.869304
-215.332178 -289.908894 -21.078809 -207.080955
-137.659371 -263.886547 -34.826225 -120.463775
-143.768081 -256.430930 -43.462266 -120.059703
-129.227420 -268.337435 -43.419202 -119.269456
-136.933657 -263.691177 -42.698055 -120.187450
-132.445037 -246.819551 -23.210546 -113.779376
-132.532293 -260.567605 -41.018788 -117.929969
-128.181667 -244.127230 -25.790230 -111.692669
-138.225141 -260.954269 -23.878239 -119.753823
-181.611354 -229.585480 21.365332 -165.352244
-195.661701 -273.742850 15.337839 -193.553090
-159.474766 -181.861847 29.537287 -139.600848
-201.043399 -277.094540 -18.897779 -195.931627
-200.951245 -280.510315 -15.934068 -198.375036
-150.338416 -276.544941 27.559406 -128.065007
-168.209331 -215.242195 7.178946 -150.103528
-189.520868 -267.241684 12.569077 -188.172208
-149.838977 -257.720619 13.025029 -122.267879
-146.795411 -183.081914 11.092209 -127.149913
-187.351666 -267.184427 -8.095374 -186.789709
-164.902350 -216.522438 22.705424 -155.131267
-158.177832 -230.121984 21.604541 -116.489945
-177.554554 -226.877163 26.893970 -164.881075
-115.349443 -187.447006 -15.940721 -90.838935
-161.215071 -189.771981 12.352404 -133.086946
-162.639782 -200.697242 11.446743 -140.344916
-160.277740 -224.086469 9.741363 -155.388862
-165.465681 -233.928987 0.773159 -161.539592
-142.986765 -197.112752 7.509757 -135.672815
-160.602480 -191.696503 14.879489 -135.476079
-143.510243 -203.000844 6.972882 -139.758543
-157.518928 -207.985644 14.190250 -145.471333
-104.620925 -101.790581 -18.690248 -80.690539
-167.677775 -191.046131 14.437840 -135.721069
-124.469228 -99.138559 5.163762 -83.237112
-142.211561 -172.787793 2.591989 -117.562444
-126.460544 -181.655856 -8.471600 -125.563554
-147.920277 -204.120773 16.235024 -144.084952
-152.017380 -268.068249 1.518537 -126.025689
-118.138521 -169.919880 -6.988586 -116.001775
-147.378574 -276.068500 10.189604 -127.034122
-162.642095 -197.855653 -14.787875 -140.278757
-154.247528 -328.059444 0.458098 -144.692092
-163.939688 -297.177855 12.637674 -138.335263
-153.072934 -218.527822 4.983626 -150.615469
-158.602806 -215.222419 15.225699 -150.777338
-207.198838 -296.302972 5.774064 -207.920875
-144.885892 -261.045303 -5.432130 -121.779358
-176.009860 -228.350487 25.744482 -166.088700
-192.266495 -273.977453 -0.944048 -190.336456
-189.049620 -244.233593 19.862802 -174.246155
-189.630939 -271.639818 -6.747037 -190.020389
-185.822042 -262.172824 13.024771 -184.308210
-188.432955 -271.195085 -1.500044 -189.443396
-170.294495 -233.387115 5.917722 -162.141917
-97.434934 -255.526403 -14.028047 -105.888401
-183.820024 -262.253298 -5.081372 -182.244517
-138.780883 -248.195437 -5.732642 -116.092896
-151.148272 -263.268086 -4.754597 -124.324907
-130.568758 -266.046526 -11.662820 -118.984585
-134.248694 -256.898024 -10.296111 -117.344015
-148.997652 -270.768089 -1.475557 -125.929722
-139.466723 -248.504245 -5.212627 -116.391290
-101.234913 -138.384067 14.089209 -96.688374
-171.241202 -236.748404 -3.867851 -164.293639
-122.418201 -171.058087 2.056579 -116.568133
-287.941603 -383.330544 -32.463432 -276.451206
-155.769710 -215.767790 15.079536 -151.324811
-162.227688 -222.902851 11.866057 -156.270635
-153.152812 -213.412599 14.593868 -149.181652
-239.229423 -440.129728 7.190072 -203.807745
-145.961148 -208.416238 8.145524 -144.594393
-179.060570 -306.980734 -42.004675 -145.812391
-131.933712 -182.688643 11.225908 -126.965457
-197.095109 -344.825058 -32.991737 -162.576050
-187.820960 -323.912226 -48.343069 -153.519956
-141.095166 -341.122291 -34.764706 -144.665237
-151.257730 -216.738100 8.359731 -150.846672
-150.916091 -213.745393 11.458266 -149.534420
-188.418347 -253.564267 -23.160352 -182.041680
-136.721150 -189.459706 -3.213001 -130.744916
-165.549178 -227.438304 5.248511 -159.432763
-171.801307 -237.140516 2.634298 -166.122697
-174.030147 -239.883989 2.440740 -167.671278
-181.090951 -259.827972 5.276841 -181.650188
-174.278830 -246.404276 3.751207 -171.948896
-190.728524 -273.788239 2.665291 -191.541069
-197.132811 -271.011368 16.375122 -191.851542
-256.199043 -356.176621 -19.922313 -253.269915
-253.974423 -359.710364 -9.956838 -254.407147
-200.536595 -200.630963 -36.181540 -163.495326
-185.757839 -258.620059 15.533024 -183.556752
-172.269173 -245.064365 3.302848 -170.462254
-173.070176 -245.027849 10.761013 -172.180643
-165.905258 -237.897007 6.328609 -165.905258
-173.242889 -245.001240 -1.825121 -170.422188
-188.340639 -269.353078 -8.021339 -188.477918
-189.803980 -268.705531 -11.500337 -187.702641
-191.276206 -270.622257 -10.185511 -188.829888
-189.728343 -271.333064 -7.896320 -190.060419
-177.274300 -249.651413 -2.526690 -173.620501
-185.382744 -262.676319 -5.355725 -182.457232
-189.158018 -264.502037 -7.375581 -184.287447
-185.243663 -265.409128 -7.110754 -184.596946
-199.001144 -285.933135 0.176962 -200.096057
-191.764529 -274.990697 4.398430 -191.764529
-190.918225 -273.237683 -3.359788 -189.881606
-168.761786 -235.755820 11.778132 -164.240108
-178.709786 -251.988223 12.498091 -176.852352
-170.040232 -237.633326 15.339721 -166.607386
-175.787143 -244.576956 16.454306 -172.782953
-162.142648 -230.813788 8.519794 -159.958372
-177.805468 -245.974483 17.703648 -174.078930
-177.710851 -265.356145 27.341422 -132.920099
-201.647494 -288.665925 -6.129441 -201.647494
-193.857376 -303.512351 18.072981 -149.210918
-181.793021 -299.684377 25.701481 -144.443219
-181.865294 -259.798345 -8.565055 -181.795174
-199.239550 -279.843215 -10.946415 -197.361638
-175.475130 -252.245381 -6.102679 -175.475130
-171.167374 -240.903554 -9.279950 -167.342557
-196.374801 -277.009209 0.804400 -193.025578
-201.886780 -279.375708 17.146509 -196.845894
-166.781554 -230.639302 9.906151 -160.160911
-158.887249 -216.819006 10.946957 -150.628406
-175.156972 -249.553098 -6.961638 -173.169915
-165.833152 -267.932838 13.781440 -130.129797
-149.476913 -212.513529 4.579270 -146.250243
-161.143469 -258.950366 22.268287 -126.028151
-173.846175 -247.816310 -9.480806 -172.314293
-159.589466 -277.869747 5.260284 -131.237764
-143.189582 -293.283996 28.783563 -130.942073
-142.266668 -291.066122 16.429736 -129.999837
-162.974307 -314.770051 26.734570 -143.323307
-172.061910 -243.171326 -10.247004 -170.555308
-200.541950 -286.875817 6.825331 -201.134234
-168.782247 -291.088892 32.185176 -137.961342
-215.139371 -349.579364 25.195224 -169.415621
-150.639829 -301.731817 28.831041 -135.711494
-238.964102 -492.319730 9.038939 -219.385150
-200.405586 -327.639893 15.128462 -158.413644
-250.775515 -335.544187 21.122703 -240.464332
-145.486675 -206.200225 -10.880427 -143.765271
-184.230468 -241.249583 -19.873173 -171.497668
-209.102963 -285.797775 -22.202977 -204.311210
-221.010389 -282.875873 23.858695 -205.458763
-215.056111 -304.345371 -2.862501 -214.412945
-203.290345 -287.357698 -0.247355 -202.289717
-128.467990 -113.931873 11.834471 -90.160800
-174.563554 -321.366976 -2.645550 -148.779159
-196.101638 -300.389528 12.524564 -148.947350
-160.685667 -230.643239 3.470592 -159.191742
-195.132369 -367.831365 -8.578260 -168.889120
-174.918684 -252.342658 3.136259 -175.817586
-181.443398 -248.889541 14.993109 -174.749668
-216.824694 -292.021561 25.529880 -210.176920
-204.593755 -269.058935 20.414849 -191.620480
-250.799290 -354.889126 7.042966 -249.583512
-218.262614 -285.988975 25.572984 -205.605324
-192.939460 -273.082625 8.786285 -190.585665
-197.405873 -273.507473 17.133424 -192.920935
-228.092656 -316.953542 -18.777290 -225.493668
-255.308350 -357.178961 -17.441607 -253.846591
-181.732057 -261.426106 -3.672392 -182.404277
-247.352134 -351.986547 5.774841 -247.352134
-162.493612 -167.776933 27.799090 -133.690095
-266.782673 -375.206208 10.617364 -265.295688
-232.540691 -322.372642 18.039804 -228.968482
-210.283588 -276.244446 17.085305 -195.135221
-201.991911 -266.000843 25.272562 -191.736183
-235.322560 -311.737195 26.165635 -223.791145
-213.674378 -285.575641 9.433186 -199.556536
-218.884309 -299.725011 10.556608 -209.859768
-368.935161 -489.084452 42.760654 -357.217822
-155.299133 -184.999915 28.105456 -139.980344
-129.582154 -142.622078 -25.455780 -110.519320
-208.404221 -294.391466 7.463881 -205.498692
-186.295328 -352.301854 20.019775 -161.579155
-144.587926 -183.960606 23.740887 -134.890240
-221.438177 -301.332791 12.828771 -213.691622
-210.981075 -258.593355 11.397881 -191.108669
-168.353719 -317.272216 5.672395 -145.687781
-264.642716 -278.288117 47.724263 -224.529683
-184.718998 -218.750578 30.029725 -164.171958
-195.646564 -202.244948 25.295710 -155.537501
-218.500553 -303.795741 18.696343 -215.814562
-160.640098 -198.652151 27.396492 -147.184470
-196.973631 -206.964222 32.165741 -161.861783
-210.663421 -239.211156 38.092969 -185.332529
-165.427131 -288.019730 17.095784 -136.034058
-166.303135 -236.724377 -10.947775 -165.801358
-259.862079 -272.309467 46.955311 -219.977414
-187.842333 -229.742699 31.772016 -171.741730
-197.035643 -197.358886 31.967139 -157.997485
-103.705422 -118.062260 -20.989232 -89.337878
-228.609791 -245.324821 33.742273 -191.529257
-167.460404 -217.067674 17.599493 -158.347607
-184.672587 -261.597772 -12.269813 -183.828958
-219.298813 -295.098796 25.891643 -211.630945
-212.275117 -299.481603 -13.616127 -211.404156
-123.795443 -170.616311 9.205276 -121.842356
-192.487080 -359.517183 8.237006 -165.601279
-133.907608 -194.448076 5.825613 -134.791206
-179.497624 -249.829813 -3.485852 -174.890111
-199.106074 -301.030685 23.185152 -150.041028
-261.446269 -363.062968 20.576201 -257.718639
-187.443742 -211.896395 34.475156 -164.057947
-142.808053 -262.435339 4.702485 -121.573018
-168.507219 -244.676757 5.851719 -123.955193
-184.381878 -221.254267 32.187585 -166.704866
-169.016710 -218.379229 25.688213 -159.015022
-168.583212 -200.069139 29.219074 -149.600190
-172.271103 -259.973345 17.303529 -129.673334
-238.304108 -301.176372 36.215098 -223.818571
-162.224952 -270.371647 21.639866 -129.778980
-146.822850 -257.275797 5.764012 -121.229594
-170.513370 -279.041356 26.468168 -134.866418
-204.262898 -277.110560 23.333780 -198.578835
-135.408249 -381.366391 0.746693 -155.032392
-157.625217 -306.210286 32.379503 -139.150651
-150.994538 -201.162649 20.798690 -147.194419
-102.676619 -149.851081 -7.265705 -103.124715
-65.095449 -88.375196 -11.905844 -63.495071
-137.065215 -99.304316 13.767129 -95.512411
-184.837915 -311.363229 34.255934 -148.860343
-178.191515 -321.826771 -20.418283 -150.005486
-171.008540 -242.631014 8.885624 -168.492902
-133.315965 -145.726210 -26.103800 -113.411380
-169.907786 -349.797708 27.288469 -155.911648
-234.583321 -329.069078 -16.027180 -233.255888
-97.492313 -321.727867 21.467124 -125.766054
-162.948684 -361.721447 38.697776 -157.401039
-236.414227 -328.307936 19.806572 -233.652270
-227.547755 -316.049164 0.293001 -220.651310
-142.633313 -379.559830 10.155136 -156.657943
-148.340219 -386.361364 8.042860 -160.410475
-224.093226 -271.019128 17.116380 -195.699521
-203.241990 -254.842253 20.252593 -185.428249
-238.672994 -334.592555 -16.369868 -237.295004
-270.253622 -373.744287 -22.461695 -267.076772
-254.857932 -354.995482 -5.810643 -248.973145
-109.234739 -240.297800 -0.330016 -104.859762
-249.357325 -327.362258 15.628944 -230.983710
-82.080671 -284.710323 -16.067145 -110.037298
-263.622168 -371.340925 -14.103743 -263.275010
-106.465390 -307.466305 -35.874769 -124.179509
-41.923085 -333.191116 -64.927676 -112.534260
-106.563673 -290.454364 -21.776895 -119.105411
-160.970673 -210.408266 23.831384 -154.231498
-124.507025 -314.462580 -71.805974 -131.690882
-238.646986 -322.649891 26.684579 -232.205791
-192.094534 -219.225748 35.061542 -169.059402
-198.265602 -242.092941 33.356086 -181.324050
-17.977838 -12.095174 6.032909 -21.570242
-169.906111 -199.671238 30.785864 -151.498908
-223.322581 -276.423572 36.050492 -206.292944
-166.108330 -266.695214 2.071483 -129.841063
-124.713983 -239.404045 18.478380 -109.235408
-147.748621 -185.958298 24.768707 -136.402726
-136.378738 -192.253054 13.255161 -134.209872
-150.337873 -254.570049 1.851633 -121.472377
-132.797718 -235.550264 3.646686 -110.504395
-135.954202 -231.152819 5.243810 -110.132106
-135.721021 -243.726470 8.502139 -113.834247
-120.038304 -243.216749 20.384061 -108.976516
-126.599958 -307.451218 -60.187846 -130.215353
-169.647890 -246.145589 45.203347 -124.738044
-21.975288 -36.070797 5.726496 -21.091453
-104.923446 -230.448864 22.523124 -100.611693
-91.756200 -131.353998 -10.266371 -89.843714
-140.640708 -336.580793 -45.385536 -143.166450
-131.009916 -261.003328 1.887997 -117.603973
-132.313335 -230.904142 -4.241292 -108.965243
-129.499815 -236.902261 27.137842 -109.920623
-130.846636 -226.656513 -10.162452 -107.250945
-128.241493 -222.721873 1.620021 -105.289010
-120.056680 -222.994721 -17.475098 -102.915420
-143.017398 -200.407123 14.234203 -103.027356
-124.549336 -223.147435 -19.000774 -104.309032
-115.040499 -175.653959 -7.830643 -87.208337
-114.834200 -136.839803 -5.701524 -95.083384
-123.407206 -244.293615 -14.970462 -110.310246
-137.025600 -275.544705 -56.969844 -123.771091
-149.314007 -209.934572 14.274269 -147.028933
-124.834525 -203.269108 -8.846945 -98.431090
-102.249161 -177.012534 0.450265 -83.778509
-117.258315 -289.434282 -14.503394 -122.007779
-122.355353 -270.560852 -4.917453 -117.874861
-147.528601 -313.288390 -41.665709 -138.245097
-143.809070 -267.082205 -11.908700 -123.267382
-122.373577 -296.616280 -22.822472 -125.696957
-122.466103 -289.579931 -15.055687 -123.613810
-137.546031 -342.457661 -56.417939 -144.001108
-120.684722 -294.113719 -32.629761 -124.439532
-76.426092 -316.932264 -24.675232 -118.007507
-31.007165 -299.603077 -58.102250 -99.183073
-99.320395 -291.122289 -20.965549 -117.132805
-125.760838 -311.523780 -35.320431 -131.185385
-94.148480 -271.565538 -3.154842 -109.714205
-236.417061 -288.967180 33.429700 -213.182135
-79.838609 -280.403936 -7.508395 -108.072763
-107.844760 -295.678550 -19.027124 -121.056993
-109.926073 -282.872694 -11.243582 -117.839630
-102.530167 -269.246574 -3.130585 -111.533022
-117.357949 -261.103101 -10.017854 -113.538315
-129.391160 -113.163550 -10.538784 -90.218569
-107.587528 -263.029326 -3.019237 -111.185056
-72.941638 -292.835611 -44.683380 -109.733175
-79.378338 -239.887018 45.161355 -95.779607
-87.058864 -108.707041 16.951256 -78.303261
-246.196461 -323.809191 32.189098 -235.917032
-114.961043 -138.407257 21.840490 -103.274392
-184.926954 -230.380427 30.287850 -170.899942
-211.945141 -277.216460 29.288453 -201.887725
-191.073030 -238.689301 11.548610 -170.670643
-163.601195 -213.649096 16.191125 -152.522906
-274.230275 -388.172811 10.361453 -274.827408
-122.891451 -259.654268 -11.059046 -114.763716
-92.650377 -267.778588 3.274209 -108.128689
-109.936463 -247.868765 -3.384680 -107.341568
-223.411282 -256.007034 19.095399 -188.932139
-226.221621 -274.124888 30.137586 -202.601441
-222.452391 -303.685740 -3.136714 -211.824852
-236.532533 -305.638967 13.130792 -215.549610
-189.139942 -247.742552 10.324255 -175.480618
-204.572244 -233.439213 8.448653 -169.255908
-225.622614 -307.389145 -3.355374 -214.507123
-246.285525 -320.717238 22.845896 -228.671398
-198.013942 -333.705692 2.190335 -159.515890
-185.400830 -304.254270 9.589884 -146.896530
-184.006898 -312.412872 -9.478326 -148.925931
-183.240103 -311.552701 8.036962 -148.437841
-213.090509 -282.073921 33.113767 -148.549329
-139.015179 -186.039507 19.512099 -132.813416
-205.777079 -276.899217 17.776346 -144.802889
-196.817910 -218.005049 60.201531 -124.446888
-216.284931 -285.207366 0.927315 -150.447689
-208.987488 -291.981810 22.212491 -150.290790
-97.192794 -281.467723 8.770133 -113.598155
-264.222801 -323.463056 42.546168 -243.369853
-136.588392 -199.112802 3.111940 -137.264171
-141.531303 -295.055352 23.229849 -130.975997
-235.951342 -312.669544 26.168792 -225.707025
-146.064599 -284.664015 17.946920 -129.218584
-166.834405 -220.411350 21.377389 -157.084601
-185.253856 -265.588370 -6.814717 -185.753435
-175.176019 -227.679429 21.174409 -163.083500
-121.075290 -128.532982 23.508048 -100.083788
-151.186544 -261.663345 17.874824 -123.854967
-183.091862 -233.119539 26.463391 -169.267899
-187.865151 -242.147081 25.988409 -175.070207
-170.088498 -232.869933 10.292063 -163.229823
-176.386603 -224.793447 26.571240 -163.429384
-186.161614 -255.582225 56.265935 -132.523152
-170.717375 -232.991221 9.511088 -164.936385
-175.530093 -253.250479 2.744041 -175.636716
-168.854808 -211.425063 22.864993 -154.236692
-152.312373 -184.684184 27.046685 -137.827108
-186.161021 -258.761534 -17.424928 -183.259744
-158.381764 -212.233610 21.163532 -151.815508
-191.062905 -234.600473 17.453113 -171.220605
-171.034694 -227.661416 23.070513 -163.790312
-190.093521 -251.840796 5.918284 -175.064003
-159.628444 -230.029374 6.459163 -159.986788
-161.905934 -234.441686 -2.208809 -162.799688
-168.749004 -208.498479 28.544114 -154.760843
-219.693834 -254.005288 14.478482 -181.651350
-209.612559 -196.244375 36.504417 -166.798447
-150.339036 -187.564293 12.865493 -130.968499
-165.304530 -202.466124 28.487778 -150.787774
-166.892808 -203.719252 19.566625 -145.813836
-183.783669 -241.394577 21.565445 -174.183068
-163.819795 -182.370604 30.900364 -141.705091
-68.765563 -92.778350 -12.472942 -63.917468
-57.378054 -221.397713 17.008837 -83.632730
-80.857688 -224.830819 -10.514682 -91.706552
-102.663560 -230.612691 52.939382 -99.982875
-82.673804 -219.431521 41.691236 -90.631598
-178.616689 -243.618445 20.506127 -173.703868
-89.443211 -260.758660 14.672166 -105.060561
-126.941471 -139.220658 21.274653 -106.130163
-120.746648 -267.963870 -25.026194 -116.613155
-114.534941 -280.717603 31.892913 -118.575763
-121.969287 -163.876585 17.612372 -116.328317
-98.530898 -258.393169 31.831662 -107.077220
-77.661065 -223.810850 38.866018 -90.441575
-74.369573 -109.512645 -7.546640 -73.325476
-78.801866 -207.180932 -56.718706 -85.794840
-110.773836 -151.316742 -15.403703 -106.259495
-135.700886 -160.531334 25.338030 -120.645761
-92.104106 -232.486151 14.888386 -97.377077
-43.398105 -61.939915 -8.766630 -40.247171
-75.344821 -224.366220 -3.341069 -89.913312
-93.879171 -247.942811 47.071878 -102.546595
-82.077722 -218.867193 -15.234979 -90.283475
-129.894137 -217.345381 -14.050758 -104.171855
-88.386790 -228.415329 6.657578 -95.040636
-81.309478 -236.997126 15.474577 -95.491981
-54.147439 -208.018544 12.602557 -78.649795
-48.252250 -168.763913 18.396813 -65.104849
-49.636752 -208.271438 17.319235 -77.372457
-33.590732 -56.935521 0.426059 -33.902316
-54.786698 -191.918527 23.162025 -74.011567
-68.097584 -93.574407 11.766462 -67.692502
-31.231767 -104.338928 12.997185 -40.671209
-52.513815 -174.749266 13.788198 -68.178924
-88.953979 -271.937046 1.868939 -108.267307
-47.679452 -160.262290 10.590518 -62.382523
-69.462094 -103.325041 -6.776113 -68.638230
-15.354154 -10.209148 5.884966 -14.824624
-93.504782 -278.879271 -4.291104 -111.715216
-75.312500 -221.591223 49.808082 -89.071117
-28.091924 -47.187395 3.953178 -33.210629
-82.437154 -248.008810 4.280486 -99.133789
-84.572551 -283.967298 7.942485 -110.561955
-66.174539 -208.877518 15.846809 -82.515617
-81.090168 -244.944878 4.967031 -97.810514
-90.675893 -254.212772 1.239503 -103.466600
-92.803274 -244.180227 5.358001 -101.095050
-95.425317 -207.316363 -7.925703 -90.822504
-91.634281 -250.634573 1.317844 -102.680656
-86.107857 -252.101025 1.798099 -101.462665
-94.178188 -248.552720 2.895078 -102.819272
-89.673788 -245.506249 2.578182 -100.554011
-94.487094 -247.526728 3.913208 -102.604147
-104.266253 -259.169149 -2.053575 -109.030620
-102.561826 -254.144010 2.376905 -107.011751
-99.183724 -255.857875 -0.404949 -106.512480
-94.767083 -127.986181 14.866114 -89.677304
0.330770 -6.629062 3.285154 -7.812140
6.358473 7.860905 3.068031 4.046940
-100.622930 -261.233195 -3.344625 -108.556838
-53.903379 -179.763220 10.459351 -70.099979
-106.089151 -273.347656 -13.008589 -113.831042
-69.068363 -283.186447 -32.630483 -105.676443
-46.076699 -298.269794 10.660380 -103.303948
-61.546276 -309.423175 -33.292950 -111.290835
-115.831826 -115.187619 0.164542 -83.289358
-94.681622 -253.910941 -0.782916 -104.577769
-95.672308 -257.711254 -0.306335 -106.015069
-108.295247 -260.802580 -0.496963 -110.729348
-99.638761 -254.199872 -0.062084 -106.151590
-110.587464 -263.675774 0.922352 -112.278972
-110.981856 -283.375249 -9.509318 -118.307131
-124.749989 -273.489518 -13.625653 -119.471852
-144.105686 -271.948550 -14.709916 -124.816271
-108.909947 -259.334182 1.662211 -110.473239
-109.268828 -261.667305 -1.347081 -111.280840
-165.922569 -279.017485 9.865590 -133.482016
-114.997374 -263.368527 1.321248 -113.509770
-125.527718 -267.659298 0.434967 -117.956105
-153.080688 -311.031883 35.127797 -139.233771
-187.916289 -258.959233 19.666962 -183.916573
-108.513410 -211.665911 -34.966227 -96.053796
-135.630459 -273.549515 4.880899 -122.753992
-113.510219 -217.615860 37.615256 -99.337824
-112.302693 -221.002199 40.717820 -99.991468
-90.360736 -160.535257 10.050971 -75.268798
-118.136975 -216.319260 -20.025889 -100.336870
-110.170389 -212.060052 -23.070109 -96.669132
-122.712830 -247.448224 -16.482859 -111.048316
-117.073287 -91.322776 -11.904024 -81.152186
-114.071860 -255.869634 4.633865 -110.982448
-112.658820 -128.498917 -10.267876 -92.493913
-123.800541 -293.889844 9.571125 -125.307116
-129.493025 -253.640940 6.621914 -114.940189
-122.015134 -281.802602 -13.696449 -121.145321
-115.179879 -123.670882 -18.062775 -93.605894
-95.838456 -103.330742 -14.995103 -77.208478
-115.967884 -130.245268 1.519284 -90.873856
-226.425151 -322.657385 7.929620 -227.063632
-73.534449 -143.990055 23.322495 -65.257351
-118.631819 -193.792113 -13.110823 -93.727180
-100.817881 -220.218049 -16.263285 -96.310779
-100.423266 -159.999683 12.426115 -78.126885
-93.679938 -165.738268 -7.149343 -77.825462
-112.705387 -163.717528 7.625975 -112.294548
-113.786158 -189.089844 -13.517563 -90.862801
-106.573584 -170.742016 2.073741 -83.194680
-113.502799 -192.026173 -7.026541 -91.658691
-82.060668 -122.893963 4.153064 -82.200028
-125.573148 -149.614714 -14.577994 -108.221391
-99.460205 -183.587716 -19.621273 -84.914376
-98.008030 -245.445075 -29.401533 -103.035932
-133.892111 -266.952358 -5.771407 -120.253341
-187.935443 -267.898499 -3.850977 -186.064923
-133.048034 -167.843594 2.527404 -117.170138
-118.770662 -143.602209 -11.342827 -102.551458
-101.380888 -167.096956 -6.634327 -80.543353
-145.250212 -343.897348 41.143448 -146.744268
-65.503733 -176.946323 63.432327 -72.735017
-95.355562 -245.344259 15.584102 -102.209946
-101.845438 -148.798877 7.131863 -101.435224
-83.729199 -201.328512 -4.511979 -85.517313
-101.373850 -145.767359 9.794141 -100.562009
-137.355801 -385.043516 30.623379 -156.719795
-95.131851 -239.224858 0.530773 -100.307013
-101.370229 -244.987923 -3.237233 -103.907446
-99.880271 -121.128280 19.564701 -90.439010
-119.879109 -149.038315 21.718664 -109.014164
-100.768889 -250.910238 3.734480 -105.503738
-109.001197 -257.082452 2.170153 -109.825094
-96.597444 -247.596707 5.102330 -103.258245
-106.881575 -256.389245 3.447067 -108.981246
-89.086831 -241.208852 5.372706 -99.088705
-101.124956 -252.098830 4.636850 -105.967136
-96.064952 -246.325465 4.285463 -102.717125
-108.171166 -256.721484 3.354809 -109.467795
-100.218090 -252.141857 3.232708 -105.707984
-84.056865 -210.007327 1.659710 -88.219258
-87.015716 -257.310654 2.356653 -103.297911
-86.876746 -246.771146 2.603933 -100.094368
-78.342680 -232.155566 6.042546 -93.149474
-81.442616 -234.595265 5.784312 -94.811364
-74.749000 -227.750119 7.190932 -90.749736
-74.689067 -230.659976 6.646765 -91.604713
-78.326623 -211.967661 10.588037 -87.088285
-72.740919 -223.271495 8.319333 -88.803724
-92.710152 -237.644720 2.075953 -99.106462
-81.114793 -203.709161 11.049051 -85.447186
-84.649279 -222.291740 1.550117 -92.082306
-105.498203 -229.104228 -14.443506 -100.380729
-81.651913 -207.656779 -4.136222 -86.792608
-84.445917 -229.831966 5.372506 -94.283365
-67.434844 -82.148501 14.760019 -58.854959
-57.372843 -73.753564 12.554702 -50.979624
-89.145546 -133.344232 1.691304 -88.949347
-96.209642 -143.490959 -0.541410 -96.861834
-164.259558 -235.670811 8.143053 -163.341362
-90.517663 -133.336373 6.442622 -89.661134
-97.131430 -216.851070 34.565566 -94.194750
-123.273961 -180.352391 4.070152 -123.749184
-133.697797 -244.701013 11.707201 -113.519643
-142.755825 -207.050507 5.216818 -142.930763
-81.052678 -149.817556 39.008464 -69.261070
-65.361547 -179.718280 -13.335133 -73.523948
-165.742180 -238.444066 7.730125 -165.937915
-55.115034 -84.094827 -1.193000 -54.105833
-75.098992 -179.283698 0.463926 -76.314807
-140.199733 -180.127323 22.626101 -130.758311
-83.272076 -110.011719 14.731855 -77.277604
2.284424 -183.212654 -8.055172 -54.278469
-67.948572 -70.938233 15.420848 -54.362960
-87.859080 -122.617282 7.253949 -82.928958
-86.848662 -105.100129 17.667852 -76.615775
-93.123755 -182.088711 -5.907852 -82.563740
-118.322252 -156.427526 18.487263 -111.540629
-89.100838 -208.493637 3.076650 -89.278342
-147.885117 -207.280099 14.730766 -145.335565
-76.565454 -124.602279 44.437683 -60.350320
-63.996371 -122.726449 10.191524 -56.016846
-104.636803 -148.640183 11.754293 -102.375976
-60.248838 -133.558993 -6.314842 -58.142349
-175.920466 -218.041672 29.412520 -161.762721
-92.718366 -138.586153 -1.945289 -93.252703
-86.685597 -129.031711 5.510682 -86.570093
-115.606352 -176.531850 -9.792942 -87.641460
-77.304689 -117.278674 0.878023 -77.943013
-114.389819 -188.573388 -3.835566 -90.888962
-82.909275 -122.294803 7.549895 -82.089805
-75.303628 -203.888865 15.431410 -83.757748
-79.421290 -217.436860 8.324563 -89.057445
-99.676438 -157.520525 1.827418 -77.159089
-88.377676 -146.301503 12.844106 -70.403754
-69.528080 -217.471126 9.534083 -86.099762
-75.816631 -227.309583 7.158280 -90.937864
-81.584324 -193.323470 17.279793 -82.472338
-74.152153 -222.167666 8.175306 -88.895946
-68.875022 -210.412975 11.346438 -83.786399
-69.583374 -102.525160 7.767791 -68.330937
-67.646494 -207.482903 11.817216 -82.538819
-70.924891 -224.067330 8.122531 -88.497666
-42.176387 -80.009421 82.820183 -36.655742
-80.756839 -156.785879 17.702115 -71.262815
-66.657037 -203.331923 12.816211 -80.996688
-115.416613 -168.438340 6.339037 -115.390151
-78.898140 -200.879604 12.268474 -83.933323
-63.387106 -93.629600 8.283857 -62.577960
-96.572735 -99.782456 -20.125133 -78.530559
-78.173896 -155.521224 33.739119 -70.108536
-112.990566 -163.187990 9.691134 -111.902398
-95.210785 -165.107007 11.841347 -78.095338
-72.763949 -87.147991 -15.704707 -63.148615
-40.225105 -64.413017 4.082212 -42.616778
-117.461207 -172.890381 1.707500 -118.144574
-100.662075 -114.647808 -20.596133 -86.493909
-167.357279 -300.053607 59.472688 -140.223266
-96.832388 -115.018509 -19.440344 -85.031571
-69.862388 -220.835685 9.561714 -87.209422
14.179282 15.742670 1.807896 13.056466
-71.709958 -177.410510 17.842370 -74.736140
-66.047280 -195.089706 14.444530 -78.341096
-68.978900 -205.432888 13.167605 -82.323537
-72.008659 -206.855426 11.292580 -83.659226
-72.789468 -230.283299 35.016171 -90.921830
-79.918629 -249.551803 7.167429 -98.841130
-69.634613 -226.287981 16.868574 -88.776778
-68.829541 -225.130251 10.139412 -88.187938
-63.242198 -246.515410 52.105039 -92.927282
-66.514352 -227.573531 24.659390 -88.226365
-63.933808 -273.481491 13.319401 -101.224589
-81.877979 -245.540232 4.692993 -98.225463
-50.097178 -146.630440 -15.644509 -59.018285
-65.466007 -192.526189 7.394518 -77.397659
-40.098620 -149.655466 5.363019 -56.926226
-84.228686 -108.812831 15.652639 -77.152110
-72.455031 -103.913948 -9.859615 -72.552774
-216.409122 -307.233344 -10.648242 -216.408788
-53.633355 -84.756106 -0.281024 -54.349499
-97.940883 -145.988893 -1.766226 -98.512343
-70.712322 -107.993727 -2.666184 -71.641143
-22.924180 -42.161755 0.338484 -23.183727
-52.404089 -216.313453 10.885527 -80.615262
-80.096730 -223.341405 -15.660099 -91.031441
-55.956716 -201.324628 9.782672 -77.184403
-92.551878 -117.067572 -17.352153 -85.014650
-71.040340 -234.504373 10.573880 -91.663414
-48.427916 -181.208686 17.275703 -68.890981
-82.098120 -224.405255 30.963118 -91.951013
-97.254546 -236.564263 25.623886 -100.145643
-77.231164 -223.150947 -14.955186 -90.114633
-41.775187 -39.959226 -10.805212 -30.850047
-73.716642 -229.589581 -12.355380 -90.991867
-77.989594 -224.374913 -14.016061 -90.709352
-80.887483 -214.300064 -18.365172 -88.556264
-78.442978 -204.167696 -24.818187 -84.783202
-74.227527 -229.530140 -10.608050 -91.127300
-98.578744 -213.674370 -19.253977 -93.675934
-62.436974 -233.130792 -0.684303 -88.670330
-89.990411 -227.069242 -17.080998 -95.117896
-75.429693 -114.727957 27.504077 -57.047295
-42.604390 -166.960477 15.998435 -62.869460
-121.010748 -201.405456 -27.093189 -96.724861
-89.660917 -209.435602 -15.172230 -89.728956
-80.126106 -224.518319 0.974422 -91.393327
-109.823515 -128.636553 -21.618254 -96.276339
-109.000954 -193.503744 13.437149 -90.751409
-85.005662 -92.829839 -18.286673 -71.186419
-139.036568 -202.455422 -3.400587 -139.697457
-96.459195 -106.074278 -20.115007 -81.453390
-116.540985 -171.684292 0.836994 -117.256471
-57.002912 -86.058547 -6.535166 -60.150690
-82.418884 -236.994218 -5.472869 -95.823930
-111.186849 -116.349350 47.244011 -68.260860
-119.301854 -152.122115 -19.866658 -109.193165
-134.651583 -212.185406 78.075665 -104.051097
-131.783925 -175.144227 -19.404623 -125.137946
-80.506846 -117.337332 -8.445853 -79.199074
-77.042652 -105.929525 -6.690453 -54.891653
-67.982196 -85.310155 -8.032338 -56.541386
-63.043554 -104.944758 46.126045 -50.396493
-65.854600 -97.481767 13.812151 -49.000910
-77.519324 -129.538283 45.124213 -62.117282
-81.837632 -144.893779 23.440306 -68.019423
-61.686428 -115.172776 40.277274 -53.057761
-78.281980 -114.465692 8.659174 -57.824301
-58.380306 -70.157972 -13.388310 -50.029254
-75.989702 -185.623503 3.954359 -78.483962
-83.461724 -117.743620 -11.273313 -80.629046
-75.188954 -114.476796 13.216747 -56.899725
-88.061167 -102.286366 -4.385282 -57.104260
-68.537047 -176.541722 -3.168611 -73.523631
-77.445731 -74.503545 -1.661612 -50.130596
-84.405303 -174.077867 -30.995034 -77.544951
-71.809636 -178.432616 4.315498 -75.072676
-74.612940 -162.514570 -2.139010 -71.138253
-82.970212 -203.533844 -4.384850 -85.951217
-68.033170 -61.923956 10.005381 -48.997026
-71.125902 -146.082666 7.479602 -65.162570
-82.795433 -126.108533 8.858329 -62.671190
-70.830468 -162.105042 5.653847 -69.880653
-71.674310 -150.831211 6.456809 -66.751656
-115.126383 -150.645151 -8.941535 -105.363443
-73.488132 -165.608467 3.582729 -71.728980
-72.621985 -169.428064 3.778473 -72.615015
-84.373168 -199.164977 -13.485087 -85.061443
-75.964916 -186.120091 1.933323 -78.625502
-82.770900 -219.941005 -9.071874 -90.813572
-68.481962 -78.895770 -6.972375 -52.167409
-83.133522 -195.066875 -30.132064 -83.460119
-66.549612 -77.699890 -7.439944 -51.466281
-63.111858 -77.394406 -9.532084 -52.000755
-75.891853 -189.376961 0.868198 -79.580644
-95.322772 -219.985263 -15.507767 -94.592411
-78.266369 -198.325777 -0.517380 -82.977644
-88.634205 -227.339212 -12.846048 -94.792025
-74.579386 -182.214648 0.867977 -77.038210
-81.522829 -196.977581 -1.945655 -83.550123
-76.186117 -188.041574 0.195411 -79.268307
-82.896723 -202.362553 -4.391398 -85.577783
-49.623330 -212.665512 -8.484921 -78.686653
-81.235672 -173.508098 6.559393 -76.423131
-66.558257 -146.335997 -0.693172 -63.868276
-88.513086 -228.247882 -5.715675 -95.028291
-80.226897 -204.567620 -1.092981 -85.438355
-83.432293 -216.057312 -4.768484 -89.846881
-80.604518 -212.517552 -6.719314 -87.936621
-79.993589 -209.317045 -3.336726 -86.793190
-85.387852 -201.912643 -5.638782 -86.190149
-88.607778 -232.336135 -10.849166 -96.283174
-95.720184 -235.836785 12.412615 -99.467091
-98.231130 -210.379725 -2.445430 -92.583257
-84.390136 -197.649976 -2.094254 -84.612034
-85.111380 -212.508527 0.653071 -89.285972
-68.142580 -222.370407 -5.362756 -87.153896
-82.954918 -195.817741 -2.029108 -83.631798
-69.350523 -91.677932 -5.894027 -59.914704
-69.436020 -97.560635 -10.446986 -65.595355
-126.345751 -179.758112 2.132124 -125.374189
-68.966144 -88.435337 -12.096516 -60.700002
-72.978043 -106.536786 -7.498734 -70.729302
-100.107489 -220.043068 16.794197 -96.045167
-63.279410 -95.834183 -5.256438 -62.914567
-70.825423 -86.226718 -6.295902 -56.550828
-66.570385 -102.176191 -1.704096 -66.808080
-71.577641 -103.822527 -3.920416 -69.359698
-108.639711 -157.359297 2.888712 -107.115013
-50.407455 -78.551620 -4.111229 -50.207108
-105.243419 -153.006643 -0.809497 -103.154962
-80.679043 -120.468495 -5.004624 -80.729883
-87.606566 -197.276546 38.367450 -85.464934
-97.714498 -212.148103 4.151991 -92.958780
-88.641063 -188.743699 9.295889 -83.215428
-97.201076 -135.216965 9.341019 -92.458236
-144.632483 -201.008545 10.759812 -139.335526
-140.956003 -201.288338 -5.482261 -102.673303
-108.286103 -146.401420 3.104096 -99.270167
-87.945155 -127.080901 5.282424 -85.218473
-105.585813 -154.643560 -33.326197 -78.068812
-116.236585 -179.778815 -5.300582 -88.804620
-98.985030 -138.316700 -9.492155 -94.063743
-146.816870 -260.852186 22.703402 -122.300717
-147.431877 -206.043278 6.457248 -106.042547
-96.419828 -141.083251 3.668726 -94.703455
-129.514822 -211.287685 11.071882 -102.240752
-116.430354 -227.510609 38.499788 -103.182289
-144.995907 -231.890622 -3.067091 -113.065959
-93.107554 -174.856210 48.163916 -80.389129
-104.643336 -155.056462 1.572089 -105.299405
-152.536151 -177.507378 3.624288 -121.330608
-138.131674 -218.822403 32.488004 -107.086223
-176.075575 -235.594580 28.025998 -123.501047
-165.401794 -226.253219 21.444011 -117.496504
-158.129452 -222.798305 11.982373 -155.723654
-171.136511 -235.831556 1.535641 -162.994840
-144.310956 -207.369271 6.181912 -143.731594
-130.334991 -185.469626 6.367901 -127.651656
-144.661072 -207.567840 6.089724 -143.621179
-161.512030 -192.284769 12.051006 -134.619815
-181.895778 -247.546216 -20.571317 -176.189221
-131.233898 -244.271571 -18.768576 -112.651641
-154.386494 -211.927779 6.239375 -147.303846
-134.643718 -188.189775 13.253969 -131.704522
-171.030360 -229.828866 11.707928 -161.484681
-174.452664 -233.539512 22.177734 -167.685669
-144.378033 -194.743026 2.824532 -135.681891
-160.868546 -223.790259 15.099201 -157.690350
-128.351905 -250.322021 -26.694150 -113.602178
-111.392720 -241.776598 -50.525128 -105.950795
-156.214106 -246.516885 -19.138932 -120.819297
-200.103952 -263.972212 -26.644880 -190.260931
-85.154690 -197.944771 -1.846703 -84.929838
-114.475816 -160.633415 -9.704885 -112.213628
-188.090143 -255.383152 -19.736838 -180.953155
-162.463022 -225.064846 -16.529876 -159.122703
-171.869110 -237.238429 2.684673 -164.438942
-187.136163 -255.307176 -19.236483 -180.665762
-144.930388 -226.436124 -15.686514 -111.409954
-88.703211 -213.928923 -13.462108 -90.789640
-102.043060 -249.069998 -16.748484 -105.333917
-83.835750 -208.546888 -9.245170 -87.714792
-92.205801 -218.876061 -15.028982 -93.324558
-143.576814 -203.436275 0.795104 -139.903602
-136.513809 -190.084563 6.281653 -131.113410
-86.911954 -193.803591 0.004928 -84.214663
-82.331279 -207.730231 -2.465895 -87.018453
-83.322648 -198.283410 -1.754777 -84.481817
-91.695039 -224.402603 -16.750098 -94.829292
-85.135889 -221.985861 -8.197201 -92.136525
-68.773260 -155.412616 3.197895 -67.255763
-85.463190 -126.437161 -2.686631 -85.177423
-80.578568 -193.874235 -2.052806 -82.335841
-71.868675 -174.188603 2.708614 -73.817183
-83.882541 -213.195748 0.206787 -89.123487
-85.186318 -198.683608 -1.476998 -85.160978
-101.679200 -147.682008 -0.176032 -100.293959
-96.708593 -136.637188 -11.235121 -94.221692
-75.590946 -184.146352 -0.718211 -77.921190
-94.396768 -138.742692 -5.686827 -94.108097
-84.990785 -232.276543 1.823374 -95.180198
-81.337270 -223.533190 4.126639 -91.461138
-93.648308 -202.993271 2.985046 -88.992474
-83.902821 -222.600808 2.626362 -91.951089
-96.656815 -254.899220 -1.128414 -105.466810
-87.798854 -232.518372 2.836707 -96.095168
-101.310311 -202.491015 3.224872 -91.140398
-131.789956 -207.256518 -8.412330 -101.713942
-89.998091 -193.491325 2.818585 -85.046825
-94.433848 -195.550573 3.218122 -86.995326
-82.232316 -122.112895 -0.450126 -82.131447
-86.537289 -203.897555 -0.315519 -87.130453
-130.666533 -164.424555 -19.048012 -118.052777
-84.515374 -114.619432 -13.487709 -80.445539
-151.779562 -205.138400 -10.981201 -143.951973
-159.712986 -222.866896 -13.022140 -156.784528
-129.266149 -150.572158 -14.275299 -106.703154
-171.101017 -245.222264 -7.154165 -171.243589
-119.346036 -158.533638 -17.955689 -113.376742
-148.932281 -197.834115 -13.647160 -140.717753
-112.854241 -219.490779 -19.319914 -99.703506
-135.577373 -220.180956 -21.804042 -106.727499
-126.731245 -212.482015 -16.524526 -101.763978
-107.706469 -180.388477 1.733327 -86.428484
-107.723547 -267.312970 -8.988020 -112.510955
-100.107086 -271.894594 5.482912 -111.600504
-112.876424 -238.960484 -17.303291 -105.551072
-102.721573 -217.989417 -2.411186 -96.213297
-101.888399 -195.304309 6.166055 -89.157812
-122.614123 -221.319423 -8.817422 -103.180064
-79.067258 -237.968631 2.539451 -95.110766
-97.834804 -138.149880 -5.649535 -92.985295
-95.237379 -256.726102 7.651690 -105.589044
-83.669194 -243.352474 3.621985 -98.106501
-133.512241 -238.904036 -3.009121 -111.724883
-100.809388 -244.320981 2.387866 -103.539111
-93.871433 -257.535096 2.521214 -105.421959
-88.148100 -254.482756 3.770628 -102.789257
-104.426577 -244.973394 1.406207 -104.819991
-92.604953 -123.843898 -14.825501 -86.819465
-109.781961 -135.670501 -20.259602 -99.234437
-104.271979 -150.316083 -6.198099 -101.735987
-102.202268 -242.249670 0.363082 -103.335581
-84.244729 -92.130385 4.821599 -62.856378
-72.116584 -75.874778 -15.892769 -57.954636
-83.646050 -210.069196 4.116416 -88.114574
-91.893017 -233.343388 3.767838 -97.570922
-94.937534 -243.667400 3.884533 -101.581480
-89.041201 -248.728540 5.625824 -101.330922
-96.683464 -264.455638 8.177706 -108.341730
-89.638872 -256.642746 6.285327 -103.884485
-82.206112 -245.749344 4.006732 -98.386637
-88.434130 -252.473548 6.223661 -102.272304
-81.491859 -243.051571 3.715315 -97.363029
-82.631814 -239.840705 2.986113 -96.741756
-78.727927 -232.883902 6.098200 -93.483549
-89.887165 -216.526476 9.299945 -91.924092
-85.732643 -231.917206 4.328095 -95.294955
-98.149744 -243.866972 4.921865 -102.605015
-89.149752 -238.227481 3.285901 -98.213170
-81.837245 -242.598343 3.433350 -97.330677
-86.306934 -192.563519 0.598654 -83.661136
-85.200220 -227.377346 -11.506159 -93.773270
-90.800342 -217.546046 -8.754158 -92.503916
-83.907642 -229.801187 -2.135216 -94.112649
-77.360011 -168.646776 21.694512 -73.802036
-87.057452 -209.134368 -0.640270 -88.857546
-84.840487 -206.259037 0.834476 -87.329857
-82.185360 -205.341756 -4.964142 -86.258135
-84.639806 -224.860945 -15.721425 -92.850225
-78.502812 -240.656038 3.967562 -95.747655
-76.689113 -236.676394 2.906275 -94.009652
-80.840585 -235.375827 0.231000 -94.864924
-80.582100 -228.768990 1.992528 -92.805327
-85.776560 -241.823898 3.735328 -98.280137
-81.642183 -242.928151 3.537850 -97.371100
-84.215973 -241.167515 3.705698 -97.615047
-83.966745 -209.825011 8.304107 -88.137527
-82.753600 -219.945091 8.640851 -90.809607
-91.601064 -203.057112 2.442213 -88.397453
-80.531853 -111.838724 -11.850100 -76.994318
-84.795993 -184.962761 2.622227 -80.927626
-50.257265 -103.968320 -23.889370 -46.267675
-93.733520 -139.381269 -2.317668 -94.029860
-98.196908 -143.187527 -7.016762 -97.452270
-76.642058 -106.344605 -11.512699 -73.024332
-88.475232 -153.881676 5.141197 -72.707072
-71.900172 -125.383470 -0.038330 -59.185093
-61.266790 -100.629100 -24.163418 -48.568767
-88.832367 -211.536193 12.561508 -90.110568
-77.626232 -235.517111 1.210739 -93.943003
-84.375905 -219.816350 10.718891 -91.257676
-50.114563 -78.517689 -3.544442 -50.107876
-95.878051 -185.729181 10.589083 -84.482170
-73.626944 -103.422150 -10.715245 -70.514811
-98.377207 -223.469913 27.711124 -96.554136
-75.118534 -105.993079 -10.621798 -72.242204
-65.347031 -108.085386 -15.880764 -52.029725
-89.387359 -128.937086 -9.379260 -87.830808
-60.873234 -123.597887 -9.182038 -55.341336
-68.955275 -155.735325 6.240772 -67.407180
-67.717951 -121.366718 -9.768941 -56.725401
-69.893036 -162.390200 4.074802 -69.684971
-64.910804 -123.629380 -2.405053 -56.562055
-57.705914 -112.234316 -15.832411 -50.982069
-73.925169 -132.958812 6.458403 -62.065194
-71.907597 -151.863403 6.152716 -67.131300
-103.234013 -275.503338 36.210150 -113.621205
-87.293430 -201.155715 12.030043 -86.534743
-58.883722 -90.569630 -3.929470 -58.852387
-89.513203 -205.153958 16.465855 -88.400148
-71.733125 -127.260930 -20.205112 -59.698216
-112.954221 -145.492213 -65.387133 -77.533930
-27.571619 -194.301263 -44.850810 -66.561865
-74.433545 -231.711404 -4.785747 -91.843485
-154.443222 -222.294947 -7.470652 -154.547590
-100.827937 -242.953849 -14.593160 -103.134536
-71.005746 -205.299117 26.353480 -82.891459
-92.960720 -253.078338 -6.895274 -103.811717
-231.309463 -316.447379 23.439611 -226.565327
-98.336548 -247.217175 2.064687 -103.666117
-90.771734 -94.238927 15.680758 -71.570387
-83.572873 -164.406976 -5.515366 -74.393955
-86.940909 -192.640786 -11.089755 -83.874508
-77.911967 -212.317504 -8.227905 -87.068841
-114.549707 -102.818510 2.190162 -75.639721
-88.169757 -93.209875 3.128547 -66.146748
-181.283188 -261.364585 1.723224 -182.254883
-82.728427 -209.385853 -13.958124 -87.634284
-104.006301 -108.451502 4.832432 -79.325949
-115.487557 -100.690374 1.194434 -76.099792
-96.530077 -103.468990 -4.114990 -74.062812
-52.825946 -78.358100 -3.395797 -50.746348
-146.899046 -195.562586 20.159131 -139.348922
-112.921684 -110.837475 1.280310 -80.135421
-46.109104 -194.146201 2.160535 -72.076592
-152.935139 -215.476579 11.581963 -149.628466
-50.213826 -182.570372 13.416512 -69.835259
-150.277165 -218.233794 0.264471 -150.119548
-34.296832 -153.799094 -16.559617 -56.428778
-53.227906 -153.750009 9.663940 -62.093374
-55.448397 -130.589069 17.124524 -55.811240
-48.791686 -74.539821 1.421339 -47.272852
-52.986248 -157.650996 9.410184 -63.191173
-65.522868 -95.268404 -1.475578 -62.939180
-62.179532 -146.689616 18.588890 -62.660744
-49.805114 -75.596330 0.957241 -48.209503
-111.625388 -151.815129 -6.224030 -104.831906
-70.662838 -98.962880 -5.167624 -66.424302
-49.036089 -141.157883 9.720611 -57.058191
-42.418900 -66.530111 2.695641 -41.581109
-40.509817 -168.274034 -17.783486 -62.635155
-38.258548 -143.154362 3.819627 -54.423873
-64.486704 -89.549306 -11.029045 -60.765519
-73.028747 -102.696829 -10.971566 -69.899410
-44.735287 -172.151554 -3.861363 -65.066052
-23.829899 -118.542038 -2.005723 -42.711581
-43.452644 -176.740554 3.252751 -66.057959
-43.266112 -178.222255 -20.674103 -66.446510
-39.089331 -181.601817 -8.848474 -66.207344
-36.209344 -162.372206 -13.519031 -59.574465
-49.030682 -188.100025 -25.692424 -71.139212
-37.776574 -158.755030 -13.445223 -58.959481
-39.797154 -166.309432 -24.671730 -61.831976
-63.313793 -69.356624 -13.532092 -51.324286
-45.784859 -137.076112 -24.305095 -54.858291
-71.294610 -95.283107 -13.030104 -66.046375
-42.061366 -130.507143 -32.255230 -51.770553
-54.261885 -78.528445 8.781257 -51.814385
-62.907588 -81.624573 -12.886236 -56.760933
-167.528848 -239.522465 -8.936714 -166.446705
-79.864191 -114.385314 7.463124 -76.348565
-88.308918 -165.577539 -43.590116 -76.165937
-46.637087 -111.383676 -36.739883 -47.406229
-110.730455 -264.505881 -87.360777 -112.570901
-74.268900 -127.145247 9.694446 -60.424244
-68.709887 -139.600025 7.352934 -62.492974
-81.372164 -107.848128 -30.917333 -56.766088
-55.457751 -69.934876 -12.421728 -48.698935
-94.973157 -152.201778 -51.154413 -74.152481
-87.114513 -178.062850 -36.952152 -79.553209
-65.973936 -198.686872 -37.682945 -79.398243
-8.333739 -21.196858 -1.522494 -8.859179
-48.856289 -29.695207 -4.280362 -31.180647
-101.238654 -129.988631 -17.891238 -93.268286
-103.159593 -151.757364 -5.295107 -103.271697
-73.821930 -118.298643 -29.101448 -57.636172
-12.984681 -64.915290 -57.350224 -23.369991
-76.824281 -114.263260 -17.450748 -57.326262
-73.953751 -122.088092 -8.399726 -58.812553
-79.751764 -139.481197 -8.291087 -65.769888
-74.051513 -125.481752 -2.362664 -59.859979
-78.745784 -130.120190 -10.244914 -62.659792
-72.768921 -134.101609 4.247425 -62.061159
-69.747102 -127.476722 -0.823627 -59.167147
-71.163125 -158.197745 5.806498 -68.808261
-90.528605 -133.866041 4.969673 -67.318394
-72.083644 -158.611439 0.190948 -69.208525
-68.644081 -165.531200 -4.199666 -70.252584
-78.182206 -137.988408 4.423032 -64.851184
-86.761163 -122.903450 -1.122534 -85.265047
-80.334762 -149.797224 1.905950 -69.039596
-92.576494 -131.428995 -6.401719 -67.201647
-83.423415 -146.864055 -0.873659 -69.086241
-69.017690 -165.982108 -0.360478 -70.499939
-65.815734 -167.961198 -8.541959 -70.133080
-73.855519 -156.711208 -8.071329 -69.170018
-73.392220 -162.895017 1.078151 -70.886171
-71.026901 -178.468730 5.038779 -74.848689
-69.339158 -179.967170 8.302873 -74.791898
-13.182624 -139.518958 -4.123801 -45.810475
-71.786998 -68.529224 -5.614260 -47.558819
-102.313099 -140.821531 -14.180044 -98.286803
-87.808022 -131.037611 -5.492790 -65.653690
-67.768557 -137.735873 -4.608737 -61.651329
-124.365563 -165.728097 -0.930809 -114.680918
-65.436648 -165.620426 -21.549720 -69.317122
-83.898253 -125.255884 8.176923 -62.746241
-61.191499 -152.310045 26.434428 -64.050463
-78.495695 -134.770119 29.568124 -63.979744
-89.219136 -142.574083 55.327717 -69.537966
-126.424670 -167.906076 17.745756 -119.984640
-6.335239 -8.834638 -3.085149 -4.550963
-8.699850 -122.924824 -7.028827 -39.487402
-94.942216 -128.084871 14.908265 -90.069736
-88.840438 -90.377706 10.761226 -65.149090
-89.385520 -112.430620 8.349820 -79.170332
-116.843892 -159.065377 11.181605 -110.776381
-96.022136 -97.757045 19.896093 -77.905204
-76.245840 -161.207314 -12.851494 -71.235946
-66.122123 -180.461284 -5.890369 -73.975022
-121.287327 -177.297681 0.727971 -121.594001
-100.127429 -144.909784 -0.809951 -99.748379
-84.256499 -177.569817 -1.678973 -78.547895
-98.022011 -140.865018 -5.650628 -96.708889
-73.974987 -102.735008 18.424513 -53.012999
-81.104512 -84.965988 14.203359 -62.963472
-60.320372 -91.710507 5.216797 -59.917061
-62.396772 -126.722086 -16.735685 -56.735657
-73.788437 -83.020643 11.223550 -58.040406
-55.230456 -84.704485 5.038122 -54.814099
-100.956558 -148.772153 -0.026813 -101.009981
-97.735481 -130.204299 -4.426569 -91.692962
-60.565038 -137.011737 -14.290229 -59.273033
-60.902358 -153.616910 -6.250791 -64.355780
-57.259350 -101.658065 2.764164 -47.675224
-77.332182 -130.648886 7.775656 -62.394321
-85.161739 -164.698083 10.815704 -74.957946
-55.676713 -129.143779 -4.065230 -55.446148
-90.014917 -120.249146 -1.505046 -84.551112
-86.743939 -143.402681 -5.766110 -69.043986
-83.096921 -133.490509 -6.555491 -64.976229
-134.123315 -194.008231 3.680566 -134.115239
-75.090695 -131.595699 7.924341 -62.005918
-85.202416 -119.519430 11.761459 -82.107611
-73.585727 -135.641122 8.206688 -62.768055
-83.709150 -121.775370 10.597699 -61.645356
-90.267914 -115.161278 16.743955 -82.976922
-104.767819 -155.304328 0.995208 -105.416260
-100.403846 -127.211307 9.752039 -68.284546
-76.687133 -96.962116 15.220663 -69.270683
-91.323646 -119.531938 15.962307 -85.102278
-82.784874 -108.015018 3.548019 -76.797179
-79.783669 -109.870946 11.529263 -74.799285
-69.206614 -105.983883 -1.032083 -69.667000
-91.162473 -135.943587 3.223616 -91.529685
-74.767477 -113.666471 -1.242385 -75.244410
-61.107254 -84.378707 -2.990631 -55.050516
-79.043797 -118.380780 4.661787 -79.033005
-106.661032 -157.451172 3.337425 -107.115128
-76.898550 -116.680874 0.716013 -77.411793
-84.594239 -119.690997 11.118524 -81.917851
-75.294576 -114.054805 2.671543 -75.629438
-35.707665 -56.559014 5.323324 -34.738442
-61.577184 -77.151937 13.355599 -54.323048
-93.543595 -139.761606 0.830862 -94.140248
-81.261354 -116.652672 9.851128 -79.239404
-55.489505 -132.360810 -10.335147 -56.355094
-61.345626 -153.896200 -6.103779 -64.572548
-58.774880 -123.537986 -16.185239 -54.693860
-44.762308 -142.172959 -19.869948 -56.080580
-23.522402 -129.250803 -24.492989 -45.831961
-60.107839 -144.860600 -15.931462 -61.490532
-34.087102 -63.517654 38.294571 -29.281427
-70.770115 -137.465213 -31.577229 -62.470598
-70.522176 -81.318377 2.285918 -53.022602
-48.298278 -76.324291 2.952906 -48.408347
-38.962906 -70.845160 11.146414 -32.942420
-29.467589 -48.506295 -4.814948 -28.615063
-40.430125 -89.363488 18.309864 -38.938084
-75.471633 -114.194142 -4.353754 -75.738170
-65.211835 -135.370258 -20.128975 -60.174628
-57.122114 -118.664842 -13.735508 -52.736087
-53.707252 -74.683341 8.178806 -48.792702
-45.178556 -57.309912 9.935167 -38.715009
-56.133537 -83.634135 7.245041 -54.751815
-52.493813 -82.310046 2.739782 -52.648758
-32.563428 -91.210709 -2.870262 -37.132241
-50.413336 -114.869957 -8.485370 -49.584988
-60.695482 -114.535619 -14.423063 -52.569331
-51.120546 -102.785826 -5.111068 -46.171912
-58.022406 -122.030541 -24.788885 -54.015884
-55.066691 -84.067108 5.516441 -54.467642
-58.385874 -81.157884 3.747301 -51.733620
-38.558704 -63.141443 2.000433 -38.676098
-2.029619 -32.077441 -0.025156 -10.232118
-41.629018 -78.531158 1.242543 -36.048053
-23.759206 -43.082643 -1.497453 -23.991149
-88.774559 -119.946294 14.279928 -83.786156
-39.293033 -96.866297 -1.922839 -40.847799
-25.495607 -41.190853 -5.568212 -23.975387
-43.534863 -88.601578 1.609031 -39.640932
-53.400275 -103.258737 -7.357757 -46.997704
-36.864444 -101.730237 -0.213024 -41.578404
-44.791475 -101.413880 7.501784 -43.861607
-26.296788 -45.485747 2.958334 -26.227883
-28.151054 -80.357063 1.539400 -32.552435
-63.537106 -115.291020 -4.610319 -53.648438
-54.342194 -107.350123 5.390380 -48.507695
-43.780121 -108.166143 13.693188 -45.583879
11.490019 8.401626 2.106495 7.402539
-83.737160 -109.967966 0.755950 -58.111538
-53.176411 -110.952257 -0.688169 -49.238600
-55.736736 -110.542457 -1.665810 -49.883758
-40.072186 -124.679162 23.298008 -49.425404
-38.027272 -61.093932 1.506415 -36.877588
-39.282748 -111.073662 -8.925174 -45.106923
-14.404968 -65.267630 0.472354 -23.901779
13.804909 -60.743808 9.408462 -14.081670
-50.028741 -112.549181 -5.193720 -48.773377
-63.784309 -121.031252 3.008019 -55.444668
-37.798186 -46.660412 7.996811 -30.093600
-64.090482 -114.841743 -7.901221 -53.679667
-15.718245 -77.806806 -3.127779 -28.057515
-24.562927 -66.579667 -17.397639 -27.342778
-79.643248 -115.638581 2.963333 -76.421051
-58.898534 -81.769518 -10.472375 -54.961361
-60.326996 -79.548032 -12.219448 -54.802110
-62.846668 -111.053578 4.630706 -52.170074
-54.486826 -70.005368 -12.011668 -48.323949
-118.156179 -171.017917 -6.773772 -117.619202
-52.512272 -132.838772 -10.554383 -55.605313
-71.614032 -84.752327 1.548070 -58.061150
-62.822748 -85.063102 -11.773807 -58.175246
-90.379751 -134.397837 -4.092774 -90.438152
-67.099349 -90.563226 -8.812948 -60.178359
-55.947265 -77.772866 -9.410015 -51.355559
-62.037443 -83.910561 -3.944186 -54.888158
-60.063584 -80.750903 -11.706690 -55.198028
-67.126275 -89.354833 -1.864077 -59.132854
-64.087582 -80.352564 -7.937446 -54.477618
-66.958045 -89.790899 -5.361723 -59.689219
-71.458225 -90.329870 2.225775 -60.756543
-85.473251 -115.441834 5.251549 -77.790793
-59.811928 -83.001791 6.032808 -54.467418
-82.969638 -121.310136 -7.980273 -81.835656
-75.595009 -91.514936 -15.870094 -66.269181
-64.683896 -85.595224 -6.758525 -57.763101
-46.713240 -59.738849 -11.064785 -40.725917
-23.216333 -127.778377 -3.589182 -45.298413
-84.129983 -126.108146 -2.566976 -84.281295
-49.076764 -145.182530 -27.157213 -58.277788
-68.883235 -96.855830 -10.316039 -65.040576
-83.343824 -121.089067 4.070126 -80.438820
-62.951624 -90.928446 -9.056949 -60.598740
-19.223816 -143.469452 9.205790 -48.807980
-89.899528 -120.263560 -14.289619 -84.328934
-7.229882 -116.008599 -2.133694 -36.971544
-38.498814 -128.894087 11.240241 -50.217870
-33.632051 -139.757324 1.972824 -52.016813
-111.288300 -163.846466 0.230285 -111.561668
-55.247938 -172.322263 -8.884188 -68.271060
-95.961314 -136.719830 -9.970751 -93.859778
-58.037491 -82.554154 8.152652 -54.804202
-39.832757 -135.974148 2.819550 -52.742072
-60.202065 -69.062244 -0.726635 -44.892367
-45.206406 -70.505137 1.087722 -44.301218
-48.044907 -73.591312 -0.642037 -46.493437
-24.977889 -37.807236 5.711711 -22.095512
-46.615294 -70.307160 4.638092 -44.754597
-70.797403 -71.223322 5.647588 -50.256785
-45.810719 -69.917017 3.606631 -44.273585
-63.079921 -92.547109 -7.229363 -61.489711
-69.682626 -58.889348 1.755192 -43.201256
-88.808555 -119.051868 -14.256206 -83.356270
24.257466 -112.131420 3.026743 -26.362186
-57.072993 -123.383149 4.831224 -54.136843
-35.771197 -111.108618 13.228800 -44.063945
-18.601269 -78.231301 10.998199 -29.049771
-42.282935 -64.691716 1.140969 -40.568095
-82.869165 -122.047936 3.963889 -81.532037
-49.859535 -109.750154 9.955557 -47.882907
-70.280104 -103.813157 -6.369895 -69.105765
-65.249408 -68.923660 5.868491 -47.657399
-83.383940 -184.669953 9.336253 -80.416168
-61.543229 -78.212656 4.718664 -53.246760
-80.120014 -119.736968 3.398901 -80.017669
-34.272061 -121.240181 17.275432 -46.653673
-32.769865 -53.172326 3.553524 -31.986954
-22.218905 -129.597347 5.869130 -45.544876
-43.523950 -65.331285 -6.227947 -41.532457
-23.026261 -39.569184 -3.090114 -22.121900
-29.666284 -50.093275 -1.365867 -29.381827
-3.994840 -59.156520 -3.216811 -18.945408
-28.717551 -49.344721 0.290517 -28.710969
-21.809765 -95.109184 12.531089 -35.075685
-2.824189 -131.414392 12.628124 -40.271574
7.878579 -55.407580 4.567834 -14.258700
6.639464 -58.177497 -9.831927 -15.461410
-18.554294 -92.087779 14.239967 -33.192622
-17.656412 -104.138443 16.039410 -36.538456
-26.343197 -107.629055 17.471150 -40.191676
-68.900216 -92.295965 -12.709289 -63.701054
-65.568912 -85.724324 -13.029221 -59.610505
-20.409551 -45.665639 2.017887 -19.822557
-27.837176 -68.640983 -15.869255 -28.943448
-85.243528 -121.444889 -10.575408 -82.933297
-2.679035 -7.676604 -4.308972 -3.106692
-39.473381 -76.060927 -4.589012 -34.660293
-51.148974 -77.992000 -17.153033 -38.742292
-56.227847 -72.330110 -5.057654 -46.325480
-1.733158 -61.503146 -3.580140 -18.970891
-28.213294 -70.229476 -11.080233 -29.532831
-30.361345 -73.519746 -8.086281 -31.164327
-57.409546 -111.110026 -18.612047 -50.555872
13.220608 -55.280911 -11.135172 -12.618091
-42.929170 -63.626850 -7.427276 -40.788789
-6.735477 -56.968806 -0.921126 -19.111285
1.379179 -0.667892 -4.027746 0.213386
-58.930174 -90.018565 -3.396954 -58.331666
-61.254392 -79.950742 -12.253903 -54.777679
-15.549996 -42.499403 -2.643765 -17.414820
-4.979910 -2.122833 -4.569159 -2.247753
-12.211743 -51.099770 4.224357 -18.993454
-12.185821 -57.766951 3.371067 -20.985832
-32.623700 -74.317957 -4.740770 -32.082497
8.631039 -32.219024 7.800432 -7.076396
-12.028582 -57.422740 3.048980 -20.835396
-4.419477 -27.872439 5.307774 -9.687575
-9.320551 -46.851278 4.078979 -16.851549
-10.808427 -51.809101 3.575414 -18.785258
-10.380021 -50.759818 4.537613 -18.341952
-14.214581 -63.626659 2.313613 -23.352372
-9.664876 -54.225458 3.767925 -19.167100
-12.081115 -56.388909 3.612387 -20.541007
-9.092804 -46.872297 3.201236 -16.789530
-6.995175 -18.952791 -0.185710 -7.784390
12.279515 8.493236 -0.564941 7.990025
7.991558 -89.363663 5.384362 -24.411631
-22.475604 -40.570168 -2.127549 -22.473094
-64.379302 -92.950749 -9.061925 -62.177068
-5.821167 -35.125999 3.695909 -12.284150
-15.202464 -30.328886 -2.143329 -15.746334
-6.748933 -38.478570 2.628508 -13.568251
3.957920 -40.084874 -8.640554 -10.838086
-13.274045 -24.920380 2.661549 -11.564086
-8.857122 -20.947668 2.098113 -8.941437
-64.711705 -93.201754 -9.098923 -62.409027
-14.921915 -203.725926 2.209503 -65.594352
-2.844526 -4.099542 4.704082 -2.083220
-6.515606 -18.195447 -1.577054 -7.413316
-19.931560 -36.491117 -1.610321 -19.558654
-7.381785 -46.896619 18.281765 -16.283521
-8.583077 -20.986525 1.422024 -8.870881
-14.211853 -28.249996 -1.359763 -13.787381
-26.657124 -52.197776 25.288933 -23.656470
-6.325256 -54.848115 -8.068732 -18.352011
-13.564967 -82.018915 -15.669016 -28.675165
-7.961619 -15.847957 -4.707882 -7.142873
15.302525 -71.253206 -15.218240 -16.785204
-9.783346 -22.753638 -2.196765 -9.761095
-14.217100 -70.478277 -12.005524 -25.408613
-17.119427 -30.636139 4.383287 -15.997543
-3.575582 -14.741843 1.124311 -5.495228
-16.312829 -32.271086 -0.103934 -16.291934
-18.046240 -33.980449 -1.590195 -17.665726
-4.663658 -16.281201 -0.624588 -6.283458
-4.348923 -30.945635 12.843680 -10.588367
-0.060657 -6.615307 3.400317 -2.002789
-0.741468 -7.235580 3.549448 -2.393114
1.375038 -5.366812 0.120910 -1.197532
-10.378827 -24.257627 -0.432800 -10.451933
2.597410 -2.757284 3.217931 -0.047962
5.048000 -2.524536 -1.163902 0.757039
5.946256 -1.138295 1.366714 1.442388
-7.765093 -13.834331 0.875487 -6.479827
2.785590 -3.573785 0.807083 -0.236459
2.929162 -5.972762 0.112204 -0.913080
2.330918 -5.878688 1.748073 -1.064331
5.156820 -2.842911 0.433247 0.694173
5.931279 -1.825678 -0.023122 1.231680
0.028583 -2.918289 0.446768 -0.866912
4.995064 -3.127910 0.038179 0.560146
-22.813421 -41.194194 1.580220 -22.848624
-12.064857 -26.463183 -1.393024 -12.124946
-2.845396 -9.005446 -1.091360 -3.555252
-6.717747 -13.967318 -4.512113 -6.205520
-2.995547 -13.524441 1.755194 -4.955997
-0.912472 -5.354034 0.402549 -1.879952
-2.332623 -6.648115 -2.795565 -2.694221
-2.580774 -8.938929 -1.075342 -3.455911
0.221073 -6.395075 -2.102450 -1.852200
-1.112245 -1.984435 -0.250121 -0.929004
-1.297910 -9.144706 2.033116 -3.132785
-0.107831 -1.384492 -0.743587 -0.447697
-4.531503 -15.109656 2.385011 -5.892348
-1.785665 -6.281920 -0.018391 -2.420276
-2.515756 -13.386988 -0.498667 -4.770823
0.410274 -8.923679 1.458576 -2.554021
-1.982805 -11.624593 1.691885 -4.082220
-6.074810 -15.245875 3.731320 -6.396206
-10.286961 -23.148697 0.833427 -10.030697
-4.153385 -14.332122 2.595524 -5.545652
-7.290369 -19.468670 1.904319 -8.027712
-3.157794 -8.995854 2.418891 -3.646094
-8.212007 -13.234793 5.314925 -6.434040
-4.634732 -9.878530 0.096650 -4.353979
-3.249081 -8.214254 -4.503272 -3.439001
-8.036586 -17.033839 2.349348 -7.521128
-13.470855 -25.976774 3.277697 -12.067165
-21.534869 -35.649242 -5.332955 -19.980033
-14.042092 -52.689288 -3.226247 -20.019414
-8.816655 -40.375562 3.073032 -14.757665
-10.309319 -22.928344 2.802693 -9.971299
-22.350418 -40.803851 -1.388676 -22.492679
-7.577496 -42.024200 2.565671 -14.880509
-4.242846 -14.065345 2.889136 -5.492457
-4.306781 -36.335309 -4.056762 -12.192627
-6.638675 -18.537579 0.555164 -7.552876
-4.913107 -36.106311 -2.454876 -12.305826
-8.470960 -13.848983 -3.053217 -6.695983
-4.423938 -35.736319 -2.625692 -12.048077
-12.064685 -65.002209 -1.820081 -23.120068
-7.511859 -36.533653 4.208786 -13.213654
-11.345059 -38.319835 8.301804 -14.899468
-3.471758 -9.392959 -0.708451 -3.859415
-10.545383 -18.899803 -3.202442 -8.833556
-7.458564 -18.394275 1.204305 -7.755852
-9.014416 -28.050482 2.253699 -11.119470
-7.052343 -42.668856 1.982661 -14.916360
-3.319308 -28.666992 -1.805791 -9.595890
-8.221677 -20.778205 -1.772160 -8.699964
-6.044074 -38.708400 -3.298230 -13.425742
-11.354689 -25.777285 -0.133772 -11.476981
0.018884 -9.771773 -0.652970 -2.925867
-9.543075 -23.078780 -0.850126 -9.786557
-1.278439 -11.459265 -1.010777 -3.821311
-2.050316 -8.412931 -1.136458 -3.138974
5.628023 -1.435861 1.598388 1.257649
4.322016 -3.808826 -0.199827 0.153957
-0.268792 -5.118126 -0.848254 -1.616075
0.756018 -1.843627 -0.396441 -0.326283
-9.998120 -16.506636 -0.560995 -7.951427
4.986160 -1.745659 1.002639 0.972151
-6.205634 -12.141255 0.267363 -5.504067
-4.917604 -10.399729 0.977041 -4.595200
-9.278560 -23.543545 0.377356 -9.846631
-9.222244 -19.928123 0.123685 -8.745110
-6.078335 -13.861801 1.374817 -5.982041
-9.628562 -26.315722 2.676883 -10.783285
-6.348193 -14.057701 -2.528100 -6.121768
-8.685688 -21.383901 0.957104 -9.020877
-7.246449 -20.133285 -0.421162 -8.213920
-15.897286 -53.142431 -7.097301 -20.711915
2.635788 -3.932116 0.539015 -0.388898
-6.376880 -14.961151 1.319366 -6.401409
-17.059927 -28.471194 3.959823 -14.411393
8.725031 4.062059 -2.155737 3.836127
-1.736626 -12.357669 -0.681906 -4.228289
-3.241697 -10.079814 4.341286 -3.996453
-24.896850 -44.788521 0.567655 -25.152754
1.934402 -4.931432 3.009601 -0.899109
-10.755682 -24.063928 -2.029278 -10.445883
-13.931709 -24.394648 -4.199407 -11.737273
-13.211130 -25.563559 -4.303456 -12.077934
-51.769312 -65.530481 11.913931 -45.260841
-5.772203 -18.423614 0.410729 -7.258745
5.070365 -45.610855 -4.332062 -12.162147
-8.055625 -25.083046 3.746678 -9.941601
-34.539946 -54.331030 5.848499 -33.261202
-2.261983 -8.071455 -4.587824 -3.100031
5.696460 -0.236571 -2.830705 1.637967
-7.251318 -36.292459 6.519635 -13.063133
-9.255884 -36.647097 3.990577 -13.770894
-0.418875 -7.861802 -3.390134 -2.484203
-7.439269 -26.071574 3.547998 -10.053253
-7.970662 -29.763985 5.486086 -11.320394
-34.293454 -55.667361 3.440597 -33.283425
-4.575110 -52.527786 7.435771 -17.130869
-14.159688 -58.795332 -1.109799 -21.886506
-10.899543 -47.315986 0.857482 -17.464659
-7.176809 -35.124013 -2.441392 -12.690247
-21.091928 -34.794438 -5.932963 -19.162536
2.679523 -37.117944 11.978616 -10.331526
-18.887766 -36.585392 0.988205 -19.088648
-40.174338 -82.335728 1.601251 -36.753020
-19.360464 -29.785756 -6.449502 -18.746889
-32.022921 -44.733752 6.943931 -27.736946
-8.967571 -21.849926 -2.235121 -10.108560
-9.990353 -51.345644 1.152523 -18.400799
-51.753687 -68.542619 11.212279 -46.593382
-6.247575 -17.258812 2.801324 -13.100095
-27.024274 -88.965195 4.819494 -34.796841
-28.172266 -49.084724 -1.069673 -28.454949
-70.541833 -105.793153 -5.824616 -70.125393
92.867375 -24.151917 18.397180 20.614638
-5.550322 -15.045732 -3.609707 -8.509923
-24.250418 -35.399726 -7.479857 -20.791518
-11.669968 -38.175531 3.826442 -14.953650
-28.146789 -21.909120 -4.459923 -15.016773
-8.521048 -37.519523 5.294980 -13.812171
-22.302160 -56.640203 13.888906 -23.682709
-7.881183 -39.473646 -5.579645 -14.206449
-17.186973 -58.034215 -8.189774 -22.566357
6.945492 -33.849739 -10.592712 -8.071274
-10.162198 -45.469387 -4.500845 -16.689476
-11.115468 -57.242027 -2.892588 -20.507248
-13.979590 -61.203407 2.592602 -22.554899
-8.554829 -47.692076 -2.038157 -16.874071
-10.381099 -51.761812 3.750214 -18.642873
-14.825757 -26.840396 -4.635016 -13.362433
-14.692163 -50.301606 -5.478824 -19.498131
-15.593258 -16.711020 -6.808091 -9.691283
-5.399610 -10.331812 -4.901954 -4.719427
-28.022495 -72.301280 -1.622762 -30.097132
-81.017085 -122.472245 1.245582 -81.533710
-28.461319 -44.791270 -4.677694 -26.385769
-30.007276 -46.442696 -1.933356 -26.555521
-16.068145 -50.467181 -6.115812 -19.960598
-31.270327 -85.668231 -3.796101 -35.081568
-26.678469 -61.800347 -14.290158 -26.543645
-21.973866 -69.503949 -6.303675 -27.443345
-30.668567 -106.416519 -5.577582 -41.125526
-33.194070 -51.684290 -6.127047 -31.641933
-52.591763 -123.653488 -14.124871 -52.873575
-50.280832 -73.354354 -8.345784 -47.955486
-77.463630 -109.175755 -11.074496 -74.489715
-32.655326 -109.805466 0.538164 -42.738238
-39.916079 -63.766318 -4.112864 -39.559897
-25.156235 -63.971164 -12.815403 -26.738220
-35.838629 -54.273641 -6.044292 -33.189753
-43.083461 -93.689601 4.632596 -41.031918
-34.410479 -56.056797 -4.024700 -33.991663
-52.665717 -80.936902 5.141298 -52.156722
-33.479156 -90.920582 0.416949 -37.319921
5.244595 -2.494334 1.199424 0.825078
-44.319948 -71.367440 1.853537 -44.556529
-41.421501 -67.156579 0.449594 -41.181413
-33.040625 -49.226407 -6.296356 -29.874070
-25.495780 -45.373416 0.584390 -25.682218
-31.470710 -86.149443 8.525141 -35.286046
-51.159290 -80.915793 -1.165884 -51.509498
-70.778627 -108.268563 -0.822721 -71.259807
-45.589315 -70.076749 6.061917 -44.533090
-46.610330 -74.783405 -1.504196 -46.906126
-27.588285 -65.005907 -11.525805 -27.778258
-31.534738 -90.862310 2.481033 -36.719115
-30.483574 -88.861964 6.072814 -35.803662
-38.052448 -78.214336 3.646245 -34.880035
-49.171105 -93.167489 -3.650220 -42.701578
-48.083731 -34.111709 -0.820327 -27.456623
-29.273314 -50.686558 0.992433 -29.734139
-55.239768 -75.421756 10.931650 -50.867559
-48.510501 -66.015258 10.392426 -44.041662
-29.847744 -51.396326 1.207111 -30.074231
-7.063122 -36.567247 -2.198175 -13.089111
-18.846533 -60.120556 0.178890 -23.690127
-42.883314 -66.450594 5.799183 -41.889711
-42.473567 -68.911409 1.331392 -42.760043
-16.554849 -32.915714 -1.371005 -16.674275
-59.357097 -87.427398 8.040596 -57.650308
-20.259313 -73.953778 -5.435287 -28.263927
-8.254458 -63.845246 11.940419 -21.629911
7.813579 -54.696636 -3.240424 -14.064917
-32.742844 -69.708095 15.550958 -30.735282
-0.066265 -58.291515 1.603964 -17.507334
3.319689 -92.720451 20.020405 -26.820228
19.730795 -72.845596 -5.885485 -15.934440
26.976707 -89.306470 2.321196 -18.698929
24.738941 -75.141347 -21.374704 -15.120722
18.116108 -112.456594 16.098254 -28.302146
-21.510528 -39.040871 -27.938673 -18.165419
31.110252 -97.543266 -11.422211 -19.929904
-16.586083 -233.163604 48.184809 -74.924906
9.287159 -55.473035 -14.676357 -13.855763
48.544500 -96.391941 -5.260400 -14.354232
-4.143055 -38.625549 -18.721341 -12.830581
8.268686 -74.429361 4.559289 -19.848203
-28.353751 -48.368584 -1.767554 -28.238246
31.379731 -77.767009 -47.216579 -13.916184
-9.460598 -108.357819 29.418463 -35.345525
1.914435 -77.621963 5.895329 -22.712258
-7.491296 -82.558729 17.176509 -27.015007
8.200062 -79.800939 -2.981018 -21.480263
15.917436 -83.019568 -8.915822 -20.130640
-3.042450 -30.604624 -21.753411 -10.094122
11.334747 -66.135324 -1.562006 -16.440173
-20.007634 -34.633778 -1.402110 -18.479323
10.745169 -56.519073 -18.767960 -13.732171
-15.085693 -29.975670 -1.714548 -14.899189
1.332671 -46.381208 -21.155450 -13.514561
-7.807741 -33.749786 -11.437832 -12.467258
-18.783319 -26.629316 -3.660782 -16.041667
7.123099 -55.220613 -3.333790 -14.429254
5.920248 1.680954 2.966412 2.280361
-18.698851 -22.899895 3.154267 -12.479624
-16.721933 -22.747785 -6.777695 -13.252566
-2.785944 -10.663367 -3.439930 -4.034793
-1.657407 -47.020874 -13.131424 -14.603484
-27.790733 -45.381691 -3.078704 -26.500591
-31.358593 -51.223142 -4.060842 -30.514907
-24.990372 -43.756017 -2.014496 -24.818119
6.340279 -49.671063 -1.599804 -12.999235
-19.114136 -65.203582 10.033080 -25.295316
-27.064536 -43.148325 3.080698 -24.683336
8.554658 -54.350373 -3.391869 -13.738714
-10.430440 -70.315410 -3.128395 -24.223755
-24.019138 -68.339734 14.220626 -27.707662
-9.960869 -54.991644 2.330163 -19.485754
-1.983039 -72.814442 8.867579 -22.439245
-54.700167 -76.963928 9.942132 -51.303584
-6.198854 -30.249109 1.850455 -10.934389
-26.412897 -111.428432 -7.182877 -41.352399
-15.815525 -66.985975 4.652056 -24.840450
11.272677 -22.872881 15.861296 -3.480061
-4.942045 -28.692638 -2.098049 -10.090405
-12.002925 -26.689205 -0.795018 -12.599712
2.369881 -182.440460 -36.792803 -54.021174
-19.660459 -134.012909 -6.030686 -46.102010
-4.533720 -49.854793 -2.895652 -16.316554
-10.679810 -43.096867 -1.124622 -16.133003
-13.864861 -56.315259 0.243680 -21.054036
-5.556766 -52.832053 7.116162 -17.516646
20.712147 18.573288 0.284014 18.567114
-25.812481 -44.670344 3.090968 -25.581098
-23.296179 -39.988830 4.209030 -22.547519
-28.475223 -44.828757 5.956285 -26.475866
-1.229017 -51.245075 -0.730372 -15.742228
8.465184 1.729791 0.804155 2.151647
-2.492761 -2.327177 -2.144529 -1.445982
-19.428869 -34.030810 2.133352 -18.279117
-21.645975 -38.897488 -2.528208 -21.470555
-4.506317 -29.446179 -3.003491 -10.185749
-6.542154 -35.418826 -1.298243 -12.588294
-16.723836 -23.868128 6.640014 -12.958933
-2.667353 0.982689 2.240103 -0.505399
-14.997761 -30.744997 0.864748 -15.159327
7.545325 1.424598 1.877962 2.690977
-7.162435 -19.382092 -1.833737 -7.963358
-4.204332 -2.179819 -0.706979 -1.915245
-2.273570 -5.550235 -4.050300 -2.347142
-0.671421 -4.311354 -3.918164 -1.494833
-5.747146 -36.552078 9.501597 -12.689767
1.831140 -7.199629 1.283408 -1.610547
-4.214925 -1.951831 1.416745 -1.850027
2.592804 -6.506163 -0.356186 -1.174008
-2.070043 -18.629228 5.444064 -6.209781
-1.919704 -12.268184 -0.194647 -4.256366
-2.441225 -15.238455 5.073820 -5.303904
-1.060536 -0.245699 4.317099 -0.391870
-0.652748 -6.871036 2.507127 -2.257135
7.088350 -23.069686 3.503945 -4.794401
-0.356159 -16.319302 3.353762 -5.002638
-2.603422 -1.591605 4.314487 -1.258508
2.940825 -6.020810 -0.096336 -0.923995
-0.840122 -23.547377 4.936326 -7.316250
-9.754520 -17.612801 -5.091775 -8.210196
8.792010 4.108818 2.142781 3.870248
4.138103 -1.919098 0.049185 0.665702
-4.158603 -9.479574 -4.443846 -4.091453
0.754458 -9.004925 0.407592 -2.475140
2.475037 -5.455025 -2.027226 -0.893996
-9.467657 -20.826143 -3.032383 -9.088140
-1.986205 -5.849289 -1.021753 -2.350648
-7.967627 -11.096104 -4.243198 -5.719119
-5.035038 -8.611110 -4.802047 -4.093845
3.941711 -4.104283 1.411662 -0.048772
-0.757582 -11.100785 -0.133924 -3.557510
-2.839698 -9.083558 -0.411243 -3.576977
-10.923253 -22.025385 -3.757684 -9.884591
-9.716067 -21.330621 -3.023950 -9.314006
-6.819279 -15.972941 -3.977391 -6.837666
-3.270508 -12.387414 -3.046723 -4.697376
3.487347 -4.283540 -1.880982 -0.238858
-9.740198 -44.253577 -9.004457 -16.198132
6.306747 -1.200202 0.672414 1.531963
-12.801719 -26.028106 -3.226473 -12.337414
-27.320633 -43.560710 -5.698605 -25.702786
10.148762 -55.570952 -4.142428 -13.626657
-8.027089 -19.302159 1.577683 -8.198774
-4.805576 -24.940548 -4.226009 -8.923837
-23.813690 -36.750963 -6.437878 -21.400017
-7.944578 -40.260503 -2.306098 -14.461524
-9.985314 -15.926825 -5.574873 -7.773642
-2.682325 -9.933187 -3.528673 -3.784654
-17.242162 -28.700154 -5.496921 -15.244541
-19.725987 -29.175848 -5.122456 -14.670551
-21.818625 -27.565846 9.711093 -14.815341
-18.910905 -22.004502 0.658465 -12.274622
-36.733076 -50.651791 8.945265 -32.660242
-37.398721 -60.756709 3.467271 -37.220452
-11.318035 -25.870918 -0.129337 -12.164471
3.176438 -5.338066 1.105190 -0.648488
-34.986684 -58.559118 -1.230049 -35.235498
-22.646719 -41.662574 0.000273 -22.901142
-4.421793 -34.062439 7.927687 -11.545270
-3.037787 -12.338516 0.524156 -4.612891
-11.882322 -25.254728 -2.928266 -11.467886
11.211969 5.207013 -0.198714 5.300415
-19.563704 -31.224552 5.962569 -17.274067
-8.375765 -31.803943 11.706819 -12.053912
-0.060950 2.798237 3.735812 0.821186
-2.823052 -57.404725 -2.844229 -18.068333
2.870344 -4.877622 2.042387 -0.602184
-1.797248 -5.319987 0.519759 -2.135170
-5.230683 -13.171577 4.096345 -5.520678
-1.715969 -24.504065 7.203769 -7.866010
-2.263906 -2.178070 -1.021966 -1.332593
-36.778238 -61.129905 0.184452 -37.101831
-1.462735 -11.876840 0.949063 -4.001873
1.716068 -7.188288 -1.452051 -1.641666
3.476199 -5.113135 0.825700 -0.491081
5.419842 -0.551609 1.498940 1.460470
-8.477931 -21.625565 -1.482345 -9.031049
-1.674555 -18.868614 5.943226 -6.162951
-13.169274 -33.552482 15.768520 -14.016527
5.009943 -3.037863 -0.938083 0.591624
-0.407659 -22.450540 5.440915 -6.857460
0.047393 -9.595520 -1.839777 -2.864438
9.925749 3.574787 -0.145526 4.050161
-3.451847 -14.940046 -0.369116 -5.517568
-19.338653 -32.429585 -5.327158 -17.669360
-18.981859 -35.269965 -3.159753 -18.631055
-20.584103 -36.927011 -3.623130 -20.050497
3.655720 -4.908130 -0.531452 -0.375723
2.632751 -4.857870 -0.475924 -0.667536
-7.572850 -19.059329 2.612160 -7.989654
3.434285 -1.675357 -0.901744 0.527678
-11.089749 -24.521775 1.522932 -10.683457
-39.293946 -58.602802 -7.437750 -37.086763
1.625723 -7.820416 0.124927 -1.858408
-4.237346 -14.492626 0.921918 -5.618992
-8.223678 -16.330250 1.313535 -7.366178
-0.339259 -9.575163 2.000227 -2.974327
-10.218849 -25.435062 3.028923 -10.696173
-15.478179 -20.250148 6.726930 -10.943089
-52.687093 -72.287902 -10.616394 -48.432509
66.161753 65.216523 0.530110 64.461406
-11.303321 -23.561755 -3.531748 -10.550205
-14.204421 -22.361551 1.814356 -10.969792
-23.848286 -39.507460 5.147421 -22.616477
-10.843688 -20.702722 -4.703973 -9.750382
-26.402000 -43.939466 -4.702649 -25.485058
-5.305723 -14.737750 -3.484437 -6.013042
-41.267964 -67.334263 -0.704499 -41.596828
-5.799415 -17.135321 -2.296185 -7.678422
-18.193332 -21.836131 7.266277 -12.725028
-12.324607 -17.125870 6.180217 -8.835143
-10.644002 -34.096888 4.535262 -13.422267
-15.360171 -48.842476 1.266493 -19.260794
-26.596186 -27.462583 8.625707 -18.622632
1.595856 -63.426572 18.003004 -18.549215
11.269789 11.159658 2.466904 8.801699
-72.356421 -127.990162 41.401520 -60.103975
52.732449 52.316663 -0.206408 51.495148
-0.258340 -146.585381 -6.466270 -44.053116
-42.302773 -95.943772 12.407476 -41.473963
-33.305395 -55.222471 3.230264 -33.145839
-4.358174 -62.669793 3.597379 -20.108390
-35.631163 -58.909381 -2.868666 -35.591251
24.757403 -53.947495 8.554992 -8.757027
67.478600 67.474653 0.010325 69.499429
-3.336864 -14.702039 -0.748019 -5.411671
31.795487 -51.455618 8.581142 -5.898039
-21.247227 -39.568529 -1.008755 -21.451888
5.938004 -46.723889 -4.860142 -12.235765
-28.602488 -45.802517 0.879442 -27.027376
-4.307643 -59.005811 5.333157 -18.994036
-24.059727 -41.478899 -3.887914 -23.484559
-3.037427 -57.812428 4.526523 -18.254956
-22.399425 -38.045265 4.728717 -21.328636
-17.539368 -33.163834 -3.330232 -15.210960
-32.177019 -54.565415 1.065861 -32.429290
-28.254722 -49.380797 0.119089 -28.538659
-20.489580 -26.805047 0.753325 -14.188388
-13.316714 -25.169640 -5.090064 -11.545906
-47.069256 -68.811424 8.335622 -44.623454
-20.740941 -23.628470 3.724035 -13.310823
-5.975208 -58.893869 3.577751 -19.460723
-35.805035 -59.766147 -0.974393 -36.087324
-15.336711 -56.637837 1.561656 -21.592364
-2.952819 -55.225698 5.566267 -17.453555
-9.781249 -49.037559 4.705469 -17.645642
-41.410889 -67.468413 -0.540370 -41.745101
-26.597196 -113.244925 42.302033 -41.952636
42.061349 -113.511238 13.212494 -21.434967
-5.701278 -71.525305 10.469381 -23.167975
12.469395 -87.764081 -8.598854 -22.588406
-48.688848 -74.826273 6.007002 -47.863871
14.294270 -21.479946 -33.954406 -2.155703
-21.797301 -21.116589 -7.276698 -15.328235
55.948367 55.080360 -0.265747 56.401195
55.383612 -101.176461 -6.124459 -13.737855
7.097060 -86.000049 13.582130 -23.670897
13.144782 -84.272209 6.474458 -21.338228
32.704517 -87.526860 -2.278699 -16.446703
-10.663867 -68.263514 3.642676 -23.678214
33.657182 -80.738402 -6.126697 -14.124366
6.085326 -72.450965 5.960827 -19.909691
23.370876 -85.631736 -2.743900 -18.678258
6.646232 -77.304640 0.701674 -21.197522
29.109825 -78.569626 4.083337 -14.837940
1.711402 -59.656171 4.404585 -17.383431
1.017644 -69.937398 4.781922 -20.675926
3.743125 -68.035405 3.773648 -19.287684
9.021364 -75.709837 -0.011843 -20.006542
-3.289828 -63.222330 3.518367 -19.953648
3.201692 -68.921503 3.419872 -19.715943
-0.822284 -60.435702 7.386773 -18.377396
2.667946 -54.690651 2.090314 -15.606811
-11.440059 -56.850948 7.672742 -20.487302
21.782111 19.718706 -0.169192 19.765888
7.640227 -46.923786 17.984723 -11.785068
-19.728433 -60.011327 5.165425 -23.921928
-16.359259 -64.454701 -0.505965 -24.244188
-0.089034 -69.324954 4.841442 -20.824196
-9.542637 -57.871685 4.457734 -20.224297
-17.093341 -59.566957 2.994987 -22.998089
57.930871 58.001809 -0.533034 58.898996
-31.664071 -61.352077 19.007436 -27.904844
-16.014076 -18.115601 7.434624 -10.238903
-17.641110 -72.822216 -2.522963 -27.138998
-17.598672 -66.643362 -0.764390 -25.272610
-5.307374 -74.382250 -10.406844 -23.906887
-20.439501 -70.513497 -0.105235 -27.285899
-10.507931 -66.364401 2.908815 -23.061700
-14.207674 -63.220535 -1.198476 -23.228463
-18.980154 -70.847568 -1.507544 -26.948317
-7.231865 -61.231691 4.623981 -20.539067
11.409988 -81.976740 -5.313404 -21.170026
-33.844853 -77.851531 -3.927460 -33.508915
-19.812596 -72.773525 -2.892803 -27.775836
-27.885270 -74.300671 -1.370208 -30.655782
-16.326686 -66.311197 -0.077323 -24.791365
-26.380654 -75.475152 -3.202011 -30.556742
-57.447701 -90.569208 -0.383859 -57.898583
-46.136433 -83.016094 -6.543406 -38.745758
-35.541291 -85.637123 3.681403 -36.353524
-34.735474 -77.855840 -2.218775 -33.777394
-31.876321 -78.992624 19.307158 -33.260684
-37.100898 -79.417985 -9.492211 -34.955665
-75.823488 -91.113258 -16.042930 -66.166736
-46.874395 -82.254036 -5.910704 -38.738529
-92.526228 -138.240717 -1.948157 -93.053068
-49.418205 -86.096338 -16.753362 -40.654363
-67.676908 -83.576598 -14.585445 -60.308004
-49.907382 -84.984213 -10.948067 -40.467478
-81.692608 -98.491558 -16.993400 -72.139609
-43.911504 -87.091070 -19.621179 -39.300772
-44.248821 -83.758094 -11.556899 -38.402074
-13.874051 -85.886345 -15.951721 -29.928119
-28.322144 -77.217299 -4.845828 -31.661833
-40.091711 -80.444024 -5.760569 -36.160720
-24.222767 -75.719527 -4.171915 -29.982688
-13.629045 -76.730176 -33.430594 -27.107766
33.388755 -95.431735 -28.729380 -18.612894
-19.348205 -83.071576 -23.187777 -30.725934
-12.631040 -87.549998 -22.641743 -30.054312
-97.650258 -104.715997 -20.330356 -81.093767
-142.415768 -204.505819 35.422394 -104.076476
-50.343429 -65.009162 -48.876826 -34.605778
-28.386517 -72.969465 -41.230509 -30.406794
-105.499155 -131.542083 -19.496836 -95.699534
-66.931431 -100.449428 -5.983243 -66.372108
-115.915482 -107.821306 -21.989071 -90.098521
-78.741405 -96.797224 -16.101274 -69.807511
-77.623123 -111.819944 -9.554119 -75.657389
101.598943 33.633205 31.598413 40.569645
44.101363 -104.195472 -50.706495 -18.028233
14.866066 -116.784224 -62.250651 -30.575448
65.184879 -47.425075 -45.750290 5.327941
36.877901 -93.576923 -14.976890 -17.009706
7.694304 -90.102911 -58.399295 -24.722582
-1.842142 -83.110805 -24.183249 -25.485884
6.522116 -88.356477 -25.585814 -24.550308
4.138105 -79.234477 -3.717822 -22.528912
-22.820932 -85.907838 -17.060141 -32.618631
-5.232897 -86.188413 -16.135227 -27.426393
18.278528 -92.168102 -15.127894 -22.166872
21.943132 -77.630480 -2.949647 -16.706204
0.365219 -84.666149 -9.758386 -25.290279
28.886386 -80.409450 -10.612467 -15.456919
34.830460 -85.613059 -27.931752 -15.234780
38.715514 -92.850700 -24.184188 -16.240556
108.008261 107.489086 1.905058 110.099010
48.967318 -93.975147 -32.317405 -13.502349
40.590936 -83.413563 -12.262353 -12.846788
17.417924 -87.574502 -5.044253 -21.046974
2.568455 -77.254798 14.498813 -22.405903
17.803502 -100.808006 11.635939 -24.901351
88.133720 -19.288059 -18.106620 20.653699
48.441649 -103.765750 19.767984 -16.597230
-6.150784 -112.352379 26.705509 -35.550949
-96.743732 -118.019855 6.806102 -64.429076
4.803630 -107.959942 19.625580 -30.946894
20.740221 -118.439134 25.891913 -29.309674
-13.203437 -118.482743 24.167077 -39.505854
-9.225573 -136.462176 22.410859 -43.706325
10.090073 -99.120189 14.518735 -26.709035
-26.001874 -120.405990 25.680848 -43.922359
7.491081 -90.718677 14.299512 -24.968279
5.195269 -102.590353 16.359420 -29.218525
6.291079 -95.799857 12.366303 -26.852633
-0.241381 -103.192593 17.574124 -31.030192
-47.724065 -61.360337 11.247808 -41.755148
-55.257268 -70.883287 9.733806 -37.842166
-32.334977 -71.474442 27.427993 -31.142826
-39.329408 -58.578842 7.457893 -37.103185
-52.026343 -82.330922 -1.320075 -52.377772
-76.525806 -114.125404 -6.238432 -76.044788
-75.216432 -88.518507 16.203325 -64.828465
-45.566343 -68.292195 7.342133 -43.775417
-22.074324 -39.506610 -3.385341 -21.728248
-53.122548 -110.481102 46.503387 -49.081095
-41.647401 -52.653518 10.596667 -35.592742
41.775799 -70.362546 45.366092 -8.576024
-11.862920 -88.146169 36.772408 -30.002726
-67.541896 -90.183495 12.702387 -62.296014
17.377481 13.633425 0.116332 13.729397
-15.163727 -111.008113 46.030846 -37.851552
-6.773929 -100.554638 45.058694 -32.198570
-100.006905 -163.723150 9.084008 -79.119016
41.678651 -82.292978 21.722665 -12.184298
13.091930 9.456661 -1.736705 8.836011
-51.900169 -120.319612 29.388980 -51.665935
-37.596167 -136.313636 19.824027 -52.172941
-33.293651 -55.195076 -3.206472 -35.489408
-41.338587 -95.529730 24.793288 -41.060495
16.872072 -49.761505 62.552006 -9.866830
-25.987987 -86.955696 18.723309 -33.883105
-46.949095 -104.286733 17.974428 -45.370748
-66.808240 -101.732105 3.634625 -66.690027
-29.526420 -47.333992 5.551068 -30.220581
-53.132014 -110.941187 23.761882 -49.221960
-26.607949 -123.689535 26.921907 -45.089245
-125.804951 -101.301521 19.065127 -91.488701
-100.705214 -116.170366 20.382677 -87.213048
-42.004872 -120.437121 26.692095 -48.732598
-1.535102 -10.864001 2.465796 -6.919705
-11.597293 -105.745301 55.372743 -35.202778
-31.644443 -109.281208 44.851183 -42.277695
-27.297811 -81.431232 71.540655 -32.618713
-208.406284 -175.699862 31.463716 -157.548873
-136.119919 -168.764466 24.004406 -124.199709
-38.245121 -111.902016 33.130363 -45.044141
-54.563061 -113.422926 38.352764 -50.395796
-52.249726 -122.547783 55.056120 -52.439253
-11.501924 -109.861955 33.700576 -36.409164
-80.196693 -103.017245 15.298346 -73.032549
-9.683211 -109.233296 34.002452 -35.674952
-155.050398 -177.020589 29.225907 -135.662169
-44.384243 -137.958433 48.337199 -54.702803
-173.964450 -213.888718 29.633362 -159.149379
-136.743090 -172.285136 23.331897 -125.970215
-129.337670 -152.834302 24.610377 -114.540836
-108.130472 -136.999144 -19.307255 -99.099696
-112.958085 -138.323212 21.144768 -101.654461
-85.451796 -103.245100 -17.397428 -75.330478
-61.354634 -86.537591 10.376939 -65.410264
-73.108630 -86.190754 15.857847 -63.808514
-113.841488 -162.018405 11.451695 -111.980878
-115.820191 -144.814411 20.969725 -105.524765
-101.780353 -177.726940 13.979895 -83.852188
-71.854378 -110.307680 -0.170914 -72.426106
-117.302476 -169.690650 12.581901 -86.097938
-127.652542 -162.030369 22.026378 -117.666262
-116.183561 -104.093713 11.638878 -81.628252
-71.663038 -114.258755 23.738349 -55.776538
-87.600959 -56.900283 4.254225 -56.741363
-107.193924 -148.618583 13.901470 -103.584234
-107.466723 -90.547601 17.080902 -77.882236
-72.417357 -107.518298 7.095416 -71.679902
-157.837925 -194.128478 27.446326 -143.980863
-113.367326 -145.373388 19.446144 -104.852477
-36.226020 -137.750915 21.164594 -52.193080
-25.305872 -38.965569 6.574503 -27.514624
-105.495800 -128.845661 12.908045 -70.302438
-88.786377 -112.183245 17.089910 -80.353815
-46.047427 -110.983662 22.715211 -47.109327
-81.773919 -119.502233 7.799441 -80.614731
-68.355168 -112.924138 34.282913 -54.383792
-98.251403 -144.245933 1.416165 -97.636547
-59.726378 -107.512589 18.861042 -50.171690
-61.229352 -94.561438 16.103167 -46.737237
-61.335150 -121.554692 -6.712936 -54.866953
-49.726514 -138.829764 18.745356 -56.566883
-90.025012 -109.106044 -18.054144 -79.697337
-93.590255 -139.752299 -1.316338 -94.165400
-85.955299 -92.108298 -0.211591 -53.419079
-69.819870 -128.672295 -3.647731 -59.547650
-95.304444 -110.249999 -11.107975 -81.201612
-103.032338 -151.540059 5.552151 -103.067528
-91.959647 -103.212311 -19.303476 -78.023448
-60.916342 -133.838543 19.313043 -58.426465
-72.038789 -176.335014 -15.347796 -74.512141
-68.574145 -172.540310 -11.851783 -72.334336
-65.782443 -114.053092 5.176373 -53.950661
-62.125115 -146.152692 31.861754 -62.483342
-64.626030 -129.892470 13.623382 -58.355550
-64.304052 -143.266904 30.274917 -62.271287
-119.615146 -159.726139 -17.875870 -113.515417
-58.216497 -160.287186 -1.649814 -65.551105
-120.632139 -129.165757 -24.141114 -101.034578
-68.824873 -171.701424 -8.723019 -72.157889
-102.621757 -169.535116 -36.739473 -81.647062
-72.769438 -160.473854 -15.408722 -69.972988
-129.074686 -239.153255 -56.720875 -110.468382
-113.269028 -122.236199 -22.954117 -94.997027
-46.266023 -58.181430 -11.270636 -39.814608
-82.675008 -161.608984 -23.980450 -73.285198
-78.278013 -151.840145 19.623742 -69.035447
-86.556876 -74.929543 16.304263 -63.891600
-55.546501 -66.418441 -13.124196 -47.173804
-100.292318 -116.790494 7.844641 -65.124843
-94.733906 -122.385419 3.533693 -65.135798
-80.863134 -117.747309 9.255478 -79.264715
-112.811553 -137.686501 16.717226 -100.832575
-91.885284 -137.982193 -0.422071 -92.494202
-162.126181 -234.477967 -5.212224 -162.756994
-96.565851 -132.244669 14.243396 -92.194373
-73.976882 -205.953627 12.424622 -83.979153
-192.748749 -276.977610 4.826557 -193.608859
-92.944121 -191.195078 13.847644 -85.241760
-113.710504 -189.183864 13.692072 -90.868310
-79.652296 -199.111647 11.390623 -83.629183
-80.635331 -200.752162 16.776713 -84.416248
-89.549346 -166.011371 21.562877 -76.668215
-80.772921 -192.013759 18.252636 -81.836004
-66.893778 -102.883041 0.151076 -68.154816
-84.229099 -173.030248 13.494081 -77.177804
-81.972591 -142.347405 1.799932 -67.295999
-13.792932 -118.877088 -21.183220 -39.801006
-75.231073 -147.136985 5.516335 -66.710417
-110.518681 -151.016242 6.924861 -78.460477
-89.739804 -189.679967 23.113511 -83.825931
-84.673392 -173.624456 19.448685 -77.489354
-82.248404 -152.846785 13.438435 -70.528557
-80.327694 -136.063702 1.404601 -64.917419
-81.775358 -192.997924 20.038959 -82.431985
-97.646732 -195.343117 11.883110 -87.896955
-85.429601 -181.998929 21.683551 -80.228559
-109.588054 -173.944134 32.938301 -85.059656
-92.959380 -127.016145 -14.042040 -88.503014
-90.865782 -126.839175 -12.497678 -87.771019
-92.006832 -174.437334 24.519311 -79.933250
-100.191307 -144.139923 10.125698 -98.609839
-98.433373 -123.967176 -18.223476 -89.539995
-117.679526 -135.534846 -23.082090 -102.513768
-117.361666 -161.176286 29.479645 -83.561386
-84.743754 -120.560560 -10.740344 -82.494166
-61.264716 -74.534852 -13.703231 -53.079173
-89.490708 -97.084664 -18.986403 -74.440699
-34.623660 -30.186447 -9.226807 -25.372223
-64.114221 -94.587371 -7.921372 -64.035691
-100.131179 -191.091710 21.564982 -87.366867
-76.115743 -137.948932 6.088567 -64.219403
-62.724693 -92.861220 -7.520788 -61.398301
-97.447465 -139.875221 18.682537 -71.196806
-76.044011 -115.407107 1.945001 -76.727808
-89.378477 -126.524559 11.566535 -86.665695
-68.831850 -169.946424 -26.871229 -71.633482
-91.971675 -104.138262 -19.201096 -78.449280
-61.184537 -129.969274 -32.035557 -57.346143
-66.689301 -140.922028 -20.214910 -62.283399
-43.232774 -95.709132 -26.524959 -41.682572
-55.488320 -141.500730 -29.818277 -59.096715
-72.722680 -95.983462 -25.652787 -50.611842
-102.151734 -118.125234 -20.689430 -88.551646
79.210454 -68.810084 5.066812 3.120111
-57.255652 -104.978606 13.983988 -48.670277
-49.488420 -118.056570 10.575551 -50.263497
-27.857103 -49.292671 0.377040 -28.134077
20.914597 18.690764 0.348730 18.657343
-53.095596 -94.461130 -25.162790 -44.267018
-58.350877 -90.894714 2.340865 -58.630403
-44.206585 -98.483114 8.458907 -42.806910
-26.204525 -93.127904 7.719831 -35.799729
-46.789688 -117.341737 10.460601 -49.239428
-8.405375 -71.353328 11.492543 -23.927611
-42.969975 -109.825571 13.115856 -45.838664
-27.363816 -103.882728 8.093351 -39.373963
-56.801385 -97.594515 -3.778544 -46.318770
-10.135534 -19.964486 -4.596141 -9.660587
-53.220029 -161.255582 -15.727265 -64.342683
25.237648 -47.617334 20.905068 -6.713906
-47.553929 -132.467234 -26.682664 -54.006349
-117.815342 -163.611388 14.630440 -114.283412
-167.917807 -217.430537 25.546155 -158.049887
-30.536284 -49.767615 5.287461 -29.934181
-101.968813 -139.805405 14.779352 -97.553581
-90.761734 -130.757613 9.793515 -89.094293
-43.728456 -166.006561 -31.377721 -62.920505
-88.558578 -163.638071 26.400749 -75.658995
-30.757134 -51.408404 -3.568127 -31.216991
-31.694952 -108.367715 2.566810 -42.018800
-63.458399 -93.007382 3.516469 -46.939734
-116.527784 -131.875571 -9.544703 -93.802098
-117.445213 -153.854868 8.649422 -109.692123
-141.207162 -166.098930 13.316620 -92.191828
-141.185868 -184.069008 18.563013 -97.576463
-138.393191 -171.987895 11.421785 -93.114326
-119.190069 -158.984289 -7.755225 -110.288165
-121.893693 -158.397118 29.724365 -84.087243
-118.879444 -153.833164 7.739001 -108.629529
-135.366983 -159.021637 12.100923 -88.316586
-97.830894 -141.232724 9.924077 -96.328642
-145.339712 -161.799092 9.780965 -92.141641
-134.887318 -242.383472 33.284011 -113.181237
-134.577061 -126.340632 0.798152 -90.745400
-98.132401 -158.698106 17.634355 -77.049152
-134.994825 -166.131571 5.232451 -90.337919
-118.890746 -127.760101 -12.405717 -94.365566
-126.939524 -171.436822 -4.086053 -89.512904
-130.945644 -162.323718 18.694408 -87.980809
-119.722402 -165.047114 5.358957 -113.034894
-111.848047 -92.146242 18.259444 -81.798129
-116.116667 -167.556508 -3.361384 -113.730841
-108.777806 -225.633155 22.655359 -100.323289
-100.207197 -131.735404 16.763854 -94.104529
-196.718904 -247.411886 31.336298 -182.840589
-132.029960 -164.516646 20.078973 -119.715351
-96.691365 -201.157351 22.869313 -89.354615
-41.105511 -149.278770 17.144222 -57.115285
-50.844325 -75.868373 7.485104 -53.744172
-144.025789 -205.731840 46.613439 -104.927289
-116.114090 -152.960526 15.371342 -108.882604
-108.708632 -155.319091 11.113635 -107.275533
-112.792947 -187.150602 18.466914 -89.983065
-89.245491 -128.584246 10.022804 -88.156951
-167.553161 -236.302217 14.163004 -165.742254
-119.149684 -224.573497 19.917235 -103.116954
-91.130051 -127.870482 12.078990 -88.099941
-172.725503 -247.059931 9.073821 -172.646608
-94.484242 -130.247766 -1.779827 -90.598303
-18.867954 -162.701679 21.841697 -54.470890
-142.008869 -204.638720 8.736132 -141.696016
-120.383565 -165.838830 15.839239 -116.172808
-71.564765 -134.732756 3.880543 -61.889256
-64.262655 -98.871005 -3.887306 -69.580306
-127.370035 -174.259752 16.485991 -122.911095
-133.261449 -184.053124 1.652357 -129.459720
-104.616591 -151.061592 9.271039 -103.495337
-88.752598 -61.978463 -2.851297 -57.505269
-84.454148 -109.255194 15.806603 -77.322852
-81.524405 -121.773519 4.869303 -84.147010
-112.928056 -184.950885 24.544117 -89.363682
-101.233400 -146.295393 9.103910 -100.410529
-60.268730 -92.136011 -4.792115 -66.368573
-152.707583 -206.588428 20.028174 -146.969053
-110.282780 -171.894784 22.439372 -84.653269
-146.160478 -376.069347 34.921267 -156.668947
-111.825526 -188.874225 22.663249 -90.209925
-137.305238 -198.369700 7.529969 -137.221055
-273.925158 -283.957911 49.256851 -230.751402
-146.393994 -202.582122 30.242274 -104.692835
-114.852199 -210.774180 34.422225 -97.687913
-108.670975 -184.451274 9.633947 -87.936675
-138.033498 -191.410685 15.953787 -134.482967
-111.487612 -192.713291 31.912913 -91.260271
-118.037098 -176.003126 9.883785 -88.212067
-108.344702 -181.356918 32.183701 -86.910486
-118.120755 -181.403326 28.946314 -89.857224
-116.832707 -164.825307 13.421845 -114.116893
-116.704931 -191.982338 31.672046 -92.606181
-105.576423 -133.222372 19.300910 -96.299293
-132.546685 -183.892439 15.281848 -129.131438
-114.770046 -171.756493 31.745005 -85.957962
-123.917432 -157.689550 21.179582 -114.436659
-99.030614 -116.089098 18.602938 -86.866488
-95.825670 -132.834817 13.582001 -92.310659
-91.609027 -129.894645 11.165845 -90.166613
-116.651670 -158.256389 35.116724 -82.472418
-127.191038 -126.367798 39.000635 -76.067651
-103.265473 -115.211747 9.734810 -85.451880
-126.197649 -126.490837 39.047497 -75.806546
-92.646046 -117.441119 17.474180 -84.310570
-94.074176 -123.582647 16.392228 -87.386028
-121.847767 -160.801590 19.427787 -114.597415
-103.559067 -132.053616 18.711329 -94.954497
-132.524963 -153.784294 25.277578 -116.511035
-95.833852 -120.592779 17.886037 -87.135225
-126.444243 -210.121054 28.001746 -100.969589
-123.641558 -139.198153 24.309243 -106.984873
-127.847948 -169.895330 2.494179 -117.264494
-130.182460 -156.296630 40.317790 -85.943727
-162.416066 -198.337653 28.227616 -147.805254
-123.784714 -141.140986 11.920439 -100.135490
-132.788729 -154.570649 15.209345 -110.200244
-111.734484 -109.034275 22.090310 -88.842939
-99.129126 -147.667966 11.305034 -74.039128
-124.199231 -119.816593 23.916704 -98.632102
-96.309557 -122.664768 8.413105 -85.044980
-131.197501 -136.790003 36.328498 -80.396251
-96.523160 -117.379225 26.157851 -64.170715
-124.663048 -135.396508 24.722453 -105.476441
-92.136507 -126.904069 56.246930 -65.712173
-123.234900 -136.490984 35.702142 -77.917765
-99.366858 -118.930010 28.306379 -65.489061
-114.576280 -117.641396 32.671334 -69.665303
-114.947315 -131.789350 33.229968 -74.020999
-106.120886 -131.319839 30.082559 -71.232218
-87.410968 -116.367795 24.661496 -61.133629
-105.883826 -129.715333 29.857092 -70.679748
-97.821758 -145.037461 24.472725 -72.857766
-91.983789 -120.020699 23.307778 -63.601347
-77.284416 -109.652133 25.483176 -56.080965
-86.514729 -114.816517 24.701078 -60.399374
-81.916228 -113.107234 26.121122 -58.507039
-81.343912 -108.042677 27.796415 -56.815977
-75.395133 -109.294999 27.162948 -55.407040
-50.365330 -83.283050 22.644726 -40.094514
-76.376190 -95.627437 23.705556 -51.601088
-85.397398 -114.123580 25.949490 -59.856293
-82.890104 -113.106718 24.851246 -58.799047
-121.480341 -122.157216 37.170780 -73.091267
-129.635920 -119.349796 41.952964 -74.695715
-108.373459 -103.965243 28.839787 -63.701611
-116.194024 -106.400760 32.887557 -66.778435
-117.772334 -124.585870 23.116318 -96.981672
-152.872760 -143.169774 60.330449 -88.812760
-120.825541 -124.535705 35.459704 -73.608374
-128.545326 -128.378395 37.755955 -77.077116
-108.852400 -130.171753 19.998844 -96.517584
-130.982643 -178.356427 17.269015 -126.180816
-125.093415 -110.583332 36.036059 -70.703024
-110.765188 -129.814839 21.670580 -97.510624
-94.693350 -90.031691 10.728244 -69.479385
-119.904602 -159.315632 18.230133 -113.475803
-126.555886 -116.354016 41.291471 -72.872971
-94.492109 -107.928119 17.057098 -80.006905
-109.299230 -104.219929 25.356482 -64.055748
-89.360028 -118.219298 15.331398 -83.293812
-77.378703 -106.811097 23.469777 -55.256940
-71.841414 -95.739057 13.203943 -66.453301
-85.474841 -103.210596 24.796418 -56.605631
-86.348457 -98.429428 24.537868 -55.433365
-51.226073 -55.265019 35.650915 -31.947328
-75.450626 -96.190767 25.046150 -51.492418
-53.796263 -91.195109 23.297037 -43.497412
-57.229615 -65.519841 30.291118 -36.824837
-62.724695 -98.847297 23.549875 -48.471598
-61.646122 -101.353569 25.753238 -48.899907
-58.889672 -97.866439 24.438820 -47.026833
-50.367243 -97.511190 31.256688 -44.363530
-69.711725 -104.934721 25.657098 -52.393934
-65.651453 -88.071415 26.403543 -46.116860
-64.019193 -101.531741 24.068978 -49.665280
-74.954916 -107.791711 27.701386 -54.823988
-81.147161 -110.572027 26.525958 -57.515756
-74.872278 -108.833776 25.222325 -55.111816
-81.469040 -111.022490 26.720357 -57.747459
-40.767372 -95.298029 29.241295 -40.819621
-85.121349 -112.570576 25.330533 -59.307577
-91.888460 -104.423336 26.905088 -58.893539
-98.611099 -112.352435 21.135092 -63.289060
-57.020882 -80.762989 37.874575 -41.335162
-71.645223 -100.556640 31.854044 -51.660559
-66.062665 -68.133050 34.883396 -40.258715
-80.773211 -97.477459 31.215822 -53.475201
-66.422243 -82.204825 14.285830 -58.436432
-64.528280 -104.063791 26.155236 -50.577621
-44.515462 -94.770929 31.754973 -41.785917
-68.673163 -105.628584 27.949940 -52.290524
-76.487560 -108.391685 27.635786 -55.463773
-53.500286 -99.419077 28.851335 -45.875809
-78.467363 -104.786545 29.964884 -54.976173
-31.697729 -85.893956 14.722070 -35.277506
-52.390971 -95.240020 24.579778 -44.289297
-49.061177 -98.459146 29.624578 -44.256097
-54.375032 -98.413047 25.503928 -45.836424
-42.954335 -90.730580 34.823035 -40.105475
-41.115388 -97.329258 29.215624 -41.533394
-40.557329 -57.476853 18.762856 -29.410255
-44.439570 -82.390143 32.148024 -38.048914
-109.606331 -89.993677 49.384690 -59.880002
-41.854891 -41.805689 11.016294 -31.106699
-43.760222 -90.469243 35.969901 -40.268840
-45.108251 -45.605034 11.650943 -34.029685
-143.597336 -136.488896 26.753511 -113.775080
-33.891421 -56.041533 22.367342 -26.979886
-34.446388 -92.426439 20.389344 -38.061848
-46.944320 -91.635753 46.013020 -41.574022
-60.874227 -67.126062 42.977805 -38.400087
-61.636888 -73.525403 14.038490 -52.738994
-49.472373 -64.328982 26.940097 -34.140406
-39.020794 -57.693050 16.880077 -29.014153
-53.666854 -74.516000 28.075386 -38.454856
-50.101194 -88.455167 22.161895 -41.566908
-50.715851 -70.704973 26.234544 -36.426247
-57.710872 -88.003709 24.028087 -43.714374
-61.997204 -90.992546 8.161930 -60.301118
-62.327585 -71.028708 14.432453 -52.010716
-57.316292 -81.750659 9.580551 -54.416779
-65.936515 -88.754116 12.276728 -61.027864
-45.113056 -51.170889 11.728309 -36.363387
-38.646887 -60.098160 4.102757 -36.635523
-62.219035 -87.930464 10.187292 -59.103381
-51.002873 -57.640125 27.969043 -32.592899
-64.518056 -73.536809 14.762545 -53.999189
-62.684581 -84.449283 11.925454 -57.848071
-55.723250 -85.765441 -2.275886 -54.720106
-39.700520 -52.959907 9.679578 -34.908011
-32.985108 -52.894850 5.154507 -32.085455
-33.975564 -55.258318 4.285380 -33.452602
-52.031254 -103.489196 9.088498 -46.656135
-50.510679 -146.330310 10.165543 -59.052297
-43.645150 -98.302910 8.998607 -42.584418
-47.949856 -105.113952 4.404015 -45.919142
-52.717157 -114.384728 9.144200 -50.130566
-60.682262 -113.020373 7.515950 -52.110791
-64.118241 -137.174845 12.702284 -60.387926
-61.898553 -127.556630 7.392143 -56.836555
-56.341306 -96.300805 19.970457 -45.792633
-51.981459 -69.718428 44.812652 -36.509966
-43.340587 -63.872854 7.862253 -41.021994
-60.797243 -73.061428 0.464419 -45.450692
-78.990634 -109.322668 12.292536 -75.153382
-59.108584 -75.133078 36.674527 -40.272499
-67.239580 -95.699215 10.080151 -64.491786
-84.109732 -110.400367 15.052799 -77.798465
-86.257514 -114.934653 14.695651 -80.607266
-70.692546 -98.209693 11.556929 -66.972357
-79.758829 -107.681866 13.498573 -74.816765
-87.974329 -114.433001 15.828093 -81.120473
-135.167866 -188.100458 -14.970747 -132.093263
-77.127978 -111.088160 9.660688 -75.098529
-104.454556 -151.749319 8.066114 -103.777623
-73.051161 -100.604942 12.121242 -68.975691
-84.081410 -150.961947 -3.089284 -70.513007
-77.514280 -106.946737 12.310472 -73.551762
-74.450622 -140.686517 9.030475 -64.541142
-84.594626 -153.288153 -0.257395 -71.364834
-24.566287 -20.763650 7.674099 -15.339153
-76.048309 -138.025663 5.807391 -64.222192
-70.660851 -139.907281 3.954953 -63.170440
-111.150144 -162.534991 7.295596 -110.869625
-72.749045 -138.608997 3.603386 -63.407413
-50.984086 -139.736087 -0.912566 -57.216052
-78.673286 -146.457461 1.415135 -67.539224
-95.639443 -140.145472 7.960864 -94.907434
-49.452363 -147.951050 8.727854 -59.221024
-70.847675 -102.936398 9.013085 -74.129683
-133.404150 -237.376418 55.085110 -111.234171
-76.029568 -151.916365 15.310448 -68.383780
-75.572142 -151.507634 4.072416 -68.123933
-87.127189 -177.346573 12.733381 -79.342129
-71.333944 -131.759062 6.916992 -60.927902
-96.656354 -144.228156 1.641727 -97.239703
-69.241080 -141.005584 9.841769 -63.073999
-82.613376 -122.074462 7.177768 -82.021174
-70.502329 -146.024317 4.777644 -64.957994
-75.342985 -156.931538 6.393410 -69.682357
-69.409180 -129.691298 12.047248 -59.730143
-56.966386 -118.992691 7.579034 -52.787723
-65.277119 -131.126790 11.983558 -58.921173
-39.938178 -102.960048 -3.353884 -42.869468
-65.950182 -131.289671 5.055876 -59.171956
-58.281327 -124.819430 8.011824 -54.930227
-72.511470 -128.262475 4.291012 -60.232184
-66.039099 -125.915843 7.263163 -57.586482
-51.986888 -116.153192 9.635735 -50.442024
-47.130268 -103.424701 9.675284 -45.166490
-54.115236 -112.926202 8.754540 -50.112431
-66.966197 -123.881973 5.721306 -57.254451
-49.834124 -107.503495 2.365163 -47.201286
-45.160544 -106.294763 11.539833 -45.436592
-60.144317 -127.098532 8.145525 -56.172855
-49.360607 -117.120861 6.298267 -49.944441
-41.061868 -113.888776 6.821185 -46.485193
-53.404523 -114.772902 8.988313 -50.453227
-37.542741 -110.299206 11.240810 -44.352584
-39.975628 -88.328602 8.325148 -38.491269
-74.843248 -105.511936 -8.988742 -71.851095
-48.017844 -112.935644 11.279405 -48.286046
-120.408220 -150.689451 -21.566121 -109.926915
-51.369574 -82.982340 -8.250755 -40.305574
-42.515356 -92.511416 10.018579 -40.508032
-37.341349 -58.275271 5.950683 -36.101132
-53.933151 -97.705792 14.126566 -45.491683
-40.202071 -95.629771 9.349550 -40.749553
-58.211447 -84.243471 8.874873 -55.534511
-38.931604 -90.904054 8.826338 -38.950697
-60.205186 -88.029050 8.260857 -57.942478
-46.134465 -108.060218 15.376537 -46.258405
-43.630776 -101.517367 10.635008 -43.544443
-42.987161 -101.217815 12.042643 -43.261493
-37.468576 -89.791216 7.361495 -38.177938
-45.949563 -105.662659 10.666048 -45.483667
-45.471358 -104.632598 9.930087 -45.031187
-41.528916 -99.135215 9.323563 -42.199239
-35.331880 -90.637416 7.517435 -37.790789
-43.672042 -107.391175 10.182377 -45.318965
-24.061649 -96.850960 15.101610 -36.273783
-37.648771 -56.102925 7.373973 -35.512621
-47.769940 -71.225657 7.507717 -45.945701
-23.319427 -93.198961 9.638398 -34.955516
-47.149812 -73.963603 3.513495 -46.412548
-44.738447 -49.822014 7.091500 -32.321093
-58.413279 -86.887910 7.344016 -57.054622
-38.166036 -87.496229 8.543139 -37.698679
-31.821584 -85.173300 5.896630 -35.098465
-58.218482 -83.829297 9.119920 -55.544442
-55.419619 -80.399605 8.756193 -53.063957
-45.098348 -67.746046 7.143504 -43.390639
-22.653095 -59.628610 -2.165112 -24.684512
-18.506811 -40.653006 4.045270 -17.747945
-23.064307 -58.932114 3.881110 -24.598926
-25.073041 -52.438673 4.971840 -23.253514
-35.136356 -60.808334 8.341875 -28.783407
-58.836905 -80.368323 10.883544 -53.977543
-39.800398 -56.462157 6.722688 -35.237585
-23.104075 -41.039591 5.967287 -19.243100
-21.939904 -41.003882 5.177438 -18.883136
-32.290900 -53.000993 8.016693 -25.587568
-24.450750 -43.026917 6.097253 -20.243300
-46.193537 -63.217835 5.961817 -39.926030
-1.478800 -3.435394 4.514852 -1.474258
-29.638997 -39.907503 -0.671052 -23.059609
-17.110280 -36.187939 3.179974 -15.989466
-32.729606 -72.361993 0.970497 -31.527480
-6.389549 -44.991681 -0.527045 -15.414369
-33.327054 -55.444966 2.930000 -33.248830
15.074062 11.241275 1.435859 10.827610
-28.387788 -49.870855 1.731206 -28.562079
-63.584462 -97.708196 3.044404 -63.770695
-63.407766 -87.835039 11.104194 -59.550658
-29.658128 -47.576743 5.589709 -28.336358
-41.795995 -62.499088 7.358698 -39.786406
-51.058204 -94.818050 -8.158105 -43.762876
-47.220357 -73.235946 5.152581 -46.711664
-29.563313 -50.444689 2.507710 -30.189496
-53.026912 -84.127429 0.281752 -53.459278
-41.790918 -65.370759 5.601742 -40.870907
-3.771734 -13.555982 2.965784 -5.198315
11.147005 7.205100 2.006606 6.448425
-11.606521 -86.464610 -2.470327 -29.421339
-83.285845 -114.718476 12.825944 -79.253020
-32.974118 -56.004773 1.438050 -33.196090
5.671658 -67.282924 -16.486631 -18.483380
-37.157380 -90.245173 -3.759345 -38.220766
1.264623 -46.308033 -1.621466 -13.513023
34.442319 -38.063941 -9.054806 -1.086487
-7.942019 -68.167106 -2.899485 -22.832737
5.063569 0.412348 2.996281 1.642775
-4.466085 -48.934295 -10.327171 -16.020114
-12.578914 -39.543529 3.772147 -15.636733
72.566680 -27.739303 -38.372804 13.448213
-10.230865 -51.084293 -1.357936 -18.394547
-5.830093 -44.784284 6.604450 -15.184313
-8.135659 -41.152943 1.575620 -14.786581
5.346451 -61.460055 -0.522852 -16.834081
58.595680 57.261046 0.195647 56.895329
-7.980401 -49.899902 1.108863 -17.364091
-10.222427 -71.649752 -8.475337 -24.561654
-1.670167 -60.224888 9.840648 -18.568517
-4.994677 -15.001725 -0.110747 -5.998921
-6.931707 -43.504646 4.786631 -15.130906
-9.335488 -37.126428 3.192321 -13.938575
2.832089 -1.123608 -2.369725 0.512544
2.753635 -6.208310 -0.319608 -1.036403
-0.977117 -1.697372 -0.590488 -0.802347
-6.709463 -18.671759 0.373621 -7.614367
-5.935233 -16.348928 0.872896 -6.685248
-4.196281 -19.553820 1.858065 -7.125030
1.412610 -1.808199 -1.149108 -0.118677
-8.532392 -26.288759 2.777527 -10.446345
-8.940839 -37.782549 3.948912 -14.017016
-9.126156 -30.736827 4.299665 -11.958895
-7.250427 -36.051436 3.159257 -12.990559
-10.275608 -30.540067 4.793402 -12.244703
-7.846110 -25.767612 3.138811 -10.084117
-3.019237 -6.414466 -0.731178 -2.830111
-5.713355 -10.034682 2.966467 -4.724411
-10.915358 -31.427741 2.745556 -12.702930
-9.397747 -36.859222 2.563725 -13.877091
-3.650634 -1.982907 0.512882 -1.690062
-9.194901 -2.958822 2.873555 -3.646117
-5.489380 -25.320596 7.050276 -9.242993
-5.880781 -5.206129 1.857427 -3.326073
-3.920777 -9.865967 4.486008 -4.136023
-4.974081 -7.217975 0.595845 -3.657617
-6.138875 -6.503257 5.451389 -3.792640
-0.360651 -4.238971 4.175972 -1.379887
5.317863 -1.625494 1.893016 1.107711
-3.592224 -11.290746 3.823875 -4.464891
27.463189 -32.291298 25.361449 -1.448433
-0.726484 -3.378096 4.552741 -1.231374
-21.508612 -39.877118 -0.198450 -21.892955
-2.199704 -8.411665 4.030693 -3.183411
-8.721275 -42.019341 2.218364 -15.222185
-5.981820 -36.127942 3.190721 -12.632929
-12.055401 -38.389007 3.320518 -15.133322
15.196011 11.599467 1.415616 11.190523
-8.858725 -39.321728 2.856717 -14.454136
-5.098859 -14.189257 3.979798 -5.786435
13.238503 10.306932 1.944217 9.398724
-52.498924 -78.615519 7.590939 -50.853867
-15.377629 -27.236336 5.203231 -13.660237
-36.976678 -85.175412 4.089654 -36.645627
-8.705470 -33.129037 8.455885 -12.550352
-19.322853 -47.494950 6.513670 -20.045341
-11.248964 -32.151965 3.101897 -13.020279
-3.235382 -13.114532 1.946436 -4.904974
-37.771056 -35.148743 10.062495 -26.611811
-20.999104 -35.423243 5.189941 -16.926704
-28.752989 -26.882106 8.667824 -19.104741
1.676706 -4.850494 3.087110 -0.952136
-24.426606 -26.124023 8.320470 -17.141709
0.061606 -1.909093 4.314789 -0.554246
-29.160791 -32.087090 9.108297 -21.648535
-17.498532 -22.911464 7.044575 -12.859930
-14.208043 -27.444250 3.781941 -13.408438
-23.414355 -22.848039 7.820968 -15.075935
-15.368956 -26.440657 5.245266 -13.480179
-25.253477 -31.156208 8.374467 -19.560796
-33.190667 -54.067155 8.494888 -26.177347
-14.786445 -21.764963 6.303427 -11.264254
-19.999281 -14.388175 6.410496 -10.380874
-28.391320 -26.125841 8.558542 -18.853427
-8.254363 -14.273164 1.760837 -6.758258
-4.899045 -9.540392 1.995482 -4.331831
-3.097590 -10.237804 3.913745 -4.000618
-14.670455 -32.109187 5.558939 -14.033892
-14.043309 -27.415562 3.551552 -13.603272
-3.347452 0.297194 0.197023 -0.915078
-0.303761 3.861769 1.601940 1.067402
-9.003594 -7.780334 1.808312 -5.035178
-14.654035 -7.990709 4.568782 -6.793423
-0.102955 -0.360983 4.259418 -0.139181
-15.760749 -11.028508 4.611798 -8.036777
-10.957307 -17.988826 5.564990 -8.683840
-4.999435 -5.621224 3.274564 -3.186198
-11.915687 -23.246510 4.232377 -10.697436
-5.212316 -8.543668 5.169592 -4.126795
-8.890054 -10.552845 5.865591 -5.832870
-0.270234 -4.634296 4.141143 -1.471359
-17.228373 -18.322025 7.202029 -10.775114
-6.996035 -12.518653 5.198460 -5.854407
-2.015759 -7.833835 4.170274 -2.954878
-1.183554 -8.389563 3.532079 -2.871935
-10.521147 -16.791607 5.686627 -8.193826
3.590527 1.447191 3.789532 1.511316
-16.475346 -12.853283 2.703267 -8.798589
-26.477573 -43.723014 4.881019 -25.453650
-0.923824 -11.067993 1.181921 -3.597545
-9.189516 -7.038729 5.462461 -4.868473
-15.674864 -26.576665 1.759586 -13.346561
-5.315751 -5.042435 5.186669 -3.107456
-14.264669 -14.783657 5.346604 -8.714498
-14.107437 -5.344749 3.650930 -5.835656
-12.574333 -13.897243 6.325273 -8.308005
-16.763171 -16.891250 2.660009 -10.110806
-8.586887 -4.544634 4.888649 -3.939456
-16.048168 -14.057103 6.574965 -9.031581
-34.620878 -44.581863 9.528376 -29.145803
-19.579308 -23.063202 7.564438 -13.764074
-15.473787 -5.716333 1.634774 -6.357036
-4.975775 -5.869449 3.849111 -3.253567
-28.096351 -31.730523 8.968481 -21.011868
-19.470465 -24.757318 7.441633 -14.436789
-69.981634 -84.619774 15.207015 -60.893971
-36.460600 -49.092858 24.153627 -25.666037
-13.537897 -12.996638 -0.792473 -7.960360
-13.953934 -10.117613 4.469432 -7.221464
-15.811229 -14.554371 6.647092 -9.109680
-10.686439 -9.612259 5.846923 -6.089609
-19.780310 -17.637824 7.168702 -11.873913
-9.434747 -9.024423 5.725029 -5.537751
-20.478941 -18.969685 7.377286 -12.506625
-21.155421 -20.203157 7.562109 -13.303041
-23.228998 -26.698181 16.047758 -14.978154
-14.536073 -18.292867 6.655618 -9.848682
-21.857527 -15.708020 6.582195 -11.711662
-21.155897 -26.626029 13.750258 -14.334578
-6.018597 1.444202 2.661870 -1.372319
-12.076000 -7.624979 5.363891 -5.910294
-44.580366 -65.454377 36.582263 -33.010423
-14.211763 -12.614457 6.351840 -8.228763
-28.680964 -41.667502 10.948715 -21.104540
-16.429705 -12.485260 6.271383 -8.674489
-29.184489 -36.463914 10.080728 -19.694521
-21.637698 -30.982629 10.439592 -15.786098
-29.300546 -37.375182 10.814716 -20.002718
-19.664840 -14.942518 6.609824 -10.483850
-36.916688 -38.330626 10.378465 -27.508178
-54.694769 -64.029298 11.836689 -44.733404
-25.255766 -38.806984 13.714859 -19.218825
-10.989787 -15.585743 5.939488 -7.972659
-42.539805 -47.612133 9.939474 -32.653679
-18.745615 -19.417965 7.344648 -11.936337
-49.983041 -51.106483 9.592954 -36.141012
-40.293865 -58.269245 8.400676 -37.304268
-42.866170 -54.246529 6.785102 -34.293472
-69.295335 -80.195668 15.409047 -58.833846
-51.009852 -47.370854 12.146687 -37.238217
-35.372361 -29.350524 8.991918 -23.130154
-98.467721 -70.384611 11.281329 -66.896579
-23.684995 -30.253388 8.069682 -18.501815
-38.369968 -17.764651 45.874133 -16.840386
-45.901971 -60.857522 5.609225 -41.449159
-53.252715 -64.965106 31.682544 -35.465346
-30.316546 -40.580052 18.486902 -21.268979
-52.878545 -69.555625 11.430871 -47.441615
-37.627120 -55.692554 7.679668 -35.131774
-20.848991 -14.694645 6.472544 -11.024179
-47.966077 -56.881633 12.000877 -39.977820
-65.894406 -93.653332 10.177470 -63.020012
-44.914197 -63.012102 9.385274 -41.275927
-53.656651 -53.737272 10.682496 -39.191582
-33.453608 -49.468099 7.470749 -31.416860
-58.605530 -68.148368 13.774790 -49.201391
-41.737560 -56.919740 9.663917 -37.363730
-46.723295 -67.416059 8.804855 -43.854008
-48.611809 -65.031891 10.627269 -43.746593
-81.893546 -71.724046 15.946599 -60.516328
-36.759388 -33.172317 9.776164 -25.299296
-52.718895 -56.974546 13.028533 -42.006791
-58.264144 -70.324517 13.439166 -49.963347
-74.315362 -62.533986 14.243315 -53.420084
-73.327817 -77.300163 16.365519 -59.273247
-13.757230 -9.638702 5.831851 -7.848908
-34.300807 -44.656453 14.395749 -23.687178
-32.547352 -76.987055 18.575970 -32.860322
-37.104345 -50.591686 9.114237 -32.812695
-54.118640 -69.403931 35.277983 -37.056771
-49.202580 -59.215166 25.646874 -32.525324
-55.226329 -68.271086 36.377097 -37.049225
-41.461274 -87.414665 34.908193 -38.662782
-25.227315 -26.229127 8.411539 -17.530075
-44.583007 -54.312569 18.966068 -29.668673
-33.704320 -33.580631 14.221522 -20.185485
-11.878707 -26.481079 0.547205 -12.396231
-54.039133 -69.225324 35.317944 -36.979337
-51.821578 -95.968071 41.550903 -44.336895
-29.344328 -34.605552 10.238101 -19.184964
-35.400338 -54.850685 19.330506 -27.075307
-16.552034 -5.493229 2.312552 -6.613579
-25.464500 -18.869524 7.100748 -15.121321
-140.651615 -137.504293 26.738280 -113.002373
-114.065196 -134.093110 24.153650 -74.447492
-99.277789 -104.034961 19.693566 -80.360132
-89.941683 -106.975870 25.610344 -59.075266
-114.227620 -120.544028 16.336510 -70.431494
-101.973769 -101.770431 20.750733 -81.671068
-103.299627 -88.273671 18.292958 -76.538733
-85.079071 -86.907791 18.142970 -68.309757
-88.030412 -110.354820 49.699788 -59.515570
-70.357934 -102.693138 40.992386 -51.915322
-101.818795 -85.972639 47.604610 -56.337430
-73.060996 -98.679813 40.838141 -51.522243
-108.684567 -116.482875 22.175013 -90.674441
-102.099008 -96.713432 20.176161 -79.595536
-118.590198 -125.325374 23.779492 -98.577128
-105.741513 -92.006635 40.234922 -59.324444
-117.035595 -121.601352 43.740738 -71.591084
-86.328001 -130.195469 56.834825 -64.957041
-154.980234 -170.518512 29.594098 -132.961440
-110.385638 -126.018632 70.540197 -70.921281
-91.241060 -51.158591 39.858410 -42.719895
-99.249424 -77.422496 54.709449 -53.001576
-79.634636 -58.688863 32.400908 -41.497050
-101.303004 -84.921958 48.887460 -55.867489
-14.214376 -5.736824 4.022641 -6.933509
-52.811949 -45.784383 20.420475 -29.578900
-29.702904 -43.830511 27.311931 -22.060024
-73.139299 -82.475932 29.870456 -46.684569
-86.232581 -104.851867 17.362965 -76.353878
-92.850487 -129.629489 45.428834 -66.743993
-61.808855 -134.653756 13.367284 -58.938783
-57.980947 -44.818587 10.696726 -39.351947
-58.066109 -43.400722 10.076030 -38.833695
-56.693876 -42.424471 9.966413 -38.863309
-43.878474 -45.275177 11.422196 -33.439863
-65.629777 -53.413176 12.462635 -46.013568
-51.807185 -43.448837 11.203231 -38.145288
-37.812405 -28.839101 8.534853 -26.252231
-21.836757 -34.281301 12.863421 -16.835417
-62.842497 -62.015353 14.374500 -48.432434
-36.901424 -52.118279 28.660677 -26.705911
-56.825122 -52.452786 37.000759 -32.783372
-16.881757 -27.232800 5.849815 -15.676054
-15.302219 -22.080110 3.355839 -11.971298
-15.707978 -17.481500 6.856053 -10.224935
-33.335329 -41.417375 21.409499 -22.425811
-84.764308 -83.522565 17.871948 -66.735888
-63.252704 -65.210677 14.636256 -49.958763
-8.485552 -16.108393 4.925793 -7.378183
-36.622505 -44.095554 27.065772 -24.215418
-36.487507 -36.895156 10.162325 -27.182354
-39.060383 -39.926155 10.593733 -29.195841
-47.519393 -69.879675 4.795422 -44.326630
-53.071118 -53.204489 12.841853 -40.649440
-96.424030 -92.223216 19.411021 -75.321751
-72.108112 -95.100044 13.541710 -66.310171
-62.660822 -85.611228 11.473319 -58.337000
-88.757684 -100.202596 29.850657 -56.688084
-56.487852 -85.308172 34.869483 -42.538807
-66.548233 -75.619039 36.260515 -42.650181
-68.704288 -88.285426 35.616296 -47.096914
-104.306744 -126.038623 18.398484 -69.103610
-41.532130 -72.674862 40.696622 -34.262097
-78.471501 -64.608965 30.349122 -42.924140
-42.120125 -70.538077 36.709147 -33.797460
-62.930554 -73.868702 14.356142 -53.452345
-44.033337 -55.952384 10.844644 -37.961148
-80.989419 -89.200687 17.544948 -67.554582
-50.449745 -64.190153 11.692171 -44.131609
24.468060 23.643067 -0.147553 23.715597
-48.812878 -78.022805 1.481258 -49.309403
26.943036 -91.158983 21.383202 -19.264784
-30.818734 -73.379569 25.434830 -31.259491
-29.755307 -51.112875 -1.870452 -31.451380
-20.149617 -61.646373 16.675550 -24.538797
-22.769956 -56.248212 22.660446 -23.705450
-15.496177 -30.528505 0.917531 -15.884869
-17.901040 -53.338182 20.072092 -21.371766
-2.970214 -7.330091 4.578666 -3.090091
-22.626927 -37.523220 23.663828 -18.045044
-80.699829 -45.141677 57.539980 -37.752452
-18.475244 -54.715178 21.930761 -21.957127
-17.953897 -38.713949 16.440554 -17.000354
-21.151906 -26.782762 28.269237 -14.380400
-24.071776 -32.611941 26.013533 -17.005115
-4.551331 -0.360391 2.509478 -1.473517
-15.646222 -56.154838 26.937197 -21.540318
-16.424070 -45.935473 19.181509 -18.707863
-14.617123 -15.034486 6.684012 -8.895483
-10.037102 -12.544087 5.772597 -6.774357
-55.225959 -34.355778 4.825740 -33.603177
5.595114 2.598882 3.273475 2.458199
-7.630271 -18.080635 3.612888 -7.713272
-17.595661 -12.172293 6.068550 -8.930386
0.216489 -5.015426 3.809621 -1.439681
-15.161276 -5.892509 3.723647 -6.316136
-24.280825 -44.082322 24.323872 -20.508944
-10.662965 -22.867341 3.391409 -10.059092
-4.096837 -14.466082 2.466693 -5.568876
-13.757613 -7.759205 5.153218 -6.455045
-12.922065 -26.920688 2.670927 -12.634713
-9.434284 -7.495723 5.540329 -5.079002
-1.571507 -2.642009 4.568732 -1.264055
-14.902440 -33.474278 9.562592 -14.513015
-5.525294 -8.413615 5.204454 -4.181673
-13.449910 -46.228691 12.138366 -17.903580
-3.819602 -15.045033 1.437482 -5.659390
-12.401505 -16.066983 6.303907 -8.540546
-8.650464 -19.709270 3.457114 -8.507920
-4.076463 -8.090317 4.813697 -3.650034
-17.669501 -32.614419 3.614005 -17.060716
-10.460154 -23.490117 2.494820 -11.756163
-14.218882 -25.848758 2.796387 -12.076207
6.918740 2.005162 -2.487948 2.677171
4.028649 -4.414726 -0.481223 -0.115823
-23.000334 -41.438268 2.078207 -23.018831
-12.050660 -19.395022 5.769412 -9.433704
-37.948597 -36.728638 10.260598 -27.333440
-23.355723 -38.736934 5.162386 -22.901224
-48.392105 -52.660019 12.268922 -38.404493
-73.928518 -84.505530 16.233588 -62.594456
-17.500131 -30.651060 4.819418 -16.144117
-51.749786 -58.746468 12.752669 -42.372895
-36.002784 -36.078019 10.105661 -26.428933
-38.228422 -57.617744 17.122835 -28.753850
-67.124444 -93.859501 10.947363 -63.673253
-65.339654 -95.747712 8.219113 -63.725225
-34.555999 -89.407111 25.377223 -37.188933
-55.210044 -50.350622 12.598761 -40.296232
-50.623401 -42.504727 21.217319 -27.938438
-33.708997 -31.510862 16.319337 -19.565958
-31.056461 -39.652703 19.995660 -21.212749
-22.412096 -31.081559 7.388422 -19.567929
-60.720150 -45.869655 10.534480 -40.751940
-65.272908 -84.687722 29.129716 -44.988189
-71.216954 -100.799112 37.923583 -51.604820
-37.546754 -34.285770 9.901718 -26.146325
-47.346952 -34.760060 1.255885 -29.316524
-25.126172 -20.523103 6.557198 -15.448677
-45.621372 -29.896937 5.250746 -27.405757
-81.449660 -77.161792 17.193407 -62.485211
-26.145178 -21.263181 7.150408 -17.386256
-64.793881 -52.358094 11.728992 -44.961591
-31.284411 -33.709128 1.917677 -20.484281
-110.583905 -93.229873 18.849155 -81.706416
-69.248099 -68.180424 44.594345 -41.228557
-56.948532 -59.656061 42.312257 -34.981378
-106.081468 -89.363427 18.247806 -78.185120
-16.475829 -14.093283 6.592695 -10.523704
-12.805285 -13.293675 5.928205 -7.829688
-12.643884 -9.252848 4.721970 -6.569020
-13.280151 -25.775758 1.888515 -12.076416
-10.601097 -9.822846 4.422094 -6.127183
-15.652006 -18.203256 4.602469 -10.683794
-6.512159 -1.342948 0.254005 -2.356532
-12.731749 -15.799907 6.343285 -8.559497
-14.662166 -16.821900 6.685626 -9.445220
-4.398185 -2.949553 5.142058 -2.204322
-11.701924 -10.084133 5.391364 -6.535817
-31.292276 -32.670331 9.381945 -22.823555
-12.736153 -13.013234 6.301090 -7.724816
-14.837011 -24.266359 5.469985 -12.055738
-14.554487 -16.784044 6.661524 -10.030362
-21.702189 -25.148880 7.836571 -15.613995
-19.153838 -18.570233 7.112580 -11.826409
-28.219784 -28.876230 9.181072 -19.666504
-10.528873 -13.872654 5.193097 -7.320458
-14.169190 -24.999409 14.027458 -11.750580
-10.837061 -10.460651 5.318500 -6.389314
-6.613192 -7.882334 4.441913 -4.348658
-14.750585 -6.202795 3.895564 -6.286014
-7.844146 -8.270033 5.528138 -4.834254
-8.976307 -8.818258 5.663238 -5.338369
-7.087790 -2.493598 4.431229 -2.874416
-31.318035 -20.852483 16.677490 -15.651155
-12.208335 -10.056109 5.928361 -6.679333
-11.012397 -20.327279 16.255341 -9.401903
-5.848011 -6.790569 3.993030 -3.791574
-15.607869 -19.173856 3.264766 -10.720828
-15.985742 -9.132169 5.229067 -7.535373
-47.703653 -31.914772 26.082611 -23.885528
-9.747322 -28.622939 10.634044 -11.511078
-27.120781 -26.244115 21.505011 -16.009469
-49.520499 -48.781136 12.491706 -37.111811
-40.048954 -24.493769 15.886060 -19.362817
-41.654986 -23.556462 21.744039 -19.563434
-20.648923 -39.990112 20.228668 -18.191710
-17.928833 -16.801108 16.529699 -10.418982
-9.387733 -13.991840 3.825063 -7.013872
2.399862 -1.791563 3.598154 0.182490
-12.241502 -16.981805 2.206917 -9.453551
-0.915224 -3.685977 3.574584 -1.380360
-16.781509 -12.320546 6.204399 -8.730616
-36.004012 -25.388203 6.232714 -22.008738
0.788192 3.322267 3.707979 1.233138
-28.443656 -31.662155 18.365446 -18.031743
-6.215841 -3.088703 4.736437 -2.791363
-23.414305 -12.880257 4.330844 -11.486086
-68.041467 -47.228564 31.324702 -34.581009
-41.825087 -26.081361 19.247441 -20.371934
-14.018519 -11.753266 6.273660 -7.731536
-3.964126 1.618470 3.430001 -0.703697
-21.269004 -39.538385 -0.442354 -21.499617
5.268331 7.408799 3.055787 3.803139
-19.085170 -12.136880 5.829954 -9.366615
-59.113820 -27.752601 26.419349 -26.059926
-56.092627 -98.443636 30.962761 -46.360879
-34.560472 -32.525395 25.888757 -20.125760
-41.065146 -23.593103 24.742083 -19.397475
-67.565701 -95.973910 30.342856 -49.061883
-35.764875 -31.860446 3.503100 -22.750534
-59.718514 -103.565635 39.546931 -48.985245
-53.829139 -38.629619 2.367441 -33.454028
-58.445736 -79.893546 32.895698 -41.501785
-57.607778 -75.136188 35.901771 -39.823190
-51.699739 -36.299560 27.669215 -26.399790
-51.533492 -67.451815 14.922704 -35.695592
-61.462259 -71.985392 27.184001 -40.034295
-48.801477 -50.621574 33.358952 -29.826915
-79.189515 -61.942820 13.118325 -55.339380
-54.572344 -25.588207 15.899160 -24.048165
-69.648060 -67.763771 40.828021 -41.223549
-32.956002 -34.272709 9.650981 -29.960338
-28.547588 -21.898184 7.663654 -21.717104
-60.204743 -39.846999 24.398602 -30.015523
-11.014793 -7.317527 5.413481 -5.499696
-5.817313 -1.165111 4.198921 -2.094727
-67.099569 -79.855871 28.339523 -44.086632
-44.082480 -90.777890 28.108733 -40.458111
-71.331606 -120.773649 43.896950 -57.631577
-53.812406 -54.521688 11.698130 -40.723904
-65.184230 -97.554591 31.013877 -48.821646
-64.606338 -70.807180 26.081728 -40.624055
-79.025156 -60.855762 12.685969 -54.785929
-51.289498 -36.931912 25.541953 -26.466423
-40.276331 -16.401101 -0.904939 -17.003230
-12.410793 -2.446434 0.348217 -4.457168
-19.286822 -7.105801 -0.837380 -7.917787
-27.421464 -11.216131 -4.150956 -11.591278
-6.664606 -1.567526 -0.813020 -2.469640
-12.191865 -1.773854 -0.151305 -4.189716
-18.752681 -6.218122 -0.257949 -7.491241
-9.638516 -2.102520 -0.266698 -3.522311
-9.908119 -2.151884 0.017793 -3.618001
-19.947389 -7.179285 0.802163 -8.138002
-4.612554 -2.652170 -0.546930 -2.179417
-10.164563 -2.165554 0.217762 -3.699035
-8.420508 -5.956183 -1.351178 -4.313007
-17.714994 -5.535474 -0.311598 -6.975140
-12.911600 -2.060381 0.022762 -4.491594
-11.785607 -8.604352 -2.084457 -6.116988
-5.696841 -2.494327 -0.532615 -2.457351
-6.774896 -2.245478 0.311901 -2.706112
-4.835072 -0.203586 -1.381239 -1.511598
-12.079689 -1.366467 -0.065614 -4.033847
-18.632433 -10.610956 3.057936 -8.773017
-13.812811 -2.838022 1.066031 -4.995250
-9.887680 -2.125043 -0.117420 -3.603817
-9.718022 -2.208785 0.164123 -3.578042
-14.906104 -5.864510 -1.909327 -6.231184
-13.220490 -2.299629 0.347939 -4.656036
-15.669123 -13.795699 -0.256557 -8.839447
-9.789855 -1.984852 -0.316554 -3.532412
-16.739640 -16.376660 -0.129397 -9.934890
-11.586434 -6.073466 0.109214 -5.297970
-14.276065 -13.471824 -3.728779 -8.324367
-9.509821 -5.644615 -1.613937 -4.546331
-13.645700 -13.195911 -3.533934 -8.052483
-17.011825 -13.078904 -4.456114 -9.027219
-25.178423 -9.347209 0.721587 -10.357690
-23.710974 -11.517086 1.388289 -10.568418
-26.364953 -19.055180 3.563658 -13.626040
-39.702459 -25.035015 7.523240 -19.421242
-17.778831 -5.570721 -0.160211 -7.004866
-3.121769 -2.033002 0.154260 -1.546431
-18.992144 -11.682757 2.754650 -9.202470
-17.065845 -7.608366 2.157583 -7.402263
-25.164945 -10.797360 0.607015 -10.976275
-10.589063 -0.268521 -0.556242 -3.257275
-32.011901 -15.864419 0.906397 -14.362896
-27.905582 -6.949877 -1.250991 -10.456638
-48.133896 -27.583056 1.291048 -27.776850
-27.344938 -12.425683 0.917337 -12.579613
-40.399555 -19.481501 -1.407053 -17.964317
-28.822077 -9.464459 -0.915939 -11.485961
-33.924227 -14.979755 -0.689761 -14.671195
-40.457248 -16.892496 -4.747230 -17.204923
-42.051840 -19.103129 -0.161590 -18.346491
-16.434192 -5.000088 1.875799 -6.430284
-20.384047 -7.348833 -0.312344 -8.319864
-18.702451 -6.959786 2.517085 -9.738847
-5.814196 -2.231042 -0.499148 -2.413571
-32.155296 -14.115317 -1.609628 -13.881184
-13.570418 -2.431999 -0.470675 -4.800725
-20.424135 -7.783968 1.873319 -8.462431
-28.102513 -7.850277 0.059443 -10.785837
-18.480756 -6.029285 -0.633354 -7.353012
-5.796808 -1.708269 0.331787 -2.251523
-11.756965 -3.417467 -0.496099 -4.552330
-25.001852 -7.661136 -1.490354 -9.798896
-22.443104 -8.462202 -2.253259 -9.271592
-9.265571 -0.917027 0.413669 -3.054779
-31.047344 -2.927466 -0.260421 -10.192443
-22.234502 -9.172738 2.008750 -9.422172
-12.829775 -2.386392 -0.219184 -4.564850
-14.163818 -3.031829 -0.930007 -5.158694
-17.108225 -5.040975 -0.777782 -6.644760
-17.622717 -5.352182 0.051328 -6.892470
-12.299528 -2.487926 -0.044736 -4.436236
-17.848146 -7.624048 0.229835 -7.641658
-19.271320 -6.600139 -0.613235 -7.761438
-14.538150 -3.124919 -0.178275 -5.298921
-30.824702 -15.009261 1.107348 -15.147089
-72.252560 -43.313600 29.560493 -34.669848
-19.877080 -14.839602 6.583148 -10.501303
-17.045269 -7.142347 2.964631 -7.256285
-19.325359 -14.473577 6.536200 -10.139681
-8.330678 0.243308 2.340613 -2.426211
-30.797135 -14.875699 11.514568 -13.701850
8.859139 6.431990 2.717044 4.711991
-42.267374 -43.286545 27.390638 -25.666176
-48.413915 -37.855028 9.924373 -32.319988
-52.582335 -58.327068 12.809834 -42.520786
-66.920913 -68.120924 10.914423 -53.116213
-58.999619 -50.401658 26.502252 -32.820383
-134.138819 -98.223020 76.689948 -69.708552
-140.710476 -111.171044 26.327315 -75.564456
-82.432337 -95.685241 35.590392 -53.435273
-62.835689 -112.406792 40.339559 -52.572744
-106.908094 -113.837932 12.035206 -83.109444
-140.742509 -117.237897 34.243672 -77.394122
-81.654406 -81.391569 34.524109 -48.913792
-73.530008 -75.013168 29.386627 -44.562953
-31.854484 -23.979478 7.819157 -25.031570
-50.383089 -40.567006 20.717786 -27.285028
-55.715528 -44.596591 37.332795 -30.093636
-62.054506 -38.326946 27.902126 -30.114435
-57.213261 -32.445399 24.151936 -26.897598
-38.662417 -29.134283 18.995441 -20.339010
-151.654325 -169.378167 28.903707 -131.082401
-117.993609 -96.859397 34.802024 -64.455902
-83.690696 -102.294940 38.536831 -55.795691
-68.695950 -100.923872 36.696447 -50.885947
-111.885585 -120.562812 11.803467 -86.124709
-85.869013 -65.420273 12.940313 -60.044525
-108.553261 -111.291162 22.042445 -88.420073
-118.542720 -116.297395 23.215095 -94.791814
-150.217190 -156.001972 28.879457 -124.819126
-90.248056 -77.812879 16.738479 -68.208782
-88.317824 -116.939600 72.904943 -61.577227
-146.007955 -165.140016 27.831613 -126.921282
-99.342630 -120.877793 69.615912 -66.066127
-107.469120 -124.783937 76.952705 -69.675917
-88.785725 -104.660403 40.725525 -58.033838
-82.345204 -89.583054 36.004815 -51.578478
-88.750973 -124.413188 45.816146 -63.949248
0.747423 6.533945 2.468682 0.715307
-63.271780 -36.989488 26.665225 -30.078380
-68.772821 -61.870705 26.453820 -39.193058
-32.937497 -17.743699 -0.208321 -15.204359
-12.388941 -3.162624 1.070779 -4.665470
-60.156120 -37.277970 27.145598 -29.230227
-67.713746 -47.379605 30.169976 -34.528005
-14.803737 -5.209611 1.860962 -6.004004
-24.047300 -14.633162 4.906690 -12.679315
-18.755513 -9.764268 -0.934914 -8.555934
-19.960587 -7.175595 -1.015734 -8.140855
-22.359975 -9.507773 0.013489 -9.715561
-13.029806 -2.422231 0.040721 -4.635611
-29.469568 -12.191452 0.146682 -12.498306
-9.780809 -0.062962 -1.414119 -2.953131
-35.589953 -15.057941 1.651617 -15.194368
-21.557018 -8.264248 -0.101320 -8.946380
-21.903297 -9.072866 2.046624 -9.939209
-21.034506 -8.018455 0.891855 -8.715888
-22.996028 -9.357502 -0.626050 -9.706059
-28.003897 -13.039778 -0.930006 -13.541315
-37.719237 -20.098113 -1.746355 -20.176858
-49.019870 -28.246301 -1.883444 -28.364379
-38.461021 -20.414437 0.151298 -20.653246
-64.359510 -28.198933 -1.892521 -27.767533
-11.145203 -1.629524 1.244519 -3.832418
-25.046668 -10.822294 1.137481 -11.647387
-39.226223 -20.090408 -0.770339 -17.794989
-27.994640 -14.423480 -2.626316 -12.725436
-40.561155 -21.901470 -0.630685 -22.130828
-30.154425 -14.883453 1.931150 -14.853806
-35.511415 -16.409564 -2.389435 -15.576294
-37.225109 -17.983564 -2.293856 -16.562602
-37.101442 -16.668031 -0.014582 -16.130842
-49.615824 -19.325528 2.302416 -20.682406
-80.205964 -58.567146 27.086527 -41.631933
-87.778033 -52.507605 25.969927 -42.085691
-69.524954 -42.160128 28.333713 -33.505525
-67.043356 -40.355844 28.271248 -32.219760
-86.212750 -108.332429 64.390067 -58.363554
-92.336396 -124.754316 70.830542 -65.127214
-72.807770 -65.499963 24.288206 -41.492320
-57.046517 -63.251824 22.896724 -36.089502
-80.025963 -63.225942 13.428150 -56.207535
-72.896941 -113.224193 43.330519 -55.836340
-59.635314 -55.025361 8.803468 -45.604011
-71.408821 -58.181228 13.171663 -50.445795
-59.554001 -62.649230 25.635771 -36.660969
-90.450079 -68.786164 17.939792 -47.770873
-84.036913 -45.510785 29.140657 -38.864309
-49.597187 -38.799066 27.165370 -26.518876
-106.497949 -55.674782 20.539602 -48.651819
-106.631041 -51.972863 26.889379 -47.581171
-84.396565 -61.645440 14.106117 -43.812601
-55.011105 -52.595407 8.956292 -42.985579
-74.223112 -62.234712 26.959434 -40.937347
-73.433140 -66.978504 20.362695 -42.123493
-81.956749 -114.096301 44.848618 -58.815915
-105.574515 -124.827617 43.128852 -69.120640
-77.311406 -58.992645 13.573793 -40.891215
-55.474881 -33.672418 3.527404 -33.434059
-101.235276 -90.507743 19.036877 -76.813787
-111.900982 -114.116715 22.498687 -91.077610
-93.820210 -137.850509 47.760668 -69.501216
-96.184621 -93.144502 42.832593 -56.798737
-91.346274 -71.609040 14.487976 -64.412462
-92.675223 -74.551195 15.424156 -66.197303
-82.591498 -65.925872 17.729493 -44.555211
-79.953655 -61.064882 12.045762 -42.305561
-92.074117 -32.673244 0.005155 -37.424208
-110.938608 -76.844354 46.531180 -56.334888
-55.587959 -22.562225 3.841075 -23.445055
-110.167451 -49.389369 18.612658 -47.867046
-46.512220 -35.206669 9.259621 -30.300277
-38.227206 -30.720236 9.052316 -25.129800
-43.461285 -20.034824 -2.673548 -19.048833
-115.176877 -44.775591 14.529421 -47.985740
-54.730187 -20.588098 0.295946 -22.595485
-24.327549 -10.275935 -0.989312 -10.400453
-63.142505 -27.049755 -2.959716 -27.057678
-49.361398 -20.521632 1.977373 -20.964909
-44.885997 -17.803267 -1.406300 -18.806779
-49.565050 -21.378212 0.859839 -21.282979
-68.649076 -28.599933 4.461100 -29.174703
-74.635313 -58.395154 12.679469 -51.861395
-51.927019 -31.039182 3.449425 -30.775989
-74.097440 -34.702262 -0.647009 -32.639911
-48.360856 -28.581712 -3.682773 -28.243337
-52.014571 -30.721494 -2.442117 -30.732124
-37.739359 -24.493201 5.870590 -18.669768
-25.866511 -11.403564 0.271774 -11.590008
-35.775623 -24.651949 5.170180 -18.128272
-23.590047 -10.638429 2.645494 -10.305149
-35.788572 -24.966323 5.335222 -18.226469
-25.558505 -14.898382 3.031671 -12.137066
-31.108288 -15.482593 2.033545 -15.442797
-62.147720 -42.375916 5.715632 -31.357091
-33.935718 -32.221459 -4.533100 -21.930885
-42.564894 -23.440183 -0.503483 -23.682497
-43.104871 -23.739951 0.684883 -24.082175
-33.864491 -17.255237 1.475478 -17.359542
-38.462451 -20.540594 1.207901 -20.772957
-42.864720 -23.967773 2.200875 -23.985073
-36.950402 -20.492887 3.489451 -20.234695
-34.293609 -5.724653 0.142181 -12.005479
-39.393873 -21.431312 1.766621 -21.508080
-49.254081 -28.285822 0.857937 -28.530913
-28.346604 -13.277123 0.996742 -13.413936
-30.482517 -14.717083 0.795508 -14.978204
-41.403124 -21.962165 -0.363692 -19.009587
-15.378896 -3.809223 -0.111474 -5.756435
-43.835383 -26.223934 4.530791 -25.389421
-30.994614 -14.445387 0.394719 -13.632000
-29.842892 -16.548461 2.368241 -13.917406
-30.480460 -22.315720 4.044225 -15.838854
-41.621781 -20.908174 0.615020 -18.758986
-30.407042 -13.670219 -0.216437 -13.223178
-43.018977 -22.662652 -0.145920 -19.704489
-25.702719 -5.443701 -1.202980 -9.343926
-53.443182 -26.847399 -1.180963 -24.087174
-29.937518 -14.411688 0.979345 -14.557458
-28.968350 -18.689222 3.571699 -14.297272
-41.947076 -44.440991 5.508357 -25.916420
-31.474917 -22.715800 4.222298 -16.257215
-31.536254 -25.759876 4.608526 -17.188839
-18.662868 -16.100999 -1.536808 -10.429160
-26.459174 -35.719545 0.653679 -20.526855
-21.610042 -19.676816 -0.523531 -12.386058
-16.815360 -18.320015 0.612205 -10.540612
-14.734792 -13.427167 -0.133161 -8.448588
-17.669421 -17.829411 0.462613 -10.649650
-23.794280 -21.314377 -2.202092 -13.532597
-16.796129 -10.884720 -3.649763 -8.304255
-6.975370 -10.781675 -0.042068 -5.327114
-32.079680 -36.106778 -5.193845 -20.455937
-29.026794 -36.138161 -4.869473 -19.549486
-22.290622 -15.682556 -5.334612 -11.391953
-22.645066 -16.068747 -5.120052 -11.614144
-15.240231 -6.390506 -1.750691 -6.489221
-27.312364 -19.482140 -1.974001 -14.038351
-26.582269 -19.286269 -1.408221 -13.760561
-16.826218 -5.528373 -1.144388 -6.706377
-23.842182 -25.493910 2.403237 -14.800828
-16.087815 -15.590635 2.737998 -9.503535
-21.290399 -25.781723 1.742215 -14.121636
-17.485088 -19.624619 0.079459 -11.132912
-32.128962 -22.358272 4.261962 -16.346170
-37.457927 -34.820115 5.023098 -21.683413
-29.737486 -23.111680 4.244524 -15.854750
-37.425814 -30.453585 5.716232 -20.363820
-25.622794 -18.527061 3.870447 -13.244956
-33.464917 -38.789885 6.245994 -21.676441
-36.157168 -40.900356 5.791525 -23.117257
-31.851154 -40.917437 4.136695 -24.718646
-21.960717 -28.653887 0.897100 -15.617232
-18.385910 -22.356431 1.039100 -12.222702
-25.636946 -24.040339 -2.939247 -14.903186
-24.840334 -16.693533 -2.163658 -12.460160
-41.205694 -39.001225 -3.866421 -24.062075
-39.332191 -50.475238 -2.247734 -30.730225
-21.278033 -20.631778 -0.785434 -12.572943
-39.667348 -56.058135 -5.629485 -35.230705
-32.146507 -36.777990 -3.665414 -20.677349
-31.772286 -26.979886 -4.199300 -17.625651
-32.659576 -31.572465 4.137073 -19.269612
-34.785744 -30.916477 5.072456 -19.710666
-21.067265 -21.032540 0.921728 -12.629941
-37.008708 -44.885597 8.452878 -24.568292
-26.917605 -21.464073 4.013370 -14.514503
-33.836613 -28.029247 4.899224 -18.559758
-17.400052 -18.744966 -4.911073 -10.843505
-20.402962 -31.521013 -0.156472 -15.577193
-39.331023 -36.307824 5.737626 -22.691654
-38.455841 -33.879235 6.018121 -21.700523
-31.035995 -23.091470 4.157700 -16.238239
-46.239177 -54.502491 6.332061 -30.222501
-42.424156 -23.794043 2.312697 -23.765115
-43.594947 -35.695545 5.976517 -26.502192
-35.516032 -18.728683 1.940035 -18.735761
-46.097006 -29.902055 6.486028 -27.898394
-31.851701 -28.884325 7.383733 -20.079236
-37.402380 -19.985480 0.403816 -17.216358
-45.636984 -30.033833 6.410230 -27.308648
-40.417645 -25.488810 5.977010 -23.643165
-44.196483 -26.824309 4.893028 -25.803765
-51.696506 -34.991042 7.534072 -32.392240
-38.503346 -28.906492 6.249535 -20.222951
-42.348197 -26.584614 6.393299 -20.679843
-32.741102 -28.139857 4.171742 -18.264288
-36.308289 -30.547089 5.414857 -20.056613
-38.032364 -39.395164 4.783253 -23.228258
-33.812424 -31.853562 4.836364 -19.699796
-36.671120 -43.660814 6.948000 -24.099580
-24.927662 -30.448609 3.717888 -16.612882
-37.506214 -33.529209 5.224583 -21.310627
-42.167074 -43.096258 6.101414 -25.578999
-39.537510 -38.966070 5.718421 -23.551074
-42.042010 -43.555742 5.855358 -25.679326
-37.158002 -33.863769 4.647362 -21.912894
-42.052997 -29.896386 6.104127 -24.900034
-42.744692 -44.487711 6.194154 -26.169721
-40.222196 -39.293458 5.538922 -23.854696
-35.311940 -46.045386 4.606631 -27.759344
-43.133271 -52.128136 11.883975 -28.578422
-51.090226 -69.356224 -5.994165 -36.133935
-29.014791 -37.109884 6.050348 -19.837403
-27.318851 -36.219679 2.802837 -21.013563
-33.754507 -30.106883 6.661390 -20.757374
-37.754989 -50.862727 -7.084439 -32.689795
-35.636892 -42.170615 -6.079087 -23.342252
-28.293995 -39.362664 -4.721904 -20.296998
-27.590632 -32.106520 -4.011320 -17.909145
-32.913117 -43.039426 -6.834900 -22.785763
-25.788365 -24.296755 -3.134999 -15.025536
-31.748263 -23.369004 -2.025530 -16.535180
-30.501555 -34.344585 0.207639 -19.785025
-28.145209 -20.424001 -2.345775 -14.570763
-35.129812 -43.892707 -6.746955 -23.706756
-33.708485 -36.053558 -5.261473 -20.928613
-34.714635 -39.994264 -6.597894 -22.412670
-28.791738 -33.524026 0.975654 -19.009765
-31.676134 -37.587464 -0.135903 -21.701567
-33.315035 -42.414684 -0.634165 -24.943865
-32.068462 -48.440538 -5.509377 -29.307850
-29.249847 -39.193464 0.319960 -22.716891
-30.703648 -32.369125 0.109305 -19.032757
-33.511186 -46.838533 -4.700130 -28.886474
-28.046661 -41.896934 2.474110 -24.376548
-46.593034 -71.687774 -2.359313 -35.484243
-37.219941 -54.753207 -4.222088 -34.207601
-40.022733 -48.635549 6.115887 -26.597485
-47.257965 -58.923703 9.108476 -31.854500
-46.444372 -68.987552 -0.949008 -34.629577
-40.621765 -57.911506 -5.146368 -36.604360
-36.627469 -54.677204 -2.696418 -33.418002
-32.360918 -48.626677 0.168648 -29.022602
-38.862302 -57.780445 -2.966783 -36.108967
-36.690755 -54.220121 -3.308807 -33.262827
-45.051087 -68.632955 0.873227 -34.105212
-32.868791 -47.393135 -4.315018 -28.799130
-37.732795 -55.042586 -1.141681 -33.718132
-34.044196 -50.013085 -1.044410 -30.115136
-52.074162 -64.583502 3.090773 -40.639066
-30.569221 -47.625266 0.072838 -28.289634
-43.613417 -62.699811 -3.107376 -39.309142
-36.421663 -49.086181 -1.808392 -29.612420
-53.976932 -84.977207 10.446191 -41.686242
-44.762850 -61.295946 7.661589 -39.119909
-50.899846 -74.329575 1.104464 -37.568826
-32.041275 -39.891560 3.243620 -23.162916
-44.562913 -68.694229 -0.771538 -33.977142
-52.495056 -74.092258 0.116536 -37.976194
-41.610756 -61.631862 -3.936949 -38.669908
-38.518161 -56.839404 -3.820205 -35.522978
-39.188806 -57.775382 -3.697176 -35.993051
-31.817166 -66.377523 -8.072095 -29.458407
-49.988557 -62.922198 6.071337 -33.873227
-43.721138 -52.044101 6.174472 -28.729571
-52.821141 -67.225256 6.654641 -36.013919
-38.995530 -54.574562 8.158267 -28.071028
-48.710197 -56.090398 6.917656 -31.440179
-51.846534 -65.408660 7.796430 -35.176558
-50.674590 -61.911268 6.870006 -33.775757
-48.446743 -59.618560 7.925628 -32.419591
-62.075341 -73.633408 17.078109 -40.712625
-56.470361 -36.770537 -1.946514 -27.972269
-45.548953 -53.432707 -3.458942 -36.467820
-64.893896 -92.620193 8.383396 -47.254227
-41.397338 -55.138733 4.848049 -34.931342
-39.087849 -33.692142 4.772217 -22.943322
-37.709159 -46.631882 -2.007323 -30.382420
-44.993742 -52.653104 9.466560 -35.323304
-39.488928 -40.006293 2.873709 -27.110459
-55.759884 -70.612021 11.126100 -47.962128
-46.773460 -58.090160 10.676731 -31.459086
-42.785627 -58.493148 0.403514 -37.584912
-47.030192 -53.253358 6.820904 -30.085065
-48.492793 -58.057487 6.740265 -31.965084
-52.442641 -64.892036 6.903919 -35.200403
-40.947519 -55.303967 10.574437 -28.875446
-45.171135 -50.002240 6.534094 -28.552013
-44.706942 -53.474029 6.733725 -29.454291
-41.564795 -54.299758 7.273922 -28.759366
-48.078868 -63.878899 10.261446 -33.587330
-39.947242 -42.177816 1.200075 -28.332357
-42.939640 -47.143775 4.576148 -30.166476
-39.248541 -51.890450 6.061319 -32.275463
-37.345172 -43.454304 4.800205 -26.776587
-46.855277 -55.123756 6.234601 -30.593710
-45.608763 -54.454377 6.172666 -30.018942
-64.512539 -44.574038 -1.432677 -32.725973
-61.229691 -49.073195 10.004239 -40.961291
-60.736609 -55.191054 13.178613 -44.258022
-51.924675 -35.776185 3.107254 -30.606264
-84.805391 -38.333565 -2.344560 -36.941687
-102.117580 -81.793903 16.460995 -73.133127
-65.608029 -45.196039 -2.939523 -33.241220
-84.584891 -41.754375 -6.396556 -37.901780
-96.666361 -44.206943 -0.158160 -42.261991
-86.190747 -39.755716 -0.930979 -37.783939
-66.751700 -44.613175 7.488547 -42.681820
-94.632157 -54.663598 22.151095 -44.788727
-63.300136 -46.164737 10.036450 -42.042869
-75.438567 -62.042565 6.787114 -41.244340
-53.689185 -53.903711 12.839985 -40.801383
-57.255872 -54.386180 13.181193 -42.911730
-63.505143 -57.265850 13.537285 -46.310612
-64.591378 -76.306180 16.609778 -42.269267
-62.686699 -59.097019 13.965193 -47.166459
-56.868002 -40.812859 9.094500 -37.012719
-56.991273 -72.257576 14.066401 -38.774655
-65.003602 -65.741260 12.929759 -39.223459
-61.348042 -72.826847 16.573869 -40.252467
-65.451687 -77.015931 16.303765 -42.740285
-86.611893 -59.321999 7.415306 -56.554009
-65.995707 -52.601037 12.122991 -46.070541
-59.693301 -51.178484 12.433638 -42.201997
-62.397781 -47.822119 9.162186 -40.929243
-94.871651 -51.416940 -0.082971 -43.886577
-82.392007 -55.311276 7.362911 -53.849248
-85.432341 -85.902891 19.049050 -51.400570
-74.631916 -71.914502 8.024758 -43.963926
-60.939003 -43.778035 8.240938 -39.085311
-88.014754 -64.954624 11.673787 -45.890814
-94.820838 -79.230205 8.274323 -63.696280
-85.648434 -60.644812 10.137402 -57.474390
-107.365304 -70.126555 0.655364 -70.610732
-109.530982 -52.236233 9.510507 -48.530165
-117.965715 -67.425066 23.189769 -55.617234
-113.014516 -52.420138 21.314216 -49.630396
-118.683070 -83.198341 20.185294 -60.564423
-115.892329 -76.252126 19.187229 -57.643337
-98.698817 -71.963327 8.013590 -65.595960
-117.802615 -81.607060 22.943389 -59.822902
-69.453421 -42.760168 -0.065542 -44.840014
-136.847122 -95.046150 35.753419 -69.567982
-107.598763 -47.930128 15.027515 -46.658668
-113.872780 -59.080178 21.128463 -51.885888
-129.201331 -93.537503 13.503750 -89.590705
-115.360239 -63.306751 20.559584 -53.600097
-133.789601 -97.603887 14.283312 -93.256861
-125.920120 -68.900751 30.212401 -58.446261
-118.082077 -90.613397 32.369907 -62.608642
-118.592745 -84.455222 31.640873 -60.914390
-103.093004 -53.112897 14.188753 -46.861770
-65.015870 -26.890490 5.971478 -27.571908
-111.321926 -53.432923 13.515788 -49.426455
-107.913481 -74.324285 8.854891 -72.185592
-93.636865 -60.868688 3.642508 -60.921703
-75.338535 -30.319092 6.631405 -31.697288
-99.352763 -50.855098 2.594968 -45.062358
-44.164662 -24.547389 -0.204032 -24.807149
-87.628008 -35.816559 7.430982 -37.033370
-93.738405 -38.184906 7.299573 -39.576993
-101.406528 -42.726409 14.140861 -43.239881
-93.809990 -39.395797 12.181263 -39.961736
-73.016619 -25.633810 7.406263 -29.595129
-84.885203 -36.723204 11.142495 -36.482522
-89.806255 -63.975124 10.692474 -60.569421
-121.590943 -70.418325 28.725763 -57.602780
-118.907051 -55.444188 22.592791 -52.305372
-172.493276 -144.049072 75.305752 -94.962704
-109.304025 -33.203952 15.853602 -42.752393
-99.884743 -77.179153 15.178254 -53.119169
-85.966182 -33.230087 -1.734967 -35.758881
-138.909143 -58.105681 47.762965 -59.104447
-94.831827 -39.537742 11.734094 -40.310871
-87.296978 -38.830586 4.044727 -37.838269
-89.856220 -38.478026 10.942313 -38.500274
-67.036216 -24.142603 4.987760 -27.353646
-109.494960 -42.465877 13.416641 -45.588251
-104.248131 -38.880195 7.269456 -42.938498
-83.625894 -35.846152 10.423499 -35.841614
-66.530292 -27.177445 2.705731 -28.112321
-78.669773 -52.409020 6.965727 -51.090996
-64.758741 -42.395422 6.539766 -40.969655
-79.746199 -36.804261 -1.997701 -34.965138
-89.886148 -40.230278 -1.830755 -39.034928
-81.704111 -53.356547 5.666159 -52.669616
-79.282270 -62.269552 13.203882 -55.486316
-41.521122 -48.241503 2.793245 -33.203870
-50.048456 -28.941143 -0.482955 -23.696880
-74.115638 -67.981255 7.510655 -42.629068
-44.525756 -28.031780 -5.974486 -26.439430
-55.453627 -69.506062 15.613137 -37.487907
-41.512355 -21.984806 -0.937932 -19.049148
-70.336029 -31.978298 -2.991481 -30.694298
-82.690276 -37.263789 -3.592773 -35.986219
-85.253294 -40.976855 1.702554 -37.869045
-17.285000 -15.422921 -1.541759 -9.812376
-77.217985 -38.032566 1.422722 -34.575165
-41.963346 -23.153819 -1.700757 -23.262855
-68.181867 -29.943752 -1.656456 -29.437686
-61.169747 -36.855699 1.022607 -37.141460
-63.631712 -28.528898 -0.761879 -27.648183
-70.376306 -32.078986 -0.659652 -30.736588
-63.139088 -32.440321 1.822953 -28.673823
-67.064424 -32.084528 -0.015270 -29.744686
-51.244069 -29.623341 1.295718 -29.851792
-75.385361 -26.995098 -2.867020 -30.714138
-54.954416 -32.222909 -0.510891 -32.508888
-60.124638 -35.556537 6.465063 -28.704352
-48.881491 -33.009589 0.633725 -28.004625
-51.919697 -33.726536 0.974284 -30.223346
-22.007817 -9.626192 2.940600 -11.166156
-66.975347 -29.343215 -2.504968 -28.895569
-17.078466 -5.046706 0.719253 -6.637552
-57.924847 -24.776067 -3.873976 -24.810274
-58.354049 -34.876326 -1.069684 -35.244786
-60.487032 -36.766325 -0.114556 -36.358870
-55.494828 -22.149621 1.854266 -23.293335
-77.466573 -30.924726 4.624071 -32.517390
-66.751325 -43.985494 -6.832338 -42.447772
-44.768208 -26.013137 -3.417006 -25.677181
-75.119402 -30.883673 5.568657 -31.800923
-62.462142 -25.423498 2.935572 -26.365692
-59.281620 -38.746662 6.609613 -37.127692
-90.020152 -58.697413 4.584063 -58.471868
-89.801580 -36.295021 7.137104 -37.828980
-50.304130 -24.641689 -2.542919 -22.483746
-75.785369 -28.956514 2.290687 -31.422565
-99.796499 -39.313572 11.241120 -41.733021
-111.051701 -41.481880 7.659055 -45.760074
-93.317022 -35.128424 1.925413 -38.533634
-75.624429 -30.563688 3.754180 -31.856435
-61.922348 -28.510221 -2.995449 -27.129771
-85.348402 -34.210169 6.989979 -35.867571
-69.461163 -26.649378 1.301875 -28.833162
-100.496970 -73.511217 22.434634 -52.202456
-68.752147 -40.444595 27.240593 -32.759023
-89.090799 -55.909997 25.669159 -43.500239
-71.206985 -45.175377 28.883802 -34.914709
-78.568307 -65.938238 25.381954 -43.351964
-85.093048 -64.136712 25.704030 -44.768928
-102.289879 -67.892656 21.513093 -51.054761
-71.389067 -53.441061 29.538393 -37.449039
-91.797226 -75.869709 21.566556 -50.300080
-123.762752 -98.411303 24.497159 -66.652216
-100.851575 -54.914955 21.955984 -46.729959
-91.524039 -62.196954 24.731659 -46.116298
-104.424700 -59.257014 19.963088 -49.104514
-218.860507 -182.441937 31.973683 -164.831878
-120.375710 -69.402549 48.040038 -56.933478
-114.943653 -30.754364 -3.890338 -43.709405
-101.974521 -63.882712 21.257910 -49.757170
-92.496351 -58.506538 24.535824 -45.300867
-113.372319 -53.648782 23.886362 -50.106330
-106.482425 -67.843745 17.425135 -52.297851
-105.207901 -66.347571 20.076803 -51.466642
-109.172111 -77.830094 19.298694 -56.100662
-106.507518 -64.066891 17.597413 -51.172323
-138.825230 -103.922478 16.334490 -98.102150
-100.969020 -78.066983 21.823092 -53.710801
-114.654691 -80.815325 21.396360 -58.641005
-113.603095 -78.227860 20.813728 -57.549286
-97.662588 -61.240788 22.761568 -47.671013
-95.707119 -76.975570 20.899691 -51.804807
-120.660152 -93.171115 25.458704 -64.149380
-82.445676 -68.651494 24.685513 -45.329151
-95.901417 -78.431246 23.161098 -52.299799
-92.802359 -65.335941 24.577230 -47.441490
-106.700394 -82.914845 20.889065 -56.884572
-105.040083 -177.657123 48.232722 -84.809162
-97.209869 -137.062187 39.323125 -70.281617
-93.944025 -76.429478 22.206392 -51.112051
-96.313998 -76.314760 22.570274 -51.788627
-107.101269 -89.373369 18.138454 -78.587249
-96.143302 -75.875702 16.088059 -51.605701
-98.699220 -78.055304 21.152723 -53.026357
-113.826092 -86.828212 24.299265 -60.196291
-92.802099 -150.568209 50.134480 -73.011092
-89.221421 -134.024480 51.576634 -66.973770
-106.853407 -129.378190 42.543109 -70.869479
-105.784347 -130.540217 41.926608 -70.897369
-103.985146 -130.805933 42.744353 -70.437324
-88.652600 -96.239332 39.660882 -55.467579
-104.767927 -152.722000 44.285660 -77.246978
-100.435824 -163.594779 43.827374 -79.209181
-102.077276 -134.675523 43.287627 -71.025840
-97.921688 -110.205714 44.044264 -62.438220
-107.560217 -137.551200 45.414898 -73.533425
-97.096083 -115.138410 46.324523 -63.670348
-86.008661 -68.030453 14.108237 -60.733701
-97.809563 -150.553080 39.855946 -74.508793
-107.714812 -89.437450 18.042721 -78.891504
-83.376313 -62.524995 12.235734 -57.306852
-98.118143 -116.005570 44.475212 -64.237114
-108.125127 -147.337301 45.139716 -76.638728
-81.277166 -65.041761 13.974956 -57.433470
-85.681816 -63.643061 15.429408 -44.797463
-90.980529 -110.284499 53.596085 -60.379509
-103.239696 -125.234727 42.702750 -68.542327
-104.947781 -122.062636 42.808808 -68.103125
-104.363332 -136.012456 41.604728 -72.112736
-88.742929 -119.409620 45.721255 -62.445765
-100.222489 -120.029625 44.073795 -66.075634
-152.536406 -156.235852 36.336975 -92.631677
-125.318995 -84.968100 74.114120 -63.086128
-109.856953 -135.214524 48.770063 -73.521443
-87.936059 -130.341478 68.225381 -65.483261
-126.846359 -165.820883 31.816375 -87.800173
-131.886548 -154.412145 31.771396 -85.889608
-112.326594 -165.283268 23.761662 -83.282959
-156.268528 -166.577546 42.501715 -96.853822
-106.430893 -148.233745 13.764433 -102.977078
-87.354884 -191.182872 42.594522 -83.561327
-120.036416 -158.414056 18.790974 -113.105065
-112.313991 -212.610674 25.406114 -97.477400
-95.598823 -133.844465 29.120778 -68.832986
-126.147141 -173.484817 16.063514 -121.978154
-105.291851 -129.304208 17.852373 -93.998457
-95.754336 -136.473636 11.181291 -93.606936
-129.680500 -174.674218 6.643520 -121.908715
-89.773441 -131.480605 7.485611 -89.222459
-97.736248 -178.144135 13.307498 -82.764115
-113.745517 -210.675804 30.822139 -97.326396
-127.517514 -133.185685 -17.923903 -102.499586
-127.640774 -143.403557 -3.247831 -98.860712
-119.371169 -151.338868 -8.370844 -105.335609
-122.848553 -172.548192 -4.754221 -118.451530
-118.608469 -198.574080 33.352733 -95.154765
-111.323475 -202.586010 32.995640 -94.172845
-111.165888 -185.748221 27.978933 -89.074233
-118.073015 -187.074772 28.712478 -91.544336
-109.882055 -140.063452 29.703729 -74.983652
-110.558440 -167.129535 32.835232 -83.306393
-43.664059 -63.681899 8.798436 -44.889607
-127.550288 -194.607905 19.968892 -96.647458
-110.004878 -134.019522 28.078670 -73.207320
-110.932101 -158.504544 32.572123 -80.830993
-108.152593 -152.980979 32.570059 -78.340072
-110.382401 -178.174797 32.836437 -86.567159
-125.687910 -159.688837 21.427718 -116.059585
-107.132525 -144.573194 16.647825 -101.556812
-119.693843 -208.918945 35.056850 -98.583836
-120.069645 -233.303275 -8.192187 -106.011876
-109.871029 -183.587941 32.295883 -88.037691
-113.822893 -204.231669 33.908779 -95.416369
-79.125909 -114.458275 9.360828 -77.336260
-63.463299 -77.814184 13.951092 -55.796465
-124.050990 -177.430860 25.853930 -90.444555
-126.190109 -165.213700 20.242527 -118.343988
-114.096128 -148.572779 18.851976 -106.465253
-140.200176 -192.094808 17.252804 -135.814932
-148.032090 -212.743014 8.941029 -147.707866
-130.272802 -168.221749 13.561072 -120.263759
-108.829455 -153.578827 12.503110 -106.265876
-149.477902 -210.117398 13.959119 -147.300209
-140.034347 -230.371781 46.807993 -111.121838
-135.883469 -186.199546 39.922438 -96.624905
-125.238208 -256.891081 54.502433 -114.638787
-68.587567 -290.504823 44.277036 -107.727717
-116.670657 -150.691585 15.561170 -106.480487
-50.773050 -78.978738 -4.274636 -52.141828
-110.457686 -203.783940 25.240549 -94.272488
-80.337862 -209.144891 45.372038 -86.844826
-132.707409 -157.410001 24.838770 -118.050291
-114.915167 -112.229853 53.653175 -68.143506
-92.517994 -124.194210 50.307401 -65.013661
-105.560462 -136.824048 42.038997 -72.715353
-101.898951 -136.682758 16.056455 -96.247903
-137.052692 -203.200224 72.096975 -102.075875
-127.275596 -138.795414 56.969548 -79.821303
-106.088025 -136.855095 42.198441 -72.882936
-99.347747 -136.325197 46.052277 -70.701883
-99.230760 -141.704921 45.516867 -72.280704
-122.967802 -174.711737 11.906116 -121.138631
-128.265284 -182.534192 11.763445 -126.604702
-48.440079 -76.465201 -3.159892 -50.243669
-32.017553 -54.927459 -0.508689 -39.806743
-144.539065 -193.680852 19.874707 -137.468561
-149.012931 -193.332275 23.111683 -139.999855
-106.284392 -125.238408 -21.165174 -93.196357
-75.356253 -208.395669 47.126022 -85.125576
-140.687567 -167.156452 26.007594 -125.514192
-140.940433 -180.709478 22.867090 -131.321624
-107.926320 -151.506935 12.795307 -105.518683
-101.426892 -120.843817 20.042489 -89.469423
-134.766180 -170.102553 22.936415 -124.246186
-114.430572 -170.122404 52.829600 -85.365893
-107.159396 -157.026181 6.121534 -110.487533
-142.154937 -179.967062 23.766540 -131.493886
-113.182482 -193.388555 31.245392 -91.971311
-112.120688 -189.756254 31.060823 -90.563083
-119.331556 -184.987576 27.807917 -91.295739
-129.754640 -170.688849 20.531446 -90.133047
-120.758956 -176.306140 5.423353 -120.984677
-144.090636 -137.837181 -1.328588 -98.545289
-106.183488 -220.833089 30.646153 -98.104973
-111.996925 -199.189423 31.963247 -93.355904
-67.904848 -80.999631 14.912800 -59.035047
-118.633934 -213.760925 -2.429179 -99.718458
-150.486973 -191.808125 24.429850 -140.001339
-121.748837 -214.839118 -2.998327 -100.976387
-110.444532 -221.744876 28.493887 -99.656823
-104.594821 -212.106078 17.839019 -95.010269
-109.961693 -216.517334 32.268028 -97.943708
-110.805286 -211.756556 32.651589 -96.768553
-120.541781 -188.222902 27.451051 -92.629405
-135.438169 -188.034246 13.816836 -97.041724
-115.666283 -204.798648 29.904550 -96.139480
-111.858167 -214.914970 31.403382 -98.031941
-123.389909 -225.970934 13.564893 -104.808253
-126.447902 -209.271965 4.090146 -100.715960
-147.606230 -188.058177 24.079167 -137.217527
-146.422750 -198.655758 18.900152 -141.156520
-105.779705 -208.876125 21.089418 -94.396749
-101.669734 -232.458447 23.687383 -100.238454
-197.905199 -229.218545 35.575267 -175.730879
-110.451716 -219.992357 20.778149 -99.133222
-115.835606 -205.588775 8.629594 -96.427314
-105.324235 -220.605374 29.094611 -97.778883
-105.293351 -208.441290 16.669405 -94.120392
-99.830675 -239.814829 25.190398 -101.893651
-118.470477 -219.145537 22.032591 -101.284804
-109.473486 -220.409783 31.207739 -98.964981
-101.994456 -170.372733 52.899623 -81.710157
-152.795121 -187.516789 26.686167 -139.169681
-69.743957 -177.588007 34.117291 -74.199589
-119.862030 -167.849238 13.590393 -117.775475
-125.087457 -147.942673 23.760954 -111.047294
-135.243507 -184.114608 16.944477 -95.807434
-144.805512 -192.225076 20.792222 -137.815924
-122.572136 -150.390968 22.426941 -110.797770
-64.765033 -168.234838 25.926250 -69.899961
-114.241502 -160.993076 12.861088 -111.689755
-46.114224 -57.004458 11.682238 -51.343970
-65.291964 -216.985390 39.226370 -84.683206
-91.624441 -202.193667 26.505525 -88.145432
-71.152448 -85.816238 15.550862 -69.297132
-98.103769 -218.608947 -11.720025 -95.013815
-74.264271 -165.125407 32.323198 -71.816903
-43.140540 -57.007634 -10.422720 -37.930942
-85.389116 -227.506484 29.161482 -93.868680
-162.203190 -200.925204 27.870690 -148.583613
-127.216419 -171.265496 18.001049 -121.903583
-35.600290 -44.954997 9.820003 -33.696790
-62.464425 -84.105000 12.066944 -58.608482
-121.957771 -176.172218 62.216279 -89.438997
-93.158094 -133.262066 46.580292 -67.926048
-95.135046 -153.849396 46.195178 -74.695333
-109.153665 -164.960934 53.634308 -82.234380
-119.787859 -218.026256 63.455785 -101.344235
-117.540229 -169.698201 52.066477 -86.171529
-107.831305 -147.991825 45.416608 -76.746939
-107.793010 -141.752623 43.057367 -74.863690
-89.752713 -93.957129 19.009869 -73.238426
-126.154567 -136.592414 28.618354 -78.824094
-118.151972 -163.648938 52.628893 -84.540273
-118.662106 -162.908815 49.810008 -84.471276
-173.324435 -120.904499 80.189445 -88.268680
-178.414933 -194.942014 105.086049 -112.007084
-140.386157 -110.171989 60.342633 -75.167444
-164.317431 -179.755388 86.263208 -103.221846
-132.278894 -131.067873 25.614881 -106.738956
-136.782550 -142.432293 25.636640 -83.764453
-171.285183 -145.182348 78.071890 -94.940259
-66.765555 -42.789427 5.281343 -43.181189
-110.629613 -151.830329 51.392782 -78.737982
-136.162988 -162.445861 76.394594 -89.582655
-107.854478 -140.963493 42.681697 -74.645391
-106.991128 -135.663967 41.654808 -72.796529
-108.554373 -147.497710 44.471395 -76.815625
-101.028050 -149.919600 48.163976 -75.284295
-111.371034 -152.225112 43.698217 -79.078844
-112.594390 -153.887619 46.577104 -79.944602
-107.503085 -140.695961 41.680749 -74.459714
-110.574117 -147.298083 44.431463 -77.361660
-99.857538 -140.180627 43.101925 -72.011449
-106.080339 -127.724043 41.829898 -70.141315
-117.755492 -52.845614 23.102444 -51.180332
-92.771765 -79.040827 16.837789 -68.204702
-99.203096 -143.466728 42.615832 -72.800947
-107.606382 -129.477941 43.684901 -71.125297
-105.123777 -146.431937 46.542120 -75.466714
-99.234024 -147.374700 47.131695 -73.982617
-103.558685 -75.197599 21.736282 -53.626885
-134.436022 -101.535795 26.176811 -70.791545
-107.063629 -71.188290 21.085830 -53.475576
-108.347859 -72.047326 18.796571 -54.118556
-105.151231 -69.992687 17.185889 -52.543175
-123.282931 -23.760164 20.984379 -44.112928
-107.808534 -86.422988 22.613342 -58.269456
-102.267119 -77.682391 22.194669 -53.984853
-106.933354 -88.880179 18.213943 -58.744060
-107.868056 -69.324612 15.056569 -53.157800
-121.068569 -93.260956 20.023229 -64.298858
-127.490166 -92.492650 23.048446 -65.994845
-105.010729 -80.354814 12.013459 -72.211790
-114.506743 -84.668529 24.259705 -59.752581
-87.069570 -148.940969 40.298158 -70.803162
-99.297773 -150.067170 42.171903 -74.809483
-124.277873 -94.537691 22.336507 -65.644669
-104.906594 -81.859278 22.715465 -56.029762
-84.530444 -156.444685 44.638988 -72.292539
-102.669626 -145.060937 11.871926 -100.212049
-133.864058 -186.128902 15.035063 -130.644287
-102.841454 -148.726394 47.956643 -75.470355
-124.182308 -105.147645 20.800807 -92.411448
-170.143364 -125.272943 39.104969 -88.624892
-129.223998 -90.933987 22.469673 -66.047396
-166.326096 -128.483932 20.820978 -120.019115
-117.767983 -93.835313 27.125511 -63.480989
-147.037229 -125.928892 24.129114 -110.842244
-122.095748 -86.577608 22.043590 -62.602007
-131.004472 -97.714583 24.440869 -68.615717
-115.263159 -87.612473 27.570375 -60.862690
-127.172300 -88.604867 23.708755 -64.733150
-120.079820 -86.295560 26.667981 -61.912614
-126.842002 -143.798671 24.743125 -109.855505
-127.971350 -94.712734 21.600726 -66.805225
-145.010232 -111.581993 27.661690 -76.977668
-154.754972 -116.614042 31.481221 -81.410704
-139.513709 -168.632861 25.309431 -125.648423
-141.291240 -106.221221 26.436791 -74.253738
-166.694193 -134.792894 22.794639 -122.261450
-130.885088 -99.625971 23.602259 -69.153318
-173.777366 -140.607910 24.639203 -128.274290
-126.151962 -85.282700 22.671166 -63.430399
-133.007264 -103.161965 22.212413 -70.850769
-131.773580 -99.663295 23.708970 -69.431062
-132.466872 -122.870242 24.442471 -103.420277
-130.491039 -94.946740 23.739982 -67.631334
-137.518056 -92.695693 23.284631 -69.064125
-141.712130 -111.247714 30.885721 -75.887953
-163.084981 -132.926875 43.107502 -88.803557
-126.129725 -97.816002 17.320570 -90.192675
-124.483195 -92.469265 14.807181 -87.245836
-130.747445 -130.634606 23.643263 -104.563405
-157.765836 -162.602094 20.096726 -126.569084
-125.876578 -120.484533 5.871608 -93.734731
-136.282910 -142.114602 11.429729 -107.796890
-142.080842 -121.481523 20.237065 -104.152812
-85.702920 -58.116091 -7.883073 -56.711937
-131.551970 -116.931252 5.117304 -93.065850
-164.404923 -129.603500 41.406455 -88.202527
-137.501946 -110.822317 30.664769 -74.497279
-136.838778 -102.345548 26.177355 -71.755298
-145.468605 -192.456440 21.150949 -138.185482
-259.201368 -275.373882 46.992175 -220.860719
-120.065293 -171.799821 10.406191 -118.788999
-148.047512 -189.533981 23.802841 -138.052718
-157.826726 -194.959862 27.091062 -144.608853
-166.335933 -204.995007 28.357352 -152.255389
-116.354244 -167.907192 8.859682 -115.595488
-108.878892 -135.999133 19.944610 -98.968884
-98.941621 -184.551088 83.292728 -85.047813
-159.043867 -195.170559 27.632794 -145.803323
-170.194307 -220.734758 25.486970 -160.521345
-221.691196 -342.054331 191.955509 -169.123658
-43.296970 -169.074056 89.245518 -63.711308
-154.022988 -202.654606 22.487222 -146.094246
-90.258239 -169.461788 77.544600 -77.916008
-127.869435 -178.121933 14.515070 -124.743659
-120.819502 -176.673252 4.815078 -121.159076
-112.194695 -133.142466 37.431276 -73.601148
-108.886490 -207.924929 26.568127 -95.043426
-126.855210 -135.917337 25.109880 -106.544939
-136.857043 -130.023683 48.429635 -80.064218
-124.557280 -108.092769 20.655712 -92.661905
-196.976015 -137.077201 9.155500 -136.533544
-152.298279 -189.907429 25.225630 -138.812218
-131.417378 -175.197247 19.144142 -124.998050
-92.439535 -96.521733 19.460242 -75.435985
-131.625053 -100.904068 26.294208 -69.758736
-97.155687 -186.592308 82.190035 -85.124398
-30.641157 -170.743910 98.744966 -60.415520
-123.693766 -179.228296 7.525671 -123.454051
-84.810613 -164.190986 51.015911 -74.700480
-123.169088 -179.716717 5.343109 -123.431713
-128.834179 -177.577024 15.796884 -124.174347
-123.577136 -142.634292 24.005224 -107.961433
-170.635101 -222.396530 25.539967 -161.139860
-62.681900 -94.553051 5.864669 -65.913215
-57.020982 -65.989557 13.754613 -47.421690
-268.637832 -307.812418 47.161134 -238.503125
-103.102339 -139.571795 -15.734809 -97.893912
3.813840 -103.378877 82.753364 -29.869511
32.333562 32.359841 -0.059431 32.058573
-96.095635 -216.083309 34.665953 -93.653683
-140.373398 -230.696797 50.451973 -111.321058
-68.696222 -228.908305 28.341536 -89.281358
21.843697 20.196638 -0.520737 20.072636
-136.194564 -239.096464 -1.130094 -112.587308
-157.377120 -189.229320 28.152886 -141.822742
-92.845856 -202.814069 38.031308 -88.697978
-94.778639 -219.913282 23.250706 -94.407576
-112.506019 -241.953042 16.232812 -106.337718
-103.597642 -225.099279 30.304209 -98.609076
-110.947758 -257.578048 14.344259 -110.557742
-109.402269 -219.923009 27.992147 -98.797583
-152.793220 -199.383206 23.049619 -144.205585
-127.759367 -183.785329 9.187978 -127.069717
-106.244256 -221.248655 28.779655 -98.247874
-102.724271 -215.879860 26.070597 -95.581239
-185.259131 -203.490655 34.546934 -159.590409
-107.889279 -254.561272 3.856124 -108.735165
-144.802940 -185.126599 23.532400 -134.800052
-194.137603 -223.680924 35.134505 -171.807018
-99.408937 -226.783763 32.299255 -97.857810
-97.174101 -238.929282 30.575368 -100.831015
-117.008447 -230.179226 14.262003 -104.156302
-104.682891 -251.874706 22.057911 -106.967279
-117.159983 -226.980030 17.932794 -103.242004
-62.306014 -223.710237 22.902644 -85.804875
-140.639438 -182.156367 22.218176 -131.803453
-145.635407 -200.694749 16.897689 -142.378427
-107.602222 -138.102606 18.734536 -99.414082
-131.587904 -183.993980 14.222162 -128.787584
-175.440053 -207.825929 31.346771 -157.284357
-154.441928 -188.957771 27.057943 -142.602098
-193.259830 -236.154275 32.594496 -176.721160
-103.407692 -213.377427 28.287423 -95.035536
-161.875598 -184.294930 30.278001 -142.372770
-183.862413 -207.102440 32.108527 -158.332672
-195.223054 -221.728873 35.664297 -171.436304
-200.443334 -235.927254 35.378838 -179.653706
-191.948070 -224.887127 34.250803 -171.419346
-89.525578 -219.646158 27.773885 -92.751521
-172.665572 -212.078038 29.416099 -157.901823
-190.532123 -237.091625 31.128464 -175.968342
-122.682677 -267.106181 23.585507 -116.936657
-120.460175 -233.438267 8.853271 -106.169533
-158.592799 -173.416410 59.547494 -99.602763
-181.225311 -223.864255 30.351455 -166.438637
-135.789881 -174.786789 60.636445 -93.173001
-150.045052 -177.480932 27.547326 -133.803659
-125.349214 -185.549093 58.133274 -93.269492
-163.303474 -233.292410 9.874012 -162.899258
-121.040055 -224.779389 58.072597 -103.745833
-122.257998 -195.113065 59.996653 -95.211319
-82.278919 -229.361587 29.181588 -93.492152
-78.031698 -392.535441 55.234765 -141.170142
-40.639221 -246.742583 81.190258 -86.214541
-120.750422 -193.400474 74.440913 -94.245269
-150.204498 -260.159342 77.828846 -123.109152
-111.317264 -225.668189 47.899710 -101.095636
4.157191 -129.233230 80.071464 -37.522812
-111.207047 -151.850301 15.598245 -109.556111
-131.136859 -129.721683 25.352735 -105.904120
-126.620373 -154.665263 21.951131 -119.815549
-134.944244 -228.361661 67.711891 -108.991772
-160.790225 -166.992920 55.447000 -98.334944
-196.182433 -229.099210 35.027195 -174.966071
-185.365356 -227.740956 31.222210 -169.814213
-128.545370 -101.396971 18.381641 -93.153791
-167.460631 -186.836298 57.542616 -106.289079
-163.008267 -201.474273 71.422268 -109.344762
-183.686974 -187.341195 34.369734 -152.024587
-144.743193 -186.984544 22.843990 -135.631734
-169.765261 -245.125414 3.554597 -171.627349
-173.439806 -156.807381 29.841826 -134.963982
-79.554771 -98.099867 16.177889 -71.070205
-128.170564 -137.829024 25.331497 -108.911917
-175.146009 -244.250270 16.352651 -172.482606
-174.808939 -134.099279 21.001656 -125.982181
-86.120497 -56.661187 5.689363 -57.074936
-179.749826 -245.318623 20.527329 -174.878501
-159.612922 -282.225133 36.238454 -132.551416
-185.289917 -234.328034 29.405747 -173.247673
-109.428524 -244.771864 9.721465 -106.260116
-185.252810 -227.601772 31.187038 -169.728828
-194.586401 -264.637751 22.131533 -189.139673
-84.177960 -221.428719 14.989813 -91.682004
-209.629555 -278.297202 27.204827 -201.318394
-195.200043 -212.324062 36.246299 -167.503946
-178.831661 -214.671026 28.547990 -158.932171
-189.258424 -220.494809 31.838173 -166.054882
-188.412205 -223.304916 32.669803 -167.896487
-188.032623 -230.214431 31.120344 -170.653695
-194.497080 -241.168018 31.903756 -179.351454
-217.548667 -293.090869 25.549759 -210.922133
-225.948728 -305.432358 25.691606 -219.617880
-229.951817 -317.383729 21.161163 -226.382090
-175.624488 -247.384931 14.074640 -174.388793
-195.945660 -240.961153 32.523837 -178.790957
-186.084481 -236.279959 29.121609 -173.752501
-181.440473 -252.536167 16.986182 -178.870391
-184.656759 -208.255883 34.076091 -161.347604
-185.049591 -216.943490 33.160310 -165.173172
-182.617838 -194.650452 34.272466 -154.779718
-187.206841 -213.755559 34.224442 -164.742179
-186.518352 -221.514942 32.919605 -167.719783
-207.465046 -250.810896 35.216453 -188.879359
-181.209435 -229.644419 28.644815 -168.908552
-253.551572 -332.148382 33.576467 -242.528128
-182.346749 -256.606538 14.412095 -180.701766
-108.257271 -106.968146 21.793461 -86.417476
-168.136350 -163.827206 31.159315 -135.586379
-138.957381 -123.757937 24.379321 -106.739565
-112.562847 -276.569486 93.813114 -116.739700
-205.518406 -257.914813 32.603958 -190.996825
-200.569900 -212.624625 37.273981 -169.842242
-134.865957 -155.131375 25.982764 -119.009204
-59.826506 -216.810687 15.641670 -82.991158
-283.245991 -325.250221 49.351026 -252.024983
-198.196343 -243.442931 33.120241 -181.786626
-142.207942 -194.598249 17.661455 -137.658906
-183.540738 -213.769541 33.130421 -163.200458
-196.075225 -217.286824 36.248853 -169.910960
-224.415106 -231.282469 41.181356 -187.639484
-146.095991 -138.068513 27.070021 -115.457657
-106.099269 -99.591151 20.713782 -85.593581
-109.909545 -105.018679 21.546933 -88.367639
-161.300310 -170.006568 31.405580 -134.880653
-171.335991 -190.576014 32.401267 -148.078298
-202.333252 -227.916879 37.235928 -176.803077
-194.583987 -215.494881 36.037763 -168.521308
-188.091408 -202.468015 35.552405 -160.113841
-172.642457 -168.384887 27.798662 -135.810176
-106.161714 -101.709264 20.971459 -85.583996
-165.343232 -202.531675 28.561434 -150.756926
-210.589182 -217.521491 39.167511 -175.773300
-111.338806 -118.200583 22.575277 -94.845160
-149.209119 -125.968469 23.970958 -111.674802
-85.538979 -79.903857 17.634151 -68.918372
-157.817364 -141.583679 27.513048 -121.787208
-116.994600 -142.398228 21.862294 -105.901372
-82.100553 -113.672251 12.451052 -79.666632
-134.386957 -133.949246 25.976208 -108.878307
-139.179829 -120.037592 23.472327 -105.483589
-151.871190 -208.832573 17.534868 -147.790856
-90.507471 -98.836564 -12.494907 -70.511006
-156.964508 -183.748805 29.021931 -139.665987
-140.945298 -185.023062 21.279327 -133.159219
-178.440529 -200.046896 33.441483 -155.548178
-210.480859 -216.508401 39.179867 -175.300426
-158.609366 -198.996796 26.342834 -146.368807
-169.463350 -189.223830 32.027430 -146.750189
-184.883035 -206.083060 34.508249 -160.357154
-143.681459 -118.815635 18.923230 -104.029950
-138.373083 -135.091627 26.338889 -111.045832
-176.669217 -148.362346 26.130767 -131.582447
-101.281018 -93.795154 12.850314 -75.686930
-144.485492 -165.510480 27.391748 -126.432758
-92.994212 -149.999470 53.001426 -72.898105
-174.832392 -178.651313 32.855485 -144.697135
-130.968748 -119.952130 21.748520 -100.456143
-166.455783 -138.742332 23.469925 -123.912634
-146.645054 -113.547666 28.674939 -78.057816
-122.806452 -97.973795 13.709154 -85.688348
-164.117476 -137.221723 61.642567 -90.401760
-143.624211 -131.990105 25.934563 -111.929714
-129.790401 -125.078086 24.724118 -104.098578
-159.863540 -148.534273 28.195548 -124.671437
-136.112647 -112.291480 19.394915 -98.717886
-143.278506 -117.001310 16.618155 -101.866502
-126.911472 -115.927485 23.261149 -98.149578
-122.986194 -119.990497 23.868167 -98.204194
-134.483289 -129.976526 25.600837 -107.221472
-137.883532 -141.768931 26.877300 -113.599551
-137.652816 -147.534384 26.920261 -116.317038
-215.830498 -220.090401 40.147993 -178.919809
-139.202432 -111.991100 29.349229 -75.358060
-124.771555 -114.575135 30.533565 -71.804007
-165.808728 -170.433711 32.098083 -136.835113
-120.862805 -121.606370 24.631993 -97.337327
-146.401790 -125.214358 23.645605 -109.557558
-147.267374 -131.922254 25.090735 -113.377803
-99.091560 -111.120551 20.407999 -86.908921
-136.189233 -128.465345 25.374619 -107.338462
-130.672399 -127.607099 25.789002 -104.099045
-115.699378 -108.798843 22.179212 -90.394928
-142.573321 -135.323552 26.537547 -112.877804
-142.120315 -95.779495 117.080637 -71.369943
-191.900897 -163.113129 29.827177 -145.257515
-125.428250 -127.363729 25.131019 -102.693681
-203.624902 -200.067493 37.346667 -165.491365
-126.129604 -127.625850 24.850994 -103.905917
-54.848609 -55.385579 13.488014 -49.078290
-128.298275 -123.460224 24.652833 -102.115152
-196.935990 -180.458330 34.121088 -154.516934
-122.180830 -108.488586 20.284692 -69.200825
-131.106459 -124.999767 24.990467 -103.559811
-138.407654 -141.514252 27.011954 -113.649347
-100.425348 -86.310145 16.306336 -72.884436
-104.413416 -104.529014 28.325165 -62.682729
-96.935843 -71.670497 12.668870 -66.885896
-73.410097 -74.945629 16.284668 -58.314022
-87.874980 -88.467211 18.325243 -69.540348
-81.492296 -106.893456 14.775232 -75.223988
-68.936724 -73.717504 15.640417 -55.926474
-74.166210 -79.061263 15.138647 -59.053642
-80.359602 -101.243491 15.786886 -72.373101
-68.917604 -68.748219 15.506369 -53.743166
-86.407507 -65.992100 11.117856 -58.577443
-67.784223 -67.734676 15.331465 -52.862687
-81.964782 -84.837057 21.132581 -50.040552
-111.405323 -105.054409 21.619083 -86.954770
-107.077479 -113.115967 21.913642 -88.574043
-130.207561 -124.567614 24.729260 -103.159797
-52.402957 -55.742165 7.718438 -40.925917
-96.247998 -88.709423 18.845764 -73.769419
-133.834980 -76.905585 24.708805 -63.222170
-109.914231 -99.262127 20.505648 -83.963108
-99.742551 -85.174836 17.771636 -73.759557
-82.361751 -109.281335 20.028745 -57.492926
-80.313953 -93.181372 26.026356 -52.048597
-88.385496 -95.785330 18.244874 -72.577146
-72.514083 -74.934204 12.316349 -54.836219
-70.752570 -72.223031 15.280424 -55.330095
-80.684377 -82.474012 16.695061 -63.630336
-105.988225 -104.924946 21.424526 -84.599507
-94.822301 -92.763368 19.401166 -75.439136
-99.075808 -78.424774 15.100753 -69.928371
-81.930327 -84.925374 22.841073 -50.056710
-92.782496 -91.789191 19.371610 -73.420218
-119.607975 -75.117885 21.669999 -58.417758
-154.455506 -82.857126 51.260606 -71.193790
-84.698552 -72.102868 15.842362 -61.809354
-124.103509 -100.122708 18.925702 -90.303532
-95.270344 -91.452152 19.267306 -74.511583
-87.339276 -94.273618 18.658047 -73.356475
-93.088646 -95.232533 22.627285 -56.496354
-152.280717 -128.111072 72.283387 -84.117537
-118.918202 -133.306681 23.606399 -102.084610
-230.801025 -187.341656 31.530781 -171.818857
-164.882643 -133.617906 23.754134 -121.567645
-136.253796 -121.662332 51.376624 -77.374839
-94.548678 -100.321760 44.608083 -58.461131
-95.000133 -22.818672 58.433774 -35.345642
-109.917209 -90.463286 18.157475 -80.639221
-100.526715 -112.433707 32.207634 -63.888127
-127.994556 -95.951431 15.781883 -90.080686
-124.105167 -81.425636 15.151593 -61.659241
-113.370229 -114.074778 22.651606 -91.665669
-118.551198 -109.033868 18.951717 -68.275520
-130.704187 -110.240212 21.468950 -97.318882
-123.010541 -94.577685 16.699763 -87.449731
-118.915164 -97.083070 19.004628 -86.692677
-130.560031 -101.479838 17.405006 -92.733728
-110.099777 -96.432480 31.387956 -61.959677
-132.560566 -99.023583 16.001944 -93.245387
-112.840050 -73.388276 16.317084 -55.868498
-113.445642 -101.824712 34.791091 -64.581106
-101.982117 -89.106020 24.163290 -57.326441
-134.012090 -119.078862 40.774552 -75.927286
-126.696548 -102.292466 18.470572 -91.276408
-127.519963 -90.170016 25.965549 -65.306993
-106.015161 -73.379774 9.554090 -71.293094
-92.960488 -83.760306 10.393907 -64.686149
-175.280054 -109.761724 27.562700 -85.512534
-120.792286 -84.073433 33.184417 -61.459716
-135.439538 -98.664336 26.781148 -70.231162
-82.951638 -64.244907 -2.688122 -52.839318
-138.186796 -106.794123 17.751779 -98.163621
-119.202063 -82.265724 27.272537 -60.440336
-119.012014 -82.000926 21.655127 -60.303882
-107.495405 -86.363390 16.496307 -76.767955
-119.513650 -98.632681 19.516550 -87.572114
-47.341128 -57.124793 11.791940 -41.402826
-96.501379 -72.746159 2.632792 -62.536519
-119.404681 -86.033823 20.754853 -61.631551
-117.866170 -78.371938 21.490372 -58.871432
-117.172526 -89.861590 14.994297 -82.017147
-119.167681 -91.756178 16.561824 -84.559404
-115.927776 -90.863515 17.109118 -82.788891
-102.477618 -102.917889 39.078880 -61.618652
-86.705907 -72.362909 12.256617 -60.338621
-81.752854 -60.161646 11.422352 -55.311122
-80.312113 -77.895414 12.991413 -47.462258
-74.905590 -67.712527 7.158751 -42.785435
-94.915315 -65.737776 9.614692 -63.314776
-90.823723 -71.724499 7.432309 -60.073943
-83.588767 -63.114685 9.452500 -55.689202
-83.636703 -77.665479 14.141477 -48.390655
-62.611790 -55.198938 11.310727 -43.806454
-54.499194 -31.890963 0.802199 -32.162976
-68.990794 -74.964863 14.656143 -43.186697
-61.881956 -55.924572 13.238469 -45.007934
-74.380581 -75.866114 10.518856 -45.074009
-65.715535 -52.006540 6.227590 -41.865738
-64.393849 -72.735534 13.733737 -41.138815
-68.003314 -89.629364 14.606177 -47.289803
-63.455956 -76.500290 17.517668 -41.986874
-62.590263 -72.397486 15.722864 -40.496325
-84.111117 -83.404864 17.004431 -50.254794
-73.899454 -85.688949 16.286048 -47.876521
-84.784480 -111.026876 15.203220 -78.353746
-62.667410 -70.037223 12.847769 -39.811390
-88.573058 -66.655649 10.538596 -59.670736
-89.376771 -63.016205 10.264370 -59.943778
-85.981354 -89.685123 14.015524 -52.699943
-75.761848 -84.049709 18.351950 -47.943467
-109.376017 -89.095222 29.573891 -59.541372
-80.067938 -108.947152 28.574246 -56.704527
-100.949320 -81.735299 17.418123 -54.805386
-114.327263 -98.560181 26.595249 -63.866233
-71.227239 -72.176774 11.123585 -52.482090
-75.414921 -81.918998 16.394266 -61.525003
-48.310831 -42.796622 -3.628378 -32.055045
-72.438358 -78.850527 15.322211 -58.584782
-67.294395 -86.725114 15.603258 -46.205853
-64.121548 -93.520527 19.467729 -47.292623
-59.222179 -71.700002 13.259220 -50.520289
-62.931044 -97.354608 14.535190 -48.085696
-68.975721 -83.960204 14.567692 -59.698952
-84.287917 -101.827932 17.200913 -74.260671
-89.227316 -102.438395 28.758765 -57.499713
-63.951765 -75.052359 12.668215 -52.840170
-61.793193 -91.355045 5.910064 -45.944471
-64.968391 -84.982698 11.195407 -44.985327
-45.453305 -39.941373 -4.667984 -30.690281
-46.992095 -67.497861 3.056592 -43.636821
-52.839648 -76.422114 2.560450 -49.312455
-48.691006 -72.369175 2.701998 -46.255561
-79.044370 -92.607706 24.705494 -51.495623
-60.423394 -73.640765 16.802476 -40.219248
-44.989727 -53.396609 -4.400572 -36.344207
-40.751020 -39.801257 -4.968664 -28.982438
-70.160967 -61.458677 11.424130 -49.016438
-46.094161 -51.366412 6.973333 -33.319898
-58.976389 -81.109863 6.888479 -42.025875
-54.399374 -80.708007 7.518990 -40.532214
-69.776318 -85.390354 15.954934 -46.550002
-54.215139 -58.101808 9.886770 -40.512168
-60.704440 -84.754677 11.584403 -43.637735
-75.893898 -70.174967 17.055865 -43.820660
-49.177113 -63.356939 -0.647102 -42.361862
-49.074154 -68.154451 1.646464 -44.186783
-53.091411 -63.554585 6.909301 -34.993799
-47.002686 -68.455799 2.890209 -43.926987
-55.836508 -64.098605 13.006095 -45.833642
-54.812126 -88.429906 6.305522 -42.972610
-48.427151 -59.496969 -2.630091 -40.147318
-58.867087 -82.261017 12.014081 -42.338431
-60.823833 -85.529553 6.804804 -43.906016
-62.889960 -88.442304 7.841737 -45.399679
-51.582464 -77.703602 4.674879 -49.947579
-49.633215 -62.780516 6.033289 -33.724119
-55.782685 -81.740343 4.663742 -52.803205
-60.316133 -84.306716 10.865981 -43.386855
-51.534603 -68.396804 5.841741 -35.979422
-49.313742 -61.970938 6.817611 -33.385404
-53.760806 -75.299321 6.628105 -49.183596
-48.665712 -65.545038 9.070018 -42.865618
-54.205287 -58.743117 13.069981 -43.039517
-36.726087 -41.705425 10.243123 -28.630810
-52.036493 -83.711705 -1.912394 -40.724459
-46.590834 -69.259420 1.391754 -34.755076
-48.350455 -47.523978 11.974412 -36.272020
-52.840484 -62.421894 12.659244 -44.068795
-52.940566 -90.599105 -1.867084 -43.061901
-52.197685 -86.250643 -2.049382 -41.534498
-52.668821 -94.026453 3.143380 -44.008582
-50.053831 -75.035707 3.110323 -48.008400
-54.261602 -78.722250 4.239434 -50.794448
-53.199534 -81.284736 2.365804 -40.345281
-72.590072 -107.433142 7.060732 -71.562123
-59.088382 -73.720071 2.689432 -49.129341
-57.897996 -87.605468 4.893984 -57.047531
-54.953584 -79.453596 7.966743 -51.874990
-61.955371 -88.106060 9.851689 -59.091709
-54.878802 -79.255411 8.777416 -51.944928
-57.068914 -81.861797 9.252396 -54.405253
-42.830524 -59.011152 8.533935 -37.951135
-44.787691 -61.296356 9.620137 -40.141392
-49.431113 -57.199942 -3.031527 -38.721347
-70.773683 -106.732578 3.117347 -69.910293
-73.202790 -106.094758 8.698788 -70.812514
-68.603559 -104.004912 -0.749797 -67.761678
-53.129976 -74.140322 -5.162947 -47.222091
-45.724969 -62.844147 -8.046160 -41.035741
-48.047188 -68.472965 9.059718 -44.968050
-59.802910 -104.501346 -8.867134 -49.291277
-55.581037 -67.261426 -5.230970 -44.914148
12.725737 16.140028 -0.778803 12.605999
-75.556188 -104.724076 11.895226 -71.817123
-50.614472 -89.050684 -0.787463 -41.899547
-54.345540 -90.665481 6.485148 -43.503306
-60.292770 -88.454608 6.389311 -57.533139
-54.277700 -87.773283 4.413443 -42.615295
-69.921107 -106.140077 2.648083 -69.428415
-71.720063 -109.178454 2.287189 -71.636566
-54.708427 -97.829788 2.625287 -45.761464
-60.929277 -86.393454 9.931688 -57.832228
-65.296428 -94.437473 9.055675 -63.164594
-73.002817 -108.174665 6.784918 -71.667529
-55.699583 -100.608541 7.107889 -46.892437
-69.745450 -86.675216 14.610730 -61.434182
-65.767563 -79.607624 14.111347 -56.498830
-62.706604 -84.024051 4.758221 -54.922755
-63.509080 -91.263002 9.385644 -61.075590
-72.558221 -93.602808 14.202503 -65.871762
-86.698512 -113.363870 15.484067 -80.139053
-66.824519 -84.100433 12.399710 -58.062192
-76.903924 -95.290075 11.959974 -65.709121
-56.253746 -81.459141 8.799667 -53.592396
-61.906639 -91.875422 5.780304 -60.353481
-63.176024 -84.484884 4.190287 -55.558620
-57.657053 -78.019301 1.948546 -51.297994
-60.302005 -88.115793 3.677601 -57.585467
-56.733788 -82.544230 8.578505 -54.551907
-86.074823 -123.058290 10.291373 -83.963984
-72.574383 -104.936064 9.178027 -70.645387
-88.781768 -107.501887 17.816610 -78.549136
-66.864267 -98.034876 8.119639 -65.340073
-76.774962 -92.589830 16.114572 -67.205886
-78.723729 -94.779599 16.423715 -68.954269
-71.627871 -82.494610 12.935453 -58.434180
-66.985159 -92.935411 9.755839 -62.114834
-62.780931 -88.792370 7.927002 -58.383401
-63.476508 -93.545656 7.794881 -62.023188
-62.482991 -91.771725 8.049382 -60.857872
-63.184665 -95.895853 4.994310 -62.890800
-64.032595 -94.035765 8.039282 -62.463696
-67.381034 -99.657778 6.876060 -65.626974
-77.802906 -116.965662 4.033935 -77.919549
-63.441598 -96.858226 0.806775 -62.772932
-59.975939 -93.057441 6.033383 -45.910014
-62.052303 -92.440180 5.572866 -60.333908
-78.740180 -109.831475 11.757498 -75.309164
-65.345745 -127.627772 8.858216 -57.892055
-79.393715 -99.384258 -15.721296 -70.851037
-65.192547 -75.855158 -12.916232 -53.683562
-73.572429 -107.235852 8.513263 -72.040093
-71.543172 -108.807527 -2.693005 -71.846460
-169.081014 -232.862129 -6.347085 -162.391034
-170.879670 -237.821479 -13.742754 -166.209152
-164.311750 -226.821275 -17.627664 -161.987316
-160.512972 -220.841400 -17.943800 -156.498150
-146.043825 -201.962459 12.404147 -141.127553
-162.765913 -233.981881 6.427142 -161.896722
-107.115511 -130.445349 -16.255676 -93.822329
-156.233319 -159.438688 29.744721 -128.834370
-20.644036 -23.616239 7.601023 -17.048850
-169.999640 -228.151634 -21.986670 -163.585931
38.206709 38.291825 -0.078737 38.676574
-359.421188 -317.085659 55.099181 -280.786982
-88.301314 -67.294620 13.133560 -67.222697
-155.531130 -211.174584 -2.864268 -145.436913
-196.692392 -226.674954 35.474570 -174.191618
-137.787262 -170.002464 9.547011 -122.665425
-115.332524 -130.999612 22.865768 -99.637614
-126.002722 -184.643530 1.566270 -126.727289
-155.565824 -191.709803 26.830925 -142.144046
-130.622414 -160.258345 23.498252 -119.014971
-144.860596 -206.164625 11.254960 -143.122679
-165.112357 -378.820956 60.060997 -163.179994
-153.847761 -218.349423 11.860378 -152.640955
-168.444901 -232.919328 -17.575947 -165.282904
-126.927088 -176.009632 14.989102 -123.475504
-104.853848 -131.850493 -17.228394 -95.027751
-140.466285 -201.462758 2.445294 -138.479278
-175.931952 -253.890448 -2.000459 -176.908801
-197.112206 -409.567726 -11.992264 -182.003980
-151.875780 -439.859892 38.584234 -177.520702
-179.547627 -419.017637 -1.204769 -179.569579
-181.174712 -371.849994 14.722167 -165.907412
-156.076848 -373.160986 57.371837 -158.771350
-157.057152 -395.246127 47.782177 -165.690984
-188.007135 -382.031608 17.856547 -171.011623
-188.329999 -429.404972 28.536877 -185.320491
-178.230654 -383.359500 12.915473 -168.477046
-207.837332 -381.072512 -9.724403 -176.672953
-214.676453 -231.466928 -16.794465 -171.484065
-127.162926 -377.816518 -19.800166 -151.493833
-180.823513 -379.007182 -12.166138 -167.949208
-200.722139 -388.572839 -5.228625 -176.788493
-169.185017 -179.170473 -32.028166 -142.817411
-156.585481 -394.431812 1.886319 -165.305188
-309.135284 -436.221707 -11.227233 -309.135284
-142.010747 -137.934503 10.657670 -107.412425
-277.810451 -389.228501 -12.497036 -277.810451
-257.898765 -341.647133 -1.144122 -245.448386
-161.412987 -220.645735 -18.940955 -156.043423
-184.999085 -598.727759 49.042396 -235.118053
-133.236945 -469.062246 -4.163961 -180.689757
-303.093634 -428.359490 -4.716489 -301.778711
-262.090874 -344.871065 -33.004252 -250.636802
-324.315722 -457.185512 -12.075101 -324.315722
-288.375247 -404.614134 -4.791235 -286.178517
-262.173517 -363.606970 -3.533737 -258.728004
-237.091201 -329.565725 -14.409953 -236.741143
-165.325779 -214.850967 -24.713275 -156.773684
-250.767513 -331.973864 -31.549264 -241.299122
-257.965480 -361.600726 16.507245 -256.800997
-236.445123 -337.871359 -1.197410 -237.746411
-204.407472 -267.316904 -28.438172 -194.241966
-215.741060 -259.388598 -36.660972 -195.970033
-216.404574 -305.927636 -11.270051 -215.497838
-183.284390 -233.998394 -28.184977 -171.535440
-293.720405 -414.703236 11.598676 -293.720405
-165.675718 -352.086628 4.482480 -155.328704
-282.981800 -394.689345 19.297691 -281.270768
-250.518360 -343.064342 24.303476 -245.855816
-274.329353 -370.779505 29.346221 -267.557826
-240.505296 -321.702303 28.683730 -232.638729
-250.893241 -329.615860 32.757654 -240.342601
-225.310267 -298.202833 28.987797 -216.339204
-179.739715 -259.027233 -3.000163 -179.739715
-217.565626 -275.496445 22.388814 -196.988351
-216.040008 -299.328069 -19.430491 -212.811328
-239.072915 -252.585201 14.924690 -181.979180
-262.428885 -329.164966 -36.226985 -241.592184
-262.231414 -348.438484 -25.628779 -249.107309
-251.268998 -343.077911 17.961464 -243.011298
-254.905476 -323.630131 37.703916 -239.488145
-184.842575 -258.073702 16.257150 -182.383898
-251.398932 -305.030458 39.450152 -227.833368
-267.334675 -341.099282 37.468622 -250.078085
-235.660649 -263.340332 9.495077 -186.229702
-210.373753 -244.463607 -6.178359 -172.249889
-220.813630 -261.752473 34.883608 -196.011774
-214.788937 -256.054700 8.956273 -179.118625
-257.104869 -292.057028 -3.525315 -205.019626
-209.272618 -233.355435 -36.271459 -179.918504
-235.474953 -247.183947 0.775398 -174.301849
-251.507603 -348.023017 -19.085570 -246.401162
-209.247343 -334.020376 -41.915643 -162.980316
-193.946582 -210.799264 -21.084437 -155.068812
-198.619207 -330.386395 -13.638176 -158.701681
-224.599334 -255.110352 -37.655182 -195.025107
-234.588474 -285.571190 -9.205374 -201.312462
-248.324583 -330.175511 24.840013 -236.254555
-194.601472 -388.702831 169.613758 -174.991291
-217.763017 -227.516381 1.455486 -161.083782
-212.064104 -281.353023 25.001997 -201.584733
-210.969689 -301.060616 7.591418 -211.509274
-230.701905 -290.849299 32.623720 -212.864716
-111.324441 -341.584169 73.320685 -135.872583
-278.362011 -381.516370 25.721081 -273.767552
-310.154656 -418.190540 32.822562 -302.599930
-278.349851 -395.053623 6.852309 -279.477233
-249.261737 -342.306944 17.633010 -242.188611
-238.338907 -324.798957 24.716106 -233.032384
-168.914800 -235.110255 -16.343302 -166.021419
-173.104152 -134.406796 -9.878253 -119.298201
-198.875395 -275.633885 -18.571923 -195.722591
-209.481729 -286.694827 -21.902721 -204.838256
-234.825647 -302.070103 -33.821142 -221.982460
-208.058730 -296.935498 7.750644 -208.543385
-212.266448 -302.273354 8.955729 -212.565464
-229.349124 -317.879178 19.903335 -226.334797
-155.809441 -354.138693 2.615272 -152.984440
-330.622605 -430.194408 43.092410 -316.279751
-102.594809 -353.861601 1.793083 -136.936923
-203.916194 -364.464899 62.371555 -170.514328
-152.207371 -359.815595 13.375431 -153.606890
-136.165186 -371.333093 12.305487 -152.249484
-165.203702 -363.015675 13.362241 -158.465813
-161.672674 -355.432053 2.320188 -155.131418
-149.654628 -360.906314 12.825036 -153.168283
-179.330927 -385.141208 28.630731 -169.341641
-192.731933 -387.789183 30.697421 -174.156335
-183.820441 -381.245196 28.951295 -169.519691
-184.872012 -399.947199 71.448362 -175.445763
-163.476374 -379.964976 13.578903 -163.032405
-165.725136 -398.658062 35.558291 -169.314959
-153.178476 -367.513456 18.004551 -156.207580
-151.513396 -198.849278 6.475341 -137.612868
-232.569210 -473.619548 97.109888 -211.856627
-188.394485 -224.697460 27.236000 -166.172504
-155.349460 -144.800839 8.541573 -108.210827
-215.853154 -249.752492 18.815514 -179.720062
-140.775259 -199.474961 4.371826 -137.043091
-187.821431 -199.577926 -10.223190 -141.839185
-178.286887 -168.375079 -31.450191 -140.708513
-208.988995 -229.754778 -25.574538 -170.859923
-220.841247 -370.030552 1.115051 -177.261540
-154.778219 -133.230637 -19.838684 -112.877157
-181.847998 -283.214104 -7.880223 -139.518630
-154.422034 -280.066617 -21.301263 -130.346595
-200.764867 -332.538060 16.929089 -159.990878
-155.078213 -199.179262 4.132655 -137.170813
-156.508474 -210.487282 11.492288 -147.423107
-164.238861 -220.412882 1.031984 -153.472909
-163.492809 -220.668700 -2.805942 -153.743167
-149.015159 -213.520538 3.288805 -147.354374
-160.427533 -224.838326 1.659472 -155.804761
-176.209299 -197.750221 15.803275 -142.203968
-156.875049 -210.138375 10.892546 -146.303895
-150.450403 -212.486251 6.894320 -146.666586
-174.006426 -237.646834 9.678590 -166.424826
-167.456454 -254.484787 21.856735 -126.582372
-146.064567 -204.779873 12.842405 -143.370587
-164.617700 -262.593718 -29.083788 -128.163425
-161.754504 -226.516430 8.866352 -157.911097
-145.123702 -202.472127 14.356297 -141.827591
-147.481760 -209.630460 7.850940 -145.121619
-210.970400 -266.905078 -23.675781 -194.652372
-151.176618 -197.714388 21.366087 -142.039162
-143.087965 -177.210090 -4.143362 -121.057712
-137.992971 -195.711102 0.034115 -134.014579
-146.983452 -205.656411 14.253391 -144.311071
-146.143449 -208.285742 9.738206 -144.774997
-192.339745 -422.699749 49.612579 -184.511848
-142.565186 -399.946154 26.877573 -162.753402
-185.539702 -386.495762 34.816359 -171.610639
-144.421356 -141.496291 -5.909884 -100.251497
-164.497777 -412.283927 49.586295 -173.034511
-223.420382 -546.446039 88.651842 -230.959926
-170.499905 -188.410650 1.988411 -130.517710
-146.981525 -182.085235 0.191411 -124.490847
-173.178067 -344.747163 20.851836 -155.377569
-53.203533 -230.047865 -71.191786 -84.975419
-177.439319 -378.177993 40.503541 -166.685194
-172.882479 -351.186309 8.688410 -157.220636
-168.019975 -358.387102 23.627111 -157.922123
-149.813496 -333.947776 6.714997 -145.128382
-158.890405 -343.972544 28.073920 -150.858885
-162.163163 -330.353505 15.324401 -147.755000
-187.593440 -363.643407 25.372573 -165.371054
-178.126204 -362.751058 37.575560 -162.263178
-156.593389 -321.995715 5.151742 -143.576731
-151.708194 -349.796206 18.804575 -150.451320
-158.124030 -325.834401 -1.317215 -145.187529
-148.300390 -390.795553 36.333975 -161.728783
-194.761015 -274.602055 6.628972 -191.446768
-161.313894 -486.224331 50.434934 -194.261467
-202.462209 -264.139043 -28.349633 -192.338783
12.556687 10.712856 -2.068487 9.351771
-145.801390 -357.922671 37.501967 -151.117218
-164.606282 -357.004954 56.797516 -156.483371
-116.704446 -294.871156 25.583414 -123.472681
-128.034906 -311.234180 6.826304 -131.780726
-158.428320 -339.179667 21.092851 -149.282396
-168.551814 -318.067416 -14.834998 -145.985769
-208.896989 -281.820526 -24.537526 -202.506698
-188.802065 -487.701396 -0.844977 -202.951038
-139.490313 -220.799711 -8.795203 -108.087007
-189.780324 -259.008010 -21.134319 -184.874220
-161.430143 -305.928038 3.931039 -140.207454
-144.519910 -306.102652 -9.557258 -135.186769
-186.769221 -252.873057 -22.188729 -181.028771
-187.906116 -256.585443 -20.894426 -183.068036
-235.354766 -332.371143 -12.877016 -234.964874
-127.304275 -183.128346 -9.038562 -126.603933
-160.153544 -335.997570 21.910900 -148.845334
-149.272530 -359.234169 49.887684 -152.552010
-188.892327 -363.569026 1.198079 -165.738406
-140.700478 -261.932794 -54.536497 -120.789982
-167.298896 -344.532107 26.313831 -153.549301
-127.122430 -300.565296 12.895933 -128.306318
-183.205171 -351.821424 -1.301297 -160.507978
-177.801126 -326.728924 -13.190768 -151.359015
-146.355448 -311.929486 18.084389 -137.485480
-157.644184 -294.513675 3.767015 -135.647358
-152.580729 -355.619116 43.019988 -152.459954
-142.810196 -333.655506 27.201972 -142.939711
-164.444653 -351.954893 51.142754 -154.919864
-143.637407 -318.915189 33.514891 -138.765779
-163.387336 -368.016565 55.098535 -159.421170
-138.123726 -173.537863 23.549659 -127.146352
-154.567295 -371.744768 49.564156 -157.893619
-168.864171 -178.189072 31.993569 -142.049112
-145.218842 -177.307151 15.680558 -127.789956
-130.958943 -183.389257 13.919532 -128.277971
-143.815743 -188.046928 21.867022 -135.652903
-142.760392 -177.168243 15.963236 -125.025825
-144.365489 -177.636438 5.447248 -127.788365
-152.308152 -368.963517 52.034916 -156.381501
-139.266023 -180.682995 21.893078 -130.635559
-140.338832 -362.698152 57.861194 -150.911095
-159.658225 -422.843043 61.044639 -174.750381
-205.049833 -190.953157 5.757250 -142.108558
-151.037056 -182.057862 19.874742 -131.550857
-152.332387 -183.818354 9.309136 -133.478589
-143.106210 -133.277572 26.146956 -112.293691
-127.442179 -119.887822 23.955283 -100.060009
-135.115407 -290.477082 18.225828 -127.677747
-144.420112 -346.537478 60.588363 -147.287277
-204.487121 -276.060474 14.824994 -193.945413
-136.435389 -357.488625 76.516312 -148.177204
-139.081850 -323.090208 21.605001 -138.651618
-64.915657 -298.861006 23.220813 -109.132999
-181.812035 -187.608982 6.820458 -137.339363
-183.759052 -213.997557 6.867728 -153.058437
-176.352155 -178.569212 32.950608 -145.366441
-191.237195 -183.287087 34.327814 -153.672049
-173.319296 -166.290598 31.533065 -138.922129
-192.244842 -189.311079 1.070138 -138.153484
-202.267081 -192.112030 14.178298 -145.808189
-202.584357 -203.175208 14.406421 -149.439137
-206.585363 -202.646590 14.751547 -151.258505
-202.239591 -283.632362 11.384307 -198.405182
-210.486072 -196.327347 16.058742 -152.087338
-219.215151 -301.388750 7.731036 -210.837122
-186.501203 -242.862138 25.799220 -175.109072
-182.290473 -249.840230 -19.815594 -177.793611
-203.588674 -287.753787 4.551262 -200.428458
-173.892207 -245.319704 11.623000 -170.980855
-237.222041 -294.703080 34.533701 -216.934714
-244.707546 -286.196035 42.428198 -219.473549
-213.198440 -290.239789 16.470276 -204.475770
-230.158682 -314.798885 20.758676 -223.225976
-213.848458 -299.357445 9.297755 -209.796868
-182.094349 -262.200532 -0.628935 -181.828115
-97.969625 -139.194966 -11.125093 -95.769881
-245.942732 -344.319048 16.542081 -242.991037
-138.369553 -313.625840 13.449993 -135.598618
-153.389632 -220.352074 -8.291438 -153.288036
-160.364613 -341.017913 7.042472 -150.414758
-163.758957 -352.148020 21.737879 -154.772093
-140.788242 -296.623812 -10.136340 -131.223616
-159.838101 -280.918332 5.487436 -132.226930
-146.104767 -373.694169 15.775357 -155.939681
-159.991967 -356.104367 2.517396 -154.828900
-195.421847 -268.584415 -20.228861 -191.244041
-212.164607 -295.005904 14.910037 -207.356198
-171.364472 -231.221868 -20.927261 -164.383947
-164.909807 -225.360457 -19.246403 -160.229554
-145.506043 -181.259432 -24.798990 -133.483372
-110.466391 -105.410905 -21.446256 -86.796074
-221.331359 -283.583149 -32.558120 -208.477470
-162.842521 -222.329782 -19.154235 -158.071400
-149.517366 -182.044485 -26.402253 -135.502694
-191.894833 -240.572472 0.270641 -175.227445
-191.373294 -254.802496 -22.897002 -183.976419
-179.166285 -311.978108 -2.739570 -147.343318
-222.768810 -311.932881 -3.606847 -220.713782
-121.114639 -169.449256 5.388418 -117.928557
-206.468799 -279.725369 -0.770066 -199.383252
-187.741649 -399.834606 -26.814705 -176.272877
-274.266593 -384.995841 7.393379 -273.722905
-158.064125 -220.896010 5.729662 -154.889842
-176.538044 -230.882906 -11.513648 -165.493787
-147.755428 -182.726796 -25.327316 -135.280933
-190.761356 -239.520618 -18.745651 -175.363728
-168.373518 -220.809106 -21.131218 -160.506251
-171.899905 -217.634282 4.587298 -152.062505
-204.652861 -203.316806 3.106547 -146.285603
-199.318830 -275.256312 10.551827 -192.276047
-150.071846 -209.115995 -15.437878 -147.161245
-178.555724 -235.687212 16.222380 -165.795517
-191.867361 -271.174277 10.584184 -189.296159
-186.469906 -268.642983 -0.141790 -187.003778
-179.387115 -258.340777 -3.993086 -180.239613
-211.189785 -196.787095 4.731879 -146.077455
-208.619536 -230.607793 14.556349 -165.538940
-216.790579 -225.905539 18.731813 -166.515521
-213.010916 -208.543740 6.506477 -151.186835
-180.122134 -216.709751 17.692655 -155.168230
-192.281755 -205.907006 0.745595 -145.561845
-168.133277 -229.497659 6.036469 -159.036324
-190.261546 -207.013446 8.108098 -147.374116
-202.741670 -213.128464 5.048714 -151.764383
-195.780063 -229.359338 7.691869 -161.265398
-189.474384 -212.278029 2.829329 -148.883914
-198.844978 -259.771902 12.571782 -181.869936
-143.588374 -203.072508 -12.544323 -141.893022
-183.913301 -263.122943 4.062122 -182.638749
-172.970384 -249.486711 -3.746342 -173.808216
-178.158860 -206.745875 1.448500 -144.697323
-177.265931 -250.531663 -10.356838 -174.492885
-185.086262 -252.229594 1.646924 -174.739692
-149.261049 -214.401882 -5.845790 -147.777769
-179.009338 -203.693509 -1.301617 -142.010825
-181.963703 -221.334547 1.242480 -154.313888
-154.573076 -207.150572 -8.951971 -144.399666
-156.210791 -184.664054 -5.226211 -127.729912
-167.923219 -196.228405 -3.292133 -135.925846
-165.352838 -201.210673 -4.593868 -139.785726
-142.565933 -179.828195 1.691962 -123.090356
-135.907866 -195.903392 -0.112086 -134.039659
-125.637252 -182.481765 1.153873 -124.356161
-92.178338 -105.124863 -19.099584 -78.941647
-180.125764 -243.448805 -21.933832 -174.226598
-162.942219 -235.417993 -4.274513 -163.655655
-141.474714 -257.745944 23.424966 -119.766197
-154.863093 -191.267680 -10.866110 -133.629888
-138.408205 -180.942625 -20.983134 -130.394489
-172.549175 -248.218344 -5.978663 -173.091641
-160.546203 -230.242251 -8.524822 -160.469005
-156.860043 -225.119263 -8.310302 -156.780178
-146.834764 -207.320903 -12.971295 -145.044508
-159.122425 -230.076747 -4.384019 -159.269915
-160.104545 -239.804232 13.070369 -119.972633
-133.829915 -245.385819 9.411680 -113.764720
-147.262233 -233.960486 2.823897 -114.366815
-127.000522 -235.245271 -0.672276 -108.673738
-115.267985 -222.271856 -12.468689 -101.261952
-122.423354 -259.773147 13.809980 -114.658950
-148.134927 -260.710068 20.518656 -122.653498
-122.966728 -257.969707 18.527045 -114.280931
-136.690224 -246.734171 15.069654 -115.027319
-103.065444 -256.066595 9.163682 -107.739612
-139.821110 -280.453992 25.990313 -126.082530
-113.957272 -285.259584 14.136153 -119.765057
-124.104602 -274.729022 21.983345 -119.650087
-106.922649 -277.180154 1.921329 -115.230841
-128.661003 -293.185297 23.337044 -126.553890
-114.242184 -296.821882 10.973450 -123.319220
-126.709836 -308.085823 20.725583 -130.438698
-273.423530 -349.548019 39.268815 -258.704047
-151.236276 -304.528605 34.395902 -136.729465
-151.627680 -318.693393 34.571170 -141.096322
-166.153250 -300.476459 57.078717 -139.988913
-148.772687 -209.153913 -13.842549 -146.696374
-164.717856 -230.577920 -0.101526 -161.103567
-162.879449 -284.086573 33.658227 -134.089807
-178.702800 -273.313529 43.225357 -135.604899
-150.392660 -215.188708 -9.749024 -149.860330
-178.149206 -247.574308 -17.122983 -175.179483
-167.073945 -240.239426 -6.827732 -167.431584
-154.136353 -221.786437 -7.610186 -154.215838
-183.219964 -252.431131 -18.962288 -179.278585
-146.276892 -200.037348 -15.772891 -142.498150
-243.670015 -312.817406 34.121610 -229.767013
-281.039222 -395.878080 11.450233 -281.030749
-216.520442 -277.746086 31.963778 -204.174463
-175.031320 -328.604474 51.185092 -151.090738
-95.054394 -340.459324 -2.598501 -130.654115
-135.334348 -316.123281 59.615632 -135.437289
-129.335927 -332.598242 -5.000222 -138.580251
-201.805548 -282.603069 -12.724085 -200.069031
-237.606210 -301.511626 -33.275398 -222.894373
-206.718859 -275.363141 -22.729779 -198.976304
-137.744770 -327.202929 42.221724 -139.484310
-151.560420 -199.871889 -6.811342 -141.057790
-119.305069 -283.038907 -10.078885 -120.703193
-227.449315 -316.229131 18.712430 -224.967628
-170.275697 -239.299089 -8.575445 -167.902053
-138.604033 -295.788900 -22.504809 -130.317880
-117.703547 -317.514855 -22.183796 -130.565521
-123.948553 -300.128514 15.172108 -127.223120
-121.503194 -287.803849 -19.516392 -122.792113
-127.621222 -337.468764 5.914572 -139.526996
-117.020003 -304.816464 -10.860619 -126.550940
-110.286862 -297.874891 3.197416 -122.448526
-132.556390 -313.325299 -14.182799 -133.764507
-120.548631 -309.380193 10.581609 -128.978647
-118.697713 -295.674586 -9.665571 -124.311690
-98.039996 -267.173653 6.351731 -109.564095
-115.016625 -293.395210 2.509398 -122.523551
-101.634574 -255.548402 -6.330790 -107.154893
-114.055079 -256.907194 -12.056637 -111.288682
-146.183158 -189.815105 -12.730597 -133.779997
-120.054828 -243.768308 -21.160043 -109.146941
-137.281006 -279.947354 -26.694912 -125.168508
-118.235702 -275.211155 -30.893678 -118.034057
-125.013300 -287.170882 -15.598802 -123.655255
-180.492641 -315.072914 -51.315331 -148.669667
-126.278477 -273.700884 -17.460437 -119.993808
-139.204620 -243.055560 -28.592711 -114.678054
-123.868246 -176.962236 -3.665718 -122.029388
-128.190913 -247.628394 -22.720004 -112.745792
-148.321652 -245.160606 -26.309978 -118.044677
-126.931226 -195.951843 -18.518088 -96.864921
-161.930953 -227.137175 -9.118173 -159.023058
-112.080742 -184.539787 -5.138876 -88.986159
-122.703235 -221.480688 -19.226955 -103.255177
-120.716014 -199.251656 -12.654160 -95.990301
-121.932173 -242.604162 -20.176187 -109.360901
-125.024309 -187.204512 -10.286310 -93.668646
-159.632797 -206.356460 -10.653326 -146.658972
-145.403843 -205.620183 -5.579615 -142.666026
-103.561335 -149.388334 -0.152917 -101.920336
-153.331652 -214.945598 -9.229271 -150.085502
-108.190522 -155.804400 -1.150874 -106.505198
-141.966034 -182.000091 -13.149090 -127.697010
-128.703564 -170.885260 -5.536436 -118.626819
-140.110360 -175.021378 -13.811014 -123.117368
-129.838622 -171.917199 -17.166226 -121.382742
-137.588476 -178.839944 -14.429432 -125.483108
-137.369963 -181.643267 -5.683433 -125.487631
-146.438859 -186.770061 -8.481932 -130.580391
-137.697078 -195.733937 -4.748703 -135.616678
-151.538517 -196.938908 -13.082976 -138.837802
-144.548471 -187.284453 -7.361632 -131.987030
-169.576623 -208.590106 -3.807195 -148.488902
-152.192960 -195.861479 5.673007 -136.765597
-150.135690 -194.767144 -9.732809 -137.455018
-175.850888 -206.416330 5.389640 -144.765664
-155.225698 -194.366663 -10.065559 -136.576584
-152.059865 -192.079908 -5.873502 -134.729016
-150.527273 -201.699987 1.476486 -139.694355
-139.781996 -197.295663 1.021779 -135.650340
-140.918231 -187.742970 1.318847 -129.882205
-137.134468 -188.381522 -12.102497 -130.755971
-138.632106 -189.219510 8.373019 -131.437913
-143.348144 -200.965802 1.095056 -138.453901
-146.242003 -198.516032 -2.730801 -136.792303
-138.529871 -192.932569 1.227082 -132.783852
-168.083707 -214.938795 17.323558 -152.726419
-157.941730 -208.269935 8.306915 -145.599879
-160.580048 -202.822890 15.295442 -144.613357
-148.343932 -212.489587 8.919822 -147.821820
-169.876287 -211.840335 11.958671 -149.007598
-176.969587 -230.287503 -11.007832 -164.607952
-166.924755 -213.634583 8.204077 -151.596010
-156.688285 -198.862161 5.815637 -139.545900
-158.168566 -217.841416 6.163584 -152.855030
-184.286940 -261.585884 -7.290088 -183.978997
-162.966757 -200.705940 -5.589785 -141.180922
-164.087088 -204.801758 -3.412099 -145.375218
-274.039838 -364.440277 -29.563881 -265.122578
-333.094934 -469.184015 -0.078972 -332.009244
-187.255843 -260.323866 16.811122 -184.423993
-213.362886 -303.249699 2.228159 -213.465075
-321.104289 -445.254722 19.865171 -316.861290
-131.808300 -378.758081 19.883049 -153.169914
-269.532819 -377.092207 15.322664 -268.315330
-257.369061 -362.476296 9.506998 -257.173253
-315.471738 -437.674217 19.784770 -311.235578
-307.276892 -430.167209 0.707555 -304.850627
-144.206076 -379.650170 36.301903 -157.156874
-140.084520 -381.826557 49.601626 -156.573323
-107.913994 -337.944230 35.344435 -133.757467
-163.060350 -222.450649 7.344168 -155.917394
-203.294321 -280.594017 8.518318 -197.562504
-212.229431 -292.735692 19.557000 -208.484662
-157.448428 -200.925018 -4.397000 -141.918543
-208.546347 -287.718104 18.988884 -204.735821
-131.806695 -126.044766 -15.140381 -96.864944
-170.195218 -234.949858 16.021979 -166.083645
-158.156163 -197.641611 -19.629867 -141.233905
-160.639814 -226.419263 12.397988 -158.808120
-164.418027 -372.071516 47.575530 -160.946863
-85.244973 -313.815001 -27.218526 -119.717992
-150.748401 -370.821352 41.278773 -156.470926
-146.416322 -418.902268 -0.154241 -169.595577
-158.877109 -336.226085 18.671754 -148.530958
-166.278930 -359.831897 34.201368 -157.833248
-150.207944 -370.735779 19.054890 -156.283117
-167.366821 -360.828946 35.168744 -158.458730
-163.225665 -374.471299 46.157374 -161.309089
-150.640885 -363.596555 38.112627 -154.271232
-145.690042 -368.097041 55.153618 -154.136125
-182.355029 -385.432877 51.335862 -170.336372
-153.417089 -376.862290 42.952318 -159.083814
-172.428983 -419.118969 38.608440 -177.464385
-101.214283 -97.518946 -20.117311 -79.478302
-150.278830 -214.514812 -0.525601 -147.682849
-137.513159 -195.959754 8.402049 -135.955563
-120.028861 -169.684710 -10.820712 -116.977394
-153.919363 -201.539486 16.715750 -142.959722
-128.059135 -186.192509 -2.101625 -127.919003
-147.371013 -190.953007 12.218389 -134.501518
-169.867127 -212.467605 13.200295 -150.140317
-165.135714 -218.220930 14.463062 -153.799607
-170.020902 -221.619988 21.739102 -158.818203
-145.078263 -192.765896 13.998754 -135.684676
-150.489327 -200.726683 20.710716 -143.775090
-144.424465 -203.214590 11.807102 -141.666347
-136.714039 -196.143900 6.461071 -135.711259
-169.619567 -219.977275 25.263058 -159.942074
-105.214220 -111.992177 -16.797529 -85.958994
-153.470458 -187.412517 26.828159 -139.688760
-140.780844 -187.159314 17.088904 -133.398212
-143.913828 -184.326140 23.096755 -134.292937
-167.966123 -218.245780 14.663930 -155.835159
-187.390086 -245.991881 -13.095344 -176.022248
-171.661239 -215.770352 25.258579 -158.275523
-133.751124 -181.925569 9.922214 -127.556947
-154.629606 -295.961818 6.575541 -135.177427
-114.389013 -340.297381 -45.627839 -136.405918
-121.164431 -313.635066 -20.291538 -130.439849
-149.431099 -280.040677 -50.761834 -128.841533
-135.345258 -271.084755 -47.181565 -121.929004
-155.299225 -349.445161 -39.760908 -151.423316
-137.918462 -274.581285 -50.469998 -123.749924
-160.678659 -218.476248 7.297523 -154.278615
-143.039989 -293.367288 -56.168105 -130.922183
-103.021475 -288.280327 -62.296518 -117.390540
-148.958346 -279.593275 -49.980026 -128.565486
-150.119301 -264.572980 -43.244592 -124.407684
-141.220426 -258.619982 -38.787504 -119.952122
-144.334542 -249.929720 -18.804818 -118.279279
-143.408732 -207.864088 -3.654212 -143.791757
-142.392020 -248.697441 -18.140448 -117.326838
-172.670785 -247.003450 -8.260521 -172.638538
-114.642138 -238.094181 -10.122949 -105.820896
-151.510518 -219.320010 -1.784030 -152.006888
-135.655531 -250.661100 -24.243497 -115.894989
-163.238269 -233.445706 -8.640397 -162.942754
-126.384291 -181.474289 -8.722862 -125.469512
-62.051485 -218.804309 18.571499 -84.256738
-145.782083 -287.573603 -49.048922 -130.006706
-143.588234 -272.286422 -45.974627 -124.762397
-153.431759 -271.249026 -45.322249 -127.404236
-154.934513 -261.347231 -36.936563 -124.884523
-127.467062 -243.883999 -20.086875 -111.405318
-143.924264 -266.853167 -44.201579 -123.233229
-136.025661 -258.328327 -39.613392 -118.306196
-130.910467 -274.856141 -47.050242 -121.729982
-137.010784 -258.360445 -34.620912 -118.611369
-139.703608 -249.686122 -31.183273 -116.816919
-127.629447 -250.167322 -29.348402 -113.339031
-133.997594 -249.903751 -32.478561 -115.170404
-78.201778 -79.730489 -3.202912 -55.814041
-128.718386 -244.887306 -14.239978 -112.081707
-135.399523 -257.574489 -17.261650 -117.892204
-105.995111 -218.822876 -42.290687 -97.445396
-184.050453 -258.645734 -13.864024 -182.200405
-136.148177 -260.886906 -41.116064 -119.110525
-133.894613 -257.059622 -40.173033 -117.286270
-127.942967 -273.430589 -47.981019 -120.412067
-137.328540 -258.409402 -39.568152 -118.721383
-135.798418 -267.566995 -42.166758 -121.009624
-128.165434 -267.815585 -48.989708 -118.794306
-138.204207 -291.822607 -50.239603 -129.008044
-133.561784 -269.270913 -46.054293 -120.849809
-133.083307 -273.745056 -45.291181 -122.048509
-144.996846 -280.517799 -52.624451 -127.654393
-132.040249 -276.566046 -50.953493 -122.581888
-145.972311 -274.192304 -49.424806 -126.049384
-140.285019 -269.023820 -46.714989 -122.792651
-162.778235 -219.961731 0.101903 -154.129284
-131.224860 -191.538644 1.055882 -131.785819
-160.696077 -374.069239 0.170545 -160.429595
-127.531898 -282.532768 -43.462214 -123.019400
-129.796049 -249.049791 -37.988504 -113.653752
-125.609487 -181.694345 7.064303 -125.271654
-74.212315 -109.885279 6.402421 -73.393752
-121.154172 -215.439906 3.990474 -100.978223
-139.762345 -303.433708 -36.026917 -132.958816
-129.327247 -273.122354 -47.730320 -120.734880
-134.968652 -186.490933 -3.221659 -127.800630
-144.923869 -208.734252 7.187327 -144.789752
-84.847731 -122.896415 8.667826 -83.342100
-126.873964 -181.624105 -6.207388 -124.981519
-136.010961 -252.232907 -41.881415 -116.473161
-149.440975 -214.497975 8.135865 -149.138906
-137.285572 -270.498925 -39.084964 -122.335349
-198.080384 -319.866440 -85.455820 -155.384047
-131.736679 -174.745868 -15.069222 -122.817991
-144.939770 -269.030727 -33.708371 -124.191149
-137.679363 -248.953141 -49.040897 -115.989751
-130.108929 -275.622376 -48.572942 -121.719392
-123.394551 -240.495147 -31.466926 -109.166910
-141.718796 -180.620606 -19.857984 -129.202915
-125.138087 -237.636660 -36.575487 -108.832424
-138.637924 -200.522068 -5.700102 -138.725132
-140.015242 -174.104888 -17.012909 -123.700989
-124.784589 -172.819698 -13.792549 -121.051021
-133.065574 -194.001261 1.212429 -133.617936
-142.058778 -169.975039 -17.409075 -122.208879
-139.165586 -167.966804 -16.980924 -119.987607
-139.592153 -174.922852 -18.962384 -125.640085
-148.331965 -184.975531 -15.188532 -132.743261
-144.679655 -170.687728 -19.493701 -123.576539
-121.344366 -175.202742 3.850310 -121.430191
-101.337169 -149.370115 -3.789825 -101.480053
-127.054070 -273.703447 -49.758273 -120.227255
-159.205041 -228.921939 -6.364977 -159.380313
-110.949416 -163.234965 -1.919611 -111.354347
-143.110168 -190.469762 -11.174590 -134.553463
-166.917321 -287.023344 -62.715315 -136.182200
-119.680118 -174.845283 -4.073188 -119.947518
-139.490855 -282.096028 -45.067403 -126.476065
-172.987100 -234.508030 -20.467907 -167.745465
-221.073594 -314.748852 -7.396716 -221.483262
-209.174546 -294.782978 -12.295000 -207.437664
-143.194572 -201.873404 -12.536185 -141.166115
-181.877192 -254.346491 -15.357752 -179.614048
-191.310762 -268.880408 -14.046714 -189.709993
-207.816609 -293.877882 12.009664 -207.201762
-146.869209 -252.814615 -42.909788 -119.905147
-128.645850 -245.306189 -49.850129 -112.185612
-175.767031 -241.301973 -18.795981 -171.538506
-177.678413 -253.210471 -9.242025 -177.349263
-179.820176 -237.649959 -15.408053 -167.350989
-165.438695 -219.387198 11.059057 -152.850262
-195.598629 -276.579165 -11.854160 -194.696820
-193.923751 -275.015217 -10.679821 -192.986031
-148.841692 -207.129501 -9.328936 -143.485451
-186.649870 -257.537304 -2.099690 -178.692908
-153.313958 -298.852499 -12.058656 -135.649937
-120.316198 -165.139637 -15.288841 -116.004974
-168.870770 -230.426120 3.865889 -159.345133
-184.044410 -237.183856 14.036191 -167.679859
-186.099892 -263.159109 -11.895854 -185.013073
-218.021124 -311.775621 1.578886 -218.987009
-186.150429 -262.302442 -3.737489 -182.204040
-159.520042 -213.798056 -20.883552 -152.772509
-137.441353 -262.610446 -39.845351 -120.015540
-135.679678 -257.611500 -38.564412 -117.987353
-139.364276 -276.525377 -33.561700 -124.766896
-114.013295 -252.567631 -47.498386 -109.974278
-136.250887 -257.745168 -38.664621 -118.198817
-130.981489 -252.474962 -22.641525 -115.036935
-129.364351 -252.662886 -22.179363 -114.608171
-125.141548 -176.359767 -12.250394 -122.797149
-115.327958 -162.806541 -11.429589 -112.896701
-150.222583 -202.828146 -1.110286 -140.028771
-173.026879 -246.540735 -8.916994 -172.355384
-107.361023 -145.534110 15.075451 -102.326068
-158.408937 -195.171965 26.426563 -144.345044
-136.202326 -258.002319 5.289068 -118.261393
-146.172957 -231.286100 32.202855 -113.237717
-71.910759 -101.288943 10.191630 -68.756974
-188.170418 -263.999751 14.480530 -186.302118
-135.913112 -259.499681 25.994927 -118.623838
-187.181702 -230.973910 30.771123 -171.939192
-158.045385 -214.030526 19.309499 -152.537678
-167.435512 -291.163717 25.015650 -137.579769
-157.384101 -213.193304 19.279123 -151.918671
-183.730773 -252.698274 1.375836 -175.562481
-183.057427 -228.851486 29.361554 -169.318853
-154.977834 -189.440535 24.812813 -138.912642
-183.552878 -240.723005 25.182712 -174.292385
-185.402551 -248.766427 10.009671 -173.672349
-176.363638 -227.735202 19.256432 -162.483847
-162.960694 -218.644488 13.894519 -154.179519
-172.521157 -220.474623 19.309951 -157.703832
-166.882674 -222.554232 15.612701 -156.642500
-164.226185 -224.110522 14.223470 -157.496308
-183.049626 -252.027799 7.279633 -175.692066
-191.808320 -237.061700 31.288300 -176.445351
-134.274012 -183.523011 16.032457 -129.629008
-166.882255 -206.778602 24.276427 -151.320276
-142.030178 -197.840553 14.160935 -138.901859
-188.676212 -241.663935 28.222111 -177.060328
-157.920057 -199.385969 25.371158 -146.280964
-171.004560 -197.900149 31.027014 -151.199697
-134.575892 -182.981856 16.861675 -129.538584
-151.561216 -186.234593 25.976871 -138.098684
-133.493445 -186.415115 13.546254 -130.551826
-152.672478 -200.051037 22.113992 -144.381313
-173.009181 -228.688603 2.882496 -158.695012
-160.685875 -231.272042 3.548138 -160.594262
-154.733937 -188.365943 13.463046 -132.175089
-133.847898 -185.915729 11.768445 -128.812167
-148.724601 -208.925467 12.924465 -146.340817
-158.223139 -215.499127 18.516373 -153.133890
-157.262733 -226.462778 2.893479 -156.476040
-131.377056 -187.169129 9.817801 -129.648755
-132.526667 -179.791625 14.119004 -125.374840
-156.121968 -213.873080 7.899868 -147.914364
-161.265063 -192.454955 12.686101 -134.983659
-161.838054 -205.516204 5.874190 -141.509319
-165.035700 -194.367327 12.128550 -136.287315
-153.355246 -198.749926 11.972260 -138.413990
-163.141695 -193.319371 17.046828 -137.827198
-105.721767 -151.138853 -7.847324 -102.688760
-164.860984 -189.300485 15.397304 -134.828022
-168.692869 -194.657473 18.116913 -139.994995
-164.448543 -189.141593 16.522088 -135.297728
-180.087423 -220.080825 29.632926 -162.810549
-149.437438 -202.881445 6.476080 -139.753409
-197.580484 -301.553402 56.302721 -149.740166
-169.773698 -242.356297 2.062300 -167.692233
-166.850697 -207.874793 6.525590 -145.151821
-128.664404 -185.410181 -7.695092 -127.534501
-161.044163 -269.157526 33.584862 -129.060507
-164.543654 -201.001103 10.455549 -140.644184
-157.148279 -199.996946 7.485994 -139.233434
-163.508756 -199.783679 7.931571 -138.847682
-152.752145 -191.608978 3.715343 -133.195924
-169.367313 -213.661201 9.870316 -149.295840
-165.740659 -203.400928 12.159763 -142.659959
-159.890554 -193.311807 8.860146 -134.190674
-171.074969 -198.809928 13.372430 -140.224105
-163.973787 -195.412516 11.916891 -136.736025
-170.677893 -193.631957 16.144957 -138.580592
-146.599868 -193.534316 7.976388 -133.630557
-165.469010 -199.007229 13.446491 -139.790601
-146.429137 -178.290110 0.677995 -122.384907
-149.367785 -196.618006 4.782306 -134.941365
-171.256093 -224.434510 15.729155 -157.736229
-163.799617 -199.160866 18.140275 -142.007261
-151.035494 -286.109644 16.750219 -131.143541
-125.192912 -172.742275 -11.721515 -119.336478
-152.074691 -283.719550 20.943482 -130.738272
-163.293279 -321.324976 22.050770 -145.385477
-155.979711 -264.508565 29.692492 -126.146483
-162.860504 -251.495783 16.494605 -124.306886
-158.779625 -303.702870 14.003156 -138.744749
-167.060427 -222.894580 -13.574928 -156.035916
-207.429231 -289.197087 16.553679 -205.002850
-151.497033 -190.817741 24.127248 -139.645588
-154.763041 -281.318379 29.433656 -130.824426
-102.198317 -217.861091 44.867707 -96.017822
-147.135437 -194.643841 -4.110426 -134.991487
-130.087454 -184.019084 10.813337 -128.015326
-127.321447 -168.662767 18.606586 -120.483645
-70.671817 -106.463489 -2.755000 -70.341205
-163.986148 -226.213011 16.976556 -160.148152
-79.629749 -85.165572 17.086144 -65.196945
-139.279243 -260.007675 13.404353 -119.786076
-126.381324 -261.081229 11.957037 -116.238766
-159.595625 -255.728626 26.751345 -124.597275
-135.137632 -255.958049 18.706328 -117.328705
-145.103648 -272.009823 17.550948 -125.134041
-133.228206 -252.504496 17.365436 -115.719811
-148.302301 -273.154599 17.207498 -126.437070
-148.943793 -267.628822 22.467039 -124.971785
-116.725373 -240.768457 -2.791623 -107.248149
-147.473551 -264.205881 -4.191860 -123.503830
-144.547656 -265.624325 7.240299 -123.051594
-144.548146 -264.030208 7.947880 -122.573506
-138.973634 -195.925262 -12.508061 -136.853848
-136.861196 -197.845108 5.447126 -136.730349
-119.129526 -253.093877 -8.274371 -111.667021
-131.901448 -258.029941 4.765835 -116.979417
-167.629257 -228.419789 9.076420 -158.557641
-117.082970 -223.943010 11.286044 -102.307794
-166.871504 -215.994650 -12.996463 -152.669730
-129.898879 -251.220996 -10.090034 -114.335962
-148.167769 -268.529112 -6.292454 -125.009064
-137.407973 -249.693087 -6.854507 -116.130318
-147.850736 -260.289122 -2.431388 -122.441958
-147.552060 -256.544176 -8.092627 -121.228871
-157.267319 -290.784663 14.778716 -134.415595
-152.713061 -270.768399 5.154581 -127.044438
-146.974363 -295.969791 5.599421 -132.883246
-124.710345 -110.425696 -18.014340 -91.504692
-179.693759 -208.817792 21.222157 -151.548412
-152.650373 -196.809075 5.535566 -135.313829
-156.407241 -279.187907 10.304822 -130.678544
-161.864742 -293.013975 14.059320 -136.463615
-161.282047 -310.461199 15.068539 -141.522974
-170.085670 -188.646581 -1.418524 -129.957658
-145.698970 -206.167118 6.306619 -141.947291
-154.375838 -203.636738 11.416804 -141.475431
-140.052539 -196.784851 6.421763 -135.218315
-147.274286 -210.196915 2.261955 -144.407474
-149.494861 -209.224404 3.400450 -143.798949
-146.835421 -209.855498 2.960559 -144.202964
-150.653108 -216.851065 3.353807 -149.260187
-144.469759 -207.663824 3.431257 -142.650010
-153.297544 -218.228934 6.452879 -150.603239
-150.023637 -210.258655 5.321686 -144.737652
-141.405844 -195.129751 15.097459 -136.379933
-140.209404 -191.013893 5.758969 -131.016850
-151.096558 -217.820396 3.853512 -150.000518
-144.572982 -206.856296 3.094624 -142.054797
-152.654804 -296.068847 3.472013 -134.617095
-149.939398 -281.496882 7.687702 -129.430884
-107.041112 -125.707261 20.871988 -93.877794
-113.899186 -122.715598 22.706095 -95.480606
-151.719239 -219.917126 3.390076 -152.367612
-151.502538 -215.519174 8.467171 -149.007606
-150.188042 -216.194128 6.055286 -149.076016
-152.990993 -220.024065 5.978174 -151.814365
-162.276936 -229.869075 10.584180 -159.725799
-159.185363 -227.186877 7.415445 -157.163771
-148.544654 -213.577998 2.593983 -146.853958
-157.142255 -226.284454 2.360470 -155.994222
-181.514078 -234.111937 26.989955 -170.867606
-161.730271 -231.357955 6.609864 -160.048062
-153.756623 -221.195162 4.131046 -152.449070
-157.861611 -224.620095 7.716324 -155.376565
-169.985894 -234.062925 13.580306 -163.570453
-169.798872 -235.650437 11.801494 -164.184421
-163.897890 -236.953651 2.591284 -164.029905
-161.507778 -231.588474 5.122785 -160.034279
-101.983173 -297.266326 13.150534 -119.774850
-194.723327 -276.617197 3.035253 -192.380711
-168.130091 -232.570782 5.538454 -160.956711
-110.014256 -133.126442 20.771293 -98.276524
-140.442283 -295.057371 9.218508 -130.649896
-149.518966 -278.494119 7.412446 -128.403925
-166.868675 -232.012689 6.210475 -160.514852
-154.227636 -380.846507 -15.670660 -160.522243
-148.104055 -210.839188 10.794134 -147.010461
-169.099027 -231.586949 18.961347 -164.609128
-169.162114 -232.994377 3.275568 -161.697867
-181.326029 -253.535549 -12.576295 -177.118378
-180.917693 -260.101671 -0.536350 -180.760971
-184.794038 -265.445815 -5.079022 -185.157300
-176.692707 -254.034721 -2.337773 -176.658299
-180.948621 -255.599684 -3.590515 -177.349059
-181.401230 -255.721577 0.281367 -177.603063
-183.622859 -262.051615 -4.048726 -181.885147
-175.567599 -239.921851 3.549055 -168.041872
-175.281379 -244.940711 -1.168724 -170.168412
-170.898923 -242.377294 -7.068521 -168.048785
-174.432998 -245.547753 1.904575 -169.960324
-173.406903 -238.385215 3.540751 -165.845189
-180.927374 -250.256570 -0.844637 -174.528475
-155.090548 -217.903084 -8.498729 -150.836048
-187.762681 -261.349066 -6.604631 -182.039247
-165.430069 -231.984477 12.474349 -161.808989
-167.715499 -238.799545 9.819136 -167.050412
-146.911327 -205.310810 -7.808363 -141.970983
-102.221819 -89.469605 -14.922806 -73.661894
-126.609254 -264.402604 -5.342813 -117.303557
-198.189420 -281.286942 4.469922 -195.843346
-151.714384 -293.423708 2.705112 -133.541428
-139.108488 -273.926482 -9.535798 -123.910491
-142.797491 -257.795413 -9.690389 -120.177871
-118.729391 -252.951503 -23.132716 -111.504268
-149.737567 -264.767438 -0.926387 -124.351501
-152.960692 -275.135423 5.469566 -128.428835
-157.715855 -224.865261 9.516071 -156.905665
-139.656632 -197.759869 11.661895 -137.962667
-122.824237 -120.640062 -22.376522 -96.976107
-147.550927 -297.565095 -9.266414 -133.534806
-146.362693 -257.823915 -10.877074 -121.255983
-141.502177 -254.970884 -8.749831 -118.941918
-142.568454 -248.141762 -17.010780 -117.213065
-156.258545 -226.190229 -1.650902 -156.933934
-194.317541 -253.946424 -9.414242 -178.799832
-150.846128 -215.953522 8.760721 -150.346991
-156.726375 -222.398295 11.163728 -155.531887
-175.384483 -236.685948 3.644952 -165.892622
-151.077190 -218.430806 3.729249 -151.446513
-177.872885 -254.594186 6.806096 -177.897517
-213.892035 -256.031321 -36.645657 -193.803309
-240.869400 -328.869039 -19.986978 -234.283807
-191.098741 -247.419397 -27.323063 -179.220253
-171.253655 -246.859223 -2.486117 -171.951230
-227.366491 -281.580107 -36.445755 -210.234549
-160.936030 -226.696982 -0.674752 -156.647516
-178.514374 -264.623600 -42.092796 -132.941392
-177.656313 -242.408109 -20.209842 -172.789345
-270.143019 -373.319878 -17.184893 -264.359802
-274.840907 -375.406944 -16.067335 -267.648629
-286.186978 -384.690387 -28.969007 -276.813921
-213.335548 -258.087083 -35.984094 -194.437846
-227.081439 -286.628517 -34.627582 -212.655972
-167.722364 -227.454307 9.229383 -160.500822
-239.705690 -304.311710 -32.124387 -223.104242
-256.018419 -346.146508 -19.734009 -249.268001
-191.028579 -328.400740 -55.214010 -155.828795
-157.060065 -219.969758 8.858900 -154.000315
-155.525324 -214.318753 2.535820 -150.173633
-128.361170 -298.993309 -47.304642 -128.206344
-171.577477 -362.621083 -37.860432 -160.259568
-209.171316 -256.389933 -33.861971 -191.306496
-87.118733 -295.598053 -70.027157 -114.815036
-246.260122 -336.052510 -21.111483 -239.403006
-188.918415 -499.296107 -21.994132 -206.464357
-257.459078 -349.134108 -27.167244 -251.360257
-157.924328 -351.009171 -38.903761 -152.680050
-117.614090 -354.766659 -66.715662 -141.714225
-176.549078 -252.136394 -5.963871 -175.413726
-174.128508 -244.537009 -1.832434 -170.393199
-164.530749 -295.539042 -38.880806 -138.020937
-194.136523 -323.861718 -18.403841 -155.399472
-170.407962 -314.370403 -35.168757 -145.433509
-171.097155 -323.566525 -61.853820 -148.399104
-193.408327 -328.523450 -35.790415 -156.579533
-171.622685 -317.153867 -42.971203 -146.632966
-186.205453 -327.168273 -40.342487 -154.012118
-179.974147 -312.338417 -41.548052 -147.693769
-194.311203 -340.312754 -44.050939 -160.387187
-187.086779 -367.610655 -51.325901 -166.409230
-139.759151 -123.293283 -14.766613 -99.787423
-134.424028 -134.730577 -26.008997 -109.241847
-195.440348 -415.088784 -19.223414 -183.158740
-184.929530 -265.784996 2.506892 -185.678034
-160.131618 -230.992914 -4.502931 -160.555337
-158.967089 -223.943456 8.441663 -156.021100
-159.687381 -230.969078 0.151968 -160.381017
-173.285073 -246.193415 2.733910 -171.007056
-178.189317 -247.985379 -3.547758 -172.709050
-168.513607 -241.259664 -7.921746 -168.429951
-179.515451 -255.005659 -8.175920 -177.368892
-168.187988 -230.993960 14.442052 -162.944835
-141.852289 -201.710348 10.628655 -140.542813
-177.321242 -250.079740 11.126133 -175.722077
-161.778197 -216.597351 13.201550 -151.632663
-166.675036 -222.725560 10.061173 -158.218472
-173.890968 -248.735824 -0.889966 -172.391012
-174.649967 -233.290284 8.598777 -165.147730
-155.628536 -211.856419 18.123271 -150.729351
-170.190162 -230.937232 10.454664 -163.298815
-165.491649 -226.339620 9.406244 -159.498792
-149.801077 -208.686058 13.364551 -146.990772
-167.835773 -223.387881 12.688409 -158.388009
-174.846288 -241.993907 -0.422040 -169.026006
-172.767952 -236.330548 4.664929 -166.011899
-183.216051 -254.619409 -3.172221 -177.620774
-183.057563 -256.681240 -6.422625 -178.891752
-174.777670 -244.063758 0.048346 -170.286953
-189.605300 -267.062086 -9.263635 -186.124217
-181.338159 -257.823822 -5.025582 -178.921606
-160.703131 -227.804267 4.646079 -158.146526
-171.308759 -239.617869 3.478117 -167.200996
-169.014171 -239.061017 3.050834 -166.292144
-165.929583 -239.607472 1.165978 -165.929583
-166.046564 -237.194547 8.212711 -165.684482
-156.642865 -225.524169 1.300510 -156.716161
-169.223135 -236.462581 10.163433 -165.666151
-169.418878 -231.127437 7.003562 -162.940612
-168.810526 -321.395074 -21.407142 -147.061680
-164.001840 -234.378837 -9.013489 -163.641552
-190.155707 -273.085300 -2.097232 -190.987117
-166.545233 -239.026293 -1.322982 -166.428856
-203.419144 -331.393680 -40.737027 -160.443847
-196.861646 -320.053421 -46.709833 -155.074520
-164.733387 -329.416033 -27.203528 -148.244826
-179.768072 -346.695775 -52.764400 -157.939154
-210.042577 -356.154928 -30.434240 -169.859251
-201.703039 -350.904542 -36.936833 -165.782274
-242.647633 -337.374425 -16.798880 -238.151233
-207.940641 -280.872855 21.301737 -201.254980
-238.461051 -335.937262 -13.977351 -237.750472
-206.268068 -394.000542 -64.550616 -180.080583
-284.770933 -382.197345 -31.883270 -276.830073
-172.295067 -248.554615 1.252449 -173.192066
-168.533396 -240.896806 -4.822515 -168.251533
-176.386113 -251.320675 -0.308894 -175.520122
-270.852831 -372.786921 -23.980369 -266.158159
-239.160923 -336.327684 -14.753503 -238.309522
-171.445379 -244.738173 1.486109 -171.421519
-177.398938 -251.162087 3.524851 -176.642236
-233.157427 -312.672408 -26.388340 -223.986162
-237.649188 -329.024123 -20.533184 -234.590763
-244.600581 -339.963308 -19.567697 -242.004020
-268.774814 -376.680796 -16.744599 -267.105895
-285.663737 -405.015676 -7.158396 -285.663737
-220.330322 -307.268693 16.020309 -218.929399
-180.324400 -252.259129 15.058331 -178.186534
-199.870402 -278.581870 0.013657 -196.072729
-180.822478 -254.919782 2.383065 -178.315975
-185.381606 -259.923920 11.023572 -182.170926
-171.912369 -240.800959 1.271658 -167.687941
-178.384766 -248.501636 -1.710613 -173.217642
-171.704300 -244.526622 2.257401 -169.772431
-174.240914 -247.699060 -0.691163 -172.340572
-181.324073 -257.312284 4.031345 -179.073026
-170.513878 -246.112424 -3.540304 -170.513878
-186.408309 -264.138876 -7.832801 -183.821357
-186.274654 -265.589924 -9.682632 -186.189905
-183.303634 -262.314254 -6.885293 -182.341419
-178.176330 -253.536632 -4.890141 -176.110416
-170.171753 -240.458187 1.196101 -167.281453
-181.783621 -258.368991 -2.728015 -179.529175
-177.360199 -254.279618 -7.494456 -177.360199
-192.632549 -274.222084 -10.145371 -192.501864
-190.014033 -270.473003 -10.260235 -189.273735
-167.640056 -242.261542 2.603369 -168.586535
-200.630935 -288.121732 -2.197401 -201.711793
-184.137192 -262.830358 -9.258458 -184.124767
-192.614057 -274.269992 9.645933 -191.354242
-169.857182 -243.969793 5.312780 -169.840549
-171.611243 -244.909291 4.985009 -170.359532
-178.579362 -251.039949 14.140879 -176.430677
-189.816188 -270.315801 -10.075357 -189.669833
-199.161151 -285.593200 -4.851842 -199.161151
-192.497909 -275.241437 -7.830910 -192.874180
-184.623082 -264.817535 -6.523993 -185.167295
-190.820033 -267.790508 -9.710969 -186.732989
-187.190910 -264.621531 -11.806212 -184.845504
-187.736012 -266.890443 -7.813749 -185.772163
-187.989085 -267.906257 -7.610086 -186.638663
-181.095992 -251.524083 -0.137587 -174.940300
-172.299922 -238.676546 2.686597 -166.027503
-180.025356 -257.929029 -7.479458 -179.981933
-188.092710 -267.014988 -9.414708 -186.105458
-183.494108 -261.854981 -8.751238 -182.546042
-174.125879 -243.799393 14.976204 -171.769151
-203.770879 -289.161750 -8.115498 -201.829001
-162.161214 -234.554816 2.711750 -162.941652
-194.152421 -276.535259 5.281967 -193.292568
-192.015513 -272.153660 -11.943978 -191.366605
-162.960332 -235.200281 4.667338 -163.547647
-188.023100 -261.285940 17.270454 -184.193573
-195.355776 -279.549877 6.586207 -195.873984
-206.895721 -296.825902 -1.148119 -208.012994
-172.697443 -242.484644 13.937769 -170.003608
-192.867686 -276.096992 6.276124 -193.021163
-175.704941 -242.711728 17.590353 -171.108577
-178.761025 -249.322579 15.848621 -175.903019
-180.625275 -254.154630 13.765359 -178.745089
-169.723616 -244.058759 6.031831 -170.126873
-189.255901 -261.022714 18.373306 -184.734731
-185.092726 -258.796482 14.839487 -182.241038
-191.647719 -252.206527 21.318651 -179.582380
-172.664680 -238.884726 13.135704 -166.840524
-166.535540 -236.528363 8.571949 -164.073436
-177.439035 -243.611628 17.255912 -171.520477
-173.941108 -245.271681 13.162980 -171.929977
-182.329015 -252.290375 17.743057 -178.477917
-190.224560 -254.515064 22.702213 -181.570408
-182.074247 -253.272071 16.655423 -179.064650
-170.568131 -236.671798 15.565763 -165.968757
-184.408313 -254.137726 18.667565 -180.434836
-183.549317 -253.560928 18.273142 -179.537334
-189.598679 -257.368683 21.578456 -182.941808
-182.817881 -254.042066 16.964549 -179.661931
-185.484263 -255.634808 17.503792 -180.096424
-176.347685 -247.901967 13.882080 -174.244290
-180.649837 -254.828273 12.594915 -178.753377
-177.786645 -249.291040 14.699254 -175.616418
-192.921766 -273.712998 11.206106 -192.078737
-171.091585 -243.765414 9.699115 -170.134768
-190.832658 -267.581971 14.996130 -187.774839
-180.614650 -251.542314 16.418140 -177.738656
-185.072115 -258.809751 15.606894 -182.624525
-186.690574 -257.513691 18.660634 -182.793027
-170.373093 -239.557166 14.053009 -168.306906
-195.622853 -274.483424 13.785582 -192.369744
-166.648347 -239.361743 7.398061 -166.648347
-171.558255 -247.948243 -0.709639 -171.558255
-193.161343 -266.367906 19.069979 -189.254772
-167.156306 -236.439982 11.081581 -164.495902
-166.437562 -237.555389 3.642359 -164.187014
-196.658875 -280.975312 3.076669 -195.443368
-185.074784 -263.065863 -8.779818 -183.151944
-200.560614 -280.689453 12.456205 -196.637240
-181.481824 -261.400200 3.297095 -182.153057
-173.691177 -248.625306 -8.545857 -173.654540
-183.910962 -262.721571 -4.825804 -182.412199
-187.038292 -267.290618 -8.532058 -187.038292
-181.682013 -259.901522 -8.346752 -181.520052
-197.987323 -282.948374 2.895457 -196.856504
-198.225470 -284.898856 -1.303828 -198.597316
-227.560692 -324.723505 -3.160708 -227.560692
-199.269724 -283.143626 0.109416 -197.139136
-194.165030 -275.472795 7.444548 -193.346059
-190.573094 -251.421487 17.958906 -180.224896
-194.446680 -275.513419 -1.904934 -193.320675
-209.677564 -294.515810 -1.909505 -206.170254
-203.082331 -281.517317 -2.841619 -197.001179
-210.706604 -279.841647 -16.246737 -197.449061
-193.453971 -269.404613 11.925601 -188.857980
-202.120183 -282.213042 12.843717 -198.107551
-205.300407 -290.717963 4.890560 -202.654970
-198.031679 -283.004366 -7.748487 -197.601737
-197.066089 -280.262258 -7.309607 -196.687770
-234.825562 -330.504360 -10.489517 -233.494083
-195.089640 -271.458495 15.507901 -191.222605
-192.828761 -271.834161 10.139173 -189.791258
-222.480814 -314.254286 1.188413 -220.897101
-180.916075 -257.039251 -4.635138 -179.487561
-149.326010 -173.160854 25.015917 -131.112599
-210.833808 -392.551368 -12.866805 -181.015553
-228.371199 -283.881046 -0.063302 -200.185333
-198.982821 -262.469620 -14.713572 -184.680577
-196.913308 -353.097283 14.164488 -165.003177
-193.219445 -354.059718 -2.205363 -164.183749
-207.915390 -267.131578 -7.850180 -187.973265
-224.856365 -258.384099 16.520671 -187.601555
-136.754743 -285.397042 14.636975 -126.645536
-169.556497 -236.521002 3.876805 -163.468437
-117.040704 -262.781872 9.262089 -113.946773
-201.450543 -279.406674 15.738794 -196.537966
-173.965979 -235.998366 3.718652 -163.090312
-198.638553 -282.896829 9.670961 -198.454349
-160.902840 -267.839069 11.066470 -128.622573
-129.216191 -179.800727 -14.689264 -125.797627
-190.903944 -274.774711 -0.779177 -191.756592
-179.858590 -258.474379 -5.744938 -179.732313
-192.874904 -269.157615 15.266912 -189.241842
-158.216052 -227.681225 -7.235952 -158.407056
-184.133258 -255.947954 8.863910 -178.092958
-172.698070 -248.279136 -1.840472 -171.817825
-166.024827 -225.215725 -10.189712 -156.384249
-188.719388 -261.365435 -3.232554 -181.325542
-163.759135 -230.251560 11.836208 -160.286826
-170.509414 -235.876613 13.444240 -164.779897
-160.020137 -225.927151 9.396525 -156.624810
-171.242775 -232.783423 9.196583 -161.582256
-154.680690 -219.370093 -1.999291 -150.984217
-171.678715 -238.963742 7.100540 -165.603309
-152.928092 -217.705098 7.844160 -150.430529
-160.030288 -229.683729 4.546788 -158.599678
-151.237739 -211.886115 1.470584 -145.569255
-166.392663 -234.090366 1.906390 -161.593451
-156.288269 -277.346360 19.183282 -130.090389
-117.947427 -161.708741 -15.494266 -112.915728
-161.254238 -276.051813 7.445887 -131.191815
-183.333232 -335.706397 39.418231 -155.711889
-178.377381 -267.249292 2.306333 -133.688002
-177.009183 -293.075544 26.373025 -141.025418
-116.978873 -131.028772 22.355447 -99.203070
-164.798220 -284.541951 16.102008 -134.802051
-158.964361 -223.366911 3.001675 -153.971384
-157.142642 -225.174692 2.735718 -155.215261
-155.608958 -218.923075 5.846402 -151.118425
-116.832391 -147.896653 -19.634976 -106.253469
-152.122283 -217.686428 3.106895 -149.843588
-151.618075 -216.114847 2.583818 -148.681029
-146.261399 -205.023105 7.289993 -141.277912
-151.744034 -214.360283 5.748057 -147.723380
-157.773223 -223.454327 4.572853 -154.136406
-144.647784 -205.883391 3.515666 -141.387430
-152.030731 -259.361229 4.144123 -123.417588
-167.872907 -296.819111 2.963999 -139.407605
-165.669918 -270.365878 14.356659 -130.810739
-146.411534 -244.831824 21.833060 -117.373007
-158.223686 -266.624576 15.274191 -127.454479
-150.052117 -259.352482 8.709132 -122.821380
-181.706628 -259.751834 14.016050 -132.437539
-161.236752 -272.968158 16.379607 -130.261473
-165.834790 -267.816276 13.988934 -130.095320
-167.024438 -274.135517 11.736552 -132.347987
-165.494648 -263.350978 13.089121 -128.653688
-157.023934 -262.412231 11.933018 -125.830850
-168.891889 -277.234245 21.574790 -133.837840
-165.494579 -268.356517 14.538313 -130.155329
-171.375124 -267.339847 19.357384 -131.614491
-156.489851 -299.815341 25.889766 -136.891558
-152.038863 -261.226800 16.239216 -123.979699
-158.310526 -263.174078 16.807972 -126.445381
-153.178108 -270.533415 22.366815 -127.113457
-158.599087 -269.506736 19.543250 -128.431747
-159.936769 -289.554607 30.764597 -134.847413
-151.202012 -278.641697 9.075754 -128.953113
-162.854452 -274.488670 13.481982 -131.202936
-147.951805 -212.708788 8.340282 -147.049459
-163.773982 -288.655244 26.706957 -135.728768
-183.052016 -337.027954 21.060151 -156.023991
-177.090139 -307.722344 6.137914 -145.443745
-191.384868 -270.545510 1.418519 -190.217179
-176.260259 -309.338753 24.487890 -145.679704
-191.378072 -332.783379 2.638205 -157.248435
-171.832026 -299.040958 9.065577 -141.261895
-154.678735 -126.239197 19.498756 -112.207923
-166.462547 -265.022126 26.099185 -129.445402
-163.379579 -263.087095 21.359167 -127.940002
-171.654540 -278.156434 28.676162 -134.943292
-181.233092 -297.094189 27.738221 -143.498184
-129.233483 -268.860876 15.166518 -119.428308
-167.406434 -267.797337 12.774367 -130.561131
-165.765048 -255.441245 16.595947 -126.361888
-155.233076 -263.982801 17.506939 -125.764763
-174.289422 -268.145918 24.948165 -132.730602
-154.981555 -245.635667 9.729759 -120.185167
-167.382801 -308.413529 31.894739 -142.738899
-178.019292 -316.060131 25.239857 -148.223827
-188.972050 -220.608620 -4.927195 -154.751768
-165.266487 -193.882068 -16.264976 -138.022988
-139.281540 -103.033535 -4.737128 -93.627242
-214.514879 -225.594243 -4.245496 -158.283486
-185.810773 -259.166212 -14.087018 -183.034055
-194.897518 -270.466645 -15.933954 -191.588614
-153.153055 -298.746583 -22.090025 -135.569892
-202.520095 -286.600449 -1.434379 -201.682165
-224.506061 -318.561655 -4.280570 -223.770854
-181.098531 -332.034542 0.903911 -153.939922
-147.113742 -295.498182 -13.368896 -132.783577
-192.752280 -272.880848 0.112758 -191.704646
-166.615704 -306.317240 -1.656167 -141.879883
-162.324054 -296.709427 3.878240 -137.710044
-177.421945 -251.203970 3.173773 -176.239068
-188.545858 -266.490334 -11.280035 -187.574753
-114.837805 -267.094371 -18.047600 -114.579653
-179.767519 -370.110010 -15.239564 -164.963259
-139.875471 -201.417339 -2.466878 -138.692653
-158.405916 -219.037575 -16.593374 -154.851162
-198.310518 -281.844008 0.674035 -198.093779
-166.691140 -289.641274 3.746018 -136.899724
-128.720968 -187.704354 1.132006 -128.120378
-71.269488 -99.604148 -10.951925 -67.824360
-183.906918 -205.452025 22.074792 -150.841922
-149.404668 -215.290140 7.401442 -149.475089
-191.251112 -298.205967 14.832792 -146.837124
-194.476263 -334.500249 40.714333 -158.692954
-186.144439 -307.711703 5.310179 -148.156843
-197.795872 -289.869150 11.114139 -146.299507
-117.533366 -258.050656 -42.270315 -112.675207
-171.201709 -286.416211 2.457735 -137.285376
-183.519954 -312.230014 -8.444042 -148.724990
-185.818822 -317.513543 4.943476 -150.999710
-184.623074 -314.028812 10.480268 -149.595566
-183.934944 -307.665389 8.215499 -147.480100
-187.164147 -317.663769 -23.320337 -151.448375
-186.857205 -340.321663 7.702803 -158.153660
-209.481116 -291.602454 14.390145 -206.147857
-205.394440 -359.470246 -30.169648 -169.459406
-203.755989 -309.001757 -20.971248 -153.827324
-209.229563 -317.851975 -10.880147 -158.124461
-198.407019 -244.308675 13.395506 -175.469909
-176.330284 -176.205911 27.326363 -142.809963
-140.382083 -174.057275 18.666891 -128.238760
-204.255778 -258.370516 13.291111 -184.734846
-185.003614 -262.966239 6.617621 -182.776644
-214.860611 -276.520108 6.067647 -196.228755
-126.695871 -168.289732 15.187894 -120.170943
-197.028669 -281.882574 -1.333322 -196.027747
-213.320756 -269.196577 -5.387655 -187.233795
-233.690103 -328.825193 -14.750876 -232.216366
-197.701158 -273.135766 11.465355 -192.107772
-195.520400 -279.478780 2.383727 -194.330122
-201.809738 -268.395654 -6.321457 -186.719499
-161.623974 -230.870081 -5.287333 -159.520003
-158.990956 -303.501644 -19.840455 -138.747780
-201.426884 -428.375587 -66.065410 -188.940741
-191.749169 -387.811787 -0.635819 -173.868287
-185.300561 -343.042306 -22.966104 -158.502860
-212.262141 -497.488305 -73.683278 -212.925134
-214.634582 -304.469117 -2.152693 -214.227773
-207.419649 -377.378647 -19.211220 -175.439489
-193.232284 -325.428114 2.070997 -155.598119
-225.749580 -304.686593 23.467696 -218.722729
-189.359988 -433.739999 1.354885 -186.929996
-162.215547 -209.199925 23.735919 -152.187831
-142.427655 -182.584166 21.079793 -132.575290
-174.426936 -248.333875 10.690038 -173.927386
-174.118176 -251.055538 -3.940806 -174.991329
-241.011976 -307.815916 32.755210 -225.567209
-204.485038 -284.077795 11.565008 -198.957028
-189.569708 -272.651079 3.252463 -190.543542
-178.041047 -253.538945 10.519515 -177.755082
-207.135252 -276.819753 23.534839 -197.947633
-234.605049 -299.338760 30.087565 -217.712901
-205.095559 -263.292700 22.220619 -188.396843
-209.332542 -278.359842 25.746813 -199.635644
-178.297920 -254.109703 6.446493 -177.756724
-235.612961 -329.813649 13.530722 -232.800118
-169.673694 -219.313966 24.460588 -159.653805
-238.511565 -338.256198 1.514455 -238.418650
-238.200172 -336.995766 1.325332 -237.784121
-258.052326 -360.284869 -18.008596 -256.275260
-298.437617 -421.868621 4.197680 -299.134401
-219.765229 -299.718850 21.441533 -214.477631
-210.819219 -296.688881 -12.084240 -209.636484
-221.769080 -304.140289 -20.058691 -215.667876
-226.276284 -317.657360 -13.196764 -224.888447
-229.552068 -321.405104 -14.011651 -226.749907
-209.921947 -250.284305 -3.853294 -176.304119
-202.197332 -269.300123 -19.460608 -190.948371
-192.099962 -255.313235 -24.755087 -184.261282
-197.238499 -278.243130 -11.213877 -196.161000
-231.271539 -311.321288 5.310762 -220.262412
-214.092890 -264.449129 -12.817986 -186.605429
-208.009980 -255.546570 -14.736829 -180.685813
-236.855455 -303.284586 -5.439050 -212.963980
-237.933289 -303.859169 -35.043561 -224.058701
-201.035164 -271.045507 -22.443714 -192.983471
-216.502009 -305.284897 -10.148047 -215.380131
-204.783604 -277.497098 -23.001662 -198.891984
-224.167342 -315.994801 -11.573971 -222.955209
-268.344459 -381.117768 -5.679648 -269.362963
-211.270593 -267.977526 -25.418175 -193.197946
-212.478149 -278.720241 -21.046206 -198.328365
-231.197728 -301.058001 -31.372392 -218.528735
-198.379352 -274.703350 -18.803509 -195.154181
-232.796779 -323.747437 2.661785 -227.195768
-228.094953 -299.007224 -20.709190 -212.463614
-213.362364 -271.991825 -18.769792 -193.247358
-218.061238 -277.587579 -16.282604 -196.317020
-195.176204 -279.760771 -5.788716 -195.176204
-201.768938 -274.763998 -12.713723 -192.759828
-238.224923 -333.210449 -13.965161 -234.504776
-236.074468 -316.639747 -27.890104 -228.353486
-230.495296 -309.083305 -27.448601 -223.146135
-210.606639 -281.921149 -25.981799 -203.338520
-246.047594 -337.620071 -23.537679 -241.705973
-230.674616 -302.731146 -30.849376 -220.524027
-190.953101 -269.952468 8.643445 -188.777768
-229.129705 -300.205880 28.434707 -217.369487
-234.240398 -325.249637 18.106442 -230.584521
-225.631598 -309.584912 -22.395821 -221.325403
-222.670179 -302.811670 -23.888514 -216.010800
-258.226080 -366.495778 3.501939 -258.807178
-205.639473 -289.280545 -14.283243 -204.307106
-191.822705 -267.754839 14.496829 -188.754415
-204.277974 -272.935079 23.758798 -195.549550
-223.517855 -298.061697 20.162507 -211.557771
-226.129111 -323.075945 -4.826671 -226.129111
-230.602846 -308.849650 25.821000 -222.033048
-198.572178 -266.461019 21.186860 -189.539889
-232.971636 -321.572609 17.315208 -227.017639
-199.864056 -279.218780 13.054260 -195.604523
-203.311915 -291.989261 0.719480 -203.311915
-317.264081 -437.164564 25.994069 -313.596058
-194.196968 -421.623601 29.155085 -184.746171
-191.637950 -424.441833 35.949929 -184.823935
-240.476333 -297.715560 37.017136 -220.535188
-244.488451 -345.136705 13.092680 -244.186376
-332.749130 -470.224213 8.629141 -332.749130
-285.207757 -400.090753 16.428317 -284.482520
-293.054062 -405.176912 23.513632 -289.928798
-200.124226 -284.563601 8.874024 -198.613896
-231.128296 -329.356252 -5.470689 -230.464542
-230.091512 -325.759485 7.986027 -228.131818
-232.981927 -333.028354 2.547637 -234.239436
-205.723120 -281.988788 12.216502 -197.469337
-202.357933 -287.346150 11.031922 -202.107931
-206.371828 -295.182301 -0.614724 -205.606649
-203.452131 -369.468747 35.955729 -171.876263
-193.890114 -406.078905 15.855360 -179.990706
-251.666760 -429.893917 73.461373 -204.468203
-186.724451 -341.469389 44.641981 -158.458152
-193.777204 -409.098432 33.841254 -180.862691
-200.643196 -399.174616 40.844325 -179.945344
-181.796697 -396.589916 22.067566 -173.515984
-152.413320 -384.072046 12.272802 -160.945610
-296.987795 -408.901277 25.320626 -293.148076
-306.390076 -414.677251 31.511387 -299.543491
-352.039551 -452.985243 47.704017 -334.898255
-226.426058 -316.362937 12.570681 -222.819761
-189.092326 -412.402885 32.813346 -180.448563
-310.573033 -427.117444 26.443474 -306.544396
-330.998894 -453.183989 29.300340 -326.125276
-160.431162 -379.499143 11.672165 -161.979092
-188.114508 -407.551080 23.221039 -178.699676
-217.014554 -408.285751 20.296919 -187.590092
-129.101382 -344.824531 16.831409 -142.177774
-172.590802 -401.682425 22.900786 -172.281968
-171.411584 -331.339958 7.412642 -150.825463
-173.088107 -361.365459 -3.906337 -160.336070
-177.187958 -232.950005 18.715615 -166.780320
-145.449805 -178.792435 22.402738 -131.017838
-160.319253 -117.793843 -6.940914 -109.152799
-180.697795 -223.709981 18.097301 -162.024602
-173.174108 -224.911954 20.691621 -161.959913
-165.564375 -318.315058 3.555018 -145.163830
-157.014924 -207.591558 12.045579 -147.919594
-182.392580 -235.221752 23.065117 -170.215858
-211.433480 -272.291206 30.955120 -199.759156
-164.843191 -330.899417 12.745394 -148.722782
-158.358820 -199.117297 19.821373 -144.607230
-206.557100 -243.813771 31.695883 -182.889940
-279.947208 -350.086678 42.716630 -261.208899
-205.092479 -399.593718 -9.386404 -181.405859
-260.168621 -358.261427 21.214321 -254.257934
-210.535785 -291.973193 11.579558 -206.577449
-274.724282 -321.393967 47.051558 -246.925659
-292.961517 -405.541398 23.015795 -290.044258
-300.619105 -366.242079 48.131281 -276.718416
-240.785196 -278.228430 42.315609 -214.457881
-177.067049 -201.396527 32.691425 -155.450201
-236.889244 -259.070705 42.994224 -204.751137
-236.439949 -283.872836 30.452433 -208.186212
-197.527313 -211.087956 29.695012 -163.009436
-155.512875 -209.963288 20.072258 -151.518339
-186.206083 -370.860488 -12.414071 -167.119971
-234.434919 -322.846387 9.207359 -234.434919
-184.784163 -208.482364 27.442257 -157.824038
-185.082349 -246.721185 -2.565678 -179.521225
-323.447024 -446.968871 7.042155 -323.447024
-323.447024 -446.968871 7.042155 -323.447024
-153.714726 -347.685825 -23.448967 -150.420165
-189.422345 -254.759560 -16.125639 -179.685437
-224.113672 -372.952136 -23.272569 -179.119742
-214.124916 -279.304565 19.172092 -203.476774
-185.488487 -260.968267 6.457123 -184.608399
-194.985396 -267.183817 -0.426724 -187.456185
-185.623957 -252.598915 8.140943 -178.468050
-263.560544 -358.928447 26.728841 -258.024757
-240.177902 -342.539294 -5.188512 -241.275669
-166.617535 -200.916670 29.370578 -150.656979
-242.204670 -343.350503 10.565576 -242.477245
-257.908136 -314.985661 41.829834 -237.146011
-139.391384 -192.780490 16.025854 -136.260370
-172.724738 -191.994657 32.394931 -149.458943
-188.601363 -264.335696 -11.160488 -184.523659
-153.622100 -183.964785 21.772064 -136.975158
-201.192084 -277.338564 -19.959063 -197.412652
-221.265909 -316.902796 0.068028 -221.265909
-175.773145 -252.652612 -6.151438 -176.403508
-178.082037 -257.004958 -0.801337 -179.286026
-218.861753 -313.555275 0.986320 -220.102642
-209.412199 -293.227680 -0.088884 -204.971466
-203.583634 -292.297303 -1.881946 -204.716470
-203.946693 -284.890981 -15.206423 -200.172874
-198.245931 -284.908219 -1.740805 -198.985018
-168.899359 -244.106045 -2.520277 -169.810808
-257.761333 -345.833726 29.811100 -250.034108
-180.956342 -258.997223 8.206646 -181.157405
-249.283463 -354.908236 6.528783 -250.286260
-178.550177 -236.844488 24.204238 -170.811107
-189.867675 -251.359861 25.583267 -181.673327
-178.415593 -224.466369 28.801995 -166.229047
-165.207433 -230.839559 -0.409757 -161.204795
-201.834609 -276.229869 -1.177641 -195.051850
-221.951375 -310.591488 16.807156 -220.130577
-185.272126 -266.360830 -4.781868 -186.071661
-210.568320 -296.474627 14.489141 -209.390196
-216.070856 -271.558217 33.839042 -201.212307
-146.536846 -354.830148 4.817055 -150.410098
-169.077416 -192.798967 31.418161 -150.698959
-179.352332 -246.781000 -3.296607 -173.652710
-210.360907 -291.090981 4.227701 -204.936905
-197.412459 -320.488852 15.630814 -155.370393
-190.903268 -409.066803 44.436449 -179.991021
-235.368681 -504.263378 -52.898985 -221.889618
-216.766941 -283.296018 10.996367 -205.072692
-204.324795 -194.210824 11.710016 -145.639197
-175.184743 -183.137170 10.510522 -133.386446
-193.897546 -321.548340 19.173342 -154.633766
-184.844893 -218.047561 3.063495 -161.800400
-177.311353 -300.269963 30.816107 -143.274395
-145.816889 -226.897782 38.795675 -111.814401
-199.753409 -326.338758 19.358642 -157.827650
-185.416478 -491.202272 34.295673 -202.985625
-190.488883 -322.084967 16.857195 -153.772155
-198.183927 -346.191438 24.689860 -163.312609
-180.221093 -282.974162 21.594275 -138.958576
-183.918490 -250.424991 21.205021 -178.907971
-134.218176 -295.088834 21.194380 -128.792103
-153.904203 -307.363564 17.863889 -138.380330
-174.748173 -296.039554 38.759799 -141.236318
-151.288468 -296.253368 19.737960 -134.262551
-130.064004 -286.776178 17.221809 -125.052055
-220.962440 -314.956627 7.854028 -222.011832
-133.400440 -296.197980 25.368381 -128.879526
-149.540865 -400.520600 -25.036180 -165.018440
-284.450779 -388.490902 27.343756 -279.681174
-238.638751 -335.722372 -12.370866 -235.952965
-177.446765 -300.120960 -14.209694 -143.270318
-183.591331 -378.732272 -9.033361 -168.697081
-266.149452 -367.093987 23.190312 -262.543113
-56.685217 -77.390699 -10.971042 -53.810966
-190.158250 -267.892099 14.142467 -188.760143
-180.883957 -265.723894 20.981803 -133.982355
-194.692809 -273.879016 14.639160 -193.189127
-175.895537 -256.586947 32.645671 -129.744745
-196.694248 -340.875407 20.984915 -161.270897
-217.047258 -365.751894 35.554147 -174.839746
-181.554494 -318.970785 4.531917 -150.157584
-221.391893 -402.766377 -9.766597 -187.247481
-182.371442 -300.855225 4.252353 -144.968000
-176.379976 -302.953117 27.197542 -143.799928
-162.884205 -298.270028 11.380385 -138.346270
-196.913395 -336.008745 -3.915908 -159.876642
-192.809229 -259.432834 17.092606 -135.672619
-168.455267 -285.587805 28.372767 -136.212922
-165.134335 -231.806216 14.648784 -163.019886
-148.948598 -213.937353 8.758425 -148.917780
-179.865260 -299.370661 19.067860 -143.770776
-193.951950 -294.140321 20.894921 -146.427681
-177.196968 -247.553683 9.710681 -127.425195
-183.085875 -284.225174 30.773484 -140.193315
-180.062348 -253.806450 21.025555 -130.160639
-185.681995 -259.991507 23.464461 -133.702050
-164.094950 -291.045459 18.274297 -136.542123
-169.995074 -260.764647 25.357769 -129.227916
-176.654134 -315.154035 15.332546 -147.542451
-171.397752 -231.570311 21.387029 -165.556198
-153.777259 -277.472004 10.002039 -129.374779
-179.606856 -308.378110 1.129582 -146.395490
-121.557144 -228.465655 10.082853 -105.006840
-117.979962 -247.044167 -4.945572 -109.507239
-156.120051 -258.673915 5.626448 -124.438190
-173.710384 -275.631955 23.673158 -134.802702
-172.960297 -288.084196 26.236546 -138.313348
-158.283505 -277.286314 16.748393 -130.670946
-177.405827 -264.282560 12.545815 -132.506516
-189.401721 -329.828800 42.020479 -155.769156
-165.641531 -260.880568 11.302815 -127.956630
-182.599375 -279.782987 -0.014840 -138.714709
-183.734318 -247.452064 22.807504 -177.650506
-184.635303 -253.797344 19.641405 -180.503014
-119.943751 -215.368060 -42.995444 -100.593543
-165.437576 -229.620791 16.875050 -162.568919
-220.803851 -229.630500 40.509896 -185.543494
-124.257168 -292.188214 20.053096 -124.933615
-291.501798 -408.852346 16.631548 -291.384938
-268.168854 -373.936368 19.202766 -266.278176
-108.667669 -160.713982 -1.314435 -111.815591
-206.491836 -294.856414 -7.645226 -207.979604
-202.235869 -267.725540 22.466638 -192.187983
-196.514962 -262.068616 25.302754 -190.476616
-159.557663 -230.867157 -3.760482 -163.065466
-193.298932 -386.513478 32.493407 -173.943723
-200.291194 -211.394132 37.220240 -169.209640
-116.895407 -135.857549 10.411215 -104.205580
-243.855223 -285.159504 40.146456 -216.432792
-167.421453 -182.863476 31.729958 -144.389584
-136.867039 -187.377633 17.184477 -132.944846
-311.363412 -416.013228 -35.468180 -302.147575
-131.805731 -373.128942 7.961986 -151.480402
-141.806222 -322.864355 18.340141 -139.401173
-160.532121 -319.293519 11.615072 -143.947692
-129.525801 -313.815031 24.754965 -133.002250
-131.495184 -153.351824 23.093202 -114.885759
-174.334850 -243.914789 1.647935 -168.662785
-154.249772 -196.392151 19.758312 -145.535702
-168.921609 -190.182729 31.621768 -147.431571
-203.424495 -229.146899 37.137554 -179.510978
-154.590226 -194.194254 24.238488 -145.115313
-110.807852 -105.135916 -15.895380 -84.809784
-157.339181 -312.117992 13.282192 -140.837152
-164.912598 -211.376409 20.287131 -152.596301
-173.763844 -233.751882 19.142526 -169.751716
-139.200602 -187.169268 15.299830 -132.881938
-157.458716 -211.010482 11.358571 -149.944735
-121.799347 -162.160058 16.824362 -117.456394
-147.629690 -180.097482 25.407711 -134.738004
-157.948612 -332.705060 0.935747 -147.196102
-152.697711 -369.654261 8.831390 -156.705591
-175.423844 -241.621917 27.133625 -125.113728
-153.683120 -359.071341 9.487686 -153.826338
-151.554989 -351.207773 11.337636 -150.828829
-147.570136 -352.663090 17.934182 -150.069968
-153.297801 -274.778346 -6.426184 -128.422844
-140.666017 -322.829603 19.643096 -139.048686
-187.030493 -283.380650 35.223110 -141.123343
-149.871068 -284.722836 32.339949 -130.378171
-174.961695 -396.700499 21.482565 -171.498658
-136.443555 -370.012641 -1.579179 -151.936859
-138.842695 -356.406780 12.483674 -148.574842
-136.773877 -385.747584 4.466479 -156.756438
-156.640422 -385.705232 10.686834 -162.703696
-140.703270 -376.951451 2.075803 -155.296416
-171.772518 -391.227969 6.744248 -168.900146
-150.568209 -383.551959 7.867463 -160.236051
-178.867847 -449.152214 49.972700 -188.406019
-158.787093 -146.793603 -11.294683 -112.147513
-136.803833 -322.508786 69.059492 -137.793786
-225.709491 -419.586749 63.316561 -193.588872
-213.103928 -358.824222 29.529228 -171.578445
-175.206505 -435.744827 55.477991 -183.285399
-181.198144 -348.766195 22.743191 -158.989302
-144.787239 -324.842043 -2.862705 -140.888785
-184.121154 -387.862445 19.401796 -171.595080
-186.076692 -352.493576 20.290540 -161.571080
-209.368183 -298.083237 -9.394675 -209.581813
-136.017195 -365.663930 1.511311 -150.504338
-135.302290 -336.240159 -1.481366 -141.462735
-150.429563 -367.308246 5.048851 -155.321343
-143.353937 -383.056760 5.619765 -157.923209
-136.974849 -376.060992 8.284641 -153.910752
-142.440351 -385.256590 16.799841 -158.309082
-138.082736 -386.264569 -2.722557 -157.304191
-145.295868 -374.714000 9.738673 -156.002960
-258.120116 -359.527063 -19.368967 -255.978459
-140.177991 -389.740902 10.795807 -158.975668
-132.518298 -341.613037 26.452229 -142.239400
-229.665084 -320.603567 -6.987157 -224.319230
-191.991743 -275.671244 -4.775409 -192.832444
-227.870776 -322.667762 -11.764840 -227.724624
-289.589095 -406.325810 -16.357528 -288.942793
-137.531763 -374.016569 -1.023433 -153.464500
-133.835977 -375.980506 1.645428 -152.944945
-191.158677 -169.041135 27.485806 -144.949075
-196.631083 -229.333658 19.185574 -168.883425
-217.552748 -263.772469 10.446562 -189.736240
-222.480893 -283.731996 6.759798 -201.321980
-229.513287 -292.202520 7.141051 -206.560143
-228.599995 -290.913943 4.579730 -205.126670
-257.421012 -358.461650 -19.441541 -255.237243
-260.577095 -364.202194 -4.948730 -255.539081
-213.811686 -252.810837 8.120293 -182.194329
-222.498672 -284.512514 8.073149 -201.158847
-252.482628 -358.711589 -1.943220 -251.431388
-292.568469 -380.096577 28.783163 -273.046321
-218.245270 -219.027289 5.125385 -160.735735
-231.884495 -262.118388 16.817699 -192.936272
-240.141207 -243.621115 11.935917 -181.056651
-214.803644 -240.729856 21.183859 -179.314427
-231.550872 -275.088342 23.212163 -201.399202
-235.366038 -291.776620 24.027329 -210.633876
-220.867316 -290.689515 14.993474 -205.165796
-205.538825 -258.249957 15.576907 -184.689725
-82.204767 -267.826875 13.452200 -105.009493
-182.175896 -236.552581 21.345650 -170.113396
-57.784737 -285.268964 -6.873286 -102.916110
-204.621860 -267.758845 25.769483 -192.652051
-227.230968 -306.289397 25.743826 -219.121407
-96.914043 -310.281565 -23.846744 -122.158682
-249.707959 -332.398144 29.663649 -239.310427
-80.857416 -290.943144 -43.547403 -111.540168
-244.540043 -306.623376 34.558396 -224.966536
-239.688290 -320.350545 17.223283 -226.294770
-267.864367 -371.991884 20.800845 -265.126333
-246.680812 -339.939704 12.271214 -239.021857
-191.173287 -275.198132 -0.445077 -192.279334
-226.101153 -313.240201 -20.054107 -222.972951
-216.989391 -294.753622 -24.010306 -211.383233
-301.210144 -427.994824 -0.448523 -302.888953
-285.282239 -372.014671 -37.769299 -272.659263
-177.649126 -458.688153 -125.763744 -190.901184
-280.643163 -396.999217 3.107458 -279.071459
-286.864747 -401.074899 -16.480919 -283.629659
-215.523579 -302.322585 -15.803817 -213.955485
-35.022303 -291.972704 -75.097334 -98.098502
-124.117834 -178.051958 10.185135 -123.035194
-167.473364 -339.162280 -74.469026 -151.990693
-108.948582 -153.128350 -12.647991 -106.257176
-97.970624 -138.898046 -11.405657 -95.628700
-220.087932 -280.563385 -33.071266 -206.704815
-193.567058 -263.796131 21.913739 -188.399620
-111.443526 -161.041507 9.081491 -112.755040
-213.867026 -227.706097 39.412533 -181.831045
-157.685474 -159.062968 29.894403 -129.809794
-208.545860 -203.277517 37.519031 -169.301127
-131.577285 -184.866551 -13.511748 -130.669765
-178.893442 -183.577678 33.523084 -148.853096
-236.445677 -337.857076 -2.581247 -237.719636
-281.819239 -393.908037 9.811829 -277.403050
-283.716923 -346.412464 -45.552761 -261.233973
-270.109434 -381.099514 -13.292970 -270.056707
-216.105454 -307.862319 -9.022009 -216.637783
-303.509728 -430.486831 -5.474159 -304.959336
-305.855165 -432.472322 -9.722001 -306.803423
-149.628790 -383.252704 27.562081 -159.864448
-221.361166 -303.103438 -22.684148 -216.736195
-288.437682 -394.362874 -27.250594 -283.414841
-189.800977 -185.227205 34.549600 -154.274897
-247.067396 -231.058962 42.224258 -197.223303
-169.480139 -156.953942 30.030106 -136.548427
-159.607592 -161.261257 30.214814 -134.526904
-145.604273 -205.762718 -12.830239 -145.882738
-123.480225 -126.181209 -3.519026 -104.067929
-171.967685 -298.110283 14.507195 -141.023390
-133.041845 -252.438391 12.505538 -115.644071
-182.135142 -257.651597 -12.762793 -182.261034
-157.120603 -272.384665 26.536719 -128.851580
-159.517517 -272.090037 9.827284 -129.482266
-150.840023 -258.816214 14.927597 -122.896871
-165.125154 -286.437425 21.108540 -135.468774
-137.185968 -254.589804 8.654093 -117.532732
-146.359605 -253.545645 2.035364 -119.971575
-140.277433 -247.683968 4.606553 -116.388420
-166.215428 -258.711764 8.176338 -127.478158
-157.509937 -273.261482 9.445126 -129.231426
-173.418086 -265.454625 16.969200 -131.661813
-153.410080 -258.245638 5.795481 -123.496715
-160.941991 -260.433770 17.605032 -126.412728
-163.849796 -271.931720 16.433999 -130.734455
-155.099574 -262.525751 8.136300 -125.287597
-163.450451 -282.060009 19.778486 -133.653138
-152.073659 -283.050369 14.229335 -130.537208
-152.221520 -265.602692 13.444910 -125.347264
-137.970005 -256.638431 -0.973834 -118.382531
-143.181075 -262.666149 4.803581 -121.754167
-138.248951 -266.920710 2.572455 -121.550899
-123.823629 -163.441584 19.068589 -116.863686
-146.952484 -279.759450 9.137446 -128.013580
-129.529021 -255.248039 -4.756128 -115.433118
-162.201171 -264.493617 11.745211 -128.008437
-151.515923 -259.611524 10.517642 -123.338234
-149.946754 -274.658526 11.704003 -127.381584
-126.230443 -241.178316 -10.608044 -110.222628
-146.175158 -270.083394 9.073463 -124.877566
-135.790535 -262.911443 0.692738 -119.610593
-143.529480 -253.750056 2.166988 -119.183861
-139.292552 -250.873961 3.401675 -117.049954
-141.901044 -256.292303 -0.085777 -119.458004
-130.812827 -255.047703 -3.822138 -115.758159
-138.016441 -254.303398 -1.040879 -117.695952
-126.997559 -238.010064 -15.922736 -109.502287
-137.827588 -259.619098 -1.746394 -119.234006
-116.017755 -244.918638 -12.628209 -108.280918
-128.220752 -250.712814 -10.859761 -113.680070
-132.343363 -258.098994 -4.837222 -117.132707
-124.504822 -247.686539 -9.482269 -111.657408
-118.407256 -248.630484 -8.910954 -110.111322
-130.969153 -234.925827 -3.552428 -109.768494
-139.562447 -253.117756 -2.604101 -117.804061
-132.013520 -242.417838 -5.962166 -112.329407
-130.628269 -248.263413 -6.391576 -113.667505
-136.062380 -234.309680 21.497329 -111.111618
-155.759224 -268.755566 23.692140 -127.354437
-130.174652 -237.836398 11.277322 -110.403315
-138.200196 -249.031884 19.726916 -116.169624
-142.173376 -246.804618 17.451386 -116.693398
-146.925554 -266.425557 12.259013 -124.005333
-145.964047 -260.429773 5.829538 -121.918146
-139.706758 -249.655099 11.647634 -116.808557
-171.145414 -274.806165 41.810171 -133.785474
-96.545947 -139.856585 -8.825137 -95.524073
-144.755581 -254.061818 25.756597 -119.645220
-158.152632 -255.100575 26.605440 -123.975962
-122.702638 -242.350149 15.596105 -109.515836
-106.562176 -152.418315 10.875274 -104.815249
-146.963634 -198.253680 28.696784 -103.565194
-149.943333 -226.564067 34.577041 -112.952220
-115.580108 -235.156489 24.718409 -105.220979
-112.682304 -224.876016 18.073304 -101.267496
-114.630182 -163.333492 11.461253 -112.787677
-108.620860 -216.213258 29.742865 -97.450236
-118.879155 -233.359832 33.401035 -105.671696
-97.243672 -220.094574 39.013974 -95.201474
-114.657317 -214.682702 37.024263 -98.802006
-110.267074 -227.283032 30.750106 -101.265032
-120.101975 -224.104730 21.223909 -103.262012
-144.267082 -222.478928 27.556875 -110.023803
-136.894587 -234.113199 17.072183 -111.302336
-152.353333 -242.209068 34.295981 -118.368720
-133.486814 -219.860333 -2.751433 -106.004144
-124.777348 -163.265920 7.084616 -86.412980
-125.674198 -220.570559 10.951287 -103.873427
-130.108526 -245.213337 15.316038 -112.596559
-125.568270 -206.683115 5.187705 -99.675416
-139.131534 -217.619175 9.993161 -107.025213
-124.691567 -222.313764 -12.200839 -104.101599
-134.455348 -246.077535 -7.068452 -114.159865
-121.829324 -235.697775 -16.420031 -107.258129
-129.768901 -244.883411 -12.058023 -112.395694
-122.221473 -240.940416 -13.738354 -108.948567
-119.487313 -245.476223 -9.007810 -109.489061
-122.737778 -239.177058 -16.123293 -108.574451
-122.834143 -227.167127 -16.886866 -105.000381
-124.215902 -230.133091 -17.405018 -106.304698
-122.247789 -203.740223 -14.981289 -97.796404
-122.971478 -238.481190 -17.417905 -108.435800
-122.677586 -230.739884 -19.393687 -106.025241
-126.784051 -216.166681 -4.520068 -102.885220
-132.069473 -235.860913 -3.987236 -110.379116
-131.133555 -237.423023 -11.226287 -110.566973
-123.192035 -216.414333 -15.446979 -101.881910
-129.159039 -230.812165 -14.988522 -107.991361
-123.411989 -232.341687 -14.233393 -106.726103
-129.359783 -200.461094 -2.472581 -98.946263
-119.679209 -191.485686 -11.615252 -93.349469
-128.300840 -211.305479 -9.483870 -101.881896
-124.120352 -210.983822 -19.137301 -100.531252
-123.406022 -209.301922 -10.324087 -99.812383
-127.705691 -218.898245 -14.482234 -103.981181
-119.607440 -232.243354 -17.974637 -105.555238
-122.178264 -219.298588 -17.340174 -102.443056
-122.377795 -223.405775 -21.331208 -103.735071
-120.681292 -198.447962 -13.295320 -95.738776
-122.726715 -233.488369 -18.133244 -106.864525
-118.226045 -225.725135 -21.168895 -103.185354
-112.483444 -184.607100 -7.996454 -89.127163
-126.460733 -191.613744 -2.723090 -95.422343
-124.337110 -213.795521 -21.220168 -101.439789
-107.659509 -175.439023 1.542661 -84.929560
-70.753551 -137.875389 -10.520602 -62.588682
-117.492142 -210.085835 32.240620 -98.273393
-124.294408 -176.146820 24.855865 -90.132369
-140.397273 -180.258388 15.981422 -96.196698
-135.460574 -152.501076 30.492495 -86.388495
-169.420401 -235.741722 16.911530 -166.353110
-122.931602 -201.853231 18.429158 -97.435450
-126.560809 -187.029557 8.286106 -94.077110
-153.284711 -248.614792 -2.116721 -120.569851
-111.237471 -209.174938 42.224943 -96.123723
-127.216965 -208.120070 40.812433 -100.601110
-126.391509 -217.419333 38.849767 -103.143253
-163.512887 -262.470274 -24.660506 -127.794948
-147.751288 -207.213823 14.678899 -145.229514
-140.201939 -218.058438 45.178895 -107.478113
-167.594520 -233.076029 16.939021 -164.480360
-158.622320 -212.316084 40.912866 -111.281521
-173.669809 -210.634605 57.225446 -115.291324
-125.306271 -280.862814 -10.393845 -121.850725
-112.390930 -273.668309 -4.094532 -115.817772
-110.679948 -260.259598 2.304781 -111.281864
-110.868819 -273.087325 -3.773877 -115.186843
-119.539835 -279.010151 -6.759706 -119.564996
-115.145885 -271.546618 -2.879342 -116.007751
-113.805825 -269.164889 -2.248417 -114.891214
-110.599655 -267.063648 -0.414520 -113.298991
-117.677750 -280.088595 -7.875738 -119.329903
-104.490502 -273.796750 -5.972427 -113.486176
-114.598500 -294.228297 -19.420804 -122.648039
-119.474869 -282.462679 -19.038213 -120.581265
-134.686124 -291.464560 -22.758809 -127.845205
-130.523749 -276.592975 -29.946996 -122.135017
-147.349301 -275.147892 -27.220073 -126.749158
-131.184404 -185.358898 12.990208 -129.042294
-164.789223 -271.234252 -29.425913 -130.807043
-162.960580 -263.891290 -45.497198 -128.055561
-88.601085 -204.118607 24.534998 -87.815908
-76.102072 -176.602200 55.109324 -75.811282
-111.121865 -338.409162 -57.612270 -134.859308
-114.226141 -163.613084 10.670117 -112.732520
-177.258970 -406.733437 -93.893223 -175.197722
-105.503082 -151.751691 10.100746 -104.060125
-62.108699 -291.726587 -16.905131 -106.150586
-40.586821 -307.983471 -29.543260 -104.571088
-63.522707 -292.394830 -32.584334 -106.775261
-84.868544 -335.765142 -41.955797 -126.190106
-107.185782 -277.855662 -5.053460 -115.512433
-82.011246 -274.429205 -1.175875 -106.932135
-97.683019 -280.793004 -13.054094 -113.542807
-93.655903 -275.583394 -7.844468 -110.771789
-125.196554 -306.191028 -39.698033 -129.416274
-105.054566 -314.248305 -41.368565 -125.790861
-92.423953 -271.717219 6.632818 -109.242352
-74.432485 -326.912989 -7.412128 -120.403642
-99.712819 -283.677341 -4.522177 -115.017048
-50.519356 -299.425332 9.046578 -104.983406
-89.488299 -294.110926 -0.923429 -115.079767
-71.386051 -278.939351 7.242798 -105.097621
-90.514751 -300.802231 -11.799299 -117.395095
-20.428141 -297.755884 -21.622282 -95.455207
-112.497501 -258.790019 -18.169318 -111.386256
-117.860870 -249.753679 -13.808196 -110.284365
-83.415459 -265.793600 9.362219 -104.762718
-56.307947 -277.390541 15.396060 -100.109546
-84.168798 -251.523206 6.450875 -100.707601
-99.676551 -253.052753 6.598618 -105.818791
-91.439622 -245.436505 11.066454 -101.062838
-105.273439 -260.609100 -0.042279 -109.764762
-99.590189 -257.625908 3.291312 -107.164829
-66.758668 -260.205461 16.080563 -98.089239
-118.931457 -263.146777 -24.191548 -114.623470
-107.338187 -139.875275 18.040902 -99.962359
-141.120595 -272.736354 -41.312640 -124.157085
-121.487253 -259.483870 -12.311420 -114.291337
-106.577043 -261.527460 -1.893206 -110.431351
-103.965083 -258.767053 1.233662 -108.819641
-107.188407 -264.589529 -1.137065 -111.533381
-99.044023 -267.209610 -1.249897 -109.876090
-104.303913 -266.120449 -2.178135 -111.127309
-109.272759 -254.439012 -6.273283 -109.113531
-109.090568 -267.776140 -2.212274 -113.060012
-108.700446 -262.465513 -2.701831 -111.349788
-128.493676 -263.829991 -20.774746 -117.697100
-116.325068 -275.925095 -27.756609 -117.675049
-113.883920 -251.913779 -13.710965 -109.739310
-107.164175 -282.472729 -23.160187 -116.891071
-108.084488 -261.680393 -2.335901 -110.929464
-113.350787 -270.489472 -16.870422 -115.152077
-124.178083 -326.568848 -57.478286 -135.224079
-95.758842 -302.800221 -43.120085 -119.567719
-132.006098 -267.873965 -32.943714 -119.964019
-92.319770 -280.646723 -41.885132 -111.889948
-128.035811 -311.956475 -46.737362 -131.997686
-125.707170 -267.504111 -29.651990 -117.963384
-136.489367 -265.184688 -25.938489 -120.502216
-151.974499 -380.397461 -53.650431 -159.711588
-144.476914 -119.850315 -0.440021 -96.939909
-137.947401 -131.740683 -6.539375 -101.372644
-146.429531 -151.842267 12.076234 -111.738356
-147.541906 -348.629338 -56.750798 -148.851373
-208.516356 -209.131876 38.062333 -172.061159
-155.684085 -134.028403 5.703202 -106.029253
-143.161026 -121.293050 -5.891200 -97.057443
-133.243542 -109.890235 -2.447688 -89.140565
-52.191166 -271.390280 32.496581 -97.074434
-153.936685 -139.975802 6.186204 -114.428060
-175.235921 -212.461695 30.419741 -159.402402
-129.352067 -139.898728 8.261083 -105.988662
-180.768969 -223.706934 30.118234 -166.227770
-89.838224 -226.801060 45.033054 -94.991785
-94.835299 -239.461425 43.071718 -100.289017
-187.031846 -229.852552 31.387672 -171.450968
-189.682651 -231.113263 32.009533 -171.960153
-232.679521 -317.346130 24.259127 -227.511205
-84.007438 -223.712562 48.630841 -92.316000
-211.442609 -250.330505 36.813412 -190.353133
-189.564153 -238.478424 30.251852 -176.147259
-180.675155 -223.350156 28.195970 -163.919328
-232.023158 -286.556210 37.343252 -214.272104
-234.687937 -323.424285 20.526152 -229.225211
-177.118500 -238.338673 22.352370 -170.827234
-195.032154 -260.179628 25.072003 -187.586505
-183.604892 -235.872829 27.873989 -172.539816
-179.551589 -244.989028 14.548461 -171.637075
-187.979593 -230.351799 31.713159 -172.439081
-103.739518 -140.048178 11.708197 -100.259080
-181.899298 -213.472510 32.633289 -162.392012
-223.935588 -269.599169 37.856217 -203.726210
-220.395921 -257.210510 38.771043 -197.019214
-214.207595 -250.886665 26.646048 -183.765153
-200.103152 -246.427435 33.097670 -183.934624
-136.205158 -118.050153 23.107525 -102.959857
-160.705735 -212.318303 90.595809 -111.907211
-142.918940 -224.438031 116.841792 -110.207091
-196.642665 -266.621187 22.801387 -190.973091
-118.390123 -165.214651 13.832715 -117.250397
-195.704872 -260.644422 64.310507 -136.904788
-243.150820 -268.337236 110.708080 -153.446417
-265.086808 -245.588707 38.497999 -153.202654
-183.960412 -225.854220 -11.438623 -166.067738
-230.500372 -310.212017 -1.716021 -222.249166
-144.405393 -301.561410 -47.869391 -133.790041
-152.021548 -193.767255 13.405834 -140.336923
-146.608224 -153.328884 11.756641 -116.435751
-119.630889 -158.856462 3.378234 -113.563177
-127.111902 -113.440982 -7.560914 -89.737114
-148.805583 -149.736611 -1.543061 -112.294672
-102.225801 -229.141451 1.565822 -99.410176
-137.311842 -421.422713 -36.775487 -167.620366
-146.833151 -303.615554 -46.226434 -135.134612
-148.306878 -319.695559 -45.366520 -140.400731
-52.669829 -251.442599 -34.734631 -91.233728
-140.312616 -262.236566 -29.600022 -120.764755
-211.498728 -282.701198 -4.969692 -204.352743
-122.909516 -253.615660 -13.706419 -112.957553
-118.838522 -270.102712 -14.213237 -116.682370
-153.602283 -173.205041 -20.419287 -127.852468
-183.696886 -214.055162 9.492095 -155.107599
-133.401332 -311.837959 -16.043686 -133.571787
-212.732963 -272.639213 -3.768155 -194.763902
-216.039199 -257.635278 -7.006239 -142.102343
-223.976086 -304.992656 1.469960 -158.690622
-98.914066 -327.952755 -55.825594 -128.060046
-239.481940 -321.830779 1.054468 -231.754341
-219.749608 -239.692625 20.108188 -137.832670
-213.352764 -295.714275 3.753230 -152.720112
-207.369732 -310.376634 -3.816356 -155.323910
-185.018772 -291.684791 -7.218212 -143.011069
-151.657217 -204.647162 8.286309 -143.945070
-212.620778 -333.264136 4.879713 -163.765474
-167.447290 -164.902191 -26.172999 -131.472064
-197.862455 -238.033961 12.279679 -171.579232
-241.891876 -369.641329 45.847514 -183.459962
-220.438128 -258.250547 -11.280798 -187.494236
-251.138181 -292.952534 0.333198 -163.227214
-242.034524 -252.880655 22.200675 -191.866835
-224.256376 -299.168780 -1.946991 -157.027547
-260.686241 -306.991046 33.278449 -170.303186
-218.846608 -288.901468 -11.115724 -152.324423
-239.375742 -264.550563 31.450890 -203.565954
-216.125180 -297.102788 -1.473523 -153.968390
-205.382222 -321.853978 -3.851015 -158.170860
-203.804177 -308.361724 -4.875530 -153.649770
-199.954101 -283.892963 31.766867 -145.154119
-223.462047 -284.944682 21.757962 -152.522019
-219.167110 -286.490362 12.460136 -151.697242
-211.480575 -297.372588 7.583266 -152.655949
-215.087561 -301.225626 2.491625 -154.893956
-217.747981 -296.636584 7.735544 -154.315370
-233.364020 -322.317266 16.370181 -166.704386
-187.068374 -284.956904 22.954662 -141.607584
-197.781861 -270.338630 27.826691 -140.436147
-204.802933 -306.205791 7.455209 -153.302617
-215.101692 -298.339073 14.467608 -154.032230
-193.150152 -292.546447 15.441925 -145.708980
-197.569625 -201.145622 36.485792 -163.794374
-184.998385 -295.662536 14.076462 -144.198276
-196.950252 -285.852710 19.905007 -144.840889
-182.181434 -260.452746 -8.224449 -182.189583
-144.622574 -184.732016 15.805780 -129.911668
-133.238463 -193.972739 4.670902 -133.260375
-148.807857 -178.233695 26.929124 -132.789370
-177.212774 -218.294694 29.884369 -162.448378
-147.051722 -199.234718 18.996926 -141.201824
-205.344978 -304.809692 30.756659 -153.046401
-190.078165 -255.733988 50.808634 -133.743646
-160.848184 -287.411296 26.004104 -134.477844
-186.917038 -269.708929 37.480252 -136.987790
-166.148598 -195.707118 30.104163 -148.277925
-175.601675 -230.573063 10.132821 -160.319916
-167.525256 -174.473680 31.745710 -139.928782
-165.907913 -218.523652 23.637635 -157.783317
-216.618571 -300.380323 49.649761 -155.099668
-202.130453 -358.352384 68.744370 -168.144851
-192.730483 -287.872318 80.568329 -144.180840
-163.698926 -276.938231 53.959060 -132.191147
-212.003564 -265.844081 33.457222 -143.354293
-238.619828 -271.684148 78.508418 -153.091193
-226.092217 -264.075217 46.847608 -147.050230
-210.341494 -255.521221 25.036940 -139.758814
-188.272003 -192.205700 34.992634 -156.118317
-214.419872 -233.379585 21.892985 -171.408204
-190.695974 -257.942714 22.712846 -184.817225
-139.496384 -123.751434 24.313967 -106.742415
-196.909214 -253.759822 51.176664 -135.200711
-167.655694 -257.904016 64.638898 -127.667913
-200.120283 -279.648651 14.581962 -196.632751
-194.443433 -268.458606 -0.921849 -187.514191
-199.495851 -225.978924 7.395169 -159.929734
-151.145870 -213.729478 -12.727994 -149.548903
-178.073181 -248.368570 2.172238 -173.096154
-168.955889 -218.103879 15.650295 -154.568249
-184.043971 -253.410317 10.449779 -178.354563
-182.055746 -260.876089 7.406660 -182.327061
-188.000873 -254.123430 13.777953 -179.867036
-170.145033 -238.842870 9.909344 -167.728980
-123.259140 -260.918461 15.950702 -115.253280
-206.032792 -278.759644 19.655633 -198.794384
-176.425738 -254.719097 -0.474108 -177.457239
-115.803604 -164.842532 -11.191968 -114.081721
-171.665633 -237.078125 18.007960 -168.021754
-172.561383 -247.537468 -5.975032 -171.588408
-152.556548 -216.834942 -11.527384 -151.453231
-181.443596 -258.673197 -9.943473 -181.236826
-144.963815 -303.182056 23.167681 -134.443761
-138.154759 -200.634057 -0.034547 -137.425772
-146.343250 -296.058072 22.921452 -132.720396
-139.300476 -289.202132 20.541039 -128.550782
-61.238887 -88.004678 -9.286428 -58.753471
-88.776063 -129.814450 -7.719418 -87.950976
-147.629888 -264.724902 16.449670 -123.706437
-143.169412 -261.645523 14.360260 -121.444480
-149.419702 -291.772314 16.507747 -132.357605
-152.859047 -268.118721 16.462609 -126.293331
-131.758153 -256.189998 16.652998 -116.384445
-203.157135 -285.397805 5.293232 -199.247344
-144.527085 -258.246635 15.210597 -120.832116
-151.869681 -265.888364 16.666059 -125.327413
-207.713520 -284.249943 13.989153 -201.496813
-144.129951 -265.323675 15.720420 -122.836088
-155.650943 -197.762535 23.871162 -143.211122
-169.152889 -230.880474 13.253861 -162.269667
-163.035749 -212.867174 21.623187 -152.190608
-184.872392 -252.934968 10.687674 -178.076150
-160.508933 -274.216793 17.484987 -130.417718
-168.984725 -232.295218 11.412824 -162.360833
-162.782828 -261.209743 14.323856 -127.197771
-158.227903 -267.307024 12.107832 -127.660478
-148.952084 -211.155667 4.552431 -145.279810
-155.087494 -213.539392 14.678706 -149.285199
-152.210024 -214.386192 3.917828 -147.563246
-144.540327 -195.866335 12.017322 -136.049602
-155.302357 -216.637333 9.970471 -150.150953
-164.242010 -205.586365 27.016495 -151.566934
-150.541931 -210.271241 7.500281 -145.106357
-155.927696 -209.044512 12.442608 -145.601044
-167.508803 -209.000614 27.685196 -154.347319
-152.339731 -209.076557 15.258544 -146.340028
-162.703138 -214.759427 22.189559 -153.551189
-162.424607 -205.539412 26.080559 -150.363631
-169.383072 -209.242331 27.243082 -153.679299
-185.255912 -252.399484 10.977681 -177.667633
-161.661989 -211.494375 17.343422 -151.234497
-202.093797 -281.701351 -2.973822 -197.570532
-182.756343 -214.568298 32.665640 -163.086155
-153.839384 -193.306338 13.553841 -135.203793
-167.389001 -210.312157 26.967700 -154.891410
-171.047814 -228.620055 9.042814 -161.359919
-170.553833 -237.687343 14.446467 -166.294219
-163.379295 -212.077069 15.160708 -148.864351
-162.990369 -205.935061 25.202162 -149.660432
-161.029645 -207.638599 23.476219 -149.567261
-178.093378 -213.983679 31.077636 -160.889817
-165.274857 -201.754876 28.513587 -150.384478
-173.208906 -217.331521 27.152571 -158.805687
-174.696660 -212.755037 30.022981 -158.943751
-149.777244 -186.177889 25.607971 -137.324928
-172.412390 -219.585799 27.107170 -160.222436
-169.391136 -194.945840 18.642705 -140.541030
-171.147489 -208.441152 15.057761 -147.000952
-177.526756 -233.291189 15.487467 -163.880992
-149.327317 -194.741126 22.516254 -140.076139
-138.662433 -176.205200 23.047765 -128.502058
-177.947765 -222.271146 29.177868 -164.343312
-173.011513 -209.971487 30.009383 -157.251502
-160.497326 -184.269407 29.869215 -141.086032
-158.738451 -190.180979 28.357145 -142.782491
-167.431274 -200.669046 29.705391 -150.911197
-185.172739 -207.843874 34.228974 -161.403859
-185.646798 -219.966600 32.854858 -166.608767
-198.099506 -269.350382 7.558312 -190.186840
-173.598697 -206.888593 29.375597 -155.279159
-158.526386 -213.006408 1.650052 -150.142913
-138.892556 -193.051789 -15.321442 -135.681032
-162.079121 -230.226890 -11.638641 -161.098037
-199.025398 -253.676588 22.267810 -181.434342
-188.970026 -233.380745 17.167284 -165.657519
-193.305299 -246.020217 12.016432 -172.036979
-165.461795 -217.581563 9.480649 -152.421621
-207.755350 -267.816555 9.122367 -189.690430
-206.707369 -254.678163 22.206707 -182.673486
-201.168705 -234.315538 20.185241 -168.598342
-120.915707 -168.656660 -14.022390 -117.884739
-91.705158 -135.485948 -5.674622 -92.397194
-181.059028 -261.037108 -2.042726 -182.063879
-195.462433 -249.453739 17.281750 -179.530148
-177.993454 -223.752783 19.248883 -159.503746
-188.760745 -241.364160 12.200168 -171.819050
-189.447765 -270.787601 -8.322784 -189.702954
-193.892497 -264.592500 17.942467 -186.722706
-119.818091 -232.284816 47.713452 -105.630872
-174.087953 -231.680147 18.770865 -164.437213
-109.321646 -236.273642 50.466222 -103.678587
-173.109609 -224.491937 25.411919 -162.161964
-213.915055 -250.495459 27.964977 -184.288857
-203.227258 -251.212796 32.943403 -185.984244
-98.645948 -229.617655 40.240086 -98.479081
-114.176666 -242.080730 38.048106 -106.877219
-97.330282 -223.044431 45.937569 -96.112414
-81.748022 -225.147840 48.537662 -92.068758
-116.741670 -279.677702 22.481215 -118.925812
-121.907893 -266.936280 21.135249 -116.653252
-154.647208 -386.426609 82.056624 -162.322145
-88.690281 -228.804871 55.589463 -95.248546
-122.483479 -240.650288 30.830017 -108.940130
-129.258549 -230.528787 40.081405 -107.936201
-133.085805 -175.645197 -20.051123 -125.900666
-71.022378 -108.039853 2.820150 -71.379555
-138.459300 -354.447719 46.509112 -147.872106
-107.917065 -142.483134 -17.384148 -101.334527
-73.979106 -100.125765 -12.848130 -69.207336
-109.787466 -154.790795 -1.844839 -105.319355
-170.929020 -220.285744 26.088405 -160.644624
-69.603944 -95.551062 -11.899965 -65.438586
-166.923629 -210.155296 18.635713 -149.366880
-109.036470 -160.684889 -0.865054 -108.632497
-138.373505 -175.885277 22.998930 -128.247616
-155.950391 -164.764484 29.877029 -130.977862
-142.815589 -210.653754 17.429331 -106.040803
-173.278333 -216.712297 28.476014 -160.128917
-143.898292 -172.327221 26.232946 -129.084489
-164.857538 -225.751783 18.947307 -160.390387
-149.849725 -201.056191 20.253230 -143.688117
-144.385787 -202.426984 11.014997 -140.178608
-118.450175 -188.787659 8.807951 -92.171350
-145.128152 -218.004257 7.643681 -108.939723
-134.505767 -201.379620 -2.573079 -100.765616
-147.526057 -203.306635 2.070614 -105.249808
-118.565897 -180.548719 25.603352 -89.734385
-141.395831 -212.593681 4.621258 -106.196854
-120.976117 -184.744321 -11.607548 -91.716131
-137.408192 -192.201624 1.883104 -98.882945
-126.447141 -176.613141 -14.108048 -123.514168
-102.279757 -143.294012 -12.581850 -98.643068
-77.087533 -116.602518 2.456497 -77.488884
-48.138809 -46.537858 -11.857889 -35.896006
-133.307486 -232.322168 22.366703 -109.688896
-91.200726 -209.709807 -3.939598 -90.273160
-73.304575 -75.477173 16.232174 -58.552333
-120.520978 -149.800285 21.627263 -109.737533
-122.519596 -326.891085 45.025361 -134.823205
-94.900925 -256.865313 26.945793 -105.529871
-109.223117 -240.723026 27.514779 -104.983843
-105.017365 -259.638409 26.897262 -109.396732
-100.338191 -224.164914 40.915470 -97.350932
-98.182875 -245.230745 23.169318 -103.024086
-93.989254 -220.600234 43.864258 -94.376846
-104.858954 -240.247116 29.711275 -103.531821
-102.864842 -260.038980 25.587859 -108.871147
-147.717823 -208.393229 42.977978 -106.833316
-88.525725 -238.461587 20.870773 -98.096194
-97.189704 -228.649327 33.604355 -97.751709
-114.521925 -262.923451 53.687414 -113.233613
-111.565788 -157.324383 -12.357058 -109.128672
-96.752898 -269.667583 39.483236 -109.926144
-52.498578 -72.372333 -10.340387 -48.474616
-115.511230 -298.091492 53.494292 -124.080817
-108.030596 -279.520567 34.710880 -116.265349
-95.309613 -251.770021 29.871174 -104.123890
-89.225052 -235.091227 32.509346 -97.294884
-95.139532 -247.975648 25.574655 -102.934554
-102.663746 -265.471742 36.271334 -110.440647
-88.631434 -237.609250 26.809382 -97.872205
-88.065837 -240.988300 22.429470 -98.716241
-78.607555 -221.967668 28.673535 -90.172567
-63.451806 -229.113946 6.517678 -87.769725
-70.228347 -230.099510 0.427606 -90.098357
-84.289502 -240.798745 22.324783 -97.526474
-64.742172 -229.795295 13.132465 -88.361240
-75.912828 -229.741546 24.691603 -91.696312
-100.146144 -219.549374 -10.437549 -95.908655
-88.364136 -234.562493 16.629434 -96.877989
-102.891827 -223.840867 19.950937 -98.019808
-113.073230 -243.326398 34.881235 -106.919888
-141.841238 -209.247819 11.403190 -105.326717
-104.258644 -286.297805 -43.086662 -117.166935
-107.366035 -211.181207 11.436178 -95.564172
-84.762790 -216.500694 -9.129382 -90.379045
-158.505551 -215.890108 -19.263203 -153.551866
-76.125669 -175.824127 -19.779173 -75.584939
-73.185273 -104.267027 -10.226662 -70.614660
-90.997051 -207.811448 52.706617 -89.642550
-108.847221 -172.355738 -6.624464 -84.360888
-105.239955 -141.715642 -6.651516 -96.065751
-145.041339 -201.501409 -15.701638 -141.824140
-122.717043 -170.509657 -14.558364 -119.372107
-120.692778 -152.717555 -20.945738 -110.964562
-100.777142 -138.830018 -11.407198 -95.142045
-126.961268 -163.722724 -19.649135 -116.959899
-127.472590 -177.404087 -14.609464 -124.277216
-134.245119 -166.905630 -23.242570 -121.814312
-128.852550 -159.762134 -22.863509 -117.439185
-101.465295 -142.595595 0.792950 -95.670025
-94.798187 -138.392021 1.639578 -92.592753
-114.728207 -155.316069 -10.966642 -106.752608
-116.950893 -157.128660 -15.285603 -109.774202
-116.090746 -152.041378 -17.651203 -107.593279
-116.887624 -163.406144 -13.582150 -113.925420
-98.348953 -206.398293 -15.515798 -91.424174
-99.761017 -140.150767 -12.333383 -96.920296
-85.552647 -222.551981 -23.530640 -92.431388
-77.769242 -169.466580 -36.909667 -74.170747
-93.330908 -204.105325 -8.051901 -89.230870
-97.598343 -200.697915 -11.927872 -89.488877
-98.191861 -132.942083 -8.812796 -90.531051
-70.473293 -104.642063 -6.838070 -69.645463
-100.959609 -148.875745 4.918403 -101.106277
-87.344982 -119.672078 -13.399045 -83.147683
-85.029414 -127.194623 3.720047 -85.056554
-51.735617 -76.165021 -7.957099 -49.757718
-79.808621 -210.578475 -15.383832 -87.116129
-38.681910 -46.001810 -10.457848 -31.626585
-58.376851 -90.548317 -2.143748 -58.521220
-56.797624 -82.924634 -8.411794 -54.734181
-78.958464 -113.987356 -9.336153 -77.166838
-116.669977 -148.687251 -20.131011 -107.638484
-35.062602 -40.268658 -0.007188 -27.173040
-96.369793 -140.021234 -8.348810 -95.445564
-80.847230 -211.914557 -15.746677 -87.828536
-110.246967 -200.921031 -16.715557 -93.350399
-86.994700 -208.657887 -15.392554 -88.695776
-74.040416 -206.911358 -18.499567 -84.285532
-82.976639 -207.059649 -16.579315 -87.010886
-76.737041 -218.643230 -12.555627 -88.614081
-82.201030 -211.281495 -16.314505 -88.044758
-81.479631 -214.176778 -13.752728 -88.696923
-81.371609 -214.655835 -14.383634 -88.808233
-76.788696 -216.875715 -8.814316 -88.099323
-86.193142 -229.416679 -4.647650 -94.682946
-66.357035 -235.536085 -0.323456 -90.567936
-73.057225 -228.441640 -7.178645 -90.449660
-72.496722 -228.376004 -10.073696 -90.261818
-70.312530 -233.124557 -8.277759 -91.031126
-79.024609 -230.508974 -13.006812 -92.860075
-57.470727 -226.579716 7.095124 -85.215133
-67.032126 -233.058261 -6.589924 -90.027116
-63.492257 -228.252158 0.862897 -87.523325
-89.163432 -233.685585 12.814384 -96.854705
-70.188152 -232.446897 9.349566 -90.790515
-66.835160 -230.456576 -2.400507 -89.187521
-61.519413 -232.389723 6.596626 -88.172741
-57.952323 -229.139051 4.135202 -86.127412
-75.887502 -233.332023 17.257895 -92.765858
-63.276786 -230.716143 4.869904 -88.197879
-55.619706 -210.852374 17.519955 -79.941624
-54.921838 -225.752735 10.307265 -84.202372
-87.351095 -221.988768 -10.398392 -92.801959
-89.655679 -216.176417 -13.564632 -91.749629
-78.578633 -232.355316 -0.069304 -93.280185
-70.366260 -233.237564 -3.641948 -91.081147
-107.537404 -220.000052 0.087959 -98.261237
-90.370666 -222.343564 1.499147 -93.814269
-85.182077 -221.300954 -4.315245 -91.944909
-78.177406 -230.300169 5.653393 -92.543273
-79.032444 -235.036559 8.359907 -94.220701
-70.315379 -234.642921 3.228974 -91.487490
-80.541154 -236.517070 15.270696 -95.117467
-72.902816 -232.772036 17.374940 -91.702455
-63.975369 -224.516070 20.683559 -86.547432
-64.590310 -229.353236 12.802746 -88.183064
-56.126635 -213.042518 20.645169 -80.750746
-64.145982 -211.199810 28.275373 -82.603738
-62.805873 -205.372965 29.417087 -80.453651
-48.104147 -188.004665 17.379564 -70.832644
-63.344940 -216.461613 25.369136 -83.941966
-55.836490 -185.088081 22.116682 -72.277371
-44.437465 -158.611903 -0.373667 -60.914811
-48.202221 -182.177136 13.632104 -69.113807
-54.893257 -201.413020 21.288925 -76.891883
-51.472685 -216.810309 14.645158 -80.484898
-42.288073 -137.499436 10.008908 -53.936252
-43.596326 -193.019596 17.513699 -70.984777
-66.014599 -225.314457 20.719318 -87.398717
-61.185389 -216.083411 22.210969 -83.180640
-59.927369 -221.095563 11.329708 -84.306880
-57.092962 -220.574629 16.396654 -83.300277
-50.637280 -196.527660 15.773708 -74.149482
-18.791702 -130.996263 -2.887174 -44.936389
-58.347545 -181.528804 8.727176 -71.962905
-47.514772 -205.313972 13.178155 -75.848623
-70.394742 -206.971537 8.254228 -83.209884
-56.767596 -188.017415 5.501964 -73.435503
-50.528997 -198.821027 9.165372 -74.805007
-43.273333 -184.682889 8.191425 -68.386867
-43.768721 -140.944597 -3.809856 -55.413996
-67.376528 -166.707556 -2.862816 -70.225225
-32.883113 -55.788872 -0.632894 -36.384914
-44.973667 -173.262217 3.932112 -65.470765
-42.190805 -154.281752 15.411736 -58.941767
-30.797155 -160.888219 4.008783 -57.505612
-50.662351 -174.613699 11.921297 -67.582815
-52.241184 -146.908018 1.714896 -59.744761
-38.634922 -130.673282 -10.503074 -50.792461
-10.462095 -79.406403 -32.123150 -26.960549
-21.101219 -38.752159 2.523761 -23.032272
-78.626096 -90.574812 16.956412 -67.108685
-99.024282 -146.103756 5.676046 -99.013050
-120.119942 -106.386595 21.651772 -91.154649
-14.812002 -30.544550 1.192070 -18.857910
-64.326170 -71.832109 14.825176 -53.199389
-108.362910 -100.966096 20.976344 -83.935463
-80.557492 -304.733875 22.015505 -115.587410
-36.265175 -48.151314 9.357314 -33.129895
-36.326026 -277.117083 40.974825 -94.032933
-75.628456 -227.969141 26.277924 -91.079279
-77.070665 -238.150360 51.406851 -94.566307
-76.561768 -109.770461 10.083572 -74.255968
-82.178368 -327.065995 -4.636809 -122.773309
5.879120 7.919912 3.048353 3.774920
-64.920339 -97.899036 5.914335 -64.363007
-97.945039 -96.754357 20.086910 -77.803231
-42.922394 -68.576281 3.441407 -45.423693
-77.347618 -366.565670 28.468890 -133.173986
-26.953728 -47.047632 -2.004609 -30.145935
-39.602533 -154.733525 -3.040811 -58.300817
-34.501493 -57.377184 2.417750 -35.089559
-3.344954 -6.642063 -4.768248 -6.167392
-5.148080 -17.209361 1.189738 -12.403422
-47.075440 -146.787962 -7.427695 -58.159020
7.682922 2.168199 2.048154 1.577409
3.234323 -5.587480 0.183475 -3.027904
-37.917131 -62.160360 2.370125 -38.558784
7.075010 -0.357803 0.646631 -0.313244
-30.537019 -51.969231 2.149667 -33.827606
-114.505601 -146.137561 19.899681 -105.576242
-80.028266 -98.310218 -3.946380 -68.133750
-34.012772 -301.633545 -21.191092 -100.693895
-37.345580 -61.877326 -0.821270 -38.696202
-56.408516 -88.376726 0.081192 -56.837734
-49.774684 -78.675679 2.457524 -50.844363
-75.179170 -299.413032 -44.340401 -112.377661
-56.831275 -78.605631 4.508266 -52.833451
-103.416662 -296.648879 -48.116032 -120.019662
-44.433423 -69.107142 -1.500225 -43.309534
-96.547748 -297.098493 -26.896852 -118.093872
-53.946593 -295.400009 -36.280877 -104.803981
-56.855482 -88.040331 3.491262 -58.476830
-64.686777 -213.632931 26.515436 -83.495912
-55.982673 -86.346350 -4.230005 -55.820273
-29.199640 -50.226863 1.867328 -34.526440
-52.955480 -83.445550 -1.266859 -56.501042
-77.501143 -109.496532 10.955816 -74.621013
-34.916740 -57.766482 2.787134 -39.796000
-38.366241 -63.339308 0.098067 -40.346065
-54.146435 -198.031430 22.122782 -75.653359
-54.718013 -204.622402 23.058708 -77.802124
-41.753251 -174.289176 5.100032 -64.812728
-55.221374 -193.998655 18.322446 -74.766009
-72.742125 -220.555762 25.949380 -87.989366
-84.690325 -230.171241 24.518992 -94.458470
-61.401897 -208.660958 26.352288 -81.018857
-69.268350 -215.805396 31.576368 -85.522124
-78.556936 -219.087593 35.374035 -89.293359
-70.626260 -221.370518 28.346957 -87.599033
-90.231727 -227.075431 31.753620 -95.192147
-73.758801 -218.111029 36.202820 -87.560949
-71.040701 -198.109679 10.811388 -80.745114
-65.649312 -208.667188 29.504993 -82.294950
-56.752860 -168.535916 18.430068 -67.586633
-58.378481 -191.897848 18.864551 -75.082899
2.893683 -0.853090 3.621620 -2.951191
-54.718338 -180.730107 10.111172 -70.634533
-88.442926 -236.604981 43.945698 -97.514372
-66.215384 -209.905128 26.412375 -82.836153
-82.435551 -241.889667 34.606479 -97.297566
-119.637443 -139.921114 -1.109766 -102.904213
-89.692587 -220.973936 38.284782 -93.199957
-80.880000 -218.813894 34.989289 -89.908168
-94.074331 -224.081151 39.660496 -95.446645
-92.443898 -223.353160 46.482325 -94.739117
-99.426290 -230.339484 34.438225 -98.929732
-96.584529 -224.799047 42.389418 -96.415073
-94.840710 -229.373015 45.703907 -97.264117
-89.264814 -229.397633 47.781774 -95.598734
-93.103320 -260.148502 39.371953 -105.975547
-90.978966 -227.546240 45.370675 -95.557562
-82.057666 -230.600888 34.746326 -93.797566
-101.804756 -354.309981 2.279638 -136.834421
-64.200743 -82.355371 13.334700 -57.577959
-92.122866 -250.787844 12.435534 -102.873213
-78.362624 -97.078779 15.924116 -69.966278
-70.698067 -219.933109 9.724589 -87.189353
-88.998800 -112.608742 9.288056 -80.837348
-70.819130 -90.610352 14.234558 -63.876268
-33.253861 -48.850348 7.626552 -32.118200
-70.151908 -197.178471 9.665017 -80.199114
-103.201164 -152.362312 4.207669 -103.801067
-69.518924 -99.482018 9.850724 -68.582310
-88.287009 -100.865951 1.697905 -70.640621
-100.021462 -97.164392 -10.718348 -72.881054
-75.780424 -81.385985 -4.186710 -54.924074
-108.849721 -269.076557 -33.854422 -113.377883
-108.517124 -118.338833 -4.813337 -86.461187
-97.640307 -305.375502 -52.929994 -120.904743
-106.711384 -95.457227 -4.009883 -71.634703
-132.473987 -301.227123 -49.565586 -130.110333
-133.206615 -301.144991 -50.710831 -130.305482
-120.255460 -280.355972 -38.706375 -120.183429
-114.869008 -300.279250 -50.876028 -124.544477
-120.845481 -278.722444 -44.788713 -119.870378
-119.730909 -267.265203 -18.204637 -116.098834
-114.338011 -264.163912 -10.025799 -113.550577
-108.284500 -257.635127 -6.069624 -109.775888
-107.323819 -261.490934 -3.441186 -110.644426
-109.417354 -264.005863 -4.298508 -112.026965
-108.162296 -260.106416 -3.017455 -110.480613
-102.566860 -260.312063 -12.666094 -108.863677
-98.970990 -256.310736 -3.361825 -106.584518
-108.142941 -263.866918 -7.869408 -111.602958
-108.063305 -258.985473 -3.193975 -110.114633
-109.430464 -290.165745 -37.089591 -119.878863
-102.569569 -262.632251 -22.167707 -109.560546
-99.240563 -286.039432 -13.345219 -115.583998
-88.260721 -271.842602 -28.611725 -108.030997
-74.162949 -274.048862 -17.499490 -104.463543
-81.203119 -309.946347 -28.413860 -117.344840
-95.342350 -260.293730 -8.249753 -106.690824
-90.416356 -265.567572 -16.345051 -106.795179
-68.766267 -283.377203 0.282612 -105.643041
-54.022859 -284.905751 -16.833143 -101.678583
-76.338028 -271.502639 -4.658758 -104.352200
-90.485662 -302.064926 -10.700981 -117.765176
-92.038132 -263.520594 -0.333933 -106.667618
-86.185538 -264.785939 -7.219820 -105.291443
-93.173716 -257.277932 -1.489368 -105.135494
-99.634891 -270.130056 -7.289955 -110.929484
-103.786400 -259.101374 -6.001347 -108.866332
-94.193867 -259.088569 -3.201459 -105.984731
-104.834399 -265.103353 -5.987173 -110.981325
-103.611688 -256.762672 -1.779441 -108.112308
-99.087433 -252.092947 2.190836 -105.354114
-97.488321 -251.963605 1.547557 -104.835578
-107.382792 -258.940484 -0.883412 -109.896983
-101.545286 -254.693266 0.784559 -106.871566
-105.575401 -255.655918 3.074451 -108.369396
-104.438233 -255.515753 1.683360 -107.986196
-101.749729 -252.251950 3.100769 -106.200504
-104.538493 -255.459392 2.963270 -107.999365
-103.975616 -253.315909 3.724965 -107.187457
-102.120806 -252.798138 4.348513 -106.475683
-95.875471 -246.390186 4.521116 -102.679697
-99.631921 -248.968969 4.206655 -104.580267
-102.912256 -251.396587 3.019009 -106.292653
-103.757287 -252.391874 3.807325 -106.844748
-112.949416 -265.319179 0.215152 -113.480578
-105.338966 -256.361455 3.713689 -108.510126
-110.747709 -261.184074 2.106951 -111.579535
-109.197199 -256.865172 3.108468 -109.818711
-118.575751 -272.515832 -3.901128 -117.327475
-109.550648 -260.642524 2.188543 -111.057952
-116.621162 -262.382773 1.876964 -113.701180
-130.008892 -270.018698 -5.226120 -120.008277
-107.373786 -258.672310 -1.202755 -109.813829
-107.414661 -258.655523 1.190303 -109.821055
-111.806433 -263.877921 0.899402 -112.705306
-108.412463 -259.936853 2.341904 -110.504795
-111.144491 -265.968061 -1.289093 -113.133766
-109.348299 -260.747378 0.132794 -111.028703
-109.151228 -262.840056 0.812348 -111.597385
-107.959630 -267.701562 -1.351643 -112.698357
-106.938813 -258.784213 2.089103 -109.716908
-109.367576 -262.890506 0.791222 -111.677425
-115.082263 -269.820054 -1.911151 -115.470695
-120.610452 -270.073867 -4.818482 -117.205296
-115.269940 -265.813544 -0.568811 -114.325045
-114.918015 -264.917872 -0.102950 -113.950766
-120.691937 -266.174801 -0.558082 -116.060021
-120.914362 -265.628619 0.890529 -115.962894
-127.608312 -267.880012 -4.112497 -118.646497
-143.782877 -271.166134 -2.704619 -124.484703
-119.166794 -270.790946 2.977184 -116.987322
-119.229329 -264.603719 8.727949 -115.149914
-121.736152 -273.341840 6.130683 -118.523398
21.435818 20.028322 0.747649 19.753759
-119.024886 -317.744201 -1.935382 -131.030726
-196.044799 -269.014454 20.939269 -191.574920
-33.300856 -257.059079 -37.479055 -87.107980
-137.054914 -200.065563 -1.745551 -137.841832
-46.026080 -62.073436 10.387028 -41.321105
-120.760968 -433.930110 -3.428155 -166.407323
-89.151119 -115.487529 16.282042 -84.445544
-154.311782 -129.285798 14.676675 -85.079274
-25.582137 -113.586692 38.943666 -41.750649
-135.468107 -155.718301 2.946883 -87.355922
-80.563412 -160.453486 7.210584 -72.305069
-131.071743 -182.531756 2.891765 -94.081050
-117.709807 -201.097601 -14.216016 -95.642222
-87.624258 -164.610938 9.785424 -75.670559
-117.678020 -201.172281 -14.163383 -95.655090
-109.687945 -177.948023 -0.811793 -86.290790
-115.957937 -195.988274 -14.223272 -93.583863
-116.309155 -219.371151 -17.980486 -100.704092
-121.791589 -216.688117 -21.955669 -101.543912
-122.835001 -246.337626 -20.540603 -110.751788
-104.196458 -174.518740 -1.275919 -83.614559
-105.608040 -178.414618 -0.359594 -85.206797
-113.382980 -184.722099 -7.285048 -89.431524
-100.566058 -161.431506 7.459042 -78.599269
-110.850021 -186.946068 -5.673374 -89.338827
-109.537714 -172.222255 -4.973153 -84.527991
-94.323763 -152.601519 16.390480 -74.077585
-138.117961 -174.908321 23.343102 -127.583822
-129.718419 -189.938370 1.164154 -130.494665
-97.145700 -169.547281 6.596237 -80.007894
-98.747167 -152.320958 3.816763 -75.320437
-100.675346 -157.714870 8.602412 -77.517065
-38.238636 -215.208259 -32.486048 -76.034069
-111.100389 -188.632505 -13.189586 -89.919868
-115.815479 -168.039259 0.038483 -113.923742
-105.525061 -154.217112 -0.105065 -103.956711
-187.158106 -265.181014 -4.372639 -184.148050
-132.068406 -175.137504 -15.857503 -122.798991
-92.908064 -137.451425 5.305840 -93.240511
-67.049728 -81.710779 14.534337 -61.032110
-110.754141 -159.812801 9.071632 -109.822879
-94.266755 -139.825936 -3.881421 -93.815554
-113.605328 -167.590508 0.993759 -114.302986
-102.823754 -161.864217 7.836832 -79.406391
-101.307885 -231.226853 -10.573016 -99.760421
-94.012069 -237.344591 -10.568956 -99.406998
-113.151457 -281.694228 -8.923786 -118.453705
-61.460561 -79.750629 12.875129 -55.235699
-143.305973 -261.643976 -8.108778 -121.484985
-214.675414 -274.856904 32.120490 -201.920213
-6.552238 -13.461286 4.788842 -15.765477
-107.074783 -155.387238 8.182647 -106.401278
-111.269682 -262.708754 2.311323 -112.193531
-89.800922 -257.756402 -11.378459 -104.267197
-103.144912 -250.570907 -3.650226 -106.114746
-111.054188 -276.026237 0.901231 -116.124127
-105.387277 -256.978243 3.477017 -108.709656
-99.250927 -253.618086 -3.477746 -105.860704
-98.998054 -248.694526 -0.172496 -104.307774
-104.815899 -260.320202 1.817745 -109.540830
-95.416852 -234.961614 -4.163486 -99.113540
-111.523136 -251.003612 -6.255764 -108.758024
-88.166971 -230.198848 1.806705 -95.509746
-100.276383 -246.233868 -3.320198 -103.953075
-96.908472 -240.905388 -0.159066 -101.344158
-99.548759 -247.447703 0.050233 -104.098939
-102.434255 -227.779262 -7.195530 -99.064055
-81.335142 -209.556169 8.539638 -87.267393
-89.662988 -219.982568 -0.429225 -92.893667
-95.135916 -229.265864 -2.874702 -97.320534
-98.808537 -213.728119 -6.587335 -93.760997
-96.602211 -219.810133 -4.409133 -94.923703
-74.618695 -95.219322 14.906020 -67.290361
-108.477577 -219.205221 -9.590202 -98.304839
-80.996791 -102.597422 15.767612 -74.667011
-108.365912 -229.161804 -15.007614 -101.258315
-58.813724 -76.830825 12.435581 -52.883642
-121.974426 -159.829891 19.341222 -114.557640
-90.753089 -129.342445 10.708592 -89.156913
-76.211063 -111.930193 7.737636 -75.542774
-107.439469 -156.365958 7.531932 -106.983665
-98.506724 -144.976763 5.836874 -98.467516
-112.217891 -164.572850 -4.966253 -112.108095
-89.764898 -133.220993 4.972881 -89.824818
-121.496893 -168.339488 -5.141247 -114.542607
-108.696361 -157.891582 -2.639716 -106.708120
-100.949675 -148.400571 -1.059953 -99.779044
-114.999665 -164.686899 6.302202 -112.072649
-67.873105 -84.389966 -7.886310 -56.923777
-84.641216 -103.698082 -14.834240 -73.404823
-116.421497 -164.127116 11.743948 -113.292486
-73.732530 -112.308637 0.588953 -74.233804
-102.263790 -151.488622 2.925719 -102.760148
-83.838845 -125.168068 4.566425 -83.929931
-96.927936 -144.323705 1.143000 -96.839565
-109.685338 -162.019122 1.969912 -110.306182
-117.972595 -168.285782 -10.887315 -116.441516
-79.349666 -105.728351 13.989680 -73.820725
-78.590201 -118.276616 -3.630671 -78.844823
-80.655943 -116.041732 9.678737 -78.717955
-89.801621 -133.607972 4.324269 -89.969491
-113.734260 -150.920716 17.693375 -107.338657
-44.425224 -56.554535 10.811163 -38.423860
-126.153726 -320.398842 57.089603 -133.965770
-82.278147 -114.573440 5.994602 -76.498911
-89.901142 -128.656286 10.280892 -87.928209
-157.812940 -228.587926 3.220301 -158.604318
-115.891698 -154.550192 17.596242 -109.772580
-80.266024 -99.254513 16.350776 -71.371684
-82.381943 -108.879489 14.621433 -76.422545
-81.676307 -99.040027 16.754433 -72.043663
-77.569615 -117.130235 2.914971 -77.883986
-78.805623 -194.679932 -10.044199 -82.045667
-85.714089 -213.083132 -1.379594 -89.639166
-81.590316 -186.920083 -5.567172 -80.553120
-80.331359 -198.137947 -7.579717 -83.540792
-102.422250 -125.600014 19.671443 -91.810716
-82.825001 -189.523804 -1.824821 -81.704641
-80.290975 -110.361954 12.176310 -75.441074
-96.171307 -136.673193 11.125668 -93.930388
-91.966543 -232.585734 -0.379675 -97.365683
-90.320384 -228.225105 0.866836 -95.563647
-83.694121 -215.738429 -0.884362 -89.829765
-94.192470 -226.300452 -2.621002 -96.147877
-88.057484 -224.380371 -0.275497 -93.731357
-86.711636 -220.320468 0.839367 -92.109631
-87.131322 -217.410551 -2.557334 -91.362562
-87.779967 -210.923901 -1.073868 -89.611160
-84.051590 -202.820378 -3.556378 -86.061591
-83.299879 -208.237400 -5.849922 -87.461184
-86.488992 -236.136117 4.846364 -96.787533
-81.471503 -213.484968 3.760310 -88.486941
-84.700551 -225.016212 4.149309 -92.915029
-84.723352 -218.912627 2.284569 -91.090794
-83.544180 -235.209959 5.141776 -95.626242
-80.924512 -230.855879 6.236575 -93.534117
-84.806186 -236.100150 5.908135 -96.271901
-78.493773 -223.926842 7.446599 -90.726184
-87.818494 -239.827302 4.608323 -98.293739
-84.293660 -233.373582 5.858022 -95.300173
-88.186774 -238.876768 5.687674 -98.119062
-90.876342 -235.303838 2.923235 -97.854054
-89.871604 -238.608342 4.380574 -98.543984
-85.157080 -227.959180 3.392111 -93.934878
-89.013320 -234.882534 3.509736 -97.168756
-87.201241 -226.934404 2.698214 -94.240693
-87.704785 -236.146228 5.313976 -97.155304
-94.729158 -244.114426 4.365387 -101.653075
-87.473287 -232.402647 4.338960 -95.962780
-96.630897 -244.649165 2.179839 -102.384019
-95.260293 -243.040106 2.784498 -101.490120
-100.690849 -251.840301 4.439152 -105.759345
-91.298928 -239.319504 4.401327 -99.185530
-98.538573 -247.233839 3.871864 -103.731724
-98.420539 -250.272429 3.955934 -104.607890
-97.505502 -248.846604 4.884005 -103.905632
-93.307174 -241.344196 3.593241 -100.395411
-91.914985 -242.211631 5.296519 -100.237985
-92.518133 -243.960402 4.134250 -100.943561
-93.734038 -246.192940 3.516711 -101.978093
-85.666475 -239.111154 5.314240 -97.433289
-90.285528 -243.346649 4.764847 -100.089653
-91.144407 -241.548705 4.563749 -99.807933
-93.812411 -245.921754 4.787589 -101.920250
-85.959893 -246.006179 3.064579 -99.589822
-82.146723 -240.285878 4.268840 -96.729780
-90.400562 -246.978896 2.819649 -101.213838
-76.739263 -234.985866 6.090681 -93.517539
-93.675958 -247.872712 2.533055 -102.464601
-89.445636 -242.719409 3.866471 -99.649514
-97.567834 -249.754663 2.929527 -104.196749
-90.524384 -245.264231 3.652850 -100.736584
-87.414522 -291.368593 0.228448 -113.634935
-79.670928 -395.116903 -2.885278 -142.436349
-81.947231 -314.162286 6.969932 -118.832855
-77.062780 -266.404248 3.863418 -103.040108
-80.388155 -306.643069 56.199987 -116.109367
-80.017049 -270.774464 15.648939 -105.237454
-75.842903 -248.880314 22.323207 -97.416965
-72.659470 -256.288272 11.500831 -98.684323
-83.476763 -263.254519 6.642609 -104.019385
-80.777536 -254.023467 4.790286 -100.440301
-67.294449 -243.048259 19.497506 -93.102812
-76.188366 -266.158649 32.623972 -102.704105
-81.754572 -242.825796 4.218594 -97.374111
-70.349372 -230.050937 11.412314 -90.120093
-84.073274 -241.522676 3.736977 -97.678785
-80.032802 -239.746951 4.647901 -95.933926
-85.353985 -240.282362 3.999130 -97.690904
-84.402565 -237.733586 4.564185 -96.640845
-80.744770 -241.849105 4.678585 -96.778162
-79.851566 -235.767473 5.291075 -94.685712
-80.202605 -231.606457 6.019239 -93.542718
-77.548029 -231.724616 6.221503 -92.781793
-78.020064 -252.471618 11.581336 -99.147504
-72.922322 -234.720513 15.682758 -92.292850
-74.709387 -245.426313 9.549829 -96.040710
-75.860210 -234.820545 5.788934 -93.204227
-77.997995 -238.403453 5.978025 -94.920435
-66.288852 -213.786231 11.368161 -84.022525
-69.441299 -235.238141 14.625933 -91.403832
-74.439755 -237.883298 8.804682 -93.696916
-75.623146 -240.673656 9.690174 -94.889040
-77.498577 -240.656472 6.294371 -95.446515
-73.440567 -232.719968 7.794717 -91.848160
-74.043188 -230.404822 6.480640 -91.334403
-78.088618 -236.029284 4.993489 -94.235370
-80.750225 -236.414366 4.738854 -95.149378
-70.936982 -225.019552 10.298006 -88.786960
-71.811914 -228.730823 7.781730 -90.162821
-70.468785 -224.868056 8.271156 -88.601052
-68.302190 -221.570300 9.653933 -86.961747
-67.099872 -212.960441 18.110070 -84.018094
-83.645054 -203.543885 54.455196 -86.156682
-71.719585 -228.727769 11.557833 -90.134206
-73.451690 -233.187666 7.886034 -91.991807
-66.618464 -219.609588 13.892783 -85.868416
-67.255499 -181.579753 32.651458 -74.650576
-65.490310 -206.801217 13.836515 -81.687458
-71.507178 -221.451019 14.734914 -87.887459
-70.913318 -209.866914 16.157202 -84.234069
-69.784420 -216.235683 12.205256 -85.806031
-65.278481 -204.953842 13.062288 -81.069697
-66.544722 -216.448718 12.190325 -84.898032
-70.387290 -219.606709 9.241569 -86.998200
-70.029306 -213.563309 10.299027 -85.077785
-70.062741 -219.505744 9.244287 -86.870546
-70.552977 -217.867850 9.665527 -86.526248
-70.203858 -222.232285 8.609343 -87.730843
-73.006716 -226.871554 7.491452 -89.963481
-72.692165 -220.688531 9.134976 -88.014209
-71.038313 -220.092467 9.160301 -87.339234
-74.175121 -218.175400 9.932473 -87.705156
-70.299259 -217.817909 9.674619 -86.435150
-76.205290 -226.820283 7.626469 -90.907672
-72.334932 -223.350146 8.165203 -88.705524
-78.077942 -227.414617 7.034501 -91.647768
-70.623910 -214.254056 10.927149 -85.463390
-73.626625 -223.408577 8.618293 -89.110561
-77.279151 -218.366150 9.420525 -88.693590
-73.213234 -216.617348 9.523896 -86.949175
-73.398444 -208.123336 13.088722 -84.456534
-77.662633 -213.745083 7.435188 -87.422315
-82.674033 -207.144436 5.341030 -86.945540
-77.821968 -204.903822 12.910632 -84.817737
-80.624105 -218.618514 5.254283 -89.772786
-75.642647 -207.252710 9.466175 -84.868607
-75.842680 -215.899324 8.819091 -87.522601
-81.446754 -196.712259 6.454383 -83.447704
-81.299546 -215.444388 6.598670 -89.023180
-80.988956 -221.405851 6.938040 -90.718442
-82.383466 -220.324439 3.363264 -90.812372
-82.906168 -216.847062 4.071174 -89.925969
-78.975880 -206.250153 7.439742 -85.567810
-78.127313 -222.426903 7.575184 -90.166265
-76.030376 -222.682238 8.542172 -89.613784
-75.586745 -221.713127 8.369255 -89.189962
-79.981843 -222.968320 6.072087 -90.885049
-80.434343 -231.657784 6.080559 -93.627638
-82.511962 -229.401713 5.500163 -93.574102
-77.828951 -226.472469 7.085395 -91.290426
-79.773003 -227.543324 6.342474 -92.194898
-81.150733 -230.843240 6.326801 -93.598192
-82.507363 -225.756926 4.792636 -92.479287
-82.006061 -227.630121 6.304766 -92.890854
-82.598702 -223.121718 5.546279 -91.716126
-82.033399 -214.088506 1.147349 -88.836571
-80.522903 -214.708495 6.147449 -88.569419
-81.126528 -206.105109 -1.995698 -86.169491
-81.977792 -207.229744 4.739205 -86.762261
-84.678610 -212.031264 -0.250051 -89.012962
-83.561325 -195.900371 -1.840584 -83.838509
-82.123512 -205.182180 1.397627 -86.191708
-84.223267 -195.800720 2.919880 -84.007196
-79.994894 -196.842038 -6.082593 -83.051080
-95.447130 -165.355542 -8.207766 -78.240802
-88.897118 -190.352711 -1.527826 -83.774949
-85.802829 -202.198818 -1.994821 -86.400494
-88.588727 -193.298831 -6.851609 -84.566268
-79.354238 -187.775428 -9.417102 -80.138900
-92.484117 -190.254825 -12.440636 -84.821682
-81.176961 -171.961727 -5.852842 -75.941607
-89.092410 -190.462676 -4.566036 -83.866526
-100.175265 -125.934764 18.694287 -90.989288
-53.542470 -74.512555 85.872841 -38.416508
-86.654975 -120.647376 12.378507 -83.179596
-90.983885 -132.692429 35.172323 -67.102894
-59.762918 -86.710958 8.805208 -57.569949
-77.478586 -135.480428 41.617690 -63.887704
-81.077193 -134.996010 42.530424 -64.821961
-164.454171 -232.123509 11.677278 -161.539049
-90.942595 -169.352031 26.716906 -78.088388
-84.955878 -121.045008 42.240479 -61.800266
-66.407944 -174.127166 15.993387 -72.160533
-90.120258 -147.857296 34.084512 -71.393266
-88.417734 -158.416269 35.484732 -74.050201
-96.173983 -124.127803 17.278304 -88.547798
-102.831827 -129.416877 18.961892 -93.605516
-31.207323 -44.979963 7.797926 -27.988986
-116.962556 -154.123190 18.603216 -109.949287
-78.717688 -123.957234 38.818257 -60.802477
-81.320409 -129.550646 42.589379 -63.261317
-94.957470 -169.989280 -15.029882 -79.484025
-76.097134 -128.843323 40.182497 -61.482137
-109.285366 -146.103290 16.915997 -103.350618
-69.165260 -100.437417 50.388638 -50.880803
-85.359113 -161.887388 36.600556 -74.173950
-95.550146 -121.792059 11.352950 -86.002694
-5.013155 -143.358497 41.163874 -44.511496
-79.177234 -151.429457 30.812293 -69.182007
-75.483298 -128.220582 40.477608 -61.111164
-117.406566 -139.541466 22.590603 -103.994805
-65.946738 -120.695200 29.918428 -55.992581
-58.374347 -86.982483 7.191504 -57.410958
-99.333156 -148.645201 -11.103014 -74.393507
-79.144128 -100.224684 15.627949 -71.359184
-124.087149 -150.043028 23.152815 -111.231589
-88.012673 -101.833703 18.405712 -75.792488
-94.110823 -167.215156 5.103004 -78.397794
-84.631299 -200.323758 8.081944 -85.486517
-106.803587 -162.602355 -9.583732 -80.821782
-97.167402 -162.262486 0.604337 -77.828966
-89.347248 -177.499495 -9.650084 -80.054023
-99.415169 -171.238679 -3.882539 -81.196154
-16.150481 -25.021940 6.283990 -14.778749
-76.531578 -94.375967 15.841099 -67.749628
-87.188133 -184.108500 -0.032741 -81.388990
-84.774491 -199.163644 2.139325 -85.181440
-86.331293 -185.649221 -5.605275 -81.594154
-91.534240 -174.645346 -3.692397 -79.853876
-79.878639 -186.812909 9.540848 -80.007465
-77.322593 -191.678600 12.630101 -80.700358
-87.391945 -188.882334 3.903423 -82.882284
-83.961378 -194.571732 11.381231 -83.559933
-91.911728 -174.459562 3.307704 -79.911387
-90.841308 -179.677366 8.730980 -81.155602
-85.693083 -183.049590 6.131066 -80.622802
-80.303441 -173.087479 16.436213 -76.017276
-81.422817 -175.622525 10.036756 -77.113602
-92.466229 -161.657359 8.165717 -76.237077
-83.678514 -180.629818 17.408167 -79.292500
-81.975815 -187.495542 19.593337 -80.841407
-83.592415 -187.306675 14.888811 -81.269727
-83.939982 -172.983727 13.087087 -77.077113
-83.634058 -161.183346 14.621931 -73.445221
-85.627013 -167.905446 10.100694 -76.059738
-87.015220 -157.156251 8.742063 -73.251441
-99.929898 -154.147708 7.428398 -76.223282
-87.095560 -190.138904 8.727124 -83.170339
-87.800372 -175.772451 7.368384 -79.071847
-88.169868 -154.640709 10.772649 -72.843173
-83.838727 -151.202890 10.115349 -70.512485
-109.287340 -166.516247 -6.417668 -82.741076
-109.790189 -159.771865 -1.361013 -80.868616
-104.220812 -125.791226 20.280899 -92.650392
-118.991176 -163.613633 -0.577322 -84.781443
-123.867971 -149.334527 23.206004 -110.830147
-136.023336 -164.719123 24.787799 -122.490165
-176.539100 -203.380483 32.346671 -155.866620
-51.659124 -62.728487 12.300592 -44.062746
-82.611414 -122.617042 6.504668 -82.146170
-31.361787 -47.525244 7.021538 -30.195769
-43.622819 -69.303057 4.270691 -43.481347
-97.476104 -136.222489 12.931670 -94.182815
-109.563027 -157.969234 -0.925186 -80.259678
-92.324770 -156.498339 9.858184 -74.646933
-68.672049 -167.879141 9.776565 -70.965357
-92.264093 -150.586735 8.855564 -72.855248
-98.926351 -119.016711 19.569942 -87.555258
-115.704442 -161.073577 3.810982 -83.033406
-123.923391 -156.746277 21.687819 -113.875251
-77.769041 -195.073315 12.252255 -81.852707
-112.844654 -154.470025 15.847832 -108.200912
-0.605202 -9.015027 3.048193 -2.886069
-111.034325 -150.838447 16.076132 -106.039684
-33.047476 -51.817613 6.132517 -33.236631
-80.597321 -114.761646 10.804900 -78.023852
-65.102199 -92.457152 -7.653567 -47.267805
-158.914926 -205.449505 24.634093 -149.222016
-36.014943 -91.373342 -13.699465 -38.216486
-133.937354 -178.651274 19.417411 -127.461942
-95.645153 -138.443508 9.127995 -94.402391
-58.423075 -86.712587 7.928142 -56.831027
-86.123223 -122.965747 10.741406 -83.807760
-40.614773 -59.802278 7.931652 -38.117800
-62.253630 -93.068570 7.095601 -61.158784
-75.802825 -109.546292 9.529366 -73.831761
-78.918593 -144.145687 2.242608 -66.919284
-34.375008 -147.006674 -11.177202 -54.414505
-83.858108 -118.834576 11.247535 -81.111767
-84.514922 -165.100810 14.594831 -74.884720
-84.317836 -156.176204 11.468011 -72.148212
-76.972122 -152.011377 1.862371 -68.695050
-68.936794 -144.949589 5.999302 -64.165915
-83.919813 -161.111932 11.345507 -73.509524
-81.065555 -163.620775 18.583173 -73.405899
-83.851802 -150.710880 10.409661 -70.368805
-84.246991 -151.081618 14.777860 -70.598583
-84.900680 -153.960561 19.913044 -71.658372
-78.234062 -185.698165 18.795173 -79.179668
-89.039435 -165.746248 20.922915 -76.435705
-81.313273 -172.277753 20.468369 -76.077308
-96.964907 -136.945874 12.029616 -94.247569
-82.559855 -150.739137 9.782223 -69.989698
-78.740570 -199.050747 15.583577 -83.337395
-83.876600 -199.133904 15.214211 -84.903151
-74.993896 -202.865765 14.462578 -83.357898
-78.486541 -199.828196 17.529209 -83.494421
-76.556431 -200.454016 11.410888 -83.103134
-78.310572 -202.329312 14.477659 -84.191965
-73.603241 -207.688812 13.846520 -84.387616
-75.917134 -203.949918 15.141247 -83.960115
-72.646236 -209.319284 12.560807 -84.589656
-77.435697 -204.191058 12.880824 -84.488026
-72.137226 -212.068492 10.801162 -85.261716
-76.535759 -196.297446 16.761844 -81.849961
-74.975234 -203.500618 15.007089 -83.542755
-77.500552 -184.947805 15.797423 -78.734507
-74.363185 -201.336935 13.967032 -82.710036
-78.192037 -178.530987 18.521636 -77.016907
-73.204573 -207.774233 11.964849 -84.293642
-78.939140 -201.282802 15.977038 -84.066583
-75.648549 -190.819156 16.578871 -79.940312
-80.704061 -197.253941 14.065849 -83.387401
-74.104620 -210.159770 10.447222 -85.279317
-75.492650 -201.587974 11.746039 -83.124187
-76.090476 -205.322957 13.769752 -84.424030
-75.681330 -195.159307 14.518529 -81.252191
-72.174431 -217.096144 10.259387 -86.781172
-72.019496 -213.788841 11.285000 -85.742501
-71.473848 -217.018135 9.995017 -86.547595
-73.711876 -209.379789 12.841984 -84.927500
-72.162249 -211.240642 12.388612 -85.020867
-74.158355 -206.537456 12.579154 -84.208743
-72.605505 -213.081699 11.874604 -85.706161
-73.217254 -208.031983 13.056277 -84.374771
-73.224435 -212.935461 11.619613 -85.847969
-75.929366 -213.684222 11.288438 -86.884076
-72.756638 -200.129682 12.003161 -81.865896
-71.743636 -208.804916 11.346481 -84.164566
-70.329377 -204.689121 12.285350 -82.505550
-71.908136 -209.548398 10.974263 -84.436960
-68.024968 -213.751942 10.800399 -84.533073
-72.146694 -211.524916 11.457582 -85.101483
-70.970465 -214.955714 10.308281 -85.777854
-70.130682 -215.121300 10.665767 -85.575595
-68.988704 -212.604620 10.877712 -84.477997
-69.892661 -203.006335 12.108395 -81.869699
-69.786694 -209.800193 10.731994 -83.876066
-66.350466 -210.889983 11.474381 -83.172135
-72.745072 -167.179848 16.944758 -71.977476
-77.234857 -194.448568 11.633658 -81.505028
-65.698170 -182.137273 17.680567 -74.350633
-64.265222 -195.467873 15.919173 -77.919929
-73.579304 -191.670722 12.841765 -79.575008
-69.212299 -200.920696 12.798833 -81.039899
-70.323148 -184.654301 14.138992 -76.493235
-116.017455 -168.866573 7.019449 -115.827224
-79.953013 -178.083512 11.302601 -77.410957
-80.384321 -192.126456 12.440527 -81.753233
-74.899664 -190.877600 10.806596 -79.733179
-69.299990 -196.119555 13.316565 -79.625864
-73.067247 -194.133102 12.811629 -80.160105
-75.655683 -199.628156 11.924403 -82.585152
-81.268469 -194.964649 11.193110 -82.869935
-84.735675 -195.595105 12.696669 -84.099234
-73.799400 -205.749763 11.260352 -83.864749
-74.594854 -203.857326 11.760388 -83.535654
-79.541731 -176.333219 9.384074 -76.762485
-74.910884 -191.418852 11.768450 -79.898921
-77.995975 -186.582443 12.644011 -79.373525
-75.205635 -179.530864 7.106040 -76.420950
-77.971678 -196.713427 11.867483 -82.405531
-75.532707 -200.993354 12.277957 -82.957818
-83.647836 -161.427837 3.443408 -73.522702
-99.848903 -147.547307 5.686962 -99.860222
-91.672349 -133.197651 9.317997 -90.312611
-85.690519 -125.043524 8.879340 -84.368766
-86.368841 -126.264217 8.671548 -85.153668
-79.069504 -114.741070 8.972762 -77.882242
-109.480643 -158.380533 9.456056 -108.445840
-89.168902 -153.646525 8.685553 -72.844628
-88.045763 -130.298691 -5.848311 -87.833129
-119.810422 -174.183467 -6.879940 -119.695173
-82.650064 -124.674065 1.155504 -83.177454
-82.042673 -123.121572 3.741193 -82.256403
-110.231602 -162.773275 2.236681 -110.838854
-111.590540 -142.259099 8.863828 -76.154892
-135.032664 -194.874312 -7.946999 -134.815703
-92.012790 -127.087694 -11.397786 -87.307309
-90.802472 -90.445565 -18.924379 -75.082112
-105.673455 -113.255429 -16.696840 -86.040763
-108.295415 -120.581972 -21.948286 -92.251685
-69.212330 -143.256028 -4.905896 -63.740507
-85.215496 -135.094537 -30.614840 -66.093010
-68.768947 -63.559605 -14.770302 -55.611832
-50.623423 -46.365086 -6.214027 -37.921389
-104.222538 -122.464534 -20.695376 -91.323896
14.470036 -206.512035 -44.148671 -57.612600
-77.340717 -84.367244 -16.996343 -66.842130
-100.434434 -121.872501 -19.559580 -89.450787
-28.908371 -45.357919 -6.088457 -28.589361
-86.522431 -101.519483 -18.029181 -75.015460
-87.828071 -91.814877 -18.716455 -72.136858
-85.929697 -87.177861 -18.270822 -71.200878
-99.458554 -130.700255 -15.143457 -92.761713
-88.465270 -130.641625 -6.187123 -88.159391
-83.442709 -120.261874 -9.515299 -81.677234
-105.119231 -119.176372 -21.330811 -90.297469
-99.015808 -104.073981 -20.609976 -81.332048
-99.407531 -101.836975 -20.506597 -80.903922
-93.450436 -99.349926 -19.712561 -77.009474
-132.690556 -159.166497 -24.535634 -118.787996
-244.365203 -332.758841 -25.419104 -238.924225
-100.100206 -111.930236 -20.663821 -85.099873
-102.439038 -114.688184 -21.025335 -87.259848
-134.178195 -177.988511 -19.788560 -127.344370
-109.213704 -123.718418 -21.939946 -94.107155
-115.394810 -124.388886 -23.260108 -96.827541
-81.905685 -119.650563 -8.203983 -82.522749
-153.587955 -191.650719 25.976215 -141.267067
-114.245483 -123.633270 -23.114479 -95.985275
-91.832005 -114.658955 -17.637665 -82.793638
-111.018217 -129.521888 -21.868944 -97.159949
-73.658895 -112.003049 2.244014 -74.039080
-89.616979 -112.458127 -7.720499 -79.794445
-128.027900 -182.967992 11.202318 -126.628959
-82.479871 -124.395429 1.647495 -82.976225
-119.231730 -160.788133 -3.193566 -110.419132
-99.894292 -122.032065 -18.947449 -88.943560
-130.693958 -178.003469 17.190360 -125.878982
-110.926737 -141.244040 -18.751982 -101.057784
-111.186391 -160.665607 9.568814 -110.148956
-66.013911 -165.915960 22.262463 -69.578961
-91.604875 -162.327728 14.765571 -76.179781
-68.223854 -138.567994 27.441441 -62.037554
-74.714742 -150.761555 21.872313 -67.642889
-73.972984 -109.455168 7.772135 -72.868554
-57.015383 -113.053375 43.875435 -51.020627
-70.923191 -193.110411 14.734714 -79.210081
-77.771478 -178.574705 15.997414 -76.903855
-62.674179 -160.664779 26.929191 -67.001688
-70.458748 -176.559454 21.028819 -74.105461
-63.373000 -182.121227 20.362762 -73.648268
-69.580544 -156.266413 34.236003 -67.754087
-69.234388 -194.717898 16.442728 -79.185686
-53.826763 -50.190911 12.521141 -42.194280
-85.164501 -96.197544 2.936553 -71.089018
-73.219061 -108.298441 7.800466 -72.086243
-94.172043 -135.498457 10.285791 -92.392600
-78.361606 -114.571449 8.162651 -77.677578
-100.478908 -127.410604 -18.279336 -91.844918
-130.301355 -188.993691 -7.087503 -130.254604
-102.955712 -144.262650 -12.907426 -99.913195
-112.487046 -246.457660 76.434241 -107.683412
-27.278266 -20.323121 7.456777 -20.680580
-64.706432 -197.692909 22.234069 -78.719802
-66.353946 -181.235177 23.646070 -74.276737
-73.093760 -217.755573 20.877827 -87.254800
-82.976655 -189.080682 35.753200 -81.617201
-64.524812 -202.514575 27.805536 -80.111816
-75.259852 -202.033541 23.641632 -83.188018
-68.151611 -200.920333 48.306703 -80.721583
-97.751990 -82.371072 17.350790 -71.619307
-69.397577 -219.429175 35.598914 -86.648026
-66.052092 -237.319449 34.163427 -91.011462
-53.144146 -80.517189 6.356603 -52.183022
-80.560262 -92.447036 17.288908 -68.707858
-41.932163 -50.650934 10.921271 -35.438282
-72.756459 -203.798232 45.932526 -82.966407
-44.205656 -45.216232 11.491778 -34.526090
-36.955369 -61.509019 0.800349 -37.893000
-69.885021 -203.152080 36.699382 -81.911130
-22.023976 -15.478095 6.655481 -15.449301
-80.466467 -212.930584 32.527734 -88.019115
-72.610138 -167.460160 51.270902 -72.021090
-66.108637 -96.690297 -8.593389 -65.474242
-88.093953 -103.738993 -18.168316 -76.942270
-73.004826 -109.614560 -5.475816 -72.707923
-71.032093 -104.630619 7.760060 -69.828546
-59.614446 -153.153308 5.893624 -63.830326
-98.148041 -146.378298 0.618202 -98.796219
-60.711497 -94.561199 0.051479 -61.157914
-94.223591 -141.021560 0.784394 -94.852132
-60.691036 -213.382320 5.211079 -82.222007
-58.289094 -214.114460 8.813869 -81.721066
-54.863607 -158.859912 -0.780572 -64.117056
-92.307529 -180.053444 3.619250 -81.708292
-96.316462 -190.194752 15.972716 -85.953364
-129.511216 -189.691624 -1.131490 -130.287658
-74.526050 -168.627845 2.633395 -72.946169
-107.848310 -143.513711 -17.087151 -101.635384
-113.864938 -150.953011 -17.861046 -107.349248
-142.062074 -206.662532 -3.933063 -142.691342
-239.676245 -342.020253 1.421013 -239.389859
-138.946931 -253.034220 36.556799 -117.594345
-88.122053 -114.408091 -16.017748 -81.107690
-79.805516 -100.624826 -15.795847 -73.552732
-95.505776 -114.559261 -19.073568 -84.275484
-84.915859 -93.171314 -18.274004 -72.300966
-102.086368 -133.088546 -17.509213 -94.840475
-70.537152 -104.685212 -7.191756 -69.590263
-90.765684 -119.769747 -15.650823 -84.498955
-79.947548 -114.570473 -10.035528 -77.779651
-88.729269 -96.293935 -18.885539 -74.842747
-95.176805 -118.371067 -18.189858 -85.780164
-150.290411 -218.357894 2.051889 -151.129594
-123.816306 -181.485458 -2.777502 -124.453079
-117.221337 -137.257662 -22.780996 -103.014407
-116.743502 -156.547479 -17.349597 -110.941937
-101.878231 -116.968069 -20.693812 -87.977940
-115.873145 -135.610291 -22.621826 -101.716051
-176.735156 -248.130818 -14.787158 -174.813598
-92.500985 -220.583127 -17.859636 -93.925234
-208.786831 -290.981134 -17.604184 -206.355236
-82.859773 -238.641243 -5.125368 -96.450305
-104.955915 -135.983281 11.465998 -97.494650
-96.171548 -131.328849 -7.546207 -89.877367
-137.829276 -164.344394 -25.455373 -123.143448
-89.135623 -211.539372 -16.897887 -90.202499
-114.327807 -199.821149 -12.450333 -94.244687
-119.569279 -172.328088 2.385145 -118.830263
-67.185846 -209.801886 -48.611659 -83.096320
-101.348823 -247.507271 11.522113 -104.656828
-256.611743 -354.089483 22.536856 -252.932095
-45.908933 -235.867801 -16.248887 -84.533020
-126.047909 -184.834354 1.102690 -126.803638
-81.267062 -121.646543 -4.393475 -81.340681
-81.176374 -226.680882 -24.673560 -92.357177
-83.242203 -239.910159 -5.317872 -96.945709
-103.677760 -221.799441 13.267544 -97.643160
-33.206675 -225.194864 29.696615 -77.520462
-70.976911 -231.829755 -6.800630 -90.842000
-68.683481 -225.884783 -1.642560 -88.370479
-74.618823 -238.846704 0.169595 -94.039658
-65.667121 -229.506466 5.898933 -88.552076
-80.724029 -224.858991 -15.689428 -91.674906
-80.777341 -215.798170 -16.841341 -88.972653
-77.917300 -228.652155 -13.730098 -91.970836
-100.893145 -201.612250 -29.561282 -90.751619
-109.125674 -220.195575 -20.911078 -98.796375
-132.167338 -209.778447 -32.129164 -102.583735
-85.340158 -217.538389 -19.412749 -90.863564
-95.189735 -259.494062 -24.856391 -106.405139
-77.661621 -229.542528 -14.023254 -92.161245
-86.274097 -249.328806 -12.966955 -100.680871
-77.206105 -190.789484 -11.951930 -80.398677
-54.615334 -75.133476 -10.509909 -50.124478
-89.132847 -190.322848 -10.277399 -83.836709
-82.720365 -206.174265 -16.544099 -86.668389
-86.530272 -241.711017 -2.241835 -98.472387
-79.838166 -203.845923 -14.734945 -85.105227
-80.232533 -211.696250 -15.466201 -87.578635
-83.913422 -207.603117 -16.293510 -87.454962
-58.458352 -90.771973 -2.187958 -58.729901
-95.053350 -130.103773 3.524897 -89.252344
-82.703556 -227.221183 -16.021998 -92.977421
-67.642356 -202.019389 -9.635960 -80.898524
-59.698817 -89.746810 -6.377956 -58.555124
-73.280462 -103.187283 13.046273 -52.940323
-56.229857 -84.882370 -5.837137 -55.502199
-107.219641 -152.478173 -0.933131 -105.916659
-76.401349 -107.182697 -11.288920 -73.364931
-81.424851 -118.923277 14.679304 -60.104438
-76.690649 -88.289761 11.605247 -65.629122
-75.177566 -104.545729 5.966024 -71.778157
-103.069378 -147.236745 -2.557674 -102.094105
-98.047801 -186.551798 -11.150266 -85.379880
-114.290757 -165.365386 1.612909 -113.731366
-61.085514 -167.325249 1.689581 -68.523229
-51.815557 -88.119148 39.950814 -41.980412
-112.435816 -133.756354 17.074970 -98.382201
-103.436296 -147.724636 0.251127 -102.026130
-102.014275 -144.348806 5.014801 -99.644604
-74.331820 -115.712633 12.343170 -57.013336
-83.050858 -123.398626 4.063266 -61.934845
-74.599069 -105.097687 6.425913 -71.959016
-93.151555 -124.280161 8.706750 -87.912619
-114.849792 -156.479390 10.891412 -111.134537
-116.539266 -163.249587 6.283533 -114.562454
-65.262205 -49.379518 6.899864 -41.902449
-72.780115 -103.013994 10.900929 -52.738233
-77.913644 -120.407774 28.400642 -59.496426
-84.693832 -133.702935 41.262291 -65.519030
-81.197607 -115.338660 6.796635 -58.960880
-81.830254 -119.624590 10.354336 -60.436453
-84.372975 -128.350222 7.755412 -63.816959
-80.637884 -135.067882 25.058061 -64.711730
-78.540525 -123.840737 25.595517 -60.714378
-96.922193 -127.858219 10.223322 -90.711123
-83.264050 -125.622499 46.024433 -62.665965
-103.866203 -280.620999 63.428744 -115.346161
-74.325212 -124.610342 45.118121 -59.680666
-73.069544 -123.039095 35.666423 -58.832592
-94.396972 -131.670798 36.759148 -67.820331
-89.550570 -131.147447 1.660955 -88.438858
-135.833546 -169.988693 13.240787 -122.629882
-127.941589 -157.547965 -22.994552 -116.119095
-124.353132 -138.597539 19.965064 -103.374118
-166.396531 -220.295027 -14.787730 -154.338064
-176.553833 -254.799171 -1.797687 -177.546696
-156.722218 -221.567230 -12.827649 -155.197975
-85.074849 -257.947874 -24.070230 -102.906817
-168.119363 -243.009902 2.527974 -169.025041
-111.262384 -334.482278 50.249322 -133.723399
-157.292763 -226.617067 -6.821140 -157.561103
-36.387077 -60.294747 -1.544792 -36.792956
-93.933495 -209.647468 -29.101413 -91.074289
-78.967748 -118.120502 54.078826 -59.126475
-129.675128 -154.499233 16.723096 -113.126221
-80.290059 -110.276011 50.541973 -57.169821
-92.627939 -104.049646 15.879929 -76.489638
-49.843127 -259.909310 9.586210 -92.925731
-83.772778 -110.308909 -11.660448 -75.798493
-22.865419 -34.790099 5.702589 -20.023425
-79.361731 -118.455144 54.010352 -59.345062
-87.307078 -259.175866 3.038880 -103.944883
-88.058397 -251.314822 17.002223 -101.811966
-65.129934 -198.841494 -27.871233 -79.191428
-67.808128 -220.508290 -3.584494 -86.494926
-131.784245 -306.236250 -81.725907 -131.406149
-86.373837 -194.818763 -35.242448 -84.357780
-58.967652 -221.607527 30.781627 -84.172553
-60.366875 -175.123758 3.833800 -70.647190
-80.586801 -183.296049 -21.383445 -79.164855
-68.250192 -189.891281 -9.075960 -77.442442
-4.767027 -5.777141 4.658071 -3.163250
-63.966122 -94.284010 4.173807 -61.697280
-50.609683 -159.346200 55.564057 -62.986765
-2.524664 -6.512765 2.208704 -2.711229
-62.146957 -191.571902 14.119724 -76.115658
-75.648670 -176.626296 34.231661 -75.682490
-108.736518 -158.667254 4.195030 -108.617164
-76.259774 -155.446488 26.394636 -69.511878
-63.332189 -93.807185 6.560418 -62.063197
-106.211992 -130.845159 18.497853 -95.472418
-92.626156 -152.344913 3.243623 -73.491321
-80.680407 -144.163655 44.700111 -67.453219
-84.052394 -113.502219 12.813526 -78.934615
-110.354159 -180.481365 59.596293 -87.250657
-80.027914 -87.183693 11.820257 -64.164409
-85.114187 -118.873000 4.511757 -61.196156
-84.569625 -126.086088 8.611730 -63.196714
-82.240352 -146.566793 23.634858 -68.642143
-89.944307 -96.255176 12.999695 -70.105452
-91.147644 -127.844386 1.717343 -65.697609
-79.630772 -97.515974 11.810679 -69.243334
-121.757350 -168.927817 12.752161 -118.649489
-83.428652 -107.211805 9.203470 -74.765168
-99.569696 -128.411478 6.421996 -89.579701
-84.117887 -74.813417 -2.813360 -53.975848
-67.963374 -100.358371 7.522816 -66.781096
-87.227302 -84.647819 11.895091 -63.625262
-32.190107 -48.712018 -1.473909 -31.082529
-65.514269 -146.813917 -9.072497 -63.698456
-48.461381 -116.186106 3.542922 -49.394246
-78.844097 -64.092777 -10.538880 -53.623501
-77.293308 -55.173763 -8.573637 -50.617132
-76.705356 -166.634669 -11.795122 -73.002007
-58.569983 -166.414139 11.459584 -67.495237
-82.018883 -165.957279 -29.747328 -74.392849
-78.464549 -131.957544 -25.792154 -63.126628
-70.329110 -62.140990 -6.173426 -45.856427
-76.195972 -55.737116 -9.174958 -50.231175
-76.621502 -67.223320 -7.178368 -50.803051
-87.608598 -90.288946 7.870488 -63.482225
-80.123490 -66.832411 -9.906878 -54.343378
-81.887399 -82.400045 5.098051 -59.298654
-79.640856 -76.031379 -2.197987 -51.319234
-71.157810 -64.392765 -2.202814 -44.535739
-75.776183 -68.020880 -7.946828 -50.975284
-92.037474 -115.806612 -10.960998 -62.353226
-74.086889 -68.920977 -5.601795 -48.761636
-73.050900 -80.438599 -12.102726 -57.217178
-70.297624 -71.525315 -7.242458 -49.128182
-74.037865 -70.796259 -6.780637 -49.999930
-72.400639 -70.318930 -7.488000 -49.661628
-79.758510 -74.113455 -7.753997 -54.180365
-77.354501 -169.652815 -12.051731 -74.102195
-74.182260 -69.438955 -5.683005 -48.975585
-74.125512 -184.058463 -25.925430 -77.455192
-85.839580 -221.943503 -26.176901 -92.334925
-73.236642 -64.884212 -6.259774 -47.978321
-72.767717 -58.765606 -7.545693 -47.599721
-72.536075 -179.123562 6.959576 -75.497891
-74.126605 -182.148734 5.066932 -76.882602
-79.299817 -180.256193 -2.833561 -77.866803
-80.534656 -185.600797 3.199278 -79.840636
-92.021573 -207.747856 -2.237378 -89.930829
-63.012381 -175.231086 9.913805 -71.473040
-79.212847 -188.003419 4.834339 -80.164880
-71.561161 -181.007086 6.764600 -75.770474
-86.470920 -196.601219 0.859904 -84.921642
-50.653360 -150.551426 12.007554 -60.361436
-78.299032 -187.007616 5.596986 -79.591994
-77.282539 -185.723202 7.082895 -78.901722
-69.086429 -179.368788 5.357973 -74.536565
-74.103149 -182.553087 7.731040 -76.996871
-76.565475 -183.866578 6.773880 -78.129616
-53.095018 -165.677224 7.360512 -65.631673
-64.817644 -178.966442 6.460065 -73.135226
-71.987059 -179.442636 9.492599 -75.428909
-67.867801 -179.298853 8.451352 -74.149996
-75.910739 -178.353062 6.988981 -76.279140
-72.801900 -180.941910 7.951696 -76.123143
-74.456665 -173.253703 0.295432 -74.313110
-68.550346 -163.105583 2.415108 -69.496779
-62.365462 -160.354812 10.148325 -66.816082
-67.119557 -153.282806 0.440970 -66.120709
-37.937035 -133.190739 7.950816 -51.338332
-81.072704 -164.519676 -10.870116 -73.677714
-55.590164 -146.831582 8.372276 -60.726524
-58.399273 -173.481312 3.768591 -69.564176
-64.691654 -175.890919 10.186612 -72.174772
-58.791975 -175.997641 8.217566 -70.436885
-67.095395 -171.967122 10.923497 -71.718755
-70.572191 -173.723209 6.619682 -73.288620
-59.365092 -167.062149 8.710619 -67.928172
-70.972330 -167.737552 2.210438 -71.612965
-67.440116 -177.466403 1.855379 -73.471956
-69.746393 -174.949274 2.902352 -73.408700
-64.226112 -176.879582 6.459367 -72.331708
-69.546883 -168.402754 1.236183 -71.384891
-71.925830 -174.714105 4.215535 -73.991981
-64.316122 -172.619262 3.213007 -71.080615
-71.128810 -174.151080 3.872822 -73.583967
-74.471988 -161.579502 4.252054 -70.815447
-73.569391 -164.270872 2.719202 -71.352079
-72.071428 -160.576319 2.730036 -69.794324
-71.443782 -168.130954 3.693158 -71.872421
-74.779833 -145.540447 4.063191 -66.096084
-76.289351 -157.558790 2.028543 -70.154442
-72.816215 -154.180435 3.922789 -68.098995
-71.823910 -162.209299 4.130736 -70.209963
-75.176964 -140.541428 6.675949 -64.715518
-79.217083 -134.749565 7.444469 -64.189994
-80.286983 -138.986978 5.686885 -65.782188
-73.254672 -148.058587 5.482598 -66.393978
-75.770296 -133.357792 7.035880 -62.738426
-74.596843 -128.465548 1.242289 -60.918717
-74.747783 -131.307136 8.080452 -61.816476
-73.215528 -138.594562 7.819249 -63.543027
-71.944903 -131.855909 4.118756 -61.140244
-72.118708 -138.145228 6.271840 -63.079181
-76.309093 -150.035280 5.650474 -67.903312
-71.942720 -144.493804 6.603664 -64.930957
-74.931893 -134.738234 7.555595 -62.901038
-76.130082 -144.904104 6.464756 -66.310256
-74.347706 -158.035840 5.114389 -69.715064
-72.045959 -156.252109 5.123924 -68.489421
-75.202023 -159.475533 3.423172 -70.403267
-77.672345 -151.976041 3.478105 -68.894516
-70.168228 -142.501472 5.982802 -63.800910
-70.628141 -173.140278 3.962744 -73.130526
-73.892127 -145.202041 6.784547 -65.728250
-70.413866 -147.016180 5.330651 -65.229014
-66.021560 -135.853831 1.485578 -60.562617
-70.154646 -142.412302 7.383842 -63.770084
-72.228637 -138.012146 7.806717 -63.072235
-71.698528 -137.315266 6.417446 -62.704138
-71.044719 -149.834392 2.734330 -66.263733
-69.164161 -139.376335 6.131332 -62.562149
-67.514791 -145.172965 6.122997 -63.806327
-66.934856 -132.805530 -1.751322 -59.922116
-68.848596 -149.955485 6.978887 -65.641224
-70.049334 -154.358558 4.668134 -67.322368
-70.269842 -154.272955 6.777584 -67.362839
-74.269002 -152.675843 5.746063 -68.083453
-70.898436 -170.503762 4.713390 -72.420659
-71.414249 -168.990552 4.413923 -72.121440
-71.796776 -163.897580 4.851102 -70.708307
-74.043183 -182.435766 3.889951 -76.943685
-73.122448 -165.470143 4.595169 -71.577777
-71.366946 -170.255393 4.473710 -72.486702
-72.728417 -165.291704 4.368800 -71.406036
-72.896505 -171.616159 3.464263 -73.353799
-71.312351 -169.088198 2.664715 -72.120165
-72.493229 -170.331533 3.362841 -72.847428
-68.624421 -173.391223 3.554800 -72.604693
-71.690209 -173.987212 4.255802 -73.703226
-72.743708 -178.494418 4.126669 -75.371438
-71.373784 -174.339868 3.649483 -73.714096
-73.287719 -181.757411 5.194889 -76.513539
-72.248478 -178.468907 4.548411 -75.215216
-71.901304 -181.211056 6.591482 -75.933708
-68.732903 -177.443592 5.235203 -73.852948
-72.829405 -175.780146 3.375429 -74.582865
-72.087906 -178.150826 3.448157 -75.071620
-73.563810 -179.201787 3.590118 -75.829679
-74.368020 -181.529205 2.906243 -76.769168
-75.410264 -182.601435 3.464625 -77.403510
-71.623752 -176.037578 4.064712 -74.298399
-82.467562 -194.200586 -0.607473 -83.000444
-75.343687 -185.039715 1.736910 -78.115020
-70.941641 -172.635189 1.618473 -73.073049
-73.892063 -178.371447 2.842808 -75.679053
-71.776298 -179.321257 2.989257 -75.329266
-76.526713 -185.691102 1.991086 -78.665344
-74.696185 -180.751732 2.009234 -76.634375
-73.388711 -173.441883 3.212548 -74.049178
-73.640599 -182.972702 2.747605 -76.983990
-73.294980 -179.834697 3.745821 -75.938903
-72.892321 -162.169756 4.820277 -70.518623
-69.948097 -158.241666 5.670342 -68.456929
-71.575378 -167.122947 4.384420 -71.609498
-73.616813 -175.238838 2.815596 -74.656695
-66.419397 -143.569665 4.966732 -62.996719
-70.255872 -160.468587 3.409761 -69.217338
-70.889617 -166.785531 4.221223 -71.302544
-70.434473 -158.507247 6.012813 -68.682516
-66.752404 -147.113187 1.272970 -64.159677
-65.694005 -138.729733 0.753676 -61.327121
-67.147911 -150.677051 6.140830 -65.347489
-63.916184 -136.744586 -2.440751 -60.198231
-66.888369 -150.796968 4.803297 -65.305601
-68.727711 -146.330170 3.782476 -64.517364
-72.558340 -180.150225 2.380118 -75.812569
-68.001288 -157.948930 5.361401 -67.785065
-68.405706 -159.464792 4.241554 -68.361150
-69.399645 -163.356209 5.215389 -69.826756
-70.079234 -166.462907 1.510384 -70.962642
-68.192646 -156.579924 1.670396 -67.431771
-70.586892 -168.445913 3.155514 -71.709842
-69.319365 -164.133061 2.744119 -70.035728
-65.118925 -132.666178 -5.360928 -59.335531
-66.686841 -142.620288 2.729149 -62.792139
-68.149693 -150.943726 3.432827 -65.728026
-88.688320 -175.520403 14.043333 -79.262617
-74.046604 -135.516563 0.090669 -62.868950
-82.526115 -135.610540 0.547903 -65.440997
-69.408129 -157.314654 0.528242 -68.016835
-75.695935 -146.777432 3.900527 -66.742010
-81.348618 -186.100038 1.403397 -80.234597
-77.144661 -192.596485 0.321352 -80.922344
-81.805626 -193.433064 -1.242783 -82.571607
-70.487514 -172.520333 3.911458 -72.902354
-73.110354 -180.778811 0.917469 -76.166749
-73.743785 -184.987214 2.046377 -77.619300
-74.986805 -181.520044 0.426349 -76.952055
-78.358630 -194.009653 -1.241765 -81.710485
-71.156800 -170.188958 2.620356 -72.403728
-69.538317 -166.146712 4.235920 -70.705509
-72.927953 -175.316015 2.296894 -74.473190
-72.908973 -177.161994 1.268827 -75.021290
-76.685754 -187.560694 0.550737 -79.273934
-78.364353 -193.507581 -0.788517 -81.561580
-78.686371 -192.176301 0.223619 -81.258801
-75.543657 -190.480793 0.858040 -79.807335
-74.762921 -181.842592 1.563458 -76.981654
-76.070519 -192.061994 0.682650 -80.439754
-74.326524 -186.246839 1.654663 -78.172009
-76.554999 -187.986758 -0.500056 -79.362527
-81.094688 -201.137143 -3.246099 -84.669549
-79.013980 -192.941993 -0.737385 -81.586792
-77.330820 -194.375631 -0.811325 -81.511935
-78.669868 -198.343987 -2.080134 -83.104156
-80.294785 -196.761547 -2.111623 -83.116900
-91.978293 -207.159432 -8.455854 -89.741317
-88.451656 -206.341698 -6.980896 -88.438006
-85.026157 -202.688884 -5.056202 -86.314512
-87.488622 -201.156865 -2.704722 -86.593646
-82.441605 -198.880854 -3.920130 -84.396738
-75.506381 -184.332819 5.720546 -77.951760
-81.255179 -194.617896 -0.854961 -82.761923
-87.081843 -193.677555 2.302881 -84.227819
-89.115594 -199.739888 -2.532560 -86.656645
-78.681881 -189.932747 1.918313 -80.584388
-84.919273 -199.285335 -3.099911 -85.261383
-88.180034 -201.394305 -4.272669 -86.872302
-86.092733 -197.004732 -1.623825 -84.929239
-76.672641 -187.165797 2.422499 -79.151531
-79.335536 -191.078839 0.129569 -81.124312
-79.118409 -188.710121 1.703960 -80.348559
-85.922776 -195.066909 0.322423 -84.296905
-75.847845 -183.207345 3.702645 -77.716557
-77.761642 -185.415774 5.293928 -78.953225
-78.680236 -186.930346 3.473867 -79.683175
-81.903789 -192.970590 1.088971 -82.462314
-78.681648 -188.325785 3.632990 -80.102230
-88.733529 -201.164994 0.275595 -86.969557
-80.931209 -186.652765 4.707497 -80.275192
-82.649923 -188.958851 4.619029 -81.482632
-82.559911 -190.110434 3.083932 -81.801104
-82.730114 -192.071832 1.077456 -82.440584
-85.960078 -197.050193 0.694691 -84.903081
-81.869189 -191.359352 2.955232 -81.968562
-82.253730 -191.503098 4.416377 -82.127048
-92.100229 -238.862322 4.549577 -99.288765
-90.130556 -198.835517 0.941020 -86.689822
-92.669224 -203.152725 -1.574343 -88.746585
-86.326529 -205.161075 2.122090 -87.446281
-90.063838 -214.611105 1.555590 -91.402483
-82.277773 -192.329112 4.921777 -82.382065
-86.364552 -200.354702 2.201755 -86.015776
-74.651265 -186.047653 -8.955521 -78.209675
-85.606247 -194.911883 0.689376 -84.155439
-86.903570 -220.097590 -6.931482 -92.100348
-89.635681 -231.712600 -1.530225 -96.404484
-74.011466 -73.396101 -7.008809 -50.959714
-70.223513 -205.717318 -19.791623 -82.782249
-68.422871 -68.540116 -5.361478 -46.001349
-91.380991 -269.442253 -16.711794 -108.246973
-68.338267 -80.636559 -5.611131 -52.468563
-91.164753 -279.107142 5.218125 -111.081569
-68.492276 -94.083026 -8.562928 -62.470511
-55.259877 -82.988318 -6.737074 -54.124860
-69.173725 -76.762760 -7.573696 -51.478831
-64.100034 -88.923717 -6.990037 -58.197201
-72.797562 -89.836199 -3.595835 -58.059780
-64.848704 -83.011135 -7.071189 -54.363248
-89.469750 -205.576861 -0.122596 -88.513983
-89.599388 -256.213401 17.180743 -103.743837
-73.526212 -229.316915 9.821392 -90.852938
-73.963091 -83.618980 -5.743396 -54.979869
-95.357899 -206.123574 -3.327132 -90.444442
-89.977638 -205.852918 0.824632 -88.749167
-88.760074 -221.772438 26.297566 -93.159754
-93.329934 -219.362899 2.743735 -93.807850
-83.786867 -214.774304 6.850761 -89.568351
-89.320129 -211.049163 11.739118 -90.110788
-78.755699 -225.893808 18.585487 -91.394852
-70.544358 -74.171934 -5.335595 -48.993881
-71.761897 -72.727098 -0.455328 -46.595393
-67.618539 -103.808077 -0.493753 -67.997567
-79.424782 -89.836858 -1.975869 -57.908958
-96.666807 -141.712482 4.654481 -95.351495
-85.162427 -127.149321 -4.136213 -85.115452
-92.485354 -133.503214 6.009625 -89.834030
-60.063347 -51.451175 11.689269 -42.148164
-72.298965 -98.328381 -0.707607 -63.734690
-51.639877 -80.291370 1.066674 -51.009510
-102.134666 -125.350324 16.606682 -89.862318
-91.735631 -212.017790 34.082731 -91.126026
-79.434462 -70.197431 6.771049 -52.687501
-102.486510 -254.493253 33.831959 -107.093929
-71.050335 -86.578556 -3.322496 -55.675964
-98.973683 -230.138612 16.211757 -98.733688
-95.644364 -253.973797 27.012262 -104.885448
-92.012737 -101.616833 7.585262 -69.428768
-66.387076 -93.263242 3.221521 -60.480910
-90.694458 -206.369882 -8.848941 -89.119302
-92.045327 -204.760808 -5.372922 -89.041840
-97.153938 -218.349783 4.524425 -94.651116
-92.081244 -207.411172 1.932802 -89.847725
-82.654896 -203.980059 -6.619186 -85.990486
-83.590761 -213.608517 -6.096263 -89.159783
-87.578233 -208.718734 -9.145437 -88.889090
-89.156284 -203.716900 -6.466259 -87.861955
-87.540914 -216.588406 -11.471317 -91.238796
-86.658687 -210.651248 -8.324216 -89.192980
-90.236276 -208.498072 -9.712333 -89.620304
-82.832853 -214.146339 -10.563068 -89.093758
-93.806606 -207.706244 -7.850774 -90.453855
-92.742058 -203.548732 -5.906959 -88.887237
-100.005700 -206.103742 2.546309 -91.832833
-93.648633 -203.252918 1.986081 -89.070465
-100.732185 -203.935527 15.855339 -91.400314
-96.537750 -207.807478 15.292548 -91.303568
-88.668498 -207.128847 -8.291596 -88.739203
-93.969528 -210.649832 -10.638461 -91.385808
-92.373939 -195.322103 -1.056439 -86.308813
-91.845022 -198.899871 -5.925659 -87.223468
-87.526101 -225.366640 -12.153031 -93.867822
-87.993566 -213.612007 -14.317145 -90.481672
-92.456388 -215.506626 -14.026770 -92.388904
-89.564688 -203.842531 -12.532033 -88.022166
-90.917561 -206.372085 -13.250082 -89.186894
-103.180252 -198.094859 5.626589 -90.382533
-89.542850 -201.435367 0.353229 -87.293465
-90.114368 -198.538159 -8.660386 -86.595758
-75.313993 -193.113441 4.767637 -80.528230
-87.557678 -211.561830 30.928040 -89.735852
-74.368670 -193.646203 15.621567 -80.404462
-139.672313 -200.230038 6.057039 -138.528345
-13.522378 -177.964935 36.212934 -57.446194
-142.131876 -198.396871 12.933304 -138.882040
-143.398711 -201.181360 11.167656 -140.530153
-120.225400 -143.550495 20.906720 -105.908120
-69.588607 -192.903924 16.270290 -78.747759
-144.437942 -207.363955 -3.701656 -143.248829
-84.883848 -322.446581 51.515492 -122.199129
-16.692578 -185.058226 76.947112 -60.525241
-38.263830 -31.414206 8.505207 -24.621702
-72.494394 -103.218302 6.025817 -68.602090
-77.922986 -104.186218 10.971425 -71.619721
-84.734952 -124.875967 1.166835 -83.136198
-100.347086 -138.330684 10.531958 -95.418277
-85.030171 -119.698246 8.588200 -81.204651
-117.664983 -154.449569 16.807578 -109.049472
-109.596198 -156.671982 -7.628483 -106.710325
-101.172355 -146.763489 3.629358 -99.407955
-90.870902 -131.518267 3.567609 -87.971142
-128.786138 -176.458474 9.238779 -121.261760
-129.731865 -179.413795 13.446061 -125.271766
-110.700332 -155.354928 4.069504 -105.173883
-113.306276 -158.551895 -7.835051 -108.034681
-82.999674 -190.539180 11.964743 -82.061656
-133.196198 -191.256410 4.158841 -131.610091
-133.831447 -191.985817 6.714852 -132.652535
-104.109210 -143.583569 12.683657 -99.744675
-144.321256 -207.038161 -0.889012 -142.431798
-132.889294 -192.439300 1.147624 -132.406556
-121.513966 -162.096345 14.641421 -113.260705
-115.897066 -151.166167 17.994552 -107.956294
-130.387965 -174.313867 17.269894 -122.977688
-117.889937 -162.821592 13.063554 -112.772214
-139.049459 -180.087354 20.567633 -128.963822
-118.991120 -191.614248 -5.689922 -93.181610
-150.708482 -210.682822 12.843254 -146.870841
-162.007031 -269.509205 15.364780 -129.454871
-131.358697 -162.584584 19.518951 -116.986578
-120.610596 -93.170057 16.204889 -85.226419
-128.379724 -150.348965 15.644974 -107.223982
-145.733406 -196.996009 12.286621 -136.996727
-148.201978 -209.833925 11.904244 -107.410771
-171.682832 -171.661013 13.234700 -126.278767
-134.667728 -192.921093 8.287360 -133.602487
-148.057053 -211.132198 6.707440 -145.704724
-129.258800 -186.662887 5.384043 -128.598149
-130.629692 -186.873847 8.576795 -129.178055
-146.326956 -204.980199 2.361855 -141.390483
-132.448589 -190.653457 5.894571 -131.639512
-135.044287 -194.872526 3.907152 -134.439631
-138.795821 -199.817447 6.044879 -138.220942
-119.557390 -170.572902 8.905686 -117.608887
-124.630308 -176.310226 10.457904 -121.646174
-144.807472 -200.018925 -1.446316 -139.254752
-160.236929 -221.164564 2.821825 -154.277474
-150.891018 -214.118847 6.793394 -148.004374
-147.903982 -212.443931 5.307183 -146.996787
-149.190586 -212.457037 9.410288 -147.955998
-131.719399 -178.353070 16.885953 -126.260654
-130.234999 -183.771956 11.277408 -127.885091
-132.078180 -183.043389 13.238425 -127.594236
-160.292283 -213.299608 12.817506 -151.004876
-162.295072 -224.057077 3.193338 -156.224018
-136.132836 -181.173989 12.009312 -127.534252
-160.054809 -209.836778 3.694145 -149.310549
-195.509684 -266.012785 -11.229677 -186.546617
-171.522774 -239.626197 0.129241 -166.324352
-157.804244 -212.803806 -5.879849 -148.941358
-184.922276 -256.429707 -12.029847 -179.668771
-107.020211 -243.967778 -18.207039 -105.296397
-150.268623 -212.222517 -4.511459 -147.906074
-120.266334 -245.500566 -16.010676 -109.730070
-169.727887 -254.069814 -33.220755 -127.139310
-101.548443 -232.753190 -15.675446 -100.290490
-128.272566 -219.944972 -14.951590 -104.465261
-82.606285 -190.076535 11.763103 -81.804846
-145.881583 -202.316910 1.997697 -139.905405
-130.139700 -186.851889 3.828444 -128.375446
-46.228037 -182.473175 25.485352 -68.610363
-64.101572 -182.668265 17.601823 -74.030951
-97.196166 -207.855004 -9.245459 -91.515351
-91.230180 -200.371449 -6.135107 -87.480489
-96.622449 -196.524964 6.511917 -87.944224
-93.910518 -239.855715 -14.735878 -100.129870
-94.520194 -235.126858 -10.509803 -98.894115
-104.639746 -220.411884 -14.788963 -97.515489
-101.311546 -233.752625 -18.926678 -100.519251
-110.475445 -222.577439 -14.858342 -99.915865
-118.782593 -202.906196 -4.875771 -96.506637
-89.485186 -231.066202 -4.800635 -96.165416
-205.291685 -266.996560 29.091523 -194.818762
-95.707135 -239.057025 -11.224811 -100.429248
-90.319547 -227.868865 -6.854414 -95.456523
-83.158320 -211.699182 0.500569 -88.457251
-86.466184 -199.238806 -2.725180 -85.711497
-86.309944 -227.587468 -15.407553 -94.169224
-91.686081 -232.748761 -5.370337 -97.330453
-238.323513 -320.647672 -27.116521 -231.326113
-80.490452 -214.359326 -6.290960 -88.454933
-146.408309 -212.473503 -1.458107 -147.295080
-89.228560 -231.522704 -13.934843 -96.225379
-199.197289 -276.053299 -16.537878 -194.454634
-98.384066 -232.760093 -16.112642 -99.343248
-100.949230 -241.805569 -9.773691 -102.826439
-191.281080 -263.261775 -17.714257 -185.739857
-114.430217 -256.390729 -25.818490 -111.246284
-95.327248 -241.371053 -15.026204 -101.009490
-141.577233 -252.622048 -21.228449 -118.259784
-189.309779 -255.167927 -21.545556 -181.561823
-200.596724 -277.136264 -16.435397 -195.208445
-181.975185 -253.130606 -12.440326 -176.996977
-192.279022 -261.000618 -18.658402 -184.554783
-190.616981 -257.003995 -20.516549 -182.455200
-189.683723 -271.081021 -0.661629 -188.439306
-183.972474 -260.167665 -12.170162 -182.977875
-198.961620 -285.085186 -3.557099 -199.766231
-206.350769 -263.976325 -30.719127 -193.817075
-199.526935 -265.869556 25.463445 -191.918729
-206.168499 -289.283909 -14.864902 -204.561182
-195.508470 -278.617591 8.574607 -195.597844
-218.459155 -297.120026 -23.419816 -213.044112
-140.516032 -202.376735 -7.289792 -140.326717
-149.101694 -215.803098 -3.733792 -149.859425
-180.776570 -256.088489 11.241248 -179.897433
-163.102343 -227.948812 15.024186 -160.607860
-174.123804 -245.231896 13.488135 -172.531200
-121.478420 -174.367916 9.226191 -120.565105
-125.274096 -181.354832 6.750521 -125.100940
-149.780458 -217.234201 0.876768 -150.488267
-159.603491 -229.725438 5.760333 -160.185562
-140.570382 -203.482253 -5.065422 -140.815314
-139.204082 -166.713316 -19.880045 -120.952395
-134.370139 -170.115661 -17.934606 -121.721795
-173.330055 -249.375561 -4.539262 -173.932683
-151.407275 -195.103272 -14.800641 -139.870638
-130.859520 -167.560724 -5.152262 -118.856235
-143.547996 -179.319494 -13.598416 -127.995570
-105.918447 -140.324173 -16.771137 -99.995611
-110.814016 -161.516156 -6.482771 -110.601837
-88.067905 -129.231467 1.445162 -87.272208
-119.376938 -152.461379 -18.273557 -109.332431
-145.968707 -209.995812 -2.751746 -145.250977
-205.470591 -262.796123 30.826016 -193.127816
-47.015160 -205.887324 -1.117332 -75.870745
-172.433792 -248.282763 4.151481 -173.098011
-144.301189 -205.268228 10.968406 -143.136899
-131.352442 -182.985881 14.370552 -128.303868
-85.103997 -223.715933 7.507259 -92.645979
-76.816042 -219.119608 -2.286077 -88.780695
-79.368111 -215.276732 -1.135542 -88.393453
-48.597757 -205.545239 -7.054827 -76.242899
-117.247326 -198.204936 9.268359 -94.635679
-123.129447 -175.718337 1.123561 -121.559368
-85.585005 -127.968502 -2.733364 -85.849277
-100.607792 -178.749322 13.424517 -83.807134
-33.397571 -210.994332 8.012544 -73.317571
-92.191055 -196.473813 9.752623 -86.599460
-111.412480 -163.156397 -5.195184 -111.550794
-69.371447 -104.484433 -4.585839 -69.123016
-98.023507 -143.958863 -2.784277 -97.787318
-98.381795 -144.706845 -1.537478 -98.459387
-65.329757 -99.045610 -4.643621 -65.136883
-68.977075 -103.820815 -4.894362 -68.678531
-113.790599 -165.308549 -6.987130 -113.449084
-110.039113 -216.479937 24.014338 -97.955715
-79.262231 -188.903199 -1.994318 -80.449629
-73.591931 -157.773335 0.533163 -69.409580
-80.818889 -193.093371 -0.868855 -82.173678
-84.377766 -192.011371 1.459964 -82.916741
-128.118986 -299.568836 46.758187 -128.306347
-70.347904 -105.578428 -5.045111 -69.993895
-86.642453 -199.629683 16.610705 -85.881641
-91.855357 -220.527669 5.093261 -93.714908
-75.156261 -202.445727 -2.097931 -83.280596
-85.221305 -204.289216 -1.171622 -86.853156
-84.917181 -204.560583 -1.339005 -86.843329
-74.882479 -208.438087 -1.309720 -84.996170
-84.273602 -222.055894 -0.604951 -91.898849
-86.061335 -213.647516 -2.774752 -89.912655
-91.510415 -237.311581 -10.254707 -98.646599
-84.725694 -216.737360 -3.226215 -90.438916
-81.937107 -212.250396 -1.433749 -88.256251
-82.670185 -205.672144 -0.178599 -86.502699
-83.790074 -221.058959 -2.209085 -91.454710
-86.152640 -215.268456 -2.209920 -90.426329
-85.690377 -200.944586 -2.648476 -85.990489
-84.316756 -196.932601 1.947055 -84.374807
-84.128875 -203.535942 -0.776109 -86.299445
-83.805366 -206.285729 -1.533842 -87.027328
-84.684660 -205.119638 0.065036 -86.941289
-81.481912 -199.617762 -1.769650 -84.329902
-81.240168 -189.969682 -1.901920 -81.362955
-82.744247 -199.076164 -0.545001 -84.546123
-80.020194 -198.959936 -0.260944 -83.694039
-79.128406 -194.173456 -1.481943 -81.990559
-81.072735 -207.301824 -6.820436 -86.512368
-79.735158 -200.432453 -3.527125 -84.050283
-87.574627 -223.910761 -12.045124 -93.445616
-86.533430 -217.207662 -9.242700 -91.122328
-79.613667 -205.166742 -4.286771 -85.434123
-77.893198 -198.515626 -1.273251 -82.922647
-81.682449 -205.808231 -4.019709 -86.247204
-83.946147 -208.819732 -6.089349 -87.829764
-72.916961 -176.705695 0.716826 -74.886797
-77.471912 -188.267962 -1.299438 -79.721962
-75.208916 -186.702063 0.855969 -78.573294
-78.552778 -192.608983 -0.009904 -81.348528
-79.816088 -199.750447 -2.318874 -83.869961
-80.416935 -200.420602 -1.993677 -84.251261
-73.933135 -177.509594 1.214526 -75.432819
-73.141343 -160.973479 3.470883 -70.234447
-76.986616 -186.164358 0.270806 -78.945292
-82.368699 -187.569340 1.997814 -80.981412
-77.187460 -181.143938 -0.324155 -77.499420
-72.668590 -169.400967 1.060244 -72.620867
-82.793423 -195.050638 -2.695701 -83.353218
-78.514961 -187.867257 -0.306191 -79.914665
-79.104575 -160.326873 5.169045 -71.829434
-91.262727 -159.546895 9.347638 -75.242887
-83.979520 -172.584531 4.931980 -76.969215
-75.719385 -181.218411 0.568127 -77.081339
-80.416270 -117.423685 -6.086938 -59.351986
-104.339565 -153.905495 -1.015664 -104.317226
-79.155931 -156.747081 2.005158 -70.770904
-77.221356 -172.056009 1.632163 -74.783209
-76.138878 -173.517729 2.882041 -74.896982
-72.797302 -170.561182 2.376471 -73.007545
-93.138364 -137.857980 -5.077868 -93.217500
-88.682438 -132.234020 -3.849648 -88.953611
-75.710334 -140.939256 -1.374786 -64.994877
-65.712328 -99.660212 -4.697101 -65.557181
-70.501069 -105.840659 -5.185009 -70.173414
-82.718354 -124.464696 -0.572463 -83.186204
-98.928045 -145.781950 -5.238283 -98.983623
-84.389987 -143.370604 6.288438 -68.328177
-98.186607 -131.959793 -14.960488 -92.853720
-89.688485 -133.855422 1.028461 -89.840284
-67.202106 -100.001030 -5.532455 -66.269479
-76.334357 -111.689843 -6.288075 -74.339954
-97.621484 -138.610229 -10.764836 -95.418388
-93.794151 -139.500260 -3.476898 -94.190977
-78.046193 -116.877481 -3.723684 -77.968723
-97.900457 -145.333497 0.915201 -98.293037
-82.203797 -203.265212 4.736765 -85.640703
-80.728125 -215.217789 8.646276 -88.783774
-83.153764 -213.819262 3.822525 -89.091908
-82.347270 -188.511901 3.129846 -81.257751
-78.765954 -223.454732 6.425956 -90.666206
-77.309392 -237.551935 3.304349 -94.458398
-80.904578 -214.897473 5.160820 -88.740615
-87.021282 -200.108270 11.187603 -86.138866
-83.590972 -229.318462 4.598403 -93.872830
-81.299506 -227.875089 5.928675 -92.752379
-85.775351 -220.661684 4.773305 -91.931110
-82.634448 -219.572511 6.491644 -90.662088
-85.480621 -195.197034 6.604991 -84.203297
-84.651216 -207.775740 6.858926 -87.728087
-87.402202 -183.219111 0.321773 -81.186394
-85.174240 -198.146026 4.087045 -84.996080
-78.361816 -158.874637 -4.795251 -71.170936
-88.204085 -187.257126 1.541916 -82.638363
-89.705954 -212.848792 3.069235 -90.766424
-88.343572 -223.808958 1.171342 -93.645759
-90.795369 -200.831984 3.023950 -87.488206
-89.128659 -202.517656 1.956432 -87.493894
-81.943967 -231.067288 2.980222 -93.903376
-80.261668 -231.653523 4.066955 -93.574557
-86.539992 -211.938881 2.530916 -89.543662
-86.005167 -204.259178 3.308502 -87.079304
-89.531584 -243.391765 1.369607 -99.877005
-82.722837 -238.329589 3.391571 -96.315728
-94.357975 -236.334971 -3.809379 -99.207884
-90.891707 -223.682686 2.614204 -94.372318
-100.947168 -237.993942 -3.262867 -101.682333
-92.513155 -215.172943 0.453266 -92.305830
-93.418986 -214.516045 1.767624 -92.380509
-98.969118 -197.151297 3.774963 -88.836125
-63.999622 -71.878923 -14.425552 -53.135193
-89.739614 -191.835976 1.620312 -84.472677
-110.989885 -139.973420 -19.462588 -101.610315
-67.417516 -74.040854 -15.063722 -55.478533
-88.435353 -191.635020 1.125315 -84.021112
-92.215637 -195.417371 1.416479 -86.289902
-57.512702 -66.345984 -13.244716 -48.074351
-115.514764 -147.954722 -19.362237 -106.877506
-80.708276 -120.383713 -2.888726 -80.575444
-98.490743 -143.278493 -5.417871 -96.889743
-90.132933 -133.300954 -1.484247 -89.839186
-91.547747 -132.812460 -5.580242 -89.529608
-104.785445 -132.907415 -18.454156 -96.017951
-94.239949 -139.125894 -1.240204 -94.155211
-95.962001 -141.516270 -0.844447 -95.886940
-107.248213 -134.190623 -19.272164 -97.593358
-90.230013 -131.194927 -4.680517 -88.346533
-95.641905 -140.666191 -2.481699 -95.468641
-102.715129 -143.864844 -6.147811 -97.420836
-95.819188 -139.056207 -2.206106 -93.851170
-111.689084 -158.395381 2.748330 -107.869278
-100.225745 -146.299480 1.649074 -99.299555
-106.077473 -149.933631 -7.913744 -102.154745
-77.942139 -109.470945 -9.601984 -73.884316
-97.933018 -117.831718 -10.573020 -81.203080
-87.747668 -118.613913 -9.995330 -80.633583
-140.367990 -218.763420 17.802119 -107.739423
-145.753048 -191.184458 -2.811522 -131.953698
-117.162821 -142.852019 -4.193583 -96.550048
-123.318502 -132.381954 -14.778657 -96.273449
-111.963767 -122.787657 -7.711022 -84.340497
-89.647816 -129.661224 -4.311134 -86.851659
-129.900582 -159.758657 -10.525187 -112.857715
-122.788528 -167.088199 8.610166 -116.321496
-125.049052 -153.058394 -11.677565 -106.797510
-105.204929 -138.203325 -5.319676 -93.890241
-116.520822 -152.714103 -1.410554 -105.858494
-133.112923 -160.831828 -17.458917 -115.699098
-128.020628 -160.924209 -8.986666 -111.366299
-116.027808 -145.499801 -4.744293 -99.246163
-122.630265 -141.570081 1.871814 -96.195835
-144.016521 -168.154889 -14.996010 -119.504486
-92.675837 -131.492658 6.550593 -89.808514
-114.935424 -202.859887 1.238909 -95.338593
-109.316285 -86.061405 -5.659436 -72.532220
-129.946056 -177.219478 15.732928 -92.149660
-126.120780 -199.039078 2.932078 -97.547958
-120.730818 -186.166542 -12.480303 -92.069208
-133.138944 -196.211547 0.090630 -98.805147
-116.879261 -192.790941 6.269581 -92.901061
-104.056647 -87.350412 -16.158100 -74.959456
-129.283453 -186.992260 8.790468 -94.882714
-114.546037 -238.626051 -13.292439 -105.951626
-106.007116 -253.298902 -11.231264 -107.791805
-114.902878 -199.165744 -11.022573 -94.220586
-104.952103 -213.802112 -8.434077 -95.626265
-119.945733 -220.945879 -22.495324 -102.267484
-112.574022 -233.544567 -13.254107 -103.835577
-118.751341 -199.784740 -18.323599 -95.560824
-124.017475 -221.427280 -14.668537 -103.633426
-109.259734 -271.424116 -6.516282 -114.205155
-113.558064 -243.676790 -18.642086 -107.170456
-114.180393 -275.471535 -12.514606 -116.895578
-115.374856 -262.947196 -13.320171 -113.496616
-100.117196 -267.785848 2.259205 -110.370913
-109.489049 -282.118050 -5.796973 -117.482130
-104.295652 -234.214958 -10.981329 -101.553183
-99.416199 -247.133140 -6.845755 -103.964802
-102.261793 -269.207554 -3.411622 -111.440804
-101.917760 -262.040878 -3.922922 -109.187591
-100.821667 -213.479956 -2.432134 -94.290487
-93.527904 -235.727397 0.102125 -98.776590
-110.975023 -230.626019 -7.868964 -102.480313
-101.236350 -239.239407 -7.370888 -102.142727
-123.909906 -190.927134 -2.349615 -94.451112
-109.854327 -201.961670 -3.237287 -93.544799
-96.437798 -224.859166 0.409616 -96.389089
-98.746852 -212.651753 0.998857 -93.419581
-95.951221 -205.396363 1.010159 -90.404275
-102.340104 -204.122035 0.562435 -91.938642
-98.535343 -246.104565 -3.623859 -103.391972
-90.847287 -245.457376 -0.048120 -100.891399
-88.966310 -234.413642 -0.226945 -97.013986
-94.651171 -247.706953 -1.139904 -102.707437
-94.753846 -225.724027 -1.122191 -96.143362
-98.369782 -227.209800 -3.707847 -97.673875
-92.406061 -259.477005 5.368961 -105.564920
-84.000877 -246.146743 4.472793 -99.044286
-92.651606 -259.731645 1.989245 -105.714975
-90.807352 -252.619813 0.959753 -103.028149
-95.326261 -248.569828 6.084049 -103.168827
-94.269523 -263.442917 4.462848 -107.313732
-94.357358 -260.084226 8.321961 -106.332475
-88.912208 -252.958025 5.951953 -102.561070
-121.692448 -251.634938 6.398987 -111.998216
-112.398292 -268.200767 15.962722 -114.179718
-109.038802 -249.046740 5.071810 -107.425663
-103.834511 -272.965354 10.824444 -113.039960
-95.848848 -257.529115 8.158551 -106.013389
-102.527831 -261.349011 11.196409 -109.163053
-89.148897 -254.851880 3.597783 -103.200233
-91.157681 -258.167002 5.666743 -104.797405
-113.452841 -284.523249 14.366196 -119.392827
-105.089821 -278.539425 7.813624 -115.088774
-97.987900 -268.099821 1.329403 -109.826316
-105.439393 -279.666866 7.611431 -115.531878
-117.597937 -287.734582 15.274312 -121.599756
-112.113950 -287.449634 6.000097 -119.869075
-111.680116 -292.165122 1.202259 -121.153571
-104.099260 -278.453729 0.747740 -114.765896
-123.991980 -271.812618 19.228652 -118.741380
-133.501484 -262.496640 18.214275 -118.799437
-104.570014 -272.856395 10.434814 -113.227923
-126.030101 -285.848035 21.887683 -123.563441
-101.525145 -252.214056 9.280271 -106.121760
-109.506119 -244.364042 2.213482 -106.161048
-112.243144 -264.776466 13.844335 -113.105883
-110.583666 -255.058566 13.432542 -109.692670
-102.242648 -266.922955 11.354627 -110.749681
-113.255433 -275.742037 15.912055 -116.699241
-130.854773 -251.760867 9.888265 -114.784692
-112.473088 -255.964553 9.652019 -110.531292
-117.883449 -238.455838 4.566437 -106.901786
-121.184429 -246.723267 12.816948 -110.372309
-106.834360 -247.693420 -1.062558 -106.358334
-92.861989 -219.781519 -33.085569 -93.793052
-132.934365 -250.023174 -1.126258 -114.887262
-131.314838 -240.916605 8.407390 -111.669433
-138.338376 -318.651648 -11.340991 -137.097007
-110.164185 -158.311708 -9.019773 -108.246866
-118.251678 -247.052122 -2.656135 -109.591140
-90.588464 -101.457683 -18.925704 -76.695016
-114.142628 -166.979487 -4.514410 -113.436334
-113.381607 -157.305043 -12.739359 -108.698162
-108.960962 -150.002751 -13.752231 -103.985434
-135.898234 -159.220054 -25.489697 -120.098113
-104.834016 -154.335051 -2.901251 -104.275066
-105.572018 -155.454318 -3.134419 -104.991169
-126.698517 -148.791050 -23.975574 -111.791353
-117.477311 -248.524263 0.651228 -109.800472
-118.059418 -275.581608 -1.343682 -118.092308
-110.758840 -249.329410 -7.862617 -108.026475
-109.999420 -245.635552 8.541174 -106.690492
-101.806168 -246.143057 5.438524 -104.384768
-96.315353 -238.320240 4.757260 -100.390678
-85.547341 -94.146186 -18.152415 -71.464712
-102.169436 -250.215679 6.643623 -105.715534
-95.662308 -250.915820 6.772803 -103.973439
-110.377594 -147.171033 -16.800488 -104.106492
-92.576569 -135.813891 -3.161629 -90.853304
-98.250846 -240.629415 2.473504 -101.664078
-90.675005 -115.068112 -16.671134 -82.352792
-94.535747 -237.033618 5.107462 -99.470810
-75.429671 -82.398776 -16.453743 -62.175227
-85.330539 -124.258753 -6.480788 -83.121009
-82.836758 -108.394583 -4.512734 -71.537077
-91.252263 -102.807063 -11.024372 -71.763278
-79.101503 -94.407944 -3.621288 -61.478509
-84.022971 -96.105870 -2.210802 -62.492057
-95.471743 -212.666516 3.249617 -92.441478
-96.527574 -94.282280 -3.025991 -63.901732
-75.964364 -69.902959 -9.115634 -52.290970
-87.715076 -227.906003 6.469622 -94.686324
-88.934829 -221.683449 4.335299 -93.185483
-85.002532 -235.301749 3.355101 -96.091284
-86.565965 -192.815748 6.483327 -83.814514
-95.712789 -118.780858 -17.859052 -85.931258
-87.953736 -228.221531 8.995734 -94.852580
-91.261737 -219.869800 9.014926 -93.339461
-90.061115 -244.562022 4.398576 -100.386941
-93.319561 -238.228584 2.845029 -99.464444
-87.932560 -239.707773 4.333631 -98.292100
-93.868928 -244.932145 5.426466 -101.640322
-89.669090 -245.106480 5.204706 -100.432671
-89.540472 -249.783732 5.440852 -101.797261
-89.233653 -250.581047 2.646413 -101.944410
-86.371461 -247.919303 2.485669 -100.287229
-85.787130 -251.795769 4.503922 -101.274870
-79.165368 -240.457642 3.940538 -95.886903
-84.341516 -248.756998 5.079645 -99.929554
-83.893586 -249.074750 3.799415 -99.890501
-87.478110 -230.456411 2.924049 -95.380356
-90.779420 -237.879647 4.776691 -98.597720
-80.617955 -236.417951 2.698460 -95.110772
-83.697759 -237.737483 2.615642 -96.430572
-86.166330 -245.419367 4.234186 -99.475709
-84.720738 -248.272845 4.659280 -99.898075
-84.988728 -230.647539 2.003767 -94.690880
-82.787369 -234.304741 2.979174 -95.127633
-81.995156 -246.076423 4.394360 -98.421474
-80.985285 -244.647887 4.473919 -97.689952
-79.386310 -237.135763 3.980335 -94.956622
-77.639674 -235.645459 4.557245 -93.985540
-81.306325 -241.335167 4.631707 -96.792448
-81.777569 -235.009212 4.596106 -95.036034
-77.223690 -231.436636 6.816376 -92.598098
-73.759725 -232.151158 4.622013 -91.773265
-79.074424 -238.860419 4.936284 -95.380453
-78.286840 -230.516446 4.936981 -92.640986
-81.662516 -219.753928 1.665234 -90.424933
-82.354704 -225.603396 3.170028 -92.387430
-79.476066 -223.170731 -0.147040 -90.794039
-83.334207 -233.469504 0.741061 -95.041114
-77.260188 -234.356484 1.472758 -93.485002
-78.690883 -231.618070 1.256664 -93.092686
-87.322051 -217.627588 2.272980 -91.484892
-88.040369 -87.456109 10.103193 -63.352412
-85.976643 -227.164872 3.296094 -93.942454
-86.914619 -193.554799 -3.310218 -84.140825
-83.782701 -220.810338 4.310739 -91.377912
-84.891070 -231.755938 3.176687 -94.994102
-86.140981 -225.930819 -0.298875 -93.621540
-83.170959 -216.234138 3.411296 -89.821529
-79.069914 -66.111344 2.046976 -50.024814
-80.316895 -84.265443 -1.166823 -53.907369
-87.814816 -210.433480 -0.550094 -89.474489
-83.667274 -208.988699 6.192430 -87.796792
-84.594235 -88.281174 0.048612 -56.800405
-79.553753 -69.760313 8.123709 -53.434847
-82.561177 -88.190906 3.880531 -58.995189
-86.778791 -206.432588 -0.378246 -87.963414
-89.661781 -86.621535 4.776013 -59.928689
-83.021587 -86.160955 2.270801 -56.408364
-85.195654 -209.565652 2.673758 -88.428392
-80.126174 -82.446493 3.175739 -54.604562
-86.937208 -207.608604 2.085746 -88.363744
-88.099159 -91.511435 14.798059 -68.715999
-88.254740 -221.415424 -3.735169 -92.901049
-86.972742 -222.009355 1.729548 -92.694629
-87.909776 -212.964719 1.500046 -90.262348
-96.717706 -230.142767 10.945458 -98.058142
-84.039179 -211.447010 1.769940 -88.645857
-92.119397 -210.203042 -2.902141 -90.696732
-78.563787 -70.662700 13.096302 -56.421289
-81.524914 -87.006564 3.997020 -58.600358
-87.744388 -210.704053 -0.464652 -89.534533
-88.165025 -210.808494 2.538422 -89.692056
-91.979204 -216.849770 6.928200 -92.648692
-77.256403 -70.545618 13.552916 -56.111050
-94.781756 -95.771427 16.178244 -73.973701
-86.176398 -96.915041 5.272063 -67.179232
-128.377877 -165.882444 7.237375 -117.055239
-88.098174 -102.157635 5.855729 -71.591714
-84.461585 -190.491579 11.140041 -82.485949
-97.382952 -185.626297 0.822295 -84.902775
-64.779666 -166.475219 1.125515 -69.376466
-95.577519 -202.225466 -6.960135 -89.340896
-80.970449 -73.425292 13.729292 -58.687321
-77.570120 -70.730131 13.357934 -56.165635
-84.248091 -200.728172 4.471802 -85.492879
-89.279889 -202.254589 3.078183 -87.460343
-88.789169 -216.494278 -0.243672 -91.585034
-93.031030 -198.149137 1.956981 -87.354050
-82.394806 -189.426622 -14.249705 -81.546428
-84.980278 -176.706973 -9.787234 -78.506175
-78.427868 -225.141797 -9.567847 -91.070900
-89.079391 -212.552465 -14.190476 -90.489557
-87.373141 -185.266531 -10.183793 -81.791901
-81.894726 -170.873945 -10.705560 -75.830601
-80.593511 -236.702194 -9.439007 -95.188712
-87.309691 -209.050344 -17.568978 -88.908010
-80.958423 -185.324973 22.463975 -79.885019
-84.180314 -234.755045 -12.671009 -95.680608
-60.069340 -229.340801 23.169752 -86.823042
-94.283998 -239.541860 -4.236218 -100.147757
-70.525864 -234.413178 4.429643 -91.481713
-85.993020 -250.355941 -5.475073 -100.904688
-72.019607 -232.966248 -0.020509 -91.495756
-76.709334 -223.046718 21.687670 -89.926816
-79.041115 -232.697556 -5.685696 -93.521601
-84.125115 -218.523143 13.839430 -90.794477
-75.366249 -241.418963 -1.391077 -95.035564
-78.486532 -234.292988 9.000667 -93.833856
-79.046233 -209.118941 -12.376351 -86.449552
-82.136351 -195.273805 -10.624558 -83.223047
-75.740375 -224.857839 -3.953758 -90.179464
-74.623639 -223.381946 -7.194012 -89.401676
-85.552863 -204.913721 -0.193075 -87.139975
-81.845360 -213.354488 -0.961361 -88.559955
-80.008493 -232.900275 -2.359018 -93.872630
-84.575029 -227.293780 -6.261518 -93.560643
-75.879228 -232.738102 0.378577 -92.585199
-74.607301 -233.650515 -0.607364 -92.477345
-75.396120 -233.915493 3.751378 -92.793484
-75.368563 -233.524543 0.397917 -92.667932
-75.839236 -235.284577 3.696319 -93.337144
-80.003104 -226.463553 7.833892 -91.939997
-76.643633 -235.419079 4.723839 -93.618814
-76.889127 -235.943607 4.893576 -93.849820
-79.064694 -225.926835 10.002152 -91.497459
-77.319566 -229.573487 6.022424 -92.067916
-73.444584 -223.611632 10.994298 -89.116865
-75.675689 -228.280747 7.422624 -91.186931
-78.378301 -222.591958 8.408326 -90.291078
-80.504600 -227.510456 6.766912 -92.404517
-82.394650 -206.306680 7.087046 -86.610399
-89.499150 -197.475224 20.906795 -86.092312
-86.218489 -211.885911 10.898216 -89.431320
-84.793804 -211.219917 9.363232 -88.804116
-79.583962 -223.815471 5.109568 -91.019830
-82.303686 -219.874952 7.402133 -90.653591
-83.297076 -207.710027 9.040513 -87.302131
-86.686205 -199.300497 11.348905 -85.796011
-88.537627 -198.934806 7.809636 -86.241730
-92.684578 -184.155862 6.037462 -83.052132
-84.042761 -126.203974 -2.669375 -84.484588
-82.818957 -124.658474 -0.726230 -83.296213
-79.969523 -127.342672 2.727924 -62.193658
-66.410530 -100.833994 -19.744052 -50.173357
-69.235173 -144.166949 -2.042396 -64.020637
-80.463705 -118.139926 -6.663596 -59.581089
-87.490781 -130.494091 -4.027033 -87.715998
-74.146022 -113.512734 -14.910089 -56.297627
-69.122639 -126.059337 -7.605064 -58.554593
-68.810417 -140.196637 0.921501 -62.702116
-87.792681 -202.373978 12.201005 -87.049998
-91.185984 -174.739003 11.871690 -79.777496
-69.131473 -99.043727 -9.626936 -66.816915
-88.163687 -184.634636 18.167391 -81.839497
-77.548013 -116.803894 -3.633616 -77.797933
-74.505732 -109.085486 -7.545457 -73.268788
-40.162964 -84.832032 -40.511784 -37.498499
-97.332382 -139.097734 -10.152769 -95.492166
-53.865870 -93.167282 -30.622392 -44.109946
-96.630500 -141.191345 -7.328230 -96.151589
-63.158014 -115.369055 -13.713709 -53.558121
-66.717213 -107.160112 -19.505524 -52.163198
-70.854300 -126.766347 -4.453457 -59.286194
-65.011015 -127.562947 -4.746346 -57.772189
-62.893715 -116.634971 -13.532459 -53.858606
-73.940268 -102.700725 -14.078094 -52.992298
-57.141627 -117.264634 -12.698562 -52.321878
-57.309900 -109.789537 -18.825241 -50.129831
-52.380438 -100.619472 -28.645809 -45.899973
-61.989132 -94.181021 -5.044191 -61.717781
-96.202794 -142.513050 -4.328068 -96.450395
-94.361410 -139.946855 -4.322741 -94.594047
-61.240790 -102.862296 -25.523140 -49.230926
-68.850664 -117.700100 -6.350688 -55.965229
-93.182622 -211.168487 17.431927 -91.305333
-84.330055 -207.437448 10.772639 -87.530251
-77.270632 -200.483052 17.992434 -83.326105
-89.697922 -203.978326 13.191227 -88.102874
-90.533870 -207.072431 15.540907 -89.281890
-91.986764 -195.717300 16.099405 -86.311219
-74.779267 -105.406612 -10.671365 -71.855456
-98.176984 -201.554223 22.856908 -89.919362
-73.336859 -233.347480 5.338953 -92.005302
-74.880709 -236.578613 4.739051 -93.437797
-85.014394 -203.254236 14.096650 -86.480589
-80.072884 -209.379064 16.912764 -86.835584
-68.670773 -234.435434 12.316883 -90.931862
-74.667421 -230.333549 12.684582 -91.500291
-76.543542 -233.888904 11.990454 -93.129734
-79.580688 -226.257231 11.407265 -91.751376
-89.492663 -203.752776 14.243458 -87.973632
-70.130644 -208.219055 31.036851 -83.504910
-23.135049 -214.921595 30.055883 -71.416993
-76.076091 -220.885936 21.239379 -89.088608
-97.199786 -200.265564 14.970348 -89.239605
-74.905619 -158.970053 27.340054 -70.162701
-121.319933 -135.849019 23.975825 -104.195307
-29.713389 -183.457235 34.582094 -63.951187
-65.468278 -94.451826 -9.208814 -63.332934
-54.230725 -193.326119 1.917296 -74.267053
-77.771845 -47.998038 -72.289526 -37.730965
-113.729544 -86.038831 -14.768678 -79.876680
-59.705283 -91.046186 -4.934897 -59.433909
-127.268312 -168.408965 -89.387183 -88.703183
-84.573661 -122.640266 -8.876108 -83.180423
-87.868250 -131.506512 -2.733741 -88.326602
-51.929346 -104.131171 -31.131930 -46.818155
-99.718786 -147.391996 -4.387271 -99.985854
-69.418648 -96.587271 -18.773856 -49.801776
-24.195043 -70.708452 -50.180176 -28.471048
-48.229876 -99.053178 -27.760006 -44.184916
-56.312399 -111.884967 -15.528963 -50.459210
-62.023055 -122.490394 -6.884602 -55.354035
-61.898229 -123.107717 -6.987368 -55.501784
-61.821929 -128.935593 -4.407614 -57.227257
-69.005864 -138.968694 3.455701 -62.392367
-65.357570 -129.515569 -0.359846 -58.461942
-67.015726 -135.969821 4.445152 -60.895664
-69.785024 -133.360557 1.687391 -60.943674
-65.537546 -132.256433 -0.682691 -59.338194
-56.718857 -96.139574 -30.100527 -45.857529
-99.750834 -83.919003 -40.570477 -55.100951
-93.876664 -112.801847 -28.492886 -62.003553
-55.936665 -108.912236 -16.623700 -49.454670
-68.718900 -117.536995 -15.285778 -55.876768
-60.880029 -117.523627 -8.726256 -53.521097
-135.812949 -135.565133 -70.619800 -81.413425
-32.215747 -40.418558 -9.227763 -26.489692
-49.054254 -97.081347 -24.170080 -43.840680
-94.793698 -105.093534 -40.721392 -59.966170
-74.906219 -125.137709 -8.565568 -60.013178
-87.442475 -149.417459 -31.174822 -71.057980
-67.894549 -126.686173 -3.614258 -58.374216
-68.094174 -128.366317 2.066536 -58.938147
-89.375524 -126.772584 -23.347765 -64.844432
-87.417304 -136.621994 -21.657135 -67.211790
-73.585942 -127.811486 3.141145 -60.419228
-75.929231 -132.859521 2.525557 -62.636626
-92.168848 -121.119744 -36.662283 -63.986577
-41.342003 -48.570292 -10.915188 -33.762833
-77.066763 -111.989595 -47.839739 -56.716907
-90.165070 -96.988871 -52.728784 -56.146182
-42.845391 -51.446638 -11.045748 -35.605610
11.946823 6.957986 -0.986725 6.840105
-22.174018 -11.966236 -4.275339 -16.951087
-97.759548 -90.810760 -19.111517 -75.166507
-92.566614 -135.677042 7.144319 -92.017935
-116.082219 -122.197328 23.321756 -96.657282
-43.641113 -38.056539 -10.456075 -30.264652
-58.739534 -66.245222 -13.840141 -48.536983
-97.439148 -132.314557 14.731274 -92.812847
-97.094827 -133.063431 14.119223 -92.904555
-138.014314 -198.366729 -8.923403 -137.553490
-156.470666 -226.803194 -2.704259 -157.297928
-136.468903 -183.242274 -18.977610 -130.590771
-55.452991 -193.281366 -30.845640 -74.620307
-176.336956 -225.060978 -27.496196 -164.932979
-165.174281 -238.815757 -3.070908 -166.022195
-82.108707 -123.567009 -2.521430 -82.516712
-62.693523 -84.732991 -11.818481 -57.981384
-171.998927 -248.482342 1.754292 -172.969448
-160.479217 -219.416039 18.374465 -155.446504
-58.777757 -233.134103 -14.747704 -87.573558
-178.676923 -257.551789 -3.077722 -178.945972
-155.687495 -221.179674 11.442351 -154.244954
-116.447913 -157.471822 5.604712 -109.102760
-173.549227 -250.671794 1.348841 -174.517952
-156.503236 -226.977245 1.811715 -157.370354
-94.470261 -206.805717 -15.571544 -90.382793
-122.917872 -230.831178 -18.194935 -106.124715
-172.950230 -247.905172 -3.430768 -171.628064
-159.355423 -229.021368 7.619914 -159.089125
-159.415857 -230.873273 -2.761593 -160.236895
-159.980417 -231.864994 -1.167628 -160.782403
-164.749911 -235.419489 -9.680706 -164.415047
-175.696615 -244.880469 -16.415895 -173.009897
-116.838791 -245.047929 -5.652587 -108.566016
-165.362980 -238.891617 3.866576 -166.136233
-196.788973 -276.992455 14.375444 -195.372249
-175.183548 -252.685465 -3.178093 -176.080088
-81.204281 -241.456449 4.286927 -96.798219
-185.810648 -265.592217 6.040273 -184.596457
-80.014832 -252.138115 6.350206 -99.645884
-81.739858 -259.987577 5.272122 -102.518230
-91.300440 -228.131400 -18.543856 -95.829552
-102.973758 -231.833026 -7.217760 -100.442035
-79.922693 -244.329832 -5.426424 -97.275757
-77.634427 -237.278814 -0.687823 -94.473972
-97.539647 -212.034350 -9.418769 -92.872199
-99.401098 -119.983869 -3.287049 -85.074371
-154.691805 -223.358785 -0.955437 -153.824204
-131.909594 -240.269124 -10.800717 -111.653615
-176.020285 -252.730288 -0.060835 -174.994052
-101.478865 -245.707741 -9.954257 -104.155982
-74.315685 -183.131295 -7.086857 -77.234094
-118.252947 -146.211527 1.009049 -103.400304
-124.297304 -170.089189 -12.141357 -118.294653
-132.761743 -190.916805 -5.334644 -131.283109
-96.508340 -136.838764 -5.332701 -93.589976
-122.848343 -166.291613 -8.441715 -115.653556
-121.980101 -167.673345 -1.059765 -115.612228
-111.756847 -158.986490 -7.791814 -109.262714
-104.325094 -108.549993 -2.428283 -75.998402
-88.183531 -91.524311 13.944532 -69.399370
-89.339918 -124.833286 0.862345 -85.278217
-100.219786 -126.804219 -1.661394 -88.792972
-112.015156 -98.856179 3.143841 -74.040690
-112.799429 -96.197833 1.433493 -74.180963
-116.472311 -103.601638 2.180805 -77.000147
-118.785352 -155.150106 -7.730675 -108.393574
-108.450163 -129.484681 -2.273500 -91.905436
-106.471906 -126.052505 2.970030 -90.035491
-107.960773 -97.186762 1.207497 -71.168919
-104.751882 -141.392466 -3.602943 -97.469818
-122.511382 -174.221406 -7.970433 -119.829384
-122.793240 -169.000078 8.076020 -116.733639
-111.192641 -153.528811 -3.487465 -105.345194
-135.955184 -195.437377 -5.598464 -134.057800
-143.125933 -189.290336 20.115800 -135.444043
-84.350153 -217.500592 35.364395 -90.555223
-112.052220 -155.924249 4.306525 -107.049412
-129.510574 -179.196839 7.609636 -123.785571
-143.851927 -206.162948 6.408794 -142.185804
-111.156385 -94.627495 0.203710 -72.909302
-56.281058 -81.065422 -0.676826 -53.420201
-89.958040 -94.537074 1.029794 -67.120250
-50.864915 -68.755228 -7.484154 -45.559146
-85.026123 -109.270145 -11.878396 -76.402240
-99.149816 -92.479038 -1.042146 -66.738994
-80.274936 -107.428086 6.517701 -73.697185
-67.543803 -92.999937 2.249301 -62.727637
-75.889147 -89.219380 -2.027638 -62.285989
-34.264954 -162.216017 12.148285 -58.944291
-61.183767 -84.668557 -2.574510 -56.883156
-46.416719 -62.339308 -6.966076 -41.062023
-60.990146 -89.112261 -3.350896 -58.718970
-128.455314 -163.258711 19.656771 -117.806289
-73.127667 -177.144010 25.194746 -75.081503
-100.348498 -100.881054 4.847082 -73.296359
-99.668533 -128.211480 13.272337 -90.385040
-115.238005 -150.726730 16.390746 -107.684706
-73.798404 -102.242830 -7.411256 -69.218629
-124.836734 -162.557738 18.689980 -116.601993
-57.665477 -158.317150 15.194643 -64.794788
-141.333639 -179.607937 22.337206 -130.265748
-62.677527 -159.074542 21.752317 -66.525621
-57.943525 -199.703972 11.569592 -77.294249
-53.375722 -183.703349 20.046563 -71.123721
-177.889828 -255.470400 6.410403 -178.046026
-54.258656 -210.765021 -22.113686 -79.507103
-57.286286 -219.899006 0.821612 -83.155588
-46.065293 -194.138396 -16.448726 -72.061107
-56.965276 -215.377187 -0.884296 -81.702739
-51.205683 -210.841545 -8.911856 -78.614168
-53.497750 -76.002596 -4.566108 -49.724283
-124.046280 -172.748379 7.526506 -119.891850
-46.152344 -166.086724 21.705762 -63.671721
-61.085712 -159.148072 17.501109 -66.070135
-59.043665 -174.819358 17.846070 -70.158907
-50.528317 -167.390670 10.860384 -65.375696
-49.377541 -154.272334 6.448797 -61.094963
-55.054453 -178.500056 12.136239 -70.066352
-60.763070 -161.676925 13.076667 -66.731998
-56.982513 -169.825776 17.896526 -68.042487
-52.070729 -197.716523 3.788533 -74.936176
-49.729127 -177.590027 3.830313 -68.195746
-37.636268 -167.258848 -5.999347 -61.468535
-46.803725 -189.895518 -5.403682 -71.009773
-35.105660 -141.281195 -3.979526 -52.916057
-42.186032 -159.272081 2.060753 -60.437434
-41.465282 -177.763882 -13.177958 -65.768749
-35.880258 -169.632699 -16.026142 -61.653887
-51.805873 -148.043678 10.666062 -59.954865
-59.855744 -153.781337 11.924927 -64.091124
-48.711023 -162.850365 3.528977 -63.468417
-53.262249 -162.546155 9.140232 -64.742521
-60.587735 -146.159693 18.403671 -62.024228
-41.305656 -62.236784 4.175004 -39.075104
-52.131710 -145.242670 13.142731 -59.212314
-53.717043 -80.685067 2.358210 -52.038940
-63.654493 -163.278387 15.322316 -68.079864
-56.692610 -155.963745 13.517461 -63.796907
-55.176857 -155.617394 11.422293 -63.238275
-66.915960 -161.434461 14.855250 -68.505126
-59.658104 -85.027118 -2.968502 -56.585687
-54.384625 -81.956830 -0.314799 -52.731666
-59.821506 -88.149929 -1.992384 -57.652944
-56.160941 -84.452073 1.465560 -54.645010
-53.914563 -80.187018 3.251222 -52.103183
-67.852172 -95.923356 0.562706 -63.286938
-28.580454 -40.907021 6.707805 -24.852485
-39.694986 -52.318370 -5.661843 -34.087156
-48.915808 -141.312592 11.367581 -57.068520
-52.661011 -79.074120 1.872319 -50.831393
-25.985082 -32.192924 -0.835582 -20.124094
-50.457987 -144.910886 -1.001255 -58.610662
-73.118020 -100.435517 9.995493 -68.504224
-41.233354 -124.044940 0.542411 -49.583488
-61.677103 -124.767017 13.047669 -55.933236
-48.202256 -148.766938 10.909772 -59.090758
-45.207905 -141.840295 10.530734 -56.114460
-40.651312 -140.522021 10.379049 -54.352000
-10.440432 -119.217433 -2.740818 -38.897360
-43.217021 -141.293887 10.926743 -55.353273
-42.483196 -158.320329 -3.191129 -60.241057
-49.733802 -76.273251 0.651289 -48.548378
-25.511690 -35.252558 6.910239 -21.081839
-61.120803 -84.754002 9.405114 -56.997477
-56.488130 -112.142760 8.066094 -50.589267
-56.266150 -80.151650 8.232764 -53.094139
-46.313637 -203.649875 -27.084959 -74.989054
-50.144693 -77.647858 -1.368036 -49.471089
-73.791044 -63.756882 3.629070 -46.810589
19.510177 -135.597281 0.678329 -34.826131
-33.895995 -53.029100 4.494483 -32.317643
31.684594 -113.485652 2.647707 -24.540317
-47.174563 -71.364738 1.294445 -46.129638
-98.038318 -132.902670 -14.597356 -93.382159
-24.409520 -128.191906 9.754461 -45.780428
-42.668093 -145.331295 9.049134 -56.399816
-38.497263 -132.957205 8.408920 -51.436340
-38.022920 -136.246465 12.302824 -52.280815
-13.503871 -121.868298 3.454240 -40.611651
-21.701478 -132.915737 -7.948232 -46.385164
-29.051920 -120.331436 2.017449 -44.815007
-36.653462 -133.032872 8.631395 -50.905900
-34.618986 -148.975074 -6.643945 -55.078218
-34.228458 -125.117266 2.256777 -47.803717
-9.548586 -132.226438 -3.002613 -42.532507
28.811724 -120.855687 1.773239 -27.613189
-11.295288 -125.834043 -2.188097 -41.138799
-26.714513 -137.355847 -4.986586 -49.221108
-38.343919 -149.659392 -12.801145 -56.400994
-28.392979 -140.617871 -0.614450 -50.703255
-43.892423 -141.331745 -9.685301 -55.567250
-55.776994 -133.741407 -4.948772 -56.855520
-35.531539 -137.549624 -0.824751 -51.924349
-26.075732 -142.206771 -6.763949 -50.484751
-42.062819 -135.753381 -1.271358 -53.344860
-34.791378 -143.996427 -7.353763 -53.636341
-49.398489 -130.121582 -14.467530 -53.856021
-31.147649 -129.350922 -2.890373 -48.149571
-35.043304 -149.588090 -12.285079 -55.389418
-32.489335 -143.784060 -6.994471 -52.882019
-34.071431 -152.017587 -10.076829 -55.826706
-31.092552 -133.633067 0.656357 -49.417686
-42.304746 -138.001969 5.762481 -54.092015
-30.316484 -137.483024 -5.808050 -50.339852
-38.726365 -135.881862 1.411285 -52.382468
-42.318263 -141.699132 5.039062 -55.205219
-48.182886 -149.565337 7.417322 -59.324467
-42.488409 -148.202013 1.444225 -57.207127
-46.796788 -145.594189 7.622175 -57.717293
-37.762145 -144.571229 -2.106891 -54.700012
-44.673477 -149.941886 2.197006 -58.384609
-33.345839 -146.770121 -8.413357 -54.034788
-39.080950 -161.503838 -8.123452 -60.175436
-36.822343 -157.964931 -13.085208 -58.436182
-35.227250 -159.191950 -21.371283 -58.325760
-40.335073 -151.160306 -28.308912 -57.448614
-43.548035 -140.170010 -10.558141 -55.115413
-47.399291 -153.141631 -32.929070 -60.162277
-58.267234 -115.830746 -20.652693 -52.229394
-52.525500 -133.872542 -31.080861 -55.919413
-52.579682 -100.926856 -40.523257 -46.051961
-55.443794 -68.294940 -12.708788 -48.004593
-55.976112 -91.271364 -25.783624 -44.174243
-44.795893 -144.776547 -19.557023 -56.871732
-59.832097 -123.808773 -26.162034 -55.092261
-48.737776 -116.114247 -31.944985 -49.455607
-62.954830 -131.281547 -17.603546 -58.270913
-37.655450 -146.895515 -14.802236 -55.365289
-40.155195 -154.374499 -17.032091 -58.358908
-38.058596 -149.020440 -20.637870 -56.123711
-42.360455 -160.523455 -21.691931 -60.865173
-37.356695 -142.588296 -9.093081 -53.983497
-60.269449 -118.646124 -7.825751 -53.674672
-43.506863 -143.500229 -14.362040 -56.102128
-43.596014 -140.240883 -16.885863 -55.151069
-54.279445 -134.760336 -3.654963 -56.711934
-44.187116 -133.996853 -3.328333 -53.455191
-76.207173 -139.066878 10.986590 -64.582215
-50.903890 -133.423342 -9.610486 -55.298170
-73.117899 -108.298215 -6.786352 -72.129070
-59.420899 -115.033070 -15.271099 -52.336191
-73.584612 -109.279547 -6.595022 -72.712021
-76.278252 -101.206722 -13.797846 -70.639305
-50.411267 -124.858417 -20.680224 -52.580905
-60.253040 -116.758119 -24.277199 -53.103348
-59.808720 -112.693417 -12.749552 -51.750641
-52.192496 -99.065874 -26.108868 -45.377511
-86.575714 -110.061724 -15.223495 -77.513198
-68.448453 -99.475005 -8.766423 -66.612845
-76.049986 -99.563596 10.853829 -67.734872
-73.271438 -94.466688 3.766626 -63.110480
-76.410792 -106.221266 8.623946 -71.264912
-78.840569 -93.638239 1.787993 -64.436934
-62.230907 -83.343248 -6.247723 -54.887161
-56.902217 -72.926906 -12.362521 -50.571628
-65.336248 -88.980722 -1.246944 -58.636169
-59.785763 -65.152615 -11.655781 -47.780913
-44.706570 -97.742287 29.101357 -42.734657
-68.570753 -101.360754 1.281792 -66.128334
7.088107 -105.863352 36.242002 -29.632574
-31.877024 -119.902789 19.324042 -45.533944
-60.052335 -84.305673 10.299518 -56.689181
-84.562494 -116.609815 12.664313 -80.085509
-104.591346 -154.735706 -2.815361 -105.100048
-107.417945 -157.916843 4.867869 -107.631276
-72.990030 -96.144668 11.109762 -65.304547
-63.859466 -127.478618 -0.755506 -57.401425
-77.418051 -116.935694 2.838382 -77.742653
-81.868186 -121.567244 5.879014 -81.562342
-55.334630 -81.376013 -1.665180 -52.550248
-70.758349 -82.341541 -12.377914 -59.125830
-72.502061 -91.311452 -4.728107 -62.809359
-16.325446 -139.528759 -8.076428 -46.756261
-76.225042 -91.836035 -16.033060 -66.669139
-77.789753 -83.901891 -8.032445 -60.592990
-58.644952 -89.469951 5.057731 -58.264723
-72.213384 -86.147168 0.573475 -59.594417
-85.862723 -121.483743 1.699750 -80.603184
-23.772799 -41.814466 3.082148 -23.514236
-105.027157 -155.024322 3.818185 -105.405299
-83.368914 -153.120807 -23.104080 -70.946916
-85.092929 -127.974501 1.326565 -85.620135
-40.648545 -127.859747 -4.091258 -50.552488
-69.650258 -105.702213 -3.808786 -69.738514
-98.725313 -146.252288 3.817068 -99.055504
-85.187116 -126.152262 5.979922 -84.895144
-116.434300 -169.281276 -7.111766 -115.584208
-131.329106 -178.022063 -17.671692 -126.168121
-55.110685 -81.936263 -1.673292 -52.806699
-69.302213 -141.360140 -9.568880 -63.198706
-87.689998 -206.024872 -39.086337 -88.114461
-70.732228 -106.671494 4.779215 -70.598355
-71.092830 -83.437681 -9.406988 -58.842892
-30.304610 -50.813787 3.364643 -30.052919
-57.995828 -142.341106 -19.951359 -60.101080
-72.201146 -84.765555 -12.525865 -60.761718
-57.427126 -85.710677 -2.185631 -55.086667
-43.999546 -69.528109 4.141778 -43.700647
-72.622764 -100.344861 -3.118929 -66.719046
-65.153152 -57.493495 -39.416412 -36.793994
-61.559860 -103.967407 -26.632233 -49.658180
-68.763911 -69.804086 -14.689883 -53.567078
-77.630812 -94.483268 -16.087613 -68.375536
-45.828758 -173.031842 -29.505421 -65.658180
-40.831222 -48.804867 -10.763560 -33.643163
-50.432446 -121.847766 -34.315782 -51.684064
-50.761423 -72.377985 -35.665249 -36.941822
-40.402416 -180.116875 -21.295809 -66.155787
-52.585322 -142.217650 -42.558619 -58.440892
-39.430504 -150.234358 -28.852966 -56.899459
-51.546913 -179.901834 -34.383290 -69.434624
-46.903411 -148.631420 -32.479825 -58.660449
-65.781894 -85.251847 -47.054484 -45.310122
-56.067784 -90.206559 -30.009828 -43.882303
-56.707000 -114.411517 -57.427297 -51.335555
-52.872205 -77.017976 -5.052911 -49.021748
-58.775013 -66.791586 -10.787350 -47.752627
-63.677215 -127.262928 -42.246553 -57.282043
-46.731154 -120.679177 -42.934372 -50.223099
-90.212588 -179.161284 -69.351787 -80.812161
-70.055016 -90.072706 -13.972532 -63.293747
-52.786256 -209.257913 -22.298052 -78.613251
-61.206446 -220.618257 -28.590344 -84.547411
-41.195913 -155.500388 -34.578011 -59.008890
-64.907436 -163.822488 -48.698277 -68.618977
-43.496482 -196.567306 -14.248692 -72.019137
-43.919350 -192.699134 -38.505443 -70.985545
-57.861898 -183.585216 -33.137552 -72.434134
-48.019882 -188.691642 -28.846783 -71.013457
-46.728313 -172.799259 -30.277032 -65.858272
-66.468405 -199.184234 -45.522567 -79.695792
-52.727978 -155.927056 -59.147293 -62.596510
-100.857015 -140.848113 -12.908585 -97.681055
-86.579303 -122.740863 -55.300852 -62.796050
8.124793 1.442253 -0.818963 2.870114
-28.818827 -30.969742 -8.993856 -22.355834
-64.867994 -92.092911 -10.070752 -61.995399
6.416425 -1.155055 0.195634 0.478445
-0.148181 -3.372518 -4.197844 -6.224156
-38.031336 -48.838412 -9.871377 -32.478606
-75.027943 -84.074310 -39.027849 -47.730676
-76.998701 -116.675989 -1.703463 -77.452632
-29.601540 -32.349617 -9.132718 -21.983998
-69.026990 -137.945206 -29.191819 -62.091659
-72.244878 -109.514820 3.421197 -72.433929
-65.219329 -132.027636 -4.988250 -59.174090
-79.620634 -153.318798 -14.854770 -69.881830
-71.580320 -127.017629 -40.240624 -59.579385
-95.258786 -137.425375 -37.823410 -69.805248
-73.470796 -121.490716 -12.848593 -58.488454
-82.359754 -140.408591 -15.259096 -66.830504
-73.882566 -126.933282 -6.376433 -60.244755
-70.356917 -132.910626 -11.310207 -60.980263
-74.813254 -129.092932 5.485091 -61.171856
-73.953806 -129.168234 4.273323 -60.936612
-75.990032 -131.565257 5.148497 -62.266587
-74.197492 -133.709820 6.476955 -62.372194
-75.264811 -127.348882 9.733734 -60.784108
-77.218827 -137.734116 7.286299 -64.485883
-74.892181 -132.095575 8.587509 -62.096327
-73.169166 -142.890837 6.892294 -64.818001
-78.213660 -128.161288 9.356501 -61.912484
-76.208529 -127.508151 9.180654 -61.115004
-80.659592 -131.319078 7.548227 -63.593601
-78.011601 -142.075396 6.280956 -66.026099
-72.623190 -128.894381 -1.400065 -60.455271
-71.134030 -127.940843 5.575772 -59.722462
-73.863915 -128.700878 6.870470 -60.769438
-77.168817 -131.453044 8.240598 -62.586558
-64.222131 -128.462833 7.163929 -57.805489
-69.296956 -139.958244 -0.077947 -62.776560
-72.885461 -124.668512 11.623819 -59.266192
-60.920239 -131.603099 3.687516 -57.757001
-60.198879 -128.344961 14.322317 -56.563152
-94.282486 -139.287270 5.393328 -94.256026
-60.568852 -119.290440 19.490426 -53.957788
-77.269994 -122.736477 10.309706 -60.001941
-96.703473 -133.601139 13.524009 -92.881861
-68.204210 -128.774943 13.872807 -59.093746
-87.487925 -112.528677 16.133717 -80.125462
-72.295504 -117.537694 14.815880 -56.949960
-69.663521 -130.578804 12.247047 -60.072698
-75.299805 -121.161993 11.705892 -58.938540
-68.845555 -116.559923 15.305417 -55.621644
-74.567843 -123.510778 12.808555 -59.423586
-79.964117 -117.236362 13.250926 -59.160144
-78.346218 -123.522302 10.659180 -60.560556
-79.869894 -125.473985 8.857363 -61.603164
-97.479693 -127.667537 2.283582 -67.544169
-88.112056 -118.566174 3.982016 -82.605374
-81.037852 -129.382556 6.226906 -63.126123
-76.265858 -101.116122 13.823499 -71.075128
-79.660301 -118.559948 13.973160 -59.466075
-82.732908 -107.493716 7.696749 -75.572468
-89.633541 -122.605379 11.026238 -63.671676
-84.479557 -119.800746 5.772571 -61.284091
-79.572024 -136.900209 -1.295705 -64.941670
-103.359222 -146.258256 1.980951 -101.160084
-81.463999 -150.111905 -15.401559 -69.472771
-84.772358 -124.413836 -0.616582 -62.755858
-89.838760 -137.728093 0.100767 -68.270056
-92.108281 -141.383481 -11.611453 -70.047528
-66.536459 -165.889087 -5.280239 -69.727664
-77.460245 -146.397840 -5.487256 -67.157426
-75.739209 -148.804070 -1.079003 -67.362984
-79.520096 -143.650815 -10.906476 -66.951273
-82.117492 -151.729775 -9.288267 -70.154180
-83.049285 -134.085063 5.789629 -65.140304
-87.864807 -129.935632 7.028692 -65.340131
-84.367415 -141.418266 2.838673 -67.735704
-80.326021 -131.791996 3.105861 -63.635405
-78.536589 -147.038823 4.915619 -67.672624
-81.806282 -133.673681 6.290579 -64.643989
-75.125271 -139.468128 6.101666 -64.378020
-80.548655 -143.560169 4.098111 -67.232647
-77.255223 -142.213643 1.874107 -65.840660
-73.855314 -151.491142 1.947305 -67.603937
-79.679281 -153.283455 -4.279553 -69.888821
-78.193792 -155.666805 -0.488887 -70.158179
-62.224420 -168.931768 -0.337926 -69.346856
-73.019193 -157.411774 -3.237580 -69.129290
-70.424862 -169.599763 -8.514597 -72.007387
-70.771514 -170.472282 -2.358327 -72.373139
-58.211278 -171.738417 -1.473132 -68.984909
-59.542225 -175.400366 7.415285 -70.482777
-73.975976 -159.208961 -10.579981 -69.955481
-74.659170 -160.740006 -5.922876 -70.619753
-67.998404 -170.472606 -2.167469 -71.541303
-71.573552 -178.970124 -10.673692 -75.163103
-116.134109 -169.812617 5.424198 -116.190787
-59.104011 -174.687729 -0.491270 -70.137522
-45.588475 -170.020694 5.145734 -64.682750
-88.133009 -130.535558 5.625357 -88.116236
-52.487603 -174.453436 5.114466 -68.082312
-52.448828 -171.815559 9.488136 -67.279316
-43.647696 -148.216388 2.277463 -57.559225
-56.622209 -168.065865 -5.310130 -67.406422
-41.159954 -160.743023 7.233184 -60.570893
-48.617778 -148.987483 3.246489 -59.281578
-78.528661 -92.240442 10.760949 -63.522544
-37.563590 -117.319278 -33.182057 -46.464860
-59.347248 -71.073965 -4.576923 -46.653934
-94.061028 -87.974492 18.650562 -72.010319
-86.632163 -82.564767 12.317578 -62.758533
-89.194158 -94.990309 18.918341 -73.995172
-83.760663 -112.809886 13.955714 -78.776194
-90.365194 -88.438500 13.894293 -67.261685
-81.735925 -87.688057 9.982247 -61.348743
-61.256923 -100.591141 10.824405 -48.554419
-32.759235 -156.516269 -1.801679 -56.782651
-94.846074 -130.708102 13.583449 -91.070290
-68.975362 -96.806049 10.858616 -65.994034
-53.683027 -76.031214 4.842165 -48.302921
-52.941833 -77.049544 8.500623 -52.324767
-97.023424 -133.916586 9.042504 -90.831126
-90.513329 -129.229623 10.497854 -88.431785
-16.728442 -154.653380 -8.246961 -51.414547
-72.019138 -104.509806 8.893509 -70.246201
-71.273180 -94.403703 13.322625 -66.797520
-88.666601 -121.182541 13.641180 -84.391990
-75.838273 -86.398339 14.870856 -62.623985
-78.209540 -84.097406 15.927975 -62.950966
-84.931080 -89.185814 18.199533 -69.571137
-70.180446 -77.414617 4.295542 -50.017342
-75.006087 -81.843911 9.871554 -56.837482
-67.749474 -112.047046 22.933716 -53.938956
-70.840706 -95.414575 5.728724 -63.645596
-92.793199 -136.545753 -6.411983 -92.475121
-51.362143 -80.401924 3.369178 -51.787127
-59.628741 -90.664219 5.292529 -59.221101
-68.155447 -89.755513 13.148888 -63.591382
-88.016606 -127.880487 8.619513 -86.915337
-80.098387 -107.719177 13.676243 -74.818203
-116.853897 -172.038763 -1.210546 -117.571641
-103.245566 -151.296903 -6.301349 -103.089036
-98.949769 -145.686300 -5.621456 -98.921357
-79.353410 -118.180520 5.667439 -79.174302
-105.017882 -155.460571 2.219556 -105.598854
-101.706582 -150.005020 -4.636796 -101.915194
-113.771441 -166.299857 5.845462 -113.838997
-90.071507 -133.716204 -4.818259 -90.167241
-115.484789 -164.642066 -2.931931 -113.736698
-70.484158 -161.778791 -15.327419 -69.678885
-65.580439 -172.307044 -6.698139 -71.366245
-112.292918 -164.726681 0.093144 -112.283797
-121.121409 -177.077956 4.295127 -121.120205
-129.994434 -187.630797 5.084534 -129.915800
-112.341297 -165.439635 3.014371 -112.870364
-108.688668 -159.701684 -4.823549 -108.922117
-106.078526 -156.748860 -2.961622 -106.586677
-99.018190 -143.057867 -9.099532 -97.856608
-118.999122 -173.786596 -2.451357 -118.292914
-59.493904 -152.643920 -15.000258 -63.641347
-63.082935 -132.019987 -20.210563 -58.530876
-63.917992 -159.298580 -10.169018 -66.964972
-57.802171 -150.194952 -13.861870 -62.399137
-63.838683 -149.030694 -8.067922 -63.860813
-54.957319 -138.314245 -18.417370 -57.981469
-55.971464 -140.164650 -13.650810 -58.840834
-92.907241 -132.540584 -10.613995 -90.886348
-56.438288 -143.029120 -19.915639 -59.840222
-38.975528 -133.618235 -23.497376 -51.778129
-64.611104 -149.054051 -17.095946 -64.099546
-55.851582 -135.547630 -21.377349 -57.419764
-107.590902 -152.499671 -11.625335 -105.427504
-89.515438 -126.765752 -11.209918 -87.029073
-102.503171 -152.089750 -1.633989 -103.108958
-101.575366 -136.875717 -15.566971 -96.313137
-66.734123 -101.573017 3.924983 -66.975634
-71.761811 -74.213888 12.075469 -54.134052
-53.698015 -83.824368 3.098590 -53.788802
-39.439554 -60.124784 6.648971 -39.932325
-59.291373 -87.467816 5.383985 -56.539291
-64.494799 -73.557802 11.926549 -51.723990
-52.605637 -41.396349 -0.184882 -32.818382
-37.419157 -54.065317 8.117765 -34.522753
-31.488469 -24.339865 7.979542 -21.013257
-49.031855 -73.740472 6.966946 -47.689842
-58.113798 -116.478549 32.144574 -52.377704
-56.886284 -126.544036 -22.183329 -55.029096
-28.669963 -45.400233 5.872988 -27.598975
-50.560006 -78.530824 4.468433 -50.706548
-66.826850 -216.760991 -34.760087 -85.076352
-62.097061 -93.031173 6.512536 -61.224710
-71.402073 -108.170559 3.772301 -71.514274
-38.836565 -56.181144 8.162282 -36.182692
-57.541720 -125.678152 -17.954121 -54.965962
-55.786639 -86.368740 3.713794 -55.758876
-60.088223 -86.048167 6.928278 -56.734252
-48.679670 -72.732268 7.277571 -47.043168
-54.391665 -80.145213 7.919018 -52.559413
-64.792287 -99.335791 3.019464 -64.995343
-43.475231 -82.325921 18.048865 -37.740346
-48.696306 -59.985626 10.659666 -41.141690
-60.104313 -130.679803 -17.061099 -57.235235
-57.108640 -79.986594 9.414836 -53.062657
-61.304581 -138.779772 -18.635912 -60.025306
-64.297149 -155.052307 -21.236151 -65.804837
-63.738700 -146.093885 -20.769972 -62.949775
-59.897389 -141.339058 -19.022017 -60.370934
-60.569233 -121.880312 -14.773394 -54.734863
-64.314007 -138.104591 -16.097092 -60.725579
-64.160869 -143.164643 -18.640227 -62.197654
-59.606974 -133.978351 -16.078151 -58.075598
-64.951055 -138.503040 -19.877405 -61.036228
-61.134151 -140.642284 -12.974695 -60.532930
-51.354432 -151.451791 -13.239799 -60.841867
-63.336768 -149.892017 -17.273180 -63.968636
-64.897103 -174.266638 -22.385549 -71.749122
-54.977197 -139.554013 -20.197561 -58.359363
-59.114201 -135.984647 -15.288764 -58.529654
-54.017169 -127.741505 -22.775901 -54.527602
-62.847353 -128.640169 -16.249217 -57.446257
-61.183351 -134.603196 -19.153162 -58.735964
-55.137335 -119.186047 -12.887340 -52.297015
-56.203177 -129.765716 -21.318344 -55.790668
-60.344017 -127.582055 -19.015532 -56.377822
-62.610236 -127.899995 -18.295650 -57.153069
-63.413493 -135.065016 -16.640728 -59.543553
-78.074851 -111.006412 2.648739 -77.102173
-54.719244 -127.169522 -10.359471 -54.566630
-52.946117 -118.938396 -4.956776 -51.565354
-53.246713 -123.116926 -13.748143 -52.909091
-45.588909 -68.312532 7.189625 -43.973146
-56.459628 -82.490903 8.379614 -54.405186
-55.329755 -102.172043 -2.304060 -47.250539
-72.857461 -92.135030 6.414801 -64.477338
-63.681274 -121.919756 -6.841761 -55.680309
-62.555112 -80.888400 4.048478 -55.961982
-56.013064 -97.829240 -8.287867 -46.152691
-88.708791 -120.117793 2.055096 -84.235874
-61.873331 -111.509905 0.681211 -52.014971
-91.503349 -131.769147 1.644697 -91.017646
-53.057959 -107.807557 0.797570 -48.259655
-59.091525 -114.051077 2.408162 -51.942781
-55.785258 -112.222627 -0.327008 -50.402365
-84.725527 -113.431679 7.612438 -80.395477
-62.160176 -143.612561 -0.570383 -61.731821
-59.509856 -127.677921 1.942554 -56.156333
-95.948041 -134.707136 -3.682944 -93.723413
-87.870274 -122.687053 -2.675053 -85.646104
-60.279772 -133.072874 -0.069894 -58.005794
-70.673197 -137.667967 6.620203 -62.502349
-85.027092 -111.429505 12.873686 -77.257335
-72.020011 -106.684722 6.999858 -72.662023
-79.247903 -105.255940 6.795553 -74.235774
-78.227716 -112.308263 2.200996 -77.546460
-76.007109 -95.752870 4.279428 -68.655570
-83.372994 -108.698052 8.394023 -77.943144
-68.199795 -94.262570 2.625566 -66.297279
-84.841177 -110.583235 5.071781 -78.427496
-98.503020 -140.515822 5.878583 -97.512259
-88.945665 -123.756407 6.461054 -86.522840
-77.387238 -96.429215 12.318638 -66.648717
-82.404608 -108.533196 14.730432 -76.326858
-81.246745 -103.947107 8.274775 -74.295618
-78.162723 -99.741864 11.587780 -69.178365
-81.616561 -104.864865 15.438902 -75.033914
-78.383862 -105.648075 13.415256 -74.340877
-90.465181 -125.239953 12.249980 -86.154286
-76.802226 -102.533669 10.677047 -71.167769
-102.388402 -151.215678 3.665543 -101.988933
-85.613466 -128.151594 3.391409 -85.914344
-103.116738 -148.018106 9.961991 -101.654315
-93.282640 -134.712429 9.255644 -91.908163
-93.450159 -137.863989 5.832242 -93.303191
-86.307562 -110.374207 16.168275 -78.958817
-91.729278 -128.891893 11.951415 -88.800875
-80.261452 -106.972170 14.053915 -75.189153
-79.170564 -103.760725 14.537016 -73.329598
-75.314562 -97.545724 14.443637 -68.750132
-86.354944 -129.809646 0.555841 -86.923088
-94.351359 -140.201677 3.705773 -94.667180
-78.612561 -117.997899 4.275347 -78.686574
-84.807589 -118.002398 12.287454 -81.300601
-78.895690 -107.758569 12.879345 -74.508863
-89.723210 -120.264160 14.754739 -84.320456
-69.189439 -88.750042 13.455798 -61.691814
-80.830364 -103.250090 15.504635 -73.419956
-72.793780 -86.949555 15.633270 -63.336067
-57.998771 -87.825132 5.879052 -57.305163
-76.168997 -94.170265 11.236782 -64.548679
-61.698503 -94.491483 4.008174 -61.661440
-37.349747 -114.858931 16.847480 -45.662604
-95.380615 -142.303919 -0.793524 -95.987346
-86.215597 -129.624804 0.434821 -86.786106
-87.552533 -131.352476 1.591321 -88.074844
-78.638088 -115.982298 7.128707 -77.851537
-72.661183 -103.364092 10.288334 -70.020670
-6.203020 -105.396567 23.335150 -33.479876
-94.087543 -139.586900 -4.298987 -94.296338
-88.939508 -131.845371 -5.351384 -88.866708
-79.891924 -118.527479 6.242263 -79.446758
-60.152840 -76.581090 12.905140 -54.454312
-49.470330 -77.314647 4.043223 -49.277769
-67.099989 -97.693783 8.656674 -65.320470
-69.144662 -91.834211 13.031828 -63.668184
-57.815933 -219.884325 5.590446 -83.310077
-91.654256 -135.402091 -5.763133 -91.505710
-43.520968 -59.918592 9.562959 -39.456257
-28.881041 -47.943860 4.285959 -28.247845
-48.090077 -103.595761 10.519509 -45.505751
-45.991871 -105.801388 12.317874 -45.537978
-46.933118 -114.537635 12.669437 -48.441226
13.432892 -100.855131 35.363234 -26.226672
-47.518671 -102.958161 11.587577 -45.143049
-51.754804 -109.563680 9.278658 -48.395545
-28.980976 -94.859900 2.026393 -37.152263
-35.841679 -109.764119 13.046135 -43.681739
-48.550889 -102.147007 9.016966 -45.209369
-48.341297 -104.951713 8.713598 -45.987903
-47.159195 -108.806044 9.072036 -46.789572
-54.656584 -154.649933 5.884835 -62.791955
-37.443723 -60.408760 3.996767 -37.089646
-37.491593 -60.181787 2.498557 -36.582898
-38.215865 -62.807761 1.754124 -38.425793
-30.682663 -52.265034 -1.769572 -30.828184
-68.408767 -100.326525 8.088490 -66.948007
-47.188904 -95.130094 -1.645850 -42.695699
-14.725326 -19.218673 6.593546 -10.221800
-41.418426 -62.408099 7.042793 -39.611979
-48.476561 -76.301382 3.465800 -48.441284
-29.429590 -49.966529 2.876574 -29.319133
-43.746505 -106.123225 5.364057 -44.960919
-64.838107 -93.379325 9.348250 -62.500321
-44.443794 -94.682348 -0.327823 -41.737843
-50.299045 -109.809275 -8.470640 -48.032496
10.860313 9.177030 2.481853 7.472117
-29.384746 -77.278025 1.050796 -31.998831
-38.166455 -84.136606 8.318694 -36.690918
-37.595620 -81.634980 -2.379199 -35.769180
-32.714856 -84.639235 -2.988050 -35.206227
-56.696645 -117.615780 -0.876831 -52.293728
-35.972783 -87.436152 -1.656893 -37.022680
-41.512658 -90.320589 -3.709378 -39.549974
-43.386610 -92.116721 0.084789 -40.650999
-36.176170 -91.871418 2.551455 -38.414276
-37.710401 -94.733191 -3.472197 -39.733078
-54.536061 -127.127849 -10.296217 -54.499173
-4.557237 -7.863869 4.968957 -6.210955
-47.128211 -100.074208 -3.165156 -44.160726
-45.777869 -101.098680 -2.714752 -44.062965
-44.648284 -99.451923 -0.764927 -43.230062
-25.832120 -45.161253 2.486206 -26.294573
-44.221681 -96.371685 -0.742123 -42.178010
-68.276272 -100.135396 8.098033 -66.808961
-46.385317 -36.903875 2.227442 -30.704347
-62.051171 -95.790442 -2.182145 -62.361172
-61.998457 -77.777279 1.876066 -52.183370
-55.463706 -102.034105 -3.329038 -47.249343
-34.294485 -32.408139 9.577826 -24.068623
-53.224882 -105.902138 -1.403396 -47.738106
-44.119730 -98.099936 -1.137136 -42.665900
-49.568244 -100.079992 -2.967798 -44.894471
-51.063130 -104.739113 -2.630685 -46.740673
-50.411563 -109.125253 -2.468385 -47.861045
-51.934537 -114.843290 -4.521796 -50.033348
-48.414948 -109.045934 -5.085658 -47.238265
-49.327634 -108.052233 -5.455129 -47.213960
-57.506129 -118.416822 -13.657231 -52.776885
-52.266125 -117.273376 -9.293946 -50.861850
-45.300899 -103.244946 -6.889338 -44.563753
-54.563459 -113.948210 -11.140289 -50.553501
-53.851187 -117.248123 -11.604281 -51.329793
-58.450224 -122.814150 -15.949999 -54.379312
-45.962298 -107.044136 -7.237010 -45.901930
-46.053191 -107.409081 -6.496424 -46.038682
-58.054571 -114.418070 -11.768748 -51.741792
-53.828461 -113.420391 -10.867251 -50.174656
-52.909380 -116.955010 -11.813671 -50.959317
-56.554023 -124.928668 -14.520819 -54.444807
-59.510058 -123.361249 -15.733464 -54.861392
-61.189873 -126.147715 -15.504835 -56.201276
-59.398588 -119.351936 -13.702788 -53.625157
-61.069655 -124.897801 -16.458929 -55.790237
-62.783224 -131.383969 -17.129534 -58.250158
-60.037600 -119.048485 -17.045027 -53.725825
-66.505665 -152.160035 -23.643627 -65.599710
-29.880749 -48.574898 4.983461 -29.280992
-42.886826 -62.664390 8.074403 -40.482861
-60.838163 -92.160704 5.549623 -60.322978
-41.842022 -67.816135 1.776380 -42.222233
-67.894428 -149.129039 -27.237170 -65.107040
-44.308573 -70.794655 2.813331 -44.401275
-60.013930 -92.876498 2.379961 -60.277852
-59.894460 -116.355486 -13.407542 -52.874984
-59.801456 -121.736917 -14.705430 -54.461512
-62.238924 -126.700162 -16.474114 -56.681726
-59.939183 -132.853859 -20.912328 -57.837913
-46.022276 -55.713397 9.754087 -38.001947
-61.382920 -121.564890 -15.338725 -54.884343
-53.535534 -101.328569 -6.756311 -46.459231
-51.542816 -108.480177 -8.148170 -48.006898
-41.602798 -64.641957 5.625247 -40.773108
-58.523209 -109.164704 -17.902172 -50.306374
-46.774733 -61.447311 2.832254 -38.813564
-45.632784 -65.337099 6.435680 -41.362215
-36.865951 -59.653555 3.904657 -37.056966
-52.442211 -82.802433 0.154291 -52.848934
-74.611401 -122.059801 -32.944498 -59.001361
-40.417533 -54.322726 5.886421 -35.078822
-44.430299 -68.908717 0.579675 -42.488413
-41.334455 -49.154356 4.316807 -33.249715
-65.343364 -128.976822 -21.119697 -58.296056
-57.745616 -108.825028 -12.106838 -49.971193
-66.944826 -119.635085 -22.368250 -55.973973
-59.678117 -104.846010 -12.924731 -49.357238
-44.154130 -101.593687 -3.737219 -43.724345
-56.326875 -113.676383 -11.257518 -51.000977
-55.839628 -110.862737 -10.076766 -50.010709
-49.008467 -102.463934 -4.801789 -45.441720
-48.629375 -103.437271 -4.792143 -45.619994
-51.831834 -112.859217 -10.395073 -49.407315
-56.094401 -108.623416 -9.333282 -49.415345
-53.870257 -108.363808 -8.352004 -48.670219
-49.837646 -108.494661 -8.574533 -47.499692
-45.760743 -100.828599 -5.576548 -43.976803
-46.000909 -102.788376 -4.964297 -44.636786
-41.735764 -99.898315 -3.967357 -42.490224
-38.462481 -98.407309 -4.560288 -41.060937
-42.936599 -102.153545 -4.452447 -43.527043
-37.503844 -97.327908 -2.213522 -40.449526
-41.267028 -101.485400 -5.079139 -42.825728
-51.435814 -108.296778 -8.079259 -47.919778
-48.514511 -107.610414 -7.411902 -46.837478
-32.608685 -91.897268 -0.305494 -37.351786
-34.836090 -94.902117 -2.522778 -38.921462
-37.913243 -96.105919 -0.117743 -40.205749
-35.703906 -94.037840 0.651127 -38.922524
-28.409348 -86.133277 1.222637 -34.362788
-30.568028 -88.798279 -0.557893 -35.809892
-39.925019 -91.401324 3.024252 -39.397903
-30.941593 -90.528197 2.615453 -36.440937
-38.200590 -95.490269 0.021917 -40.107258
-35.934943 -84.279665 5.605901 -36.064383
-36.565098 -83.911349 5.848672 -36.142934
-34.189205 -92.401727 3.317854 -37.977280
-45.240324 -98.567257 -1.312368 -43.142274
-43.342911 -99.256749 -1.949246 -42.779898
-40.955242 -95.919494 0.008103 -41.062421
-34.838356 -92.228324 3.599513 -38.120004
-54.367220 -89.084392 -8.263786 -43.035484
-51.214268 -93.463237 -4.053136 -43.403251
-59.843462 -109.625944 -27.510784 -50.840822
-55.976227 -99.455617 -10.594421 -46.629553
-64.631530 -97.380659 -26.268586 -48.603657
-58.951236 -97.645177 -17.518206 -46.978924
-78.173423 -112.461899 -33.089606 -57.190597
-64.815414 -95.856067 -18.237297 -48.201444
-58.431704 -77.656222 -11.585736 -40.826378
-56.782189 -94.135169 -10.490151 -45.275207
-53.711780 -59.575586 -0.076768 -39.667324
-62.837113 -65.434464 -4.880624 -43.122077
-47.422262 -95.927985 -1.633396 -43.005074
-42.057468 -87.705470 2.029718 -38.928882
-30.667809 -85.658067 7.692873 -34.897763
-37.930581 -90.073567 3.602524 -38.401244
-48.903302 -79.433797 -4.927212 -38.501130
-48.239026 -85.752257 -1.621834 -40.197385
-34.962297 -74.898009 -6.190328 -32.958092
-33.910838 -71.981152 2.054867 -31.767597
-48.722436 -84.904658 -7.616706 -40.088128
-45.777889 -82.272070 -5.086866 -38.414988
-76.633910 -106.753903 -30.325069 -55.016344
-48.485245 -47.179056 3.745196 -34.596240
-52.029768 -86.511740 -14.073077 -41.562452
-53.688741 -82.749196 -4.841455 -53.316597
-17.409401 -39.468090 3.441036 -17.063247
-43.302543 -66.055029 -14.312218 -32.807272
-35.884479 -59.785874 1.537765 -36.117883
-31.851948 -81.466367 -16.625289 -33.995495
-38.832253 -75.748640 -2.055563 -34.374268
-4.530386 -65.472438 -0.271231 -21.000847
-33.161033 -66.397560 -4.671822 -29.867578
-43.825731 -73.150828 -7.104054 -35.092968
-31.756417 -79.754245 8.249825 -33.453199
-26.156666 -52.810285 1.545325 -23.690085
-35.451884 -77.694380 4.887136 -33.943879
-34.590707 -69.913999 2.825184 -31.351412
-28.131627 -89.700595 1.735019 -35.349667
-33.029995 -88.807338 6.180461 -36.551200
-31.639990 -73.800442 7.531151 -31.632130
-23.330618 -64.845264 9.068297 -26.452765
-27.757072 -77.251102 1.526545 -31.502452
-26.686517 -87.024815 4.243530 -34.113399
-28.641623 -86.223447 1.113953 -34.459521
-29.114863 -89.256378 5.170989 -35.511372
-24.201806 -79.881006 2.641875 -31.224844
-24.753521 -85.620128 7.572153 -33.112095
-26.453160 -81.597981 1.726132 -32.415342
-26.923724 -87.888574 3.287169 -34.443689
-26.336906 -89.546323 7.623339 -34.764968
-27.247794 -84.388181 8.083510 -33.490792
-31.452960 -74.489489 2.688046 -31.782735
-36.925960 -61.290257 0.150467 -37.248559
-34.204233 -47.648162 -0.664783 -28.587681
-15.057465 -61.173301 10.121635 -22.869230
-16.930856 -31.743573 -3.437175 -17.106033
-34.727925 -52.693012 -6.854956 -32.708713
-49.032085 -74.345880 6.581594 -47.811375
-27.513909 -48.241020 1.061080 -27.745647
-25.538814 -41.864658 -5.202720 -24.581402
-33.159190 -54.818265 -3.282074 -32.630697
-28.080402 -57.608042 4.860960 -25.706533
-29.583623 -50.873343 -1.430735 -29.773188
-46.119891 -70.099510 6.581129 -44.793039
-24.929218 -76.300574 1.076549 -30.368938
-25.881536 -73.083190 -3.269621 -29.689418
-26.243507 -79.097634 -0.266804 -31.602342
-27.650574 -65.344423 0.544954 -27.898499
-28.985582 -82.929193 -1.854987 -33.574433
-30.146881 -82.543330 0.598373 -33.807063
-29.512433 -82.914728 1.124032 -33.728148
-5.224554 -14.855210 3.393845 -6.023929
-10.033230 -21.204960 3.859243 -9.371457
-30.761692 -73.147879 -1.902855 -31.172871
-32.059920 -77.500293 2.252969 -32.868064
-33.919879 -57.141920 0.141560 -34.258285
-39.501697 -64.722640 -1.113198 -39.786832
-36.393513 -60.200639 1.878671 -36.566786
-28.176592 -53.423629 10.866663 -24.480066
-40.242692 -60.958612 -5.809789 -37.803516
-40.585173 -63.674450 5.222857 -39.794309
-37.356247 -60.277500 -3.481308 -36.591447
-37.455740 -61.586561 2.123016 -37.594974
-52.877738 -79.792501 6.631122 -51.731513
-12.793022 -24.686276 4.211851 -11.864878
-38.353681 -57.774252 -2.462579 -34.634833
-39.372777 -64.409354 -1.661818 -39.596461
-33.626233 -54.289056 3.242275 -32.391974
-35.408590 -57.584832 -3.885002 -35.057385
-34.568056 -79.171544 -0.742168 -34.121880
-43.820281 -78.796495 1.543267 -36.785033
-34.747752 -58.201436 0.676144 -35.038436
-40.880265 -87.686002 -12.616321 -38.569880
-43.664108 -93.958017 4.546074 -41.286638
-41.598312 -96.552911 4.820668 -41.445367
-43.197895 -80.977957 4.501981 -37.252756
-42.421893 -89.090010 6.082586 -39.453571
-45.509709 -105.069866 -0.282963 -45.173872
-49.820881 -105.179530 2.985055 -46.500123
-43.786577 -89.974727 3.854086 -40.128391
-44.865692 -105.546323 4.573662 -45.123605
-42.293948 -67.623676 -3.431117 -42.183966
-51.367566 -112.643569 6.598061 -49.203341
-80.336085 -113.363510 -11.126022 -77.464228
-42.025947 -89.275713 4.093163 -39.390498
-41.004708 -66.126762 -2.906234 -41.013196
-49.791492 -76.982466 -4.995991 -49.064746
-42.601925 -67.383816 -4.327798 -42.214723
-40.160083 -64.865825 -3.050280 -40.123400
-40.651709 -56.125211 -8.064817 -35.703471
-44.853583 -71.649914 -2.625947 -44.648432
-28.412554 -43.460429 -6.654381 -26.159141
-37.690205 -57.376128 -6.716922 -35.907921
-21.914783 -36.488471 -5.199480 -20.799978
-27.181372 -63.536033 -4.670969 -27.215222
-42.701418 -61.961251 -8.281680 -39.965228
-26.369730 -58.661736 -13.711049 -25.509440
-40.919879 -58.017014 -8.756372 -37.555488
-49.683224 -67.730796 -10.355258 -45.334323
-35.789176 -54.105485 -6.952157 -33.753373
-34.429497 -53.342420 -5.305192 -32.217444
-84.579565 -117.604798 -12.314961 -81.036139
-25.743086 -93.546585 -19.958113 -35.786901
-27.811529 -88.496292 7.972037 -34.892346
-77.994024 -110.039678 -11.030437 -75.076858
-42.251100 -79.939988 4.346763 -36.657326
-44.933527 -72.321725 -0.768797 -45.274526
-49.695750 -77.974456 -3.476022 -49.659287
-46.449512 -110.101009 -0.899299 -46.965156
-44.767060 -69.735162 -5.118616 -44.115468
-57.222923 -78.801683 -10.758207 -53.178485
-58.385752 -86.258000 -7.726063 -56.807543
-38.269163 -63.123018 -0.276550 -38.564484
-32.723495 -85.202953 3.633813 -35.377934
-30.768871 -71.351845 -6.381833 -30.636215
-25.658883 -87.070627 2.210757 -33.818853
-31.720311 -69.743008 -1.861672 -30.438996
-15.222298 -68.755528 -8.083371 -25.193348
-19.451921 -71.147890 -9.040265 -27.179943
-24.693738 -69.710813 -2.608824 -28.321365
-43.207259 -76.904283 -9.531686 -36.033463
-41.537979 -57.564532 -9.170880 -37.497566
-36.433383 -52.780251 -7.827657 -33.297111
-58.253898 -84.880136 -7.715902 -55.483683
-42.124388 -56.364570 -9.896454 -37.290964
-30.608999 -46.610664 -6.488544 -28.207071
-61.881966 -94.289460 2.534532 -61.564670
-50.580980 -67.614711 -10.798953 -45.517226
-63.435756 -85.703397 -11.899319 -58.541217
-43.934043 -55.901215 -10.748139 -37.875347
-58.609710 -75.069549 -12.595977 -52.191138
-6.505059 -60.309664 -21.024426 -20.044417
-52.025983 -64.222543 -12.191516 -44.742232
-53.543632 -73.910664 -9.430836 -48.713685
-50.253647 -75.810240 -6.700704 -48.983781
-66.208319 -78.824288 -14.664592 -56.731829
-68.642620 -90.993883 -13.007744 -63.122153
-47.545621 -66.535499 -9.537864 -43.938225
-58.262756 -77.453087 -11.803307 -53.048400
-69.177036 -94.544469 -11.800942 -64.581718
-59.074898 -76.143555 -12.540472 -52.840861
-61.622972 -81.487343 -12.297868 -56.088542
-64.786410 -80.731082 -13.877481 -57.177422
-59.504882 -75.363806 -12.898695 -52.693498
-66.325939 -88.892824 -12.291075 -60.746747
-63.676558 -85.074591 -12.232968 -58.102394
-51.821144 -64.696458 -12.040724 -44.966080
-64.786093 -83.215912 -8.516658 -55.162185
-57.361178 -73.269325 -12.480168 -50.907566
-52.839313 -73.747076 -10.006728 -49.204198
-59.777337 -77.109093 -12.578596 -53.120688
-63.083140 -78.809529 -12.516035 -54.569118
-66.639495 -87.122808 -8.480051 -57.913010
-65.660362 -82.971587 1.939801 -53.736554
-54.873400 -79.764664 -8.592221 -52.594841
-50.520469 -74.503648 -5.238971 -47.265492
-47.364150 -69.432927 -8.083307 -45.081900
-51.429321 -79.294178 -2.848643 -50.138096
-54.813803 -82.113086 -5.423867 -52.711931
-53.435388 -108.927530 -17.682581 -48.708875
-60.485408 -91.940758 -5.202408 -59.789968
-65.332598 -124.726112 -26.233962 -57.017613
-55.082824 -121.553796 -15.625860 -52.990986
-52.426372 -98.461389 -8.860487 -45.266328
-61.780198 -89.743539 -2.906457 -57.681047
-51.842986 -113.072920 -6.353299 -49.474772
-52.364057 -111.905865 -14.974284 -49.280977
-46.829593 -116.686604 -5.192883 -49.054859
-47.271254 -115.686695 -7.068895 -48.887385
-54.924876 -112.536002 -8.920871 -50.238263
-71.695191 -81.423860 -4.220174 -53.824756
-48.527142 -106.174891 5.611126 -46.410610
-50.014421 -108.974527 2.449041 -47.696684
-64.509116 -110.132395 -10.593892 -52.392453
-63.905235 -117.173719 -15.023927 -54.323686
-49.956576 -47.269492 8.885550 -34.557842
-66.747201 -123.097809 -0.896817 -56.953503
-76.559155 -111.463528 -11.861710 -56.406805
-62.941898 -82.100310 -9.554950 -54.803420
-67.578427 -75.056154 -9.027480 -51.224715
-49.246847 -185.563311 1.023386 -70.443047
-60.747599 -116.990289 -4.350683 -53.321366
-58.829410 -124.867593 8.016351 -55.109101
-49.064355 -105.306049 9.028749 -46.311121
-49.895732 -106.582939 8.590949 -46.943601
-35.156230 -96.608961 24.770417 -39.529557
-63.333546 -115.834691 1.202808 -53.750471
-48.388370 -105.581577 7.785616 -46.190984
-60.949438 -111.892500 3.213508 -51.852581
-23.611554 -110.581007 20.721160 -40.257768
-60.077823 -117.009828 13.028043 -53.126295
-40.410321 -116.769954 17.548251 -47.154083
-32.642097 -106.282004 10.285927 -41.677230
-12.972273 -131.836118 0.779242 -43.442517
-79.927968 -145.651418 13.417234 -67.673816
-55.950711 -179.570302 22.433676 -70.656304
-64.247286 -113.692529 8.618952 -53.381944
-63.827620 -84.764732 -8.155345 -55.991178
-58.015273 -61.295727 -12.894566 -45.142756
-65.730255 -75.464773 -11.639629 -52.757259
-58.965060 -77.025709 -7.646417 -51.007930
-54.397101 -54.964455 -8.984936 -38.664886
-65.666719 -124.084181 1.618402 -56.925270
-63.815499 -83.363951 -8.969357 -55.383642
-66.564792 -94.499913 -10.143921 -63.725593
-65.945517 -88.830427 -5.244423 -58.463480
-59.295966 -77.108915 -9.268660 -51.202094
-74.026707 -102.802913 -11.692406 -70.364308
-63.105703 -86.096054 -8.975784 -57.063678
-60.536182 -82.931900 -10.873964 -55.734529
-74.718280 -99.871727 -10.239251 -67.395131
-63.652383 -124.342660 -2.204539 -56.398513
-84.832841 -120.520159 6.689187 -80.785921
-66.419802 -125.921342 -1.564199 -57.702343
-74.285344 -109.314125 -7.405022 -73.066923
-67.373253 -91.088025 -12.254412 -62.628933
-82.794099 -115.854940 6.653419 -77.530066
-58.864019 -85.172111 -8.859771 -56.455385
-64.330735 -84.130301 -12.876608 -58.417163
-64.877757 -94.732772 -8.431701 -63.007987
-59.545555 -79.915058 -11.700840 -54.627416
-55.297304 -71.484332 -12.013202 -49.288441
-50.978139 -76.818125 -6.652588 -49.619201
-65.504787 -85.616050 -13.027506 -59.537904
-58.381872 -75.156751 -12.475247 -52.133565
-64.858077 -88.729083 -8.808462 -58.824796
-62.962651 -81.336573 -12.872298 -56.181808
-61.729774 -82.952176 -10.353198 -55.607663
-58.098816 -73.678419 -5.041763 -47.879764
-66.498367 -89.409165 -10.241528 -60.045081
-59.944871 -78.357321 -8.486865 -51.646190
-57.547503 -76.175209 -8.182150 -49.905457
-65.857464 -83.563526 -11.605959 -57.151944
-53.016276 -64.811934 -12.431075 -45.492008
-77.302341 -112.982414 3.157214 -74.483409
-74.480459 -103.241236 -11.816661 -70.740062
-63.077922 -81.521788 -12.990043 -56.789900
-62.673420 -84.504672 -11.888602 -57.876149
-59.482619 -73.358718 -13.272236 -51.840047
-72.488751 -107.091158 4.507692 -70.896426
-15.113029 -27.758390 2.766461 -13.729122
-77.710785 -115.317121 1.789005 -76.447045
-74.751434 -109.274541 7.074695 -73.214627
-58.930128 -87.589581 -6.622572 -57.515143
-24.259321 -41.679867 -2.726739 -23.544124
-88.109332 -130.655032 3.405375 -87.923663
-77.923940 -116.347383 2.265310 -77.524162
-99.782244 -132.059185 -15.899738 -93.472464
-113.822588 -166.531299 -3.792161 -113.908164
-94.337573 -137.942001 5.835385 -93.422975
-44.247623 -127.635804 8.627983 -51.565028
-81.243078 -117.898317 3.506359 -78.106583
-80.256621 -115.802178 8.540464 -78.192607
-73.545196 -107.434722 -7.916124 -71.873660
-80.841128 -115.049297 4.928196 -76.486036
-84.282665 -121.134331 5.905616 -80.875668
-16.812154 -130.427114 12.845838 -44.171781
-79.851167 -114.216080 3.781299 -75.719610
-55.336471 -125.791880 7.691866 -54.338505
-86.056337 -122.153265 7.441412 -81.944915
-87.026763 -126.378262 6.328292 -84.647405
-67.492732 -127.060605 2.280462 -58.366001
-82.965382 -120.219323 5.845247 -80.088494
-55.965328 -83.170412 -6.896249 -54.776059
-91.610422 -133.325520 6.013996 -89.597055
-87.488230 -125.592485 7.575327 -84.454126
-31.190211 -132.157418 11.112561 -49.004289
-40.962727 -64.416119 -4.080871 -40.199776
-89.956051 -129.921200 8.309359 -88.382499
-79.255332 -114.816593 8.111800 -77.536809
-87.117594 -126.475438 7.932474 -85.723483
-87.204923 -127.631024 3.974266 -85.180269
-94.526304 -138.849667 5.366918 -94.054177
-39.711299 -57.621930 7.324651 -36.989794
-67.903174 -88.954012 -12.972055 -61.906918
-66.461326 -94.200536 -9.614471 -63.498020
-109.186986 -142.920579 -17.627360 -102.049343
-69.956224 -71.247978 9.854362 -51.787341
-102.943722 -130.558037 -18.178223 -94.207083
-97.884958 -143.888854 -3.472919 -97.615442
-109.068358 -159.656692 -2.412399 -108.964482
-44.504966 -68.349462 1.973258 -42.511195
-38.924193 -60.752012 -4.026517 -38.431964
-65.232881 -90.168635 -7.792146 -59.680872
-62.839448 -62.770477 -2.552363 -44.297217
-63.028498 -61.977683 1.674072 -41.627662
-54.930960 -67.249142 -2.400971 -42.987192
-68.718810 -62.256239 2.836938 -43.912175
-67.276715 -60.391799 -0.128022 -42.333645
-69.506835 -70.670125 6.829096 -50.105256
-60.647183 -76.718628 7.898038 -51.586934
-75.704418 -101.176872 2.670138 -67.488332
-50.899711 -72.785619 3.309658 -47.744373
-57.295230 -87.923822 0.566153 -57.004293
-86.701196 -121.763409 -10.723546 -83.526280
-47.592962 -70.422099 2.233598 -45.655576
-45.023542 -56.344181 2.587991 -37.505573
-67.245487 -80.427481 7.891239 -55.855216
-65.134791 -92.510558 4.440746 -62.024471
-63.845975 -58.482824 0.683696 -40.954303
-58.803017 -59.875274 2.687322 -41.120276
-39.011264 -54.784499 1.781189 -35.118747
-52.537127 -56.778506 -0.265897 -38.485104
-59.887548 -66.764366 5.208807 -45.612529
-45.589739 -60.938048 2.263155 -39.653760
-45.219164 -56.513959 0.951219 -37.426570
-35.470487 -51.375851 3.236634 -32.562786
-53.150326 -64.030000 4.196069 -42.708965
-40.164555 -59.507482 0.804731 -37.652583
-34.330935 -52.043280 -0.823798 -32.294235
-48.594438 -71.458258 2.276229 -46.025380
-39.826417 -63.459367 2.918648 -39.286369
-55.265158 -151.290238 20.048992 -61.966619
-46.488369 -71.512904 4.612883 -45.477156
-35.894182 -107.535623 11.565757 -43.028942
-28.265401 -119.982978 14.938171 -44.474514
-34.669879 -55.735085 -3.644482 -33.864560
-51.910925 -80.794181 -1.294042 -51.659943
-57.369529 -87.339110 -3.994063 -56.721039
-31.790517 -127.074381 13.487346 -47.659470
-53.449192 -128.957318 13.868406 -54.721953
-72.741879 -109.424847 3.097903 -72.537361
-62.316926 -132.431435 4.982135 -58.424508
-78.514474 -117.322629 2.739059 -78.227527
-63.412382 -95.303194 -0.539858 -61.708907
-45.691491 -55.400750 -11.333515 -38.300377
-70.897412 -102.527367 -8.363981 -68.667213
-59.065237 -81.036442 -10.941409 -54.681811
-32.349383 -82.614507 10.590868 -34.489167
-74.830577 -112.065000 -1.468106 -74.377921
-65.392970 -98.222330 -3.404524 -64.454213
-48.180904 -69.288835 -8.308367 -45.118629
-44.883354 -125.921268 19.144790 -51.241387
-51.269025 -127.686779 11.288401 -53.686741
-38.154241 -130.671652 16.925113 -50.647768
-40.430409 -122.239744 13.475556 -48.801046
-36.091260 -57.430055 3.421703 -35.136903
-43.765154 -104.695129 13.450206 -44.538085
-31.636529 -121.238595 16.991804 -45.862537
-33.732932 -107.951597 15.075804 -42.505358
-29.908349 -96.882139 13.593078 -38.037146
-41.772799 -97.890822 12.737756 -41.899086
-25.776530 -94.837910 14.274444 -36.184332
-51.464683 -73.708538 -8.636966 -48.430535
-29.659927 -84.812767 8.538026 -34.341808
-14.401876 -28.192151 1.076075 -13.663420
-17.993705 -73.536279 10.324478 -27.458995
-24.928478 -62.542954 7.898380 -26.241430
-28.270448 -85.159959 23.226210 -34.029122
-22.768587 -54.336623 19.023320 -23.131563
-27.275753 -110.382037 15.339002 -41.297337
-23.339006 -133.621729 12.304720 -47.088220
-23.987304 -116.402926 13.462949 -42.117069
-24.368463 -117.160598 17.260128 -42.458718
-18.791182 -88.444827 13.428452 -32.170803
-22.942719 -79.665148 11.162313 -30.782360
-30.613788 -125.467173 9.447076 -46.824288
-20.695376 -117.078686 15.095532 -41.332219
-24.116168 -136.118925 5.280177 -48.070528
-25.816027 -128.744459 12.629518 -46.368146
-44.117436 -126.808547 11.630422 -51.277795
-29.565473 -130.144983 7.205742 -47.913137
-32.268232 -120.748303 7.833862 -45.904961
-30.231598 -117.679896 15.577085 -44.373448
-28.837240 -48.327832 2.315005 -28.262538
-19.598486 -35.412189 -1.778433 -18.872771
-33.825658 -55.637522 1.003183 -33.419206
-15.807708 -18.753717 -6.594559 -11.884694
-26.246315 -45.062347 -0.865699 -25.747471
-17.553347 -33.568908 -0.531420 -17.328350
-32.508251 -53.824845 -0.986044 -32.103453
-25.060641 -43.987090 -0.623678 -24.882317
-32.834803 -53.887894 -1.677841 -32.214017
-29.181392 -131.881229 8.025588 -48.318786
-20.784220 -38.218414 0.443046 -20.663641
-30.439445 -50.681675 -0.469578 -29.740544
-13.525188 -28.076585 0.928013 -13.340224
-26.633971 -46.141011 -0.483882 -26.447839
-12.694838 -26.464702 -1.880087 -12.313707
-19.348265 -32.484285 2.780300 -17.054395
-31.970424 -53.244140 -1.903846 -31.663386
-21.773141 -37.416729 -2.154542 -20.425329
-30.467938 -50.206847 -0.243940 -29.519855
-24.527825 -162.084144 3.266218 -55.983591
-6.239888 -76.741931 4.521767 -24.894546
-17.845684 -34.129232 0.494115 -17.704842
-22.424282 -39.540235 -2.764062 -21.910662
-23.998945 -42.573645 0.658040 -23.843097
-26.242428 -45.686456 -0.502473 -26.098001
-15.449588 -30.543287 -0.367738 -15.178748
-12.511933 -26.588305 -1.206236 -12.287709
-10.713587 -22.481226 -2.912159 -10.869911
-10.312457 -23.269883 -0.200336 -10.887242
-12.420570 -26.512290 -1.322888 -12.286321
-12.425050 -25.960656 -1.466614 -12.421688
-15.953235 -130.657969 6.394046 -43.983361
-7.377320 -75.512156 3.179302 -24.866843
-5.122481 -147.423162 -8.309820 -45.763693
-0.575891 -10.281502 0.744612 -3.257218
-20.973281 -37.175300 -3.188704 -20.308737
-19.399601 -36.221716 0.363131 -19.229528
-17.341366 -33.085534 -1.850966 -17.073260
-36.562826 -52.832763 -7.875422 -33.495269
-2.523919 -12.335754 1.685671 -4.457902
-6.446956 -282.018122 -24.352574 -86.539524
4.420753 -72.930427 1.868772 -20.552902
79.008556 -61.790294 17.098452 5.165479
17.407257 -45.526844 -7.722427 -8.435876
10.567467 -67.491619 0.279289 -17.077246
7.391168 -50.087137 1.040196 -12.808791
9.085640 -87.550281 -1.929548 -23.539393
31.055618 -43.151480 -22.331045 -3.628759
-16.998175 -31.539007 3.533808 -17.075893
-26.245374 -46.346928 0.302795 -26.446412
-14.860715 -23.559918 -5.893695 -12.080218
-3.334932 -11.229448 -3.674107 -4.369314
-0.514490 -5.498065 -3.984511 -1.803766
28.883577 28.923592 0.003736 29.018784
-4.777005 -10.824586 -4.565677 -4.680477
10.108463 5.064419 1.385492 4.779567
-18.126514 -14.273218 -1.114844 -9.719920
-7.898983 -62.726660 2.943258 -21.187693
3.432267 -68.866793 -10.540564 -19.630358
22.029249 21.947836 -0.648250 21.605919
16.527459 13.993194 -1.101203 13.780535
-17.838564 -109.993508 16.172192 -38.349622
13.757247 -125.396096 9.603178 -33.491655
-10.574143 -98.474147 2.323818 -32.714487
-19.563509 -133.741560 10.175277 -45.991521
-18.610552 -108.004440 12.238973 -37.984498
-7.575996 -95.146592 6.459997 -30.816777
-21.233989 -104.413473 18.254351 -37.694239
-17.364764 -77.517728 9.597472 -28.464747
-6.237157 -82.454952 6.954032 -26.607633
2.132661 -71.499459 5.431622 -20.810039
14.324952 12.976800 -1.746310 12.070931
9.940413 -65.537624 -9.532724 -16.679163
28.863757 28.796607 0.015763 28.928605
17.543866 16.519618 -1.253468 15.901712
29.070616 29.181383 -0.027131 29.210010
-2.896602 -57.930629 0.887035 -18.248169
64.679089 -44.689138 -35.221192 5.996985
22.738681 -52.633252 -26.256709 -8.968371
-0.156166 -5.553895 -3.467746 -1.713018
10.643886 -96.714494 -10.193219 -25.821182
-3.469465 -11.780689 -3.248500 -4.575046
22.109987 22.684902 -0.505394 22.215620
-7.466613 -63.105767 -2.555613 -21.171714
2.521975 -47.876833 2.961288 -13.606457
-15.250412 -66.405666 -2.968819 -24.496823
-11.152811 -54.934645 3.354701 -19.826237
12.417691 -55.553950 -11.016124 -12.940878
-11.702500 -64.602609 -18.552456 -22.891533
-8.021591 -57.979331 1.521988 -19.800277
0.656705 -60.682528 -10.220655 -18.007747
-15.330188 -67.730618 -2.627676 -24.918242
-14.292315 -65.576803 -8.862230 -23.960735
-35.384316 -76.294809 0.276941 -33.503738
-15.144155 -62.483001 2.497225 -23.288147
-30.925599 -80.300584 3.955313 -33.367855
-19.880088 -68.295970 1.586878 -26.452817
-23.293277 -85.846496 1.770333 -32.741932
-42.885629 -101.858963 -7.306035 -43.423378
-21.103855 -76.602934 1.590308 -29.312037
-25.964782 -75.647895 1.200829 -30.483803
-19.413242 -82.168098 -4.877602 -30.474402
-24.480014 -97.818336 -1.838529 -36.689505
-23.831314 -70.975710 -2.828487 -28.442107
-12.273682 -60.108853 2.054075 -21.714761
-16.567344 -68.831633 -3.143026 -25.619693
-26.712496 -72.044136 -0.248785 -29.626990
-18.876081 -68.163881 -1.568003 -26.111989
-25.674601 -74.070306 1.953439 -29.923472
-19.496796 -67.234619 0.666335 -26.019424
-13.368196 -61.925951 2.557434 -22.588244
-16.777506 -69.390872 1.701925 -25.850513
-20.397296 -70.910620 0.596685 -27.392375
-17.813208 -69.452076 1.449569 -26.179585
-20.686017 -76.406521 1.530477 -29.127761
-20.107395 -82.402232 -0.261718 -30.752888
-16.015678 -64.784273 -8.967251 -24.239985
-16.804984 -72.416511 0.494046 -26.766448
-16.522372 -73.409316 -2.407809 -26.979507
-13.099499 -55.382972 -5.041636 -20.544741
-14.363570 -65.289781 -3.248267 -23.896005
-14.508956 -63.258503 1.836170 -23.330238
-16.208554 -66.713034 1.233527 -24.876476
-12.964812 -63.222472 0.397366 -22.856185
-8.461346 -49.022508 1.930099 -17.245156
-5.811995 -55.589567 -0.515083 -18.420469
-11.372503 -55.485167 3.932866 -20.057301
-9.921278 -58.569533 1.160874 -20.547243
-10.140072 -63.383757 -0.314888 -22.057149
-1.223140 -58.289139 -3.551462 -17.853684
-9.644199 -60.907278 -2.867863 -21.165443
-16.692363 -66.101643 -0.136217 -24.838202
-11.689989 -60.059299 2.213630 -21.524786
-14.610734 -29.982418 -0.074362 -14.582033
-3.937026 -82.712003 -3.835882 -25.994709
-1.029690 -54.434380 -3.818384 -16.639221
-8.348228 -54.222983 2.057467 -18.771363
3.728678 -53.583891 -2.448687 -14.956564
-6.501111 -37.284515 7.230927 -13.135688
-6.430876 -58.119575 -1.246606 -19.365135
-2.637298 -51.477573 0.286323 -16.234461
-9.449462 -53.007596 2.641459 -18.737117
-8.604713 -52.755300 2.115568 -18.408004
-5.283421 -44.398801 4.084915 -14.904667
-8.984070 -49.175681 4.330000 -17.447925
-12.229386 -45.076264 2.860106 -17.191695
-11.979652 -48.057896 2.544104 -18.011265
-5.108670 -13.401384 3.926368 -5.553016
-11.321348 -46.807536 2.163763 -17.438665
-9.216691 -42.466179 0.136547 -15.504861
-12.484311 -43.211070 -2.062994 -16.708614
-11.668122 -44.787989 1.548075 -16.936833
-9.931850 -49.779296 4.851796 -17.913344
-9.890666 -45.534611 4.426570 -16.627583
-12.021548 -49.524249 3.875113 -18.463739
-10.772977 -46.778202 3.806799 -17.265354
-10.601662 -45.654793 3.961541 -16.876936
-11.509847 -52.356441 4.000281 -19.159886
-11.972499 -56.404136 3.667768 -20.512991
-12.289870 -59.142102 2.508830 -21.429592
-9.674076 -53.040849 2.721899 -18.814477
-13.856425 -64.811062 1.672629 -23.600246
-11.485956 -57.709829 -0.079196 -20.758736
-11.574747 -58.162563 1.656077 -20.921193
-12.337486 -59.909343 -1.593650 -21.674049
-14.110973 -65.952628 -0.678510 -24.019080
-12.123789 -62.900178 -2.298588 -22.507190
-9.893760 -52.441190 -0.908774 -18.700485
-10.428526 -57.457945 -0.262720 -20.365941
-10.875866 -53.499902 -2.733937 -19.312731
-7.248726 -45.896264 -0.694838 -15.943497
-10.440732 -47.681108 3.697129 -17.436552
-8.001266 -44.463553 0.910210 -15.739445
-10.587707 -52.120696 2.545856 -18.812521
-10.940728 -56.394827 1.889479 -20.200666
-8.573981 -50.853760 0.437600 -17.828322
-10.861320 -54.627159 1.570385 -19.646544
-8.560779 -43.082575 3.164980 -15.493006
-8.537787 -47.272609 2.674102 -16.743119
-6.141178 -37.234693 2.037638 -13.012761
-10.032404 -47.843611 2.813873 -17.362804
-6.917175 -44.675577 0.800566 -15.477826
-9.615636 -48.775267 1.850335 -17.517271
-8.245926 -46.452373 -0.376004 -16.409490
-9.499563 -51.002399 0.587895 -18.150589
-6.948093 -41.897457 -1.450521 -14.653665
-8.668020 -43.125277 2.120593 -15.537989
-5.749714 -35.619679 -1.241883 -12.410818
-8.807407 -47.552126 -1.961822 -16.907860
-6.731329 -27.283481 2.242866 -10.204443
-8.750903 -42.793764 3.085189 -15.463400
-6.301462 -37.288586 0.702831 -13.077014
-4.529717 -27.625733 1.263692 -9.646635
-7.007776 -19.768197 -0.188965 -8.032792
-24.078242 -43.276988 -1.175793 -24.262032
-6.562192 -32.993465 3.394487 -11.866697
-12.036060 -45.394739 3.918216 -17.229240
-7.991902 -37.690823 2.676891 -13.704817
-8.620482 -37.775641 3.074654 -13.918837
-9.639684 -43.517385 3.580657 -15.947121
-10.124012 -41.625660 3.121257 -15.524902
-6.439295 -14.914190 -1.643089 -6.406045
3.704210 -1.955856 -2.925601 0.524506
15.284663 12.496874 1.381064 11.980802
9.229271 4.541833 2.023096 4.131331
-27.037843 -45.645674 3.935188 -26.506607
-7.054566 -10.312300 -5.378006 -5.210060
-0.627406 -8.548816 -2.978705 -2.752867
1.262205 -7.290330 -1.952002 -1.808438
-11.757670 -26.160076 1.104249 -11.866011
-14.228003 -65.590931 -2.373690 -23.945680
-26.856168 -35.668243 -8.165125 -22.229634
13.070314 14.841565 -1.739072 12.056186
-8.854982 -20.058064 -3.405019 -8.673914
-2.698185 -3.974543 -4.710721 -2.001819
-1.669315 -45.751505 -21.725700 -14.226246
5.673234 -36.654773 10.912138 -9.294462
28.326998 28.323558 -0.001555 28.435544
-18.598643 -83.174437 -25.403382 -30.531924
-59.380184 -86.005218 -8.657828 -57.140016
-17.981659 -63.507050 -21.549862 -24.446613
-13.073429 -25.745028 -3.293276 -12.185443
-31.267133 -125.221446 -35.409990 -46.946574
-4.597174 -8.394875 -4.910561 -3.897615
-30.158187 -49.295307 -4.309533 -29.213920
-1.383184 -8.256304 -3.622585 -2.891846
-5.342698 -7.535070 -5.139363 -3.863330
-37.691235 -50.049131 -9.478978 -32.843026
-34.385022 -42.464676 -9.625421 -28.262002
-15.059414 -23.272951 -6.057445 -12.043707
-33.590452 -49.364950 -7.572089 -30.833628
-32.835455 -54.780329 -2.745855 -32.796346
-7.202272 -11.518969 -5.306949 -5.616372
0.784692 -2.644904 3.905124 -0.558063
-20.219788 -32.588075 -2.580389 -16.734368
-14.925406 -102.682630 4.351468 -35.282411
61.151089 -113.287355 9.371680 -15.640880
24.743382 -68.228831 5.540699 -13.045635
-19.317967 -34.097850 4.199854 -18.965941
-11.641902 -48.144363 19.301488 -17.935880
-72.080350 -102.806129 -9.894377 -69.553230
-15.183679 -99.034988 -18.770812 -34.265600
-23.405698 -110.215898 28.626300 -40.086479
-28.901719 -48.199970 -3.739187 -28.374548
-28.170820 -48.575814 -1.700552 -28.209741
-10.900796 -24.106050 0.762065 -11.044068
-90.180891 -128.296259 -10.560574 -87.895489
-16.802385 -39.913432 13.306051 -17.014745
-37.016944 -114.896694 -3.924694 -45.574091
-4.596958 -15.596442 0.512441 -6.251635
-4.306809 -14.908270 -1.939368 -5.764524
-17.137355 -53.352628 33.294903 -21.146995
-108.435496 -146.584338 -15.825474 -103.299850
-20.090461 -33.659930 -4.857324 -18.376844
-6.622489 -17.487231 2.391860 -7.544751
-12.138993 -23.021107 1.702204 -11.177113
-13.572787 -28.398606 -0.261872 -13.504650
-10.940879 -24.201604 1.677834 -10.664930
1.030506 -6.446519 2.396833 -1.624804
-11.216919 -21.596514 3.812714 -9.844030
-6.749339 -18.720360 0.537768 -8.062385
-4.698964 -12.666921 0.648335 -5.209766
-7.574313 -19.510582 1.586150 -8.125469
-10.278897 -27.980320 12.100435 -11.477765
-17.423432 -26.052596 6.200937 -14.115776
-11.279714 -53.984202 20.155030 -19.579175
3.827240 3.433181 3.521696 2.178126
-15.898422 -75.209370 22.891380 -27.332338
-14.312204 -31.864168 14.193539 -13.852912
-6.846053 -38.419195 17.648926 -13.579574
-19.076936 -35.318888 18.389016 -16.318747
-4.540682 -59.994079 12.589433 -19.360428
-7.256056 -46.146126 17.886282 -16.020654
-8.390220 -20.236375 2.088056 -8.587979
-4.872291 -43.894380 16.510046 -14.630001
-12.377215 -27.951435 15.147617 -12.098595
18.014154 -32.479684 17.917925 -4.339659
-2.889278 -7.077154 4.497827 -2.989930
-1.632058 -11.012961 1.920714 -3.793506
-1.908939 -36.501290 16.433250 -11.523068
-16.141379 -23.657564 6.306782 -12.607687
3.359684 0.254962 3.516430 1.084394
-7.066395 -18.328196 2.453490 -7.618377
-17.000189 -28.496933 5.338289 -15.026552
-5.678898 -37.248476 14.020882 -12.878212
8.348076 -29.824151 11.378522 -6.442822
-0.461684 -52.614331 10.213952 -15.922804
10.710436 -41.713066 4.594719 -9.300789
-7.886121 -20.109224 2.127419 -8.398604
-2.707613 -52.992485 4.874584 -16.710030
-0.166306 -41.601213 16.286876 -12.530256
0.079931 -56.605813 5.256476 -16.957765
7.426150 -44.014278 9.827428 -10.976438
-6.732621 -53.780803 -18.933737 -18.154027
6.652062 -42.352927 3.463322 -10.710260
-28.327448 -74.583844 -41.625236 -30.873388
38.707613 -35.517604 -13.550645 0.957003
11.230937 7.253644 -0.850443 6.633551
-0.209797 -3.700724 -4.182189 -1.173156
-13.012692 -22.080141 -5.405214 -10.677850
7.571460 4.115169 -2.770471 3.505989
-21.591610 -34.120997 -6.076326 -19.359052
-17.278311 -27.663768 -5.896177 -14.825817
-2.811281 -9.890986 3.718571 -3.810680
-7.977655 -13.593708 -5.255798 -6.471409
8.495991 -43.464660 -5.308644 -10.490601
-8.540211 -20.588952 -1.217035 -8.738749
4.125146 -42.684850 -3.288269 -11.567911
13.759540 -38.024190 -2.815673 -7.279395
1.475028 -80.339659 -26.383775 -23.659389
-14.958505 -30.758365 -0.495945 -15.151828
16.949426 -29.311330 2.072890 -3.708571
-9.829768 -22.096084 -2.150736 -9.577755
22.837397 -34.268004 -1.729941 -3.429182
16.190514 -30.319952 -2.092780 -4.238832
24.598255 -32.634755 -35.865608 -2.410950
-18.620027 -29.616239 -5.980422 -16.210258
-1.833301 -6.995410 -4.200163 -2.648613
-8.520761 -17.556370 -4.425050 -7.823139
-8.705282 -21.533734 -1.705998 -9.071705
3.965793 -1.178609 -3.049214 0.836155
1.379155 -3.742136 -3.586333 -0.708894
-13.300192 -26.892354 -3.095631 -12.825394
-14.637208 -29.341167 -0.613202 -14.538134
-7.627398 -19.106145 -2.790549 -8.020063
-2.032555 -11.018028 -2.720918 -3.915175
-2.046950 -11.965003 -2.009548 -4.203586
-8.768042 -21.814250 1.064797 -9.174688
-4.984479 -16.935343 0.370827 -6.575947
-10.548412 -23.948636 0.974694 -10.426158
-10.612755 -23.487126 -0.096560 -10.270181
-23.464911 -41.200479 -2.888366 -23.074339
14.530934 -30.090792 7.359027 -4.667957
21.474794 -30.608818 12.548134 -2.740207
15.033337 -34.112883 6.428254 -5.723864
-15.009360 -30.465934 1.010316 -14.965789
-5.176536 -16.488747 1.611328 -6.499585
2.473312 -1.634476 3.522916 0.251651
-11.270901 -13.073364 2.447761 -7.303279
-22.804210 -35.364625 6.305717 -20.369513
-12.440602 -27.185730 0.708645 -12.570437
-11.997817 -22.933151 4.394621 -10.597603
-16.232055 -28.090995 5.043945 -14.555160
-11.761390 -18.341965 2.638331 -9.031006
0.531866 -5.521626 3.451437 -1.496928
-3.916792 -10.248260 0.992127 -4.249516
-13.728268 -25.929044 4.184946 -12.570962
-2.145177 -8.986282 1.924363 -3.339438
-5.474801 -17.104040 1.634455 -6.773652
-7.539851 -20.339072 0.860462 -8.363677
1.118292 -8.203668 0.914350 -2.125613
-5.084749 -16.260087 1.988964 -6.403451
-6.931746 -19.281448 0.028052 -7.863958
1.875315 -7.427334 0.307443 -1.665606
-7.370896 -14.370132 1.135004 -6.522308
-1.500864 -7.076863 -0.132383 -2.573318
-7.328637 -19.332578 2.002241 -7.998365
-5.268189 -10.955599 0.241831 -4.867137
1.538433 -3.833496 0.647437 -0.688519
0.153894 -5.546384 0.855522 -1.617747
2.548396 -2.776978 -0.365753 -0.068575
2.509883 -3.023523 0.669959 -0.154092
4.583448 -1.089208 0.249879 1.048272
5.051530 -1.447024 -0.034842 1.081352
-0.913328 -6.646387 1.775713 -2.267915
-5.983379 -16.500440 2.871827 -6.745146
0.580582 -8.509913 1.656575 -2.378799
-2.554252 -12.932774 1.575717 -4.646108
-0.643588 -10.927483 0.270632 -3.471321
2.280809 -6.592166 0.850193 -1.293407
6.297285 -1.294145 -0.285910 1.500942
3.489882 -5.214285 -0.059785 -0.517321
7.168704 0.238006 -1.036849 2.222013
5.631245 -1.998834 -0.912438 1.089723
4.791324 -2.705742 1.514775 0.625675
5.065495 -2.457847 -0.943782 0.782294
0.495794 -2.160696 -1.117714 -0.499471
-1.193321 -5.715330 -0.960892 -2.072595
4.520404 -3.780561 -0.070388 0.221953
-14.332630 -26.979664 -4.146684 -13.293898
-2.170357 -5.508164 -2.433258 -2.303556
0.874373 -8.384223 -0.891936 -2.252955
2.366488 -1.952045 -1.118174 0.124333
2.820280 -2.168375 -1.228305 0.195571
0.195145 -8.272971 -2.251762 -2.423348
1.281661 -8.255664 0.289337 -2.092201
0.155232 0.807120 -4.119742 0.288706
-3.821520 -14.523209 -1.970493 -5.503419
-0.903960 -11.121884 -0.891471 -3.607753
2.312277 -6.494089 -1.169622 -1.254544
-7.640145 -19.754554 -2.046690 -8.218410
3.296984 -4.940107 -1.396959 -0.492937
-3.973646 -15.358266 -0.987831 -5.799573
-11.995691 -26.397859 -0.627097 -12.034598
-6.033883 -16.952467 -2.504522 -6.895905
-7.623883 -18.941955 -2.910100 -7.969752
-1.756705 -11.881066 -1.395626 -4.091331
-6.078640 -16.822825 -2.818297 -6.870440
-5.182093 -14.607236 -2.318823 -5.936799
-4.809853 -11.615527 1.319355 -4.927614
-4.898345 -13.575299 -1.521993 -5.542093
-9.107321 -13.447192 -1.526078 -6.766354
2.233745 -6.260376 1.595455 -1.207989
-7.558070 -20.193045 1.346327 -8.325335
3.807634 -4.235985 1.246884 -0.128505
-6.276754 -18.372862 1.399391 -7.394885
-2.700428 -13.209492 1.191621 -4.772976
-2.728051 -12.794184 2.148233 -4.656671
-6.513011 -18.716770 0.014872 -7.568934
3.544664 -4.299295 1.706319 -0.226389
-1.072540 -9.800577 2.390089 -3.261935
4.221786 -3.133787 1.724395 0.326400
-0.290739 -10.015170 1.170948 -3.091773
4.116455 -1.885019 0.825416 0.669431
-2.044536 -6.942061 0.395321 -2.695979
-1.011127 -5.021119 -0.624097 -1.809674
-3.607280 -9.915270 1.730322 -4.056765
0.482658 -2.063512 -0.105436 -0.474256
-0.179602 -6.412736 1.000259 -1.977702
-1.338801 -1.660503 0.270267 -0.899791
0.140555 -5.772687 1.296667 -1.689639
2.542088 -4.945338 1.410308 -0.720975
0.251390 -2.105716 -0.351216 -0.556298
-1.433279 -2.214451 -0.117706 -1.094319
1.749964 -2.008746 0.011611 -0.077635
7.166296 0.649307 1.411489 2.344681
7.397705 1.089106 1.581807 2.546044
-3.243919 -14.112037 1.366600 -5.206787
0.341563 -6.702246 1.681626 -1.908205
-0.835706 -10.666901 1.412324 -3.450782
7.097746 0.381205 1.144415 2.243685
2.396959 -6.326045 0.942418 -1.178726
0.317892 -8.695378 1.908538 -2.513246
-1.427827 -10.762783 2.300402 -3.657183
3.239069 -4.633633 1.802195 -0.418369
4.943704 -3.038039 0.466648 0.571699
4.434080 -3.856882 0.215628 0.173159
8.201337 1.440036 0.116151 2.892412
7.312838 0.158879 -0.044033 2.241515
-0.748133 -10.354339 -1.630999 -3.330742
1.017565 -8.170551 -1.321603 -2.145896
3.306158 -5.060703 -0.811032 -0.526364
-1.318259 -11.459536 -1.111746 -3.833338
6.000982 -1.680153 -0.392733 1.296249
1.498376 -7.618749 -0.828439 -1.836112
2.880941 -5.853843 -0.467585 -0.891871
-4.916871 -16.060048 -0.394345 -6.293076
-0.634131 -10.604997 -0.876997 -3.371738
-1.934934 -11.902566 -1.674752 -4.151250
0.028889 -9.991272 -0.261475 -2.988715
2.465003 -6.590682 -0.290389 -1.237704
-2.576082 -13.376408 0.141224 -4.785747
-0.003586 -9.940382 -0.423462 -2.983190
1.257605 -8.081913 0.704584 -2.047292
-5.747586 -17.379774 -0.337419 -6.938208
-3.305328 -14.196420 -0.323434 -5.250524
1.141684 -8.311004 0.209768 -2.150796
-7.840624 -20.049708 -0.038967 -8.367100
-9.200806 -22.688673 -0.120153 -9.566844
-2.215386 -12.715120 -0.393049 -4.479152
-4.725609 -15.953051 -0.620033 -6.203598
-7.367896 -20.187803 -0.476974 -8.266709
-4.225661 -15.759462 -0.614500 -5.995537
-9.893774 -23.462967 -0.756056 -10.007022
-7.195944 -19.440734 -0.960488 -7.991003
-3.114461 -29.939256 -3.135409 -9.916115
-6.273572 -17.991894 -1.848579 -7.279640
-10.430916 -24.028478 0.581277 -10.451662
-5.580856 -29.819270 -1.222326 -10.620038
-3.982313 -28.740652 -0.699294 -9.816889
-4.366295 -30.154252 -2.741365 -10.356164
-7.670972 -32.542809 2.476942 -12.064134
-10.670332 -23.664295 0.561684 -10.300388
-6.124510 -28.649406 0.824237 -10.432175
-6.709493 -29.435952 -0.359075 -10.843634
-9.714584 -22.508752 -0.595236 -9.667001
-10.437281 -24.145076 0.547807 -10.476264
-8.312211 -20.242085 0.230388 -8.566289
-10.840159 -24.247101 -0.460927 -10.526178
-9.929986 -23.560008 1.234614 -10.046998
-7.497413 -20.387783 0.580004 -8.365559
-11.757740 -25.491580 0.097270 -11.633589
-4.779487 -16.206629 0.687508 -6.295835
-8.428076 -13.573080 0.274505 -6.600347
-11.509350 -17.023963 1.602174 -8.559994
-3.073269 -8.289675 4.276610 -3.408883
-12.867897 -26.453257 2.778605 -12.334854
-10.863758 -15.570966 1.814867 -7.930417
-4.189702 -10.222660 3.879675 -4.323708
-10.396462 -23.889588 1.825821 -10.338486
-11.935565 -26.261004 1.440797 -11.985086
-5.145102 -13.844643 3.691951 -5.696923
-11.761235 -26.230476 0.891028 -11.898849
-7.491922 -27.381799 2.383424 -10.462116
-16.354008 -30.035557 -2.407889 -15.587970
-10.827341 -23.393004 3.056504 -10.312605
-7.796235 -19.825034 0.485757 -8.286381
-17.467788 -34.022220 -1.343887 -17.580941
2.280983 -29.643826 6.687719 -8.208853
-8.003224 -38.750030 3.376957 -14.025976
-6.700103 -32.666590 1.488412 -11.810008
-9.170196 -22.672623 -0.731412 -9.552846
-12.382792 -26.916395 1.353415 -12.406442
-7.766201 -13.847481 4.224641 -6.484104
-13.195812 -28.280413 0.664792 -13.340056
-15.407705 -30.622850 -2.278370 -15.283378
-12.454674 -26.914303 -0.991826 -12.321112
0.498823 -7.530606 -2.596474 -2.109535
-13.255198 -27.216273 2.634204 -12.855972
-7.492902 -34.751177 4.325859 -12.673224
-10.681990 -24.832374 -0.472479 -10.853432
-22.732238 -41.427810 -1.099531 -22.916180
-10.696327 -24.866690 -0.375882 -10.873562
-7.507261 -36.045463 3.131817 -13.065817
-7.811148 -30.611269 3.664058 -11.526725
-7.680754 -38.701575 2.949891 -13.914699
-7.954541 -37.598435 2.123444 -13.665893
-7.470593 -38.086920 1.631356 -13.667254
-5.271017 -27.110969 2.047999 -9.714596
-6.750823 -33.238555 2.650216 -11.996813
-7.244969 -36.524670 2.877930 -13.130892
-5.353185 -31.368836 2.064013 -11.016606
-6.008524 -28.137533 1.477137 -10.243817
-4.815270 -31.918793 1.297788 -11.020219
-4.212680 -27.674411 0.412895 -9.566127
-5.352580 -33.583185 0.535796 -11.680730
-4.473982 -35.221205 -1.538216 -11.908556
-6.214742 -39.420604 0.768238 -13.690604
-6.681744 -33.499582 0.591939 -12.054398
-5.958597 -40.482331 -0.407510 -13.932278
-5.984044 -34.468076 -0.251003 -12.135636
-4.579360 -34.402099 -0.412101 -11.694438
-6.840033 -40.358308 -0.246974 -14.159502
-3.164977 -32.196865 -4.073821 -10.608553
-10.653061 -24.291892 -0.948889 -10.487910
-3.047433 -32.329166 -4.953892 -10.612980
-9.738598 -44.039852 -5.295154 -16.133535
-1.225717 -30.095291 -4.877912 -9.396302
-9.466695 -22.856522 -1.292946 -9.696965
-10.539872 -23.844214 -2.166125 -10.326793
-8.922419 -21.763397 -1.874791 -9.205745
-6.113214 -15.206302 -3.820062 -6.395855
-8.883511 -20.260769 -3.290891 -8.743284
-13.142647 -29.280799 -0.172873 -12.727034
-13.783729 -20.036125 0.736797 -10.145956
-18.094856 -31.390182 -4.835800 -16.737873
-20.127457 -37.279625 1.125628 -19.922257
-11.167465 -8.779493 -0.501124 -5.984087
-11.017017 -12.860440 2.542285 -7.163237
-7.321621 -31.915403 4.117985 -11.771107
-11.984145 -28.354345 1.787237 -12.101547
-7.284889 -30.741892 3.768316 -11.408034
-9.953005 -24.944758 0.607325 -10.469329
-6.795463 -22.852447 2.812761 -8.894373
-8.774890 -24.971676 1.269017 -10.123970
-8.225962 -34.078242 5.705622 -12.691261
-9.978208 -30.498781 3.541778 -12.143097
-9.051942 -29.542345 3.961058 -11.578286
-9.642336 -23.568469 1.324327 -9.963241
-8.548920 -28.904294 4.404781 -11.235964
1.083974 -14.627664 4.739051 -4.063107
-10.622085 -29.639009 1.491172 -12.078328
-8.266246 -18.697370 1.373371 -8.089085
-8.043704 -26.919531 2.707247 -10.488970
-10.958149 -26.226911 0.100734 -11.155518
-10.563021 -27.491782 2.191818 -11.416441
-7.808225 -23.057450 1.875141 -9.259703
-9.751597 -18.270445 1.386288 -8.406613
-7.138751 -15.168944 0.558868 -6.692309
-7.770266 -12.091295 2.962681 -5.958468
-9.961116 -24.740963 -0.451848 -10.410624
-9.502090 -24.230569 0.900226 -10.119798
-9.174225 -23.589501 -0.109697 -9.829118
-9.027949 -22.492555 1.833140 -9.456151
-1.930718 -8.774124 0.880340 -3.211453
-9.360542 -18.701438 0.784109 -8.418594
-9.959038 -22.513826 -0.002324 -9.741859
-6.469816 -22.302937 2.994201 -8.631826
-9.204498 -20.804311 -0.606090 -9.002643
-10.284237 -20.089996 0.663827 -9.112270
-8.382673 -18.889432 1.238629 -8.181631
-6.772606 -16.237693 1.580657 -6.903090
-5.975494 -14.019960 1.381048 -5.998636
-7.070125 -19.162095 -1.893392 -7.869666
-5.053125 -11.413619 -0.264219 -4.940023
-7.070628 -14.435474 -1.482037 -6.451831
-6.709711 -14.303818 0.711549 -6.304059
-6.122541 -14.826448 -2.695151 -6.284697
-7.511819 -15.786526 -2.274350 -6.989503
-9.351077 -19.894111 -2.718778 -8.773557
-9.180568 -14.485759 -1.185267 -7.099898
-19.145192 -35.695355 2.253813 -18.917511
-9.353772 -22.482872 -1.488948 -9.550993
-13.960858 -28.319648 -2.602050 -13.704731
-5.341445 -15.318104 -3.122189 -6.197865
-9.597007 -23.164320 -0.744008 -9.828398
-4.745478 -16.105103 -1.566559 -6.255174
-8.654758 -21.140392 -2.213399 -8.938545
-5.398254 -16.720311 -1.971690 -6.635570
-7.481489 -19.493360 -2.200840 -8.092455
-10.788088 -24.323622 -1.992439 -10.647378
-3.610366 -14.775361 -0.810824 -5.515718
-3.876806 -15.044240 -1.103436 -5.676314
-3.191244 -11.701009 -2.567842 -4.467676
-4.837389 -16.126637 -1.681127 -6.289208
-5.242360 -12.871120 -2.085976 -5.434044
-4.621372 -10.234124 1.056814 -4.456649
-4.344740 -11.337778 -1.451352 -4.704755
-6.364658 -12.761759 -0.806146 -5.737925
-3.535273 -13.617071 -2.440162 -5.145703
2.068344 -2.125047 -0.611288 -0.017011
-0.861136 -9.722446 -2.460640 -3.175074
-3.102706 -12.716630 -2.657267 -4.745801
5.600266 -1.700764 -1.324092 1.169850
2.192024 -6.551359 -1.026479 -1.307801
0.643294 -5.576132 -1.549794 -1.479851
-2.351886 -12.704182 -1.585752 -4.516820
1.963276 -5.914254 -1.813390 -1.185294
3.934543 -3.120216 -0.421017 0.244298
-1.076899 -8.446880 -2.092861 -2.857134
1.007501 -2.103655 -0.262283 -0.328846
2.987125 -4.899097 -1.799417 -0.573592
2.149003 -1.863837 -0.734102 0.085550
4.198759 -1.989387 -0.966094 0.662812
0.192246 -1.677957 -0.015737 -0.445713
-0.759841 -5.009061 -0.031728 -1.730671
-0.140877 -6.115757 -1.314952 -1.876990
-2.243590 -9.502036 -1.615834 -3.523688
-0.998018 -5.942086 -0.470388 -2.082031
-4.239978 -9.154407 0.177064 -4.018315
-2.796034 -8.278219 -0.190290 -3.322276
0.722327 -1.538982 0.477320 -0.244996
2.498666 -1.528883 1.008033 0.290935
-3.654667 -8.535274 0.483143 -3.656983
-2.363683 -6.043303 1.189296 -2.522096
-4.191319 -9.621599 2.473583 -4.143876
0.271118 -2.215091 0.783857 -0.583192
-0.331876 -6.235229 2.811975 -1.970132
12.987105 8.251192 -0.158745 8.250047
-6.921035 -17.057669 2.985063 -7.193611
7.401244 0.501422 -2.026141 2.370800
8.319669 2.184775 -0.059459 3.151333
-7.134629 -14.929772 2.405043 -6.619320
16.572499 13.284068 -0.681738 13.262412
-6.404959 -13.190217 3.311584 -5.878553
7.642727 1.715382 -0.444280 2.807433
-4.970514 -12.196618 2.042609 -5.150139
-3.670770 -14.233397 -2.048084 -5.371250
-11.443841 -21.834404 3.534672 -9.983474
-0.910894 -4.964544 0.718770 -1.762631
-1.772223 -5.814377 0.326896 -2.275980
-2.591709 -10.090474 2.908237 -3.804655
-1.265276 -7.166312 1.210702 -2.529477
-3.252288 -8.080493 2.113706 -3.399834
-1.230875 -5.866782 1.164269 -2.129297
-7.348172 -18.089904 1.351475 -7.631423
-5.527314 -12.736593 1.593006 -5.479172
-7.470604 -16.311183 1.189240 -7.134536
4.483753 -1.641816 0.212151 0.852581
-7.031024 -18.323093 0.590694 -7.606235
-8.596296 -16.677367 2.522301 -7.582099
-4.304146 -12.185442 1.074990 -4.946876
-3.588816 -12.991228 -1.597152 -4.974013
3.094171 -36.116220 -2.955733 -9.906615
-3.075478 -12.617599 -2.718037 -4.707923
-31.525452 -53.824810 1.016185 -31.780461
2.180761 -2.226359 -3.734668 -0.013679
-2.826348 -4.675059 -0.867954 -2.250422
-34.567213 -57.420377 -3.899346 -34.283481
-5.359871 -9.915871 -1.228363 -4.582723
11.261916 6.267883 -1.457939 5.956741
-9.227193 -18.875097 -4.474146 -8.430687
0.778452 -7.064442 -2.686858 -1.885797
14.209510 9.538638 -0.846245 9.465999
-8.739089 -21.626739 -2.891761 -9.109748
-2.987463 -11.821343 -3.145399 -4.442642
-10.247485 -16.643852 3.191092 -8.067401
-14.773219 -29.543252 -2.679105 -14.521864
8.183113 2.318654 -1.735496 3.150530
-0.316466 -8.357281 -2.879560 -2.602124
-3.600267 -14.700678 -0.076291 -5.490283
0.926946 -8.125574 -2.104195 -2.159588
10.429906 6.438259 -2.066666 5.660837
6.222361 -0.015516 -2.672796 1.862053
-14.432275 -29.560395 -2.465158 -14.257892
12.093638 6.968814 -1.258991 6.853297
2.815269 2.247953 -3.886264 1.518967
18.667835 15.160792 -0.679165 15.142888
12.851263 8.526899 -1.791852 7.965660
-7.977401 -9.976488 -5.650305 -5.386167
-3.135394 -13.804660 -2.056594 -5.082016
-12.418112 -26.376836 -2.643830 -12.149656
2.391090 -0.403345 -2.426556 0.596324
1.948547 -3.493257 0.572211 -0.463413
-10.087246 -0.948354 -2.463393 -3.310680
-2.746932 -2.299487 4.624339 -1.513926
-13.925160 -2.826065 -0.197075 -5.025367
-1.148145 -0.832656 -0.206421 -0.594240
-13.497383 -2.602194 0.865804 -4.829873
-1.364120 -1.164152 1.667476 -0.758482
0.857108 -0.052112 4.129739 0.241499
-0.442762 -10.500450 -0.194675 -3.282964
-9.365983 -0.910624 2.768416 -3.082982
-2.354822 -3.676522 2.870665 -1.809403
-2.864949 -11.288365 1.072849 -4.245994
-3.368876 -6.057963 1.493243 -2.828052
-1.967318 -10.153776 0.260357 -3.636328
-5.563186 -10.783318 4.909432 -4.903951
-4.364506 -13.500552 3.344946 -5.359517
-21.566994 -37.995442 4.396461 -20.711169
-3.159884 -14.425312 -0.338756 -5.275559
2.802805 -3.086778 -1.522761 -0.085192
9.720299 3.891102 -1.404533 4.083420
5.054248 -2.733686 -1.059112 0.696168
-1.687169 -11.658102 -2.171037 -4.003581
-3.318259 -12.274973 3.202083 -4.677970
-5.331660 -17.430974 0.499653 -6.828790
-3.103365 -13.793716 1.633669 -5.069124
3.752598 -4.865245 -0.004445 -0.333794
-1.480205 -8.943864 3.753532 -3.127221
-1.770871 -3.990884 3.503269 -1.728526
4.118799 -1.941699 2.734146 0.653130
2.425124 -6.422854 1.102833 -1.199319
-15.342101 -30.841296 2.285912 -15.226631
-1.745936 -12.799782 -0.337007 -4.363715
-7.233462 -11.753970 -5.317896 -5.696230
3.015798 -5.864881 0.219716 -0.854725
-1.394040 -12.038197 -0.255683 -4.029671
-5.347425 -17.833771 -0.311756 -6.954359
-8.145180 -19.293177 -3.478825 -8.231507
-8.857725 -22.130543 -1.257161 -9.296480
-4.797662 -11.840326 4.460040 -4.991396
-6.700571 -17.141229 -3.621843 -7.152540
-5.048033 -39.382796 3.833109 -13.329248
5.124690 -1.389949 -2.367479 1.120422
-18.705450 -31.187939 -5.885780 -16.648551
-7.389783 -17.341455 -4.294524 -7.419371
-4.425927 -15.488471 -2.322936 -5.974320
-1.080973 -9.560430 -3.115074 -3.192421
-8.322504 -21.762278 -0.771880 -9.025435
-33.471978 -52.827426 5.695061 -32.218673
-4.969141 -20.290645 1.537579 -7.577936
13.172460 -18.090649 -8.608473 -1.475457
2.892055 -3.621422 -3.333256 -0.218810
-18.738683 -32.746789 4.626070 -17.570605
5.562067 -1.818508 -1.346874 1.123068
-0.968533 -25.556771 3.092725 -7.957591
-19.451442 -33.559120 4.774986 -18.212148
-6.764056 -26.202906 4.633173 -9.890089
2.942291 -26.205316 4.446331 -6.978907
-0.202422 -15.544516 3.456739 -4.724081
-4.949754 -22.275851 3.505950 -8.167681
-7.436618 -25.925437 4.698686 -10.008617
-9.742466 -32.427589 2.981975 -12.651017
-4.515346 -29.371952 -2.083952 -10.166190
-1.695608 -26.029430 4.916973 -8.317512
-6.553803 -56.217276 4.753636 -18.831323
-3.337916 -12.645365 -3.518950 -4.794984
-5.875900 -49.053114 -1.996693 -16.478704
-44.504151 -68.353506 -6.428274 -43.240109
2.963363 -38.914706 -5.863387 -10.785403
-3.522211 -13.147452 -3.121604 -5.000899
-5.648635 -28.839885 4.626651 -10.346556
-7.038532 -27.548896 5.389911 -10.376228
-4.174331 -23.779685 6.245600 -8.386205
-3.820468 -39.192852 5.616754 -12.903996
-1.564449 -36.200575 9.021556 -11.329507
-8.918268 -31.716238 4.637991 -12.190352
-0.860610 -32.906512 5.268556 -10.130137
-9.047304 -39.051965 7.380243 -14.429781
-9.038184 -44.986882 5.931659 -16.207520
-8.092480 -107.260813 -3.621000 -34.605988
-1.295735 -8.856604 -3.784422 -3.045702
-100.272394 -123.852105 -19.102982 -90.218086
-12.869663 -28.047099 0.707492 -13.043302
12.821718 -47.324909 12.045859 -10.350957
-10.167171 -20.061436 -4.674629 -9.068582
43.933244 44.478634 0.006976 43.573716
-4.232670 -16.107377 -0.577930 -6.102014
-4.606464 -16.391560 -1.360671 -6.299407
-6.168124 -18.619254 1.205449 -7.436213
-8.425873 -20.648837 -2.721878 -8.722413
-9.943722 -23.424452 1.999751 -10.010452
-0.327736 -10.608927 -1.193436 -3.280999
8.800758 4.553641 2.602307 4.006320
-8.975900 -20.161070 3.677967 -8.741091
-16.117805 -48.605903 6.409099 -19.417112
-7.644720 -16.482416 4.624395 -7.238141
-36.912082 -61.685719 1.582077 -37.157174
-1.390348 -11.928820 1.749391 -3.995750
12.650092 6.838206 0.190153 6.959127
-27.251396 -39.623364 7.686094 -23.847256
-21.929977 -35.289422 -5.406984 -17.165820
10.403446 6.426494 2.355800 5.439413
7.060728 -0.695058 -0.604415 1.909701
-14.352655 -30.188654 -0.104289 -14.576931
-26.610698 -65.895467 13.544879 -27.751850
11.309820 7.549317 2.240548 6.633525
20.658017 17.906025 -0.309277 17.973050
20.207150 17.515926 -0.269898 17.527242
-4.167047 -16.282429 -1.145332 -6.134843
-50.051175 -79.826852 -1.151543 -50.435031
-1.236334 -10.324395 -2.887965 -3.468219
-19.860690 -36.199797 -3.734531 -19.284488
-42.628100 -66.140618 -5.772460 -41.627995
-49.858613 -79.592855 -1.711967 -50.148180
13.514839 8.615585 0.872355 8.538927
13.483576 10.910642 -1.895651 9.973506
-24.581003 -44.780387 -0.210010 -24.839451
34.473443 34.310434 0.068611 34.656663
-2.538667 -12.912425 -1.997185 -4.635328
-22.691690 -104.195851 12.302520 -38.066262
-32.806891 -49.072155 -7.367077 -30.273727
-16.092462 -120.991256 4.291456 -41.125116
-1.982085 -12.440144 1.604258 -6.822394
-29.619740 -51.209257 0.951998 -29.895661
19.672480 18.206211 -1.053664 17.720442
-34.042758 -54.346070 5.470634 -32.968151
-31.753003 -50.475704 5.629265 -30.481014
-26.359224 -36.479276 7.870550 -25.004529
-8.199065 -20.966061 -1.993182 -8.749538
-43.273922 -67.330981 -5.896264 -42.267658
-45.405807 -70.553592 5.576922 -44.610540
33.115122 33.233359 -0.029870 32.904745
-22.736796 -40.972296 -2.621191 -22.621403
17.943542 14.221320 -0.151450 14.272021
15.756594 11.491625 0.133327 11.558468
12.573622 7.172221 -0.981800 7.099570
-83.641586 -123.025567 7.258545 -82.905460
-4.679676 -44.236627 4.899977 -14.674891
-25.642780 -39.485256 -6.626066 -24.672399
-10.705587 -24.668529 1.388616 -15.648561
-26.649674 -46.967599 1.339302 -28.648542
-29.886232 -50.535017 -3.129709 -29.727514
-19.092905 -34.891491 -3.506487 -19.267156
-87.263890 -127.188889 -8.340214 -86.161891
-17.556256 -33.201345 2.860491 -18.276577
19.940357 -35.908202 4.633913 -4.790353
-81.055522 -122.515333 0.482166 -81.604248
-145.321996 -197.900871 -18.369408 -140.386834
-12.290790 -26.359403 2.170826 -15.794940
10.434762 -80.502701 -2.759758 -21.020382
-78.004096 -114.298593 -7.952455 -76.861866
24.229695 23.405135 -0.067881 23.418854
-2.160875 -32.739062 5.878734 -10.469981
24.450351 -42.186811 19.280647 -5.320938
-4.964284 -40.064491 2.563109 -13.508632
5.592756 -64.042333 10.872975 -17.534873
5.151234 -0.490910 -2.955844 1.398097
61.972497 -80.270949 12.204687 -5.489535
-34.396637 -52.867219 -6.729453 -32.525259
-1.668668 -10.537857 -3.213752 -3.661957
28.172379 28.218284 -0.008874 28.250034
-5.884477 -63.818362 -5.323615 -20.910852
-64.368502 -76.477188 -14.537303 -55.121099
-1.664583 -10.938777 -2.886561 -3.781008
-5.236451 -43.096670 6.602621 -14.499936
-7.425415 -34.005313 3.124755 -12.429218
5.890410 -152.997173 -14.373827 -44.132029
-7.380742 -74.748774 -1.008442 -24.638855
-9.684342 -56.720355 9.356908 -19.921409
-4.776290 -75.084166 3.749095 -23.958137
-8.831003 -34.080385 4.158385 -12.873416
-12.997330 -33.017125 3.315160 -13.804337
-5.516972 -33.708795 5.327182 -11.767730
-6.242885 -29.633797 4.236438 -10.763005
-8.428331 -34.365396 4.778361 -12.838118
-4.106975 -36.784997 6.682131 -12.267591
-8.041050 -35.211408 4.349304 -12.975737
-6.008234 -40.186673 7.346279 -13.858472
-7.753254 -33.050445 1.602131 -12.241110
-14.206017 -26.676124 -3.680289 -12.713958
-6.953614 -35.716891 3.897591 -12.801151
-9.054783 -38.364534 6.214343 -14.225795
-14.409921 -31.567149 1.560926 -13.793121
-10.239034 -35.586151 2.544157 -13.747556
-7.165650 -31.418319 3.958600 -11.575190
-8.235413 -35.492608 2.709264 -13.118406
-13.843109 -28.847895 -0.701966 -13.742517
-4.037602 -33.567529 -4.525742 -11.281539
-17.409851 -26.077046 -1.023347 -13.046069
-21.420498 -39.167284 1.051091 -21.166067
-6.242395 -41.191023 -1.736243 -14.230026
-6.762955 -39.729572 -3.734360 -13.947758
1.099476 -32.488395 -7.518852 -9.416676
-4.830468 -38.002661 -4.686535 -12.849938
-8.219180 -44.321251 -3.158371 -15.762129
-7.061693 -42.407632 -2.411428 -14.840797
-6.540967 -40.663796 -3.607733 -14.161429
-9.392868 -44.243980 -4.828939 -16.091054
-5.222860 -38.405945 -4.472001 -13.088642
-12.620458 -45.105068 -2.777425 -17.317658
5.359514 2.515391 -3.278714 2.362471
-18.358589 -33.680941 -3.511559 -17.811990
-2.271615 -26.003505 -4.079879 -8.482536
-6.977799 -16.572126 -3.672471 -7.064977
-5.338820 -42.333316 -3.096372 -14.301641
-10.520318 -22.065053 -3.402961 -9.819367
-16.257057 -44.891703 -2.200328 -18.344628
-10.746946 -22.094316 -3.742649 -9.951822
-11.431357 -55.843723 -2.665226 -20.182524
-10.312584 -48.949900 -4.099078 -17.778745
-10.260341 -45.991899 -3.807799 -16.875672
-10.584667 -40.820083 -2.179590 -15.421425
-13.334308 -61.329674 -5.681420 -22.399194
-10.940693 -50.475911 -3.883086 -18.424981
-14.236133 -59.750758 -5.374246 -22.196067
-14.777193 -46.052794 -2.958984 -18.248996
-10.772099 -45.358909 -5.744656 -16.839302
-13.145389 -51.399253 -5.693483 -19.363393
-13.881162 -50.057280 -5.573732 -19.181532
-26.598443 -50.963213 -4.563734 -23.268497
-13.043434 -47.618239 -4.735440 -18.198502
-20.172460 -52.631980 -6.870810 -21.841332
-23.498202 -40.316102 -3.131164 -22.231006
-18.096012 -48.243260 -2.972670 -19.901782
-26.243136 -46.378833 0.757893 -26.481580
-10.491713 -46.016875 6.180019 -16.952576
-2.970034 -6.884853 -4.613068 -2.956466
-19.993884 -33.790611 -5.085223 -18.482137
-9.668015 -40.903561 4.231193 -15.171473
-10.156135 -41.713238 5.244657 -15.560812
-5.913103 -38.136012 11.678947 -13.214735
8.242175 -36.395247 8.792706 -8.445922
-3.777225 -36.729640 12.076735 -12.152059
0.115003 -45.686644 14.372129 -13.671492
-31.430121 -43.064879 6.723338 -26.753926
-7.948487 -40.048140 10.872131 -14.398988
-22.209739 -39.045318 3.653809 -21.699161
-21.444721 -38.150845 3.475960 -21.008658
-36.295097 -54.165941 6.022950 -33.454122
-39.541016 -64.439533 0.545487 -39.330780
-24.504625 -40.123596 1.173551 -22.013774
-21.951265 -39.413062 -0.766361 -21.197675
-25.628272 -45.298336 1.583372 -25.764999
-27.171758 -39.982575 5.647812 -23.769099
-21.477778 -37.744194 2.899179 -20.330591
-36.999126 -61.349387 1.321018 -37.266747
-35.350856 -57.765295 3.575643 -35.140045
-27.841643 -48.395068 1.908279 -27.960017
-27.943590 -32.538011 -1.029546 -18.429221
-26.793091 -49.740935 -7.330735 -22.960208
-30.499458 -33.669500 -3.144245 -19.250687
-24.579938 -29.614149 -2.265459 -16.258226
-20.976101 -49.335030 -2.730202 -21.093339
-26.514164 -50.163214 -3.126387 -23.003213
-28.347714 -57.875500 -1.541577 -25.866964
-26.157924 -30.214976 -2.444373 -16.911870
-17.404537 -52.108512 -7.607168 -20.853915
-27.865373 -52.595532 -7.899974 -24.138271
-16.968712 -49.187003 -4.795097 -19.846715
-21.870576 -50.386084 -6.963931 -21.676998
-17.279398 -71.052889 -6.243646 -26.499686
-16.845611 -55.544722 -6.978130 -21.717100
-16.446872 -57.787642 -8.780621 -22.270354
-22.755759 -60.797799 -9.900323 -25.066067
-13.693658 -68.548395 -5.151952 -24.672616
-21.048300 -67.859430 -10.516562 -26.672319
-18.858673 -76.698662 -9.970384 -28.667200
-22.434064 -69.930592 -13.530076 -27.709397
-20.532975 -53.747783 -10.924735 -22.284227
-18.545186 -61.215334 -11.390968 -23.928156
-23.630555 -50.252081 -5.368552 -22.164791
-25.502953 -55.018452 -9.181462 -24.156422
-28.628805 -50.209914 -6.585275 -23.651616
-26.660103 -51.885511 -9.860461 -23.563684
-27.561712 -82.377160 -16.867005 -32.981662
-27.406497 -62.267175 -13.846968 -26.902102
-14.416067 -49.111672 0.902975 -19.058322
-30.232282 -51.223590 -2.241433 -24.436762
-20.350807 -74.891852 -9.405025 -28.572798
-20.902959 -88.325863 -10.210660 -32.768647
-22.962004 -72.024551 -13.795444 -28.495966
-22.832620 -57.449754 -13.341961 -24.084712
-36.125231 -77.915736 -19.113386 -34.212290
-22.422009 -85.205558 -9.765795 -32.288270
-27.049481 -70.123030 -16.270888 -29.151753
-25.831854 -75.674656 -15.664973 -30.451953
-25.595639 -52.567899 -11.773581 -23.449061
-31.579989 -46.803047 -7.336849 -28.898642
-25.971012 -50.796157 -9.275403 -23.030151
-42.808094 -59.735287 -9.236687 -39.074176
-39.079958 -54.191175 -9.035978 -35.169494
-25.411856 -21.266656 -1.300807 -14.003554
-36.937095 -53.613933 -7.995811 -34.027710
-38.490751 -62.257029 3.656652 -38.271395
-29.838944 -44.835076 -6.844507 -26.992325
-30.896617 -41.788290 -4.036930 -25.990886
-33.512282 -53.822160 -1.189344 -31.612365
-34.046625 -57.124611 1.698747 -34.235106
-34.815902 -58.318229 0.522994 -35.114986
-30.599858 -52.284252 0.407374 -30.456012
-26.181486 -46.053709 1.654625 -26.311286
-32.642899 -54.061687 -3.432402 -32.405312
-36.672151 -54.799028 5.769196 -33.657921
-38.699746 -59.399623 -6.329581 -36.865096
-38.119485 -62.882235 -0.712618 -38.209579
-45.773140 -73.589434 1.035124 -46.102035
-30.525402 -52.367672 1.313344 -30.753750
-31.521550 -71.459564 0.803595 -30.894334
-29.838099 -78.704947 -1.297489 -32.562914
-33.612345 -83.010795 -3.641234 -34.986942
-26.753818 -77.269283 9.528714 -31.206930
-24.509418 -82.693852 3.144668 -32.160981
-27.608550 -77.783616 10.487839 -31.617650
-26.088411 -66.904797 9.654423 -27.897962
-25.424636 -70.793763 11.182797 -28.865520
-28.667759 -62.596164 6.439345 -27.379177
-26.198873 -69.086908 1.433740 -28.585734
-21.423048 -83.054196 5.023132 -31.343173
-24.855280 -83.570748 9.511232 -32.527808
-25.876929 -74.339798 11.249137 -30.065018
-28.970741 -98.539908 2.378640 -38.253195
-33.219344 -82.752860 -4.062652 -34.791661
-24.450358 -80.237503 11.928677 -31.406358
-25.406591 -84.312553 9.921341 -32.915743
-32.861703 -55.641215 -0.072709 -33.163953
-31.459305 -53.536480 1.679540 -31.633810
-27.725923 -81.548045 -3.751782 -32.782190
-27.698507 -91.145423 1.801205 -35.653179
-34.679410 -57.038669 3.280163 -34.839981
-48.896104 -77.893495 1.166611 -49.242782
7.632820 2.004368 2.012594 2.071115
-40.413633 -66.153810 0.993006 -40.722187
4.813113 -59.331262 -1.945090 -16.355445
-29.663221 -44.682798 6.985193 -28.911015
-19.767290 -63.757815 5.833983 -25.057531
-17.141572 -61.665507 10.433691 -23.642124
-30.643144 -89.708549 1.881529 -36.105508
-46.311279 -117.573811 -16.681528 -49.165527
-59.692666 -130.650957 -36.455979 -57.103087
-20.414151 -80.506463 8.986352 -30.276184
-17.922065 -67.534328 7.819359 -25.636918
-26.107657 -58.685165 -6.431140 -25.437847
-19.570862 -27.822171 6.966776 -20.148705
-28.847987 -69.512086 7.337335 -29.508022
-20.473548 -30.966955 6.612191 -21.202678
-16.260503 -45.942262 7.094186 -18.660829
1.337635 -8.055798 1.126120 -5.226926
-34.559469 -46.589534 9.017362 -31.690073
-33.586328 -45.333959 8.905895 -31.371845
-44.983411 -67.649851 7.159077 -43.265068
4.759703 -3.176823 1.554372 0.474864
-44.043282 -67.728147 6.338751 -42.809743
-53.695134 -83.761664 -3.619674 -53.675175
-3.377063 -15.062845 0.527087 -5.531972
-30.242325 -48.253920 5.650146 -29.812969
-14.196402 -29.880594 0.658946 -16.319475
-41.585475 -67.708793 -1.097468 -41.893190
-48.846199 -78.037688 -0.850860 -49.231089
-48.303505 -77.265174 -0.186573 -48.688939
-42.505154 -69.400002 0.668898 -42.885886
-20.408251 -46.986451 -4.504122 -20.218411
-33.023274 -50.539546 6.726195 -31.035593
-21.199098 -53.317876 -15.689021 -22.355092
-55.572858 -86.268435 -3.555757 -55.586387
-7.889371 -45.694188 1.675055 -16.075068
-21.461388 -64.104174 9.099101 -25.669669
-12.230082 -41.054442 -7.542211 -15.985357
-22.867790 -52.840631 7.694417 -22.712526
-30.306104 -65.863361 0.568939 -28.850839
-24.598972 -57.285829 1.791807 -24.565440
-31.644393 -69.870372 -5.139019 -30.454430
-22.186535 -46.723458 -10.253278 -20.672998
-24.433949 -54.582890 -8.217433 -23.705052
-28.459246 -61.801539 -10.916909 -27.078236
-41.160141 -67.142465 -0.991718 -41.585129
-26.403961 -58.479587 -9.497457 -25.465065
-14.177888 -44.750453 -28.950499 -17.678502
-49.117215 -77.770164 -2.520705 -49.283112
-57.601534 -90.141238 -0.711779 -58.019555
-33.595638 -54.867674 -4.180138 -33.119581
-35.311368 -59.219108 0.650359 -35.621353
-39.947617 -65.636563 -0.675693 -40.278890
-51.181414 -81.134528 1.208191 -51.533667
-46.842588 -75.149101 0.973579 -47.187353
-61.173487 -91.560381 6.912330 -60.138451
-50.827959 -80.658862 -1.462732 -51.161011
-32.114085 -51.324991 5.488464 -31.070570
-19.662003 -37.104215 1.950317 -22.407731
-51.343908 -78.871796 5.601470 -50.640138
-31.644427 -50.753099 5.365806 -31.177744
-36.362330 -60.714135 -0.640860 -36.690501
-28.093493 -47.168613 -4.030307 -28.601224
-32.440135 -55.304509 0.331115 -32.755719
-18.085307 -34.401095 -2.632449 -18.821420
-51.494387 -81.707508 0.288850 -51.899096
-64.307685 -94.162753 8.619009 -62.461808
-32.882253 -55.755089 1.351775 -33.128680
-46.289230 -74.149016 2.166884 -46.508878
-54.976962 -85.354090 -4.042264 -54.877551
-40.630828 -66.370108 1.873085 -40.844766
-43.896161 -70.955011 1.758683 -44.157669
-66.494103 -98.003708 8.094853 -65.030941
-24.308890 -42.954087 3.122167 -24.932526
-48.701849 -77.864043 0.290277 -49.100328
-14.136038 -58.096763 -0.061460 -21.669840
-14.738792 -59.906933 -0.797638 -22.393718
-34.165517 -57.682042 -0.304721 -34.566218
-62.243635 -93.087309 6.993443 -61.182078
-51.760731 -76.583335 7.870477 -49.872004
-66.487209 -88.980448 12.590154 -61.299563
-32.943159 -52.434250 5.597674 -31.763061
-55.545909 -87.061619 1.594300 -55.896043
-18.822810 -60.868066 0.188546 -23.907263
-31.371486 -51.132851 4.759210 -30.577849
-24.380912 -43.453225 2.109463 -24.419904
-53.087275 -77.021202 8.833475 -50.598675
-26.384015 -66.772792 -3.626558 -27.947042
-20.472322 -38.267117 -1.603960 -20.570207
-22.859250 -41.595471 1.478391 -23.004425
-6.764085 -19.471744 -0.440934 -8.446148
-22.777092 -41.604819 1.092132 -22.965351
-13.626220 -18.675184 1.533593 -9.690421
-5.588364 -17.691188 0.871694 -7.747169
-4.914734 -14.249653 2.270420 -5.749316
-28.731104 -49.585703 -1.805615 -28.856898
-35.407891 -59.202991 -0.254259 -35.723237
-32.417587 -53.442366 -1.636149 -31.378279
-28.862401 -67.969847 -2.373294 -29.049674
-38.659873 -56.636866 7.978677 -35.956296
-17.803431 -34.650300 1.005505 -17.970212
-40.291200 -65.318867 2.669965 -40.353411
-30.006467 -51.050286 -2.394102 -30.024421
-30.364743 -49.550512 4.865425 -29.498813
-48.302003 -67.247754 9.859704 -44.474206
-37.941653 -60.284977 4.923460 -37.233379
-29.239692 -48.741458 4.047386 -28.714519
-43.782913 -67.408371 6.189268 -42.626090
-46.340318 -72.268310 4.997931 -45.782849
-54.758003 -85.854610 2.490834 -55.006764
-22.149399 -40.712450 -0.834540 -22.361945
-33.998285 -56.324929 -2.940113 -33.925606
-43.065566 -74.300955 6.953464 -35.209956
-18.638569 -35.978112 -0.153993 -18.879448
-47.608528 -71.975125 6.914739 -46.162455
-10.044194 -19.616705 -4.592349 -9.263319
-10.331805 -74.268762 40.337776 -25.380170
-15.037285 -24.384544 -5.783515 -13.010962
-80.435509 -109.898715 12.982654 -76.019972
-36.830152 -71.482121 8.411553 -32.493682
71.351762 -61.018419 33.615045 3.100003
-26.505104 -68.689199 5.886954 -28.558291
-34.882487 -76.154422 7.539676 -33.311073
-25.660835 -68.827558 7.988785 -28.346518
-34.319397 -49.537516 23.338302 -25.157074
-11.264387 -69.632885 16.142026 -24.269182
-19.442072 -54.624544 35.162925 -22.219985
-18.458545 -62.816919 17.737781 -24.382639
-24.157733 -71.878360 21.205158 -28.810828
-24.079209 -55.489503 21.793046 -23.870614
-45.349358 -70.075712 14.696064 -34.627521
-13.109637 -97.974815 30.007255 -33.325336
-14.810054 -69.831021 20.892526 -25.392323
-11.442425 -79.918816 20.590715 -27.408372
-27.881370 -80.661757 38.512417 -32.562938
4.920173 -86.071446 15.145349 -24.345382
-18.864964 -118.319363 26.777285 -41.155298
10.591901 -84.099558 7.185785 -22.052297
7.059068 -98.310180 12.707990 -27.375334
10.988769 -98.139424 6.218673 -26.145196
8.843801 -105.803408 13.604185 -29.087882
2.807698 -82.261763 12.177416 -23.836220
-1.748399 -96.649017 17.998475 -29.519225
4.598375 -86.309063 8.189680 -24.513206
19.930390 -82.869652 1.006951 -18.881779
-10.820368 -74.508581 23.017655 -25.598685
-7.904949 -72.530262 17.272273 -24.130563
-1.654298 -75.948148 19.639237 -23.280734
-10.249603 -90.455938 23.674115 -30.211662
-1.570590 -82.755041 12.423548 -25.297689
-6.042237 -91.375691 18.221501 -29.225378
1.890505 -67.594801 3.101905 -19.711289
2.990025 -72.128606 8.651378 -20.741574
6.441949 -66.210904 2.520303 -17.930686
11.420840 -58.925116 -5.112808 -14.251283
5.804926 -79.352235 1.764475 -22.064193
23.078585 -69.196193 -11.597703 -13.835282
15.301556 -74.076166 -0.384386 -17.632383
7.781332 -90.254550 4.107689 -24.741965
9.014502 -59.789300 -2.217729 -15.232439
4.793341 -70.227960 0.200723 -19.630386
-1.455921 -43.577637 -3.713589 -13.510067
6.640899 -70.172892 -3.510267 -19.059598
-6.035787 -62.502486 6.546781 -20.561482
-4.039262 -69.285028 11.462024 -21.997287
-1.977153 -63.946662 5.040663 -19.777144
0.630169 -64.659385 5.287136 -19.208765
-18.473885 -68.807758 5.981055 -26.184493
-11.981845 -63.139720 14.740807 -22.536469
-3.748905 -51.857139 0.542749 -16.681813
-12.711867 -60.714924 7.033763 -22.028037
-16.996455 -70.373385 17.127338 -26.210952
-7.181445 -67.225285 10.679256 -22.322019
-5.530665 -59.773291 5.574530 -19.591187
-10.366185 -61.324493 9.166264 -21.507203
-22.975808 -73.049132 1.850525 -28.807482
-32.351615 -74.330032 3.899477 -32.004494
-24.350021 -62.659191 12.425835 -26.102764
-26.381090 -68.266609 5.913381 -28.394310
-18.453060 -78.125190 3.016993 -28.973475
-20.217943 -69.557712 -2.135777 -26.932696
-13.145235 -59.608901 6.229062 -21.826241
-21.011142 -65.874316 9.544844 -26.065638
-16.729803 -67.272124 12.246286 -25.200578
-16.669045 -64.379960 11.050882 -24.314701
-29.894347 -50.698703 -2.851435 -29.798076
-32.005643 -51.775806 -4.863949 -31.165914
-14.063888 -63.557407 5.571619 -23.286388
-9.703595 -73.193079 -0.285490 -24.869002
-24.891046 -44.747702 0.366787 -25.155997
17.017985 13.655929 0.481674 13.635647
17.259522 14.471674 0.936378 14.234139
-33.066267 -55.975907 -0.076133 -33.368064
6.079925 -50.670278 -3.196080 -13.377106
-10.879916 -59.356000 6.431167 -21.070775
5.148255 -49.360928 -1.523373 -13.263802
-4.633914 -51.483615 -1.200695 -16.835259
-14.888145 -76.898847 2.775634 -27.536097
-13.544372 -62.997478 4.632080 -22.962555
-15.385211 -55.561202 3.924971 -21.283924
-16.454842 -61.953474 7.626791 -23.522495
6.143458 -44.634420 -1.515466 -11.547289
-2.183521 -54.361772 1.082105 -16.963588
0.021381 -56.586179 0.921134 -16.969439
3.005207 -59.622186 0.216973 -16.985094
7.348840 -62.300841 -3.604010 -16.485600
11.837366 -65.403495 -12.271412 -16.069838
5.133517 -61.707283 -6.160537 -16.972130
-9.599495 -37.951628 -4.814043 -14.265337
11.208849 -55.202463 -4.302589 -13.198084
7.204322 -45.023628 -3.798519 -11.345792
-28.465248 -49.308336 -0.234989 -28.798900
21.209188 -48.951410 -6.893558 -8.322667
1.448795 -51.817037 -1.250598 -15.110473
5.885115 -48.001900 -0.919910 -12.635035
4.789972 -47.176284 -2.850089 -12.715894
3.321732 -51.260473 -1.485885 -14.381622
9.641586 -49.682947 -5.891254 -12.012409
4.055516 -53.079700 -2.612390 -14.707255
5.086852 -49.135876 -6.120829 -13.214707
10.799448 -56.228862 -3.710461 -13.628824
10.144745 -48.882630 -1.896039 -11.621365
-28.981330 -50.235713 -0.271125 -29.352556
-27.111762 -47.238048 -1.877184 -27.318164
11.513398 -51.580325 -0.927736 -12.020078
7.877634 -46.587991 0.396982 -11.613107
-23.613187 -42.364623 -0.220173 -23.924877
-17.986395 -31.782415 -4.108004 -16.771423
-36.226988 -59.617728 -2.581599 -36.294506
-20.615647 -37.810511 -2.477658 -20.671711
-26.178633 -45.247291 1.233701 -26.158878
-19.951068 -29.496151 0.500303 -16.532543
-19.928702 -36.489616 2.603254 -19.732876
-20.921872 -36.968605 -3.775343 -20.349192
-26.182779 -43.534828 -1.522136 -24.746207
-6.486814 -18.651353 1.727446 -7.541450
-28.467928 -49.532270 0.992335 -28.705079
43.163679 -44.812991 -7.139906 -0.494794
23.081005 -44.713014 -2.157142 -6.489603
6.453716 -55.306061 -5.994972 -14.655704
-15.010299 -57.205163 3.228542 -21.664638
-18.742988 -34.946492 0.212238 -18.715124
9.613158 -46.302897 -0.365972 -11.006922
18.953701 16.676057 0.769839 16.474318
-39.434780 -64.541199 1.816952 -39.639394
3.822821 -59.665869 -7.147975 -16.752914
0.488863 -9.477214 0.340466 -2.696505
-9.266512 -20.461691 -3.566311 -8.918461
-10.056275 -22.422683 -2.994674 -9.743687
-59.369225 -92.397548 -1.325282 -59.758365
-21.696354 -25.264235 7.850245 -15.646488
87.485788 -48.330139 1.176739 11.746695
-0.959228 -11.312324 0.993317 -3.681466
-5.477179 -32.723259 -1.508824 -11.460131
-7.468326 -47.388985 -0.317259 -16.457193
-5.280859 -13.850612 -3.880981 -5.739441
0.038832 3.621655 3.498566 1.098146
-6.923337 -41.760810 -1.556266 -14.605244
-7.388284 -37.659477 -2.514125 -13.514328
1.127850 -6.766328 -2.534090 -1.691543
-6.243699 -35.968241 -2.238198 -12.663582
-6.413733 -35.134969 -1.849965 -12.464611
-6.055330 -36.032244 -2.397000 -12.626272
-6.368217 -39.708871 -0.995911 -13.823126
-4.945536 -36.536312 -0.471380 -12.444554
-6.784700 -30.226333 0.596646 -11.103310
-7.475211 -29.527861 0.344931 -11.100921
-18.227470 -33.893503 -3.169508 -17.835723
-4.119240 -15.973720 0.150807 -7.189405
-4.510724 -38.980268 -0.820398 -13.047297
-18.046947 -35.222909 0.493314 -18.272431
-3.270376 -14.582102 -0.949515 -6.021530
12.725984 7.483084 0.299325 7.538523
-1.009373 -39.461739 4.349316 -12.141334
-30.305867 -52.145371 0.842273 -30.563862
-17.688428 -34.410864 -1.554006 -17.772702
-29.301584 -49.692926 -3.064150 -29.138624
-6.626898 -47.498737 -0.707414 -16.237691
-18.363014 -56.479827 2.444782 -22.452852
-5.947281 -40.740416 -2.043008 -14.006309
-10.131089 -45.263943 0.022043 -16.618509
-6.633330 -41.706605 -1.741877 -14.501980
-8.359095 -52.483181 1.382090 -18.252683
-7.086583 -50.912903 0.739403 -17.399846
-7.747643 -47.728949 -0.191523 -16.642978
-4.695052 -44.149091 -2.053042 -14.653243
-5.569066 -40.566892 -1.776839 -13.840788
37.956489 -47.991890 -19.490221 -3.010620
-11.285048 -55.975088 0.147106 -20.178041
-8.271389 -47.586291 0.366965 -16.757304
-11.707333 -58.717107 0.105636 -21.127332
-12.085205 -57.375040 1.381312 -20.838073
-14.827421 -57.948210 1.029541 -21.832689
-11.367521 -56.082638 1.857569 -20.235048
-14.722340 -57.488150 2.627233 -21.663147
-16.245661 -31.171716 3.509277 -17.070031
-11.471231 -63.006617 -3.947684 -22.343354
-4.125867 -55.463092 -0.093006 -17.876688
-15.663328 -59.729538 -2.454523 -22.617860
-7.487264 -54.961837 -0.281639 -18.734730
0.486412 -63.205595 -0.910959 -18.815755
-8.950745 -56.316677 2.403367 -19.580227
13.218409 -54.030727 -9.466856 -12.243695
-12.685410 -53.200413 3.039840 -19.765747
-8.232346 -55.584501 0.769406 -19.145054
-13.366560 -51.301414 1.213506 -19.400392
-14.752519 -63.112385 4.091779 -23.359471
-10.197691 -52.303735 1.930606 -18.750428
-7.915200 -37.939738 -2.619072 -13.756481
-10.220426 -52.920581 1.308148 -18.942302
-9.340982 -47.346443 0.514485 -17.006228
-9.576495 -53.057527 1.220099 -18.790207
-8.496867 -52.685507 1.038716 -18.354712
-9.841638 -47.455917 0.606723 -17.189266
-8.235710 -42.207336 -1.279398 -15.132914
-8.435154 -38.754479 -2.315110 -14.156890
-7.815220 -42.082901 -1.306842 -14.969436
-11.915250 -51.801022 0.201389 -19.114882
-3.259274 -60.370207 4.981786 -19.088844
-11.270179 -47.691002 -0.524538 -17.688354
-14.710402 -60.379316 2.784320 -22.526915
-11.877189 -44.010525 -0.915728 -16.766314
-12.104982 -48.205291 0.375249 -18.093082
-12.079861 -47.564168 0.532586 -17.893209
-3.853948 -38.885420 2.200112 -12.821810
-10.702147 -53.289123 0.241384 -19.197381
-0.660639 -28.921603 -2.706180 -8.874672
-7.911222 -38.114659 -0.748551 -13.807764
6.570019 -37.431565 1.586808 -9.258464
-8.671431 -42.539712 0.448214 -15.363343
-7.782204 -38.715668 -2.596093 -13.949361
-10.195264 -43.622193 -1.175481 -16.145237
-6.421050 -33.579174 -3.448014 -12.000067
-6.459484 -37.234538 -2.721514 -13.108207
-5.466832 -29.761509 -2.722477 -10.568502
-9.206247 -38.849005 -2.160116 -14.416575
-9.249673 -42.520340 -1.029563 -15.531004
-6.283839 -32.956553 -2.158269 -11.772118
-5.531902 -32.590784 -2.852115 -11.436806
-7.281935 -36.447522 -1.471795 -13.118837
-6.018028 -16.865728 2.754833 -6.865127
-5.950979 -31.996307 -1.305939 -11.384186
-8.756431 -32.667919 1.513057 -12.427305
-8.182693 -20.880986 -1.757757 -8.719104
-3.251372 -14.543807 -0.463699 -5.338554
-9.675939 -22.189122 1.174837 -9.559518
1.854235 1.540901 3.968454 0.499984
-8.040583 -17.826577 3.994108 -7.760148
-8.393363 -17.671364 4.304738 -7.819418
-9.891719 -10.966229 5.912743 -6.257384
18.776008 16.050300 0.443944 16.017215
-6.151859 -32.646944 -2.223108 -11.639641
-4.972212 -29.060493 -0.637862 -10.209811
-3.496689 -14.839155 -0.780734 -5.500753
-5.749433 -29.110277 -1.006611 -10.457913
-2.430324 -13.305959 -0.901510 -4.720885
-5.751908 -30.363278 0.507836 -10.834556
-5.046760 -29.053350 -2.032652 -10.230033
-6.751141 -30.375536 -0.459177 -11.138003
-6.342999 -18.565384 -1.352511 -7.472515
-11.251973 -25.648038 -0.643611 -11.415302
-8.707734 -17.627573 4.530736 -7.900592
-20.200850 -21.925276 7.598651 -13.621613
-0.433681 0.669371 4.172818 0.070707
-0.845970 -3.688373 4.371783 -1.360303
0.456223 -8.924836 -1.424770 -2.540584
-0.192621 -7.623091 1.756307 -2.344714
0.037998 0.420029 4.188237 0.137408
-0.973827 -8.172164 2.030728 -2.743797
-5.678966 -17.389333 -1.699505 -6.920490
-4.273016 -2.579555 -1.439236 -2.055771
-3.898937 -15.034115 -1.492671 -5.679916
-3.268662 -14.533156 -0.647582 -5.340546
-4.696936 -30.651750 -2.671421 -10.604606
-23.826882 -40.606693 -4.311751 -23.028455
-4.709697 -28.395011 -1.667199 -9.931412
-10.343063 -23.945495 -1.719488 -10.315332
-5.539844 -33.456159 -3.424846 -11.698801
-3.234033 -24.550343 -2.557912 -8.335313
-5.864880 -32.772539 -2.755249 -11.591226
-3.771664 -29.507154 -3.071614 -9.983646
-36.664979 -57.798669 -5.457407 -35.654643
-5.890663 -36.542937 -1.674282 -12.730080
-3.914114 -29.223897 -3.759130 -9.941403
-1.553564 -23.577920 0.205605 -7.539445
-4.440639 -67.704309 0.064647 -21.643485
19.281045 -27.414951 9.844083 -2.440172
15.252543 11.229594 0.623066 11.191267
-1.667656 -7.843263 4.210053 -2.853276
-8.545586 -25.767469 -0.259079 -10.293917
-6.092252 -16.955002 -2.268044 -6.914176
-8.372921 -21.578090 0.708955 -8.985303
-6.267412 -15.063559 4.134794 -6.399291
-1.779236 -10.365483 -2.935060 -3.643416
-2.975571 -14.076827 0.703372 -5.115719
-12.773412 -27.223843 -1.848359 -12.738050
-3.560658 -11.687633 -3.664995 -4.574487
-6.697665 -14.225506 -4.578716 -6.276951
-4.272025 -13.039394 -3.534904 -5.193426
-10.511777 -22.512414 -3.300140 -9.907257
2.965805 -4.741487 -2.066059 -0.532705
-5.844790 -16.941629 -2.451870 -6.835926
-2.925020 -9.673732 -4.026083 -3.779626
0.829319 -8.743634 0.814288 -2.374295
9.517345 3.868514 1.859720 4.015758
-3.029707 -14.041955 0.576096 -5.121499
8.295313 1.469854 -0.283549 2.929550
12.092188 6.718041 0.396841 6.762562
-8.672417 -21.328818 2.128960 -9.000370
4.280984 -3.219366 1.958687 0.318485
-4.192183 -14.110937 3.277696 -5.490936
-0.941546 -10.751629 1.642993 -3.507953
3.098997 -4.884658 2.334581 -0.535698
1.488477 -7.972461 0.025358 -1.945195
8.608378 2.021065 -0.703674 3.188833
1.886285 -6.476018 2.110774 -1.376920
2.513366 -6.542450 -0.070171 -1.208725
1.236877 -8.231482 0.656543 -2.098382
-1.968708 -9.738945 -3.411638 -3.512296
2.336369 -6.788160 0.363948 -1.335537
2.322003 -6.842102 -0.112299 -1.356029
-2.960473 -9.392524 -4.130262 -3.705899
-3.457379 -11.036802 -2.888676 -4.348254
-2.067258 -6.740575 -4.253802 -2.642350
-2.418459 -5.889781 0.077033 -2.492472
5.257374 -1.185614 -0.882984 1.221528
-1.075037 -1.628783 -2.408985 -0.811146
-5.634459 -1.166458 -1.479309 -2.040275
-7.638936 -0.909276 -0.207141 -2.564464
-1.736071 -5.155826 4.467864 -2.067569
-4.146635 -2.035344 0.838301 -1.854594
-6.144098 -0.330444 1.472055 -1.942363
-2.379958 -13.991043 4.423006 -4.911300
-4.818307 -5.315347 0.254841 -3.040096
-3.362762 -4.683267 -3.294015 -2.413809
-5.992602 -6.465073 2.867870 -3.737302
-3.533188 -4.437476 3.255947 -2.391199
-3.950535 -7.723548 -1.679682 -3.502225
-3.663744 -10.397391 -4.186725 -4.218340
-3.437296 -10.072127 -3.661473 -4.052827
-3.330535 -5.788425 -2.629467 -2.735688
-4.856737 -15.590112 -2.425797 -6.134055
-3.164823 -8.764477 -4.358207 -3.578790
-6.189035 -16.191979 -3.398159 -6.714304
-3.316876 -5.960723 -2.916509 -2.783280
-3.282448 -9.950500 -4.100460 -3.969885
-3.269923 -1.849072 -0.051286 -1.535698
-3.289888 -5.742540 -1.478387 -2.709728
-7.921598 -11.576371 5.511556 -5.849391
-3.442499 -7.454519 0.520140 -3.269105
-5.301602 -10.776854 4.805838 -4.823537
-3.342961 -3.349908 4.053289 -2.007861
-5.027581 -10.276696 4.794999 -4.591283
-2.801333 -6.696453 4.602244 -2.849336
0.711177 -8.972197 1.602571 -2.478306
-3.891517 -18.464436 5.910403 -6.706786
-1.020430 -12.576049 2.580534 -4.078944
-10.432108 -57.662222 -7.630458 -20.428299
-6.441901 -18.764081 -1.176927 -7.561794
5.441563 -0.783169 -2.251302 1.397518
-2.157911 -9.075375 3.817942 -3.369986
-0.896034 -5.139544 4.204076 -1.810674
-0.233619 -10.149549 -1.055267 -3.114951
0.712292 -9.105593 0.047899 -2.517990
-2.237176 -12.857196 4.799790 -4.528312
-2.599857 -2.127519 2.546856 -1.418213
-0.800114 -11.550215 4.068524 -3.705099
-2.100756 -7.731472 4.157783 -2.949668
-2.762361 -13.823534 3.475787 -4.975768
-1.167390 -4.399278 1.853433 -1.670000
-2.904853 -8.845642 5.161722 -3.525148
4.303789 -1.994934 -0.003831 0.692656
0.381692 -0.247485 3.354857 0.040262
3.357517 -5.303514 0.191635 -0.583799
7.057955 -0.282365 -0.006996 2.032677
4.506157 -3.669133 -0.795087 0.251107
6.033597 -1.544236 -0.780811 1.346808
0.484451 -6.946126 2.766310 -1.938502
3.714354 -3.914625 1.173328 -0.060081
5.523774 -1.994402 1.160554 1.058811
-0.410447 -3.803192 1.362025 -1.264092
7.971253 1.147978 -0.755826 2.735770
2.897754 -6.070855 -0.164267 -0.951930
3.902183 -0.119737 -1.222131 1.134734
2.729449 -5.399794 -1.773692 -0.801103
6.440182 -1.093814 -0.404456 1.603910
4.443906 -3.915301 -0.001165 0.158582
2.506454 -3.995296 -0.947130 -0.446652
5.780495 -1.801852 1.010127 1.193593
-0.239080 -10.393525 0.597565 -3.189781
6.447294 -1.108381 0.301762 1.601674
4.572334 -3.729587 -0.301206 0.252824
4.453817 -3.513595 1.260207 0.282067
-4.431611 -6.227837 -3.181737 -3.197834
1.705878 -7.706630 -0.328787 -1.800226
6.169689 -1.514552 0.487414 1.396541
-1.403201 -8.916447 -3.376583 -3.095894
3.979063 -3.744185 1.731167 0.070463
3.616558 -3.461995 1.296901 0.046369
-8.434370 -21.742455 0.951114 -9.053048
4.007468 -4.418167 0.891862 -0.123210
8.220433 2.065098 1.511181 3.085659
-7.340695 -19.319498 -2.282753 -7.998058
3.126780 -5.722663 0.647000 -0.778765
3.680968 -4.302460 1.596285 -0.186447
1.464312 -7.842475 0.951955 -1.913449
1.580030 -7.483495 -1.335551 -1.771039
-4.071713 -13.166213 3.324871 -5.171378
3.783481 -4.399861 -1.320531 -0.184914
1.383761 -8.111548 -0.696771 -2.018336
-6.918037 -17.208290 -3.051010 -7.237898
-7.081037 -13.681565 -4.269947 -6.228781
-2.798070 -25.212553 -4.638522 -8.403187
-11.172476 -24.512658 -2.545048 -10.893672
1.149217 -17.218443 -6.970132 -4.820768
7.671945 -20.548079 4.157573 -3.862840
-7.942249 -44.022372 -2.846610 -15.589386
-13.205171 -27.166320 -2.798070 -12.864631
-9.161255 -32.549972 -3.475741 -12.513368
-8.973315 -34.700265 -4.638169 -13.102074
-15.509922 -31.577018 1.054834 -15.664776
-17.094410 -33.104646 -1.645619 -17.092741
-12.708726 -24.911614 -4.004658 -11.706102
0.140551 -15.490231 -2.400120 -4.604904
-10.965666 -25.184587 1.175018 -11.060177
17.121320 14.424171 1.063710 14.106042
-9.076050 -21.643195 -2.436207 -9.215773
-0.973907 -10.949474 -1.528712 -3.577014
-2.621236 -17.639514 5.631920 -6.078225
-2.323592 -14.885301 5.672710 -5.162668
7.660146 -18.655444 -2.940530 -3.298589
4.520877 -13.025929 -3.784517 -2.551516
1.649058 -15.939074 7.305962 -4.287005
-3.467064 -18.327350 5.519298 -6.538324
-2.136020 -15.039288 5.159649 -5.152592
-3.082365 -15.566826 5.377629 -5.594757
8.970230 7.834271 2.834236 5.591701
9.503038 -29.216678 5.684265 -5.914092
-3.271077 -47.298306 15.741629 -15.170815
-1.724115 -12.255491 1.278884 -4.193882
2.614848 -23.485057 7.831092 -6.261063
31.265468 -25.157442 5.978296 1.832408
2.358824 -23.993165 -0.800015 -6.490302
-1.523935 -26.723464 5.706642 -8.474219
14.183677 9.530963 0.419024 9.561596
10.502180 4.571288 0.745003 4.573263
1.572335 -24.125053 12.962041 -6.765815
-38.595380 -63.689435 -0.836994 -38.915658
-5.311148 -17.129410 1.275431 -6.732168
-6.701676 -19.366421 0.234371 -7.820429
-1.921070 -0.351918 4.343908 -0.681896
58.214094 -25.155859 14.073338 9.917470
-14.640768 -22.532417 6.073221 -11.587421
-15.002800 -28.734485 3.641874 -14.303986
-69.645983 -103.808022 -6.527231 -68.925384
-36.354749 -48.865670 9.201376 -31.777131
-71.948283 -103.431709 -9.634471 -69.719161
-41.287411 -67.182413 -1.222081 -41.573120
-52.749404 -83.014193 -2.065040 -53.021650
-31.172425 -53.103563 -1.347935 -31.383393
0.407798 -9.548330 0.437034 -3.778035
-19.624217 -35.855881 3.181793 -19.299403
-4.000396 -15.042983 1.834944 -5.713014
-21.474713 -39.645843 -1.259162 -21.630825
-12.511291 -24.637430 -3.813581 -11.505078
-17.345371 -30.751535 -2.848607 -16.419920
-20.317130 -57.025078 2.445519 -23.202662
-13.381445 -41.776221 -2.351668 -16.547300
-18.852140 -36.148891 -0.671594 -19.055558
-2.919121 -14.008549 0.696447 -5.078301
-10.586188 -38.327289 -1.068325 -14.674043
-1.682961 -9.108647 1.106448 -3.237482
-6.813296 -33.823598 -1.382616 -12.191068
-12.525126 -39.827850 -5.359012 -15.705893
-10.152699 -35.606233 -4.202537 -13.727680
1.213237 -20.727256 -12.375965 -5.854206
-12.496697 -42.494462 -4.314466 -16.497348
-12.918075 -38.063160 -3.138274 -15.294371
-14.177438 -49.136618 -5.940443 -18.994217
-24.689485 -42.848591 -3.371529 -24.366126
-21.067188 -37.674617 -3.401444 -20.688869
-3.649450 -9.797769 -2.241985 -4.034166
-10.338718 -20.548840 -4.370566 -9.266267
-9.471278 -19.362456 2.394467 -8.650120
-3.287908 -9.826905 -3.929971 -3.934444
-10.601795 -16.913024 -5.622817 -8.254446
0.467577 -0.721407 -4.190514 -0.076149
-15.062740 -27.998628 -4.130373 -13.875700
-9.277953 -21.653603 -0.818968 -9.279467
-6.878805 -9.278609 -2.599250 -4.847224
-11.232091 -22.480993 -3.990288 -10.113925
-16.899451 -29.498236 0.838401 -13.919306
-6.050342 -15.373233 1.090915 -6.427072
-15.279044 -28.951779 -1.515432 -13.931624
-1.391008 -8.422710 -3.222822 -2.944115
-12.332608 -23.404552 -4.466936 -10.946095
-5.072291 -11.804280 3.200301 -5.062971
-16.907311 -39.849154 -4.785656 -17.026940
-17.894067 -24.994745 0.755515 -12.866644
-16.541710 -38.985248 -4.178745 -16.658087
-10.045305 -22.001895 3.254283 -9.614160
-11.926182 -27.279361 -1.315803 -11.761663
-9.277631 -19.332836 6.057542 -8.583140
-21.294323 -22.671081 2.828589 -13.189621
-40.901747 -39.354011 10.702029 -29.678767
-14.480302 -28.292922 3.391609 -13.897327
-4.171100 -24.205799 6.504680 -8.513070
-46.896492 -72.411271 -5.601475 -46.091868
13.346444 -29.847421 -3.819545 -4.950293
16.385294 -23.362419 15.414340 -2.093137
-14.450703 -24.310768 1.532525 -11.628441
-14.717448 -36.887989 -2.741784 -15.481631
-9.783020 -21.029647 3.129130 -9.243800
-9.554987 -21.954906 2.151390 -9.452968
-17.912640 -23.515179 4.713465 -12.428346
-4.347080 -15.263908 1.963630 -5.883296
1.103893 -8.477317 0.447191 -2.212027
-0.993158 -1.074986 1.660286 -0.620443
-1.924309 -12.542015 7.553182 -4.339897
-3.297480 -11.237243 5.279517 -4.360417
-2.163238 -19.260333 6.116908 -6.427071
-0.780299 -16.126321 9.393369 -5.071986
-2.959775 -26.361012 5.967762 -8.796236
-12.953224 -28.206112 -0.301081 -13.155079
-1.729628 -10.415617 5.340957 -3.643573
-3.395481 -20.697298 8.225981 -7.227834
4.798139 -15.268662 4.294591 -3.141157
-1.652624 -19.024326 6.264962 -6.203085
-2.180373 -12.956567 3.532157 -4.541082
-5.048704 -15.367324 5.220604 -6.124808
-1.299277 -6.921982 2.989717 -2.466378
-3.826561 -14.489940 4.794057 -5.494950
-2.906768 -10.557467 1.407488 -4.039270
-3.417859 -4.753742 -1.542871 -2.451481
-5.609955 -16.365084 0.520457 -6.592512
-7.156933 -19.103815 2.120835 -7.878224
-6.574081 -16.993217 3.213454 -7.070189
-6.044062 -17.327932 1.329254 -7.011598
-4.315878 -15.521276 1.571157 -5.951146
-4.449521 -15.753487 1.503735 -6.060902
-10.337372 -23.129101 -1.446799 -10.039942
-7.192084 -15.080193 1.255358 -6.681683
-7.518325 -16.542758 -1.989774 -7.218325
-8.493357 -18.201508 1.722785 -8.008459
-6.288660 -9.783312 -0.468449 -4.821592
-9.662539 -17.694078 -4.545952 -8.206985
-7.931494 -15.422095 -1.374385 -7.006077
-6.720051 -14.278856 1.553018 -6.299672
-4.650646 -6.964940 -2.435249 -3.484676
-6.320668 -13.238231 1.191203 -5.867670
-7.408172 -11.812519 -1.792507 -5.766207
-4.133785 -8.201222 -0.986137 -3.700502
-6.138200 -14.125321 0.657412 -6.079056
-3.872302 -11.049735 0.505611 -4.476611
-2.889106 -10.911886 0.035528 -4.140298
-4.713821 -0.880697 0.906639 -1.678355
-2.360635 -9.265755 0.513681 -3.487917
-4.576519 -13.648884 0.320788 -5.467621
-3.109758 -5.675229 -1.986273 -2.635496
-2.609181 -8.206101 0.136650 -3.244584
-1.635155 -7.126563 -0.340325 -2.628515
-1.273604 -6.762871 0.132588 -2.410943
-9.440809 -17.037050 -5.099244 -7.943358
-3.837820 -8.715885 -4.222977 -3.766112
-2.609748 -4.652182 -2.492917 -2.178579
-6.535128 -9.302831 -1.377180 -4.751388
-1.099498 -5.780987 -3.268248 -2.064145
1.098361 -6.963693 -2.393237 -1.759600
-2.302848 -1.399774 -1.453112 -1.110787
-0.224181 -3.742509 -2.630203 -1.190007
9.056093 3.062704 1.304689 3.635639
6.666573 -0.673330 -0.649773 1.797973
-4.804149 -1.536789 -0.745712 -1.902281
-5.774116 -1.355312 0.060942 -2.138828
-1.518097 -2.190080 -1.794106 -1.112453
-2.580808 -1.953469 -0.217151 -1.360283
-3.711362 -4.763874 -0.479131 -2.542571
-3.753325 -4.141773 0.641500 -2.368529
-2.828473 -2.039407 0.452977 -1.460364
-3.244823 -4.033127 1.375978 -2.183385
-1.804318 -4.811628 0.993471 -1.984784
-0.104713 -2.209113 1.704346 -0.694148
-2.174390 -4.630740 2.071774 -2.041539
-0.377476 -3.841308 2.471438 -1.265635
1.311077 -1.861002 0.594326 -0.164977
-0.382830 -16.233283 5.847253 -4.984834
10.982276 6.180955 -0.083670 6.107887
7.958404 0.871602 -0.957576 2.649002
3.549854 -1.478330 1.157881 0.621457
1.591569 -4.943433 2.146623 -1.005559
-4.749777 -10.332393 4.547686 -4.524651
-0.652668 -21.818712 6.665722 -6.741414
-1.642545 -4.193867 2.219729 -1.750924
-2.468129 -5.478191 2.988721 -2.383896
-2.611302 -11.722429 2.368302 -4.300119
5.759680 -8.718753 1.141019 -0.887722
-3.186054 -3.474376 1.839967 -1.998129
-3.134623 -7.635816 0.866800 -3.231132
-3.497205 -4.353221 2.774111 -2.355128
-2.566346 -3.832102 2.698891 -1.919535
-4.355740 -11.853288 4.115882 -4.862709
-4.520391 -8.535788 1.556998 -3.916854
-2.944260 -12.844614 6.050402 -4.736662
-3.663994 -7.809688 4.560704 -3.442105
5.224020 -6.645904 2.065511 -0.426565
-1.513518 -7.329246 3.138475 -2.652829
1.366824 -10.179584 3.535745 -2.643828
0.983115 -12.301212 4.484455 -3.395429
4.526860 -19.362273 4.248119 -4.450624
2.588623 -16.966292 2.750787 -4.313301
16.694653 -6.019628 -12.163738 3.202507
3.170714 -19.616587 3.611312 -4.933762
-6.421697 -19.015017 -1.324179 -7.631014
-11.737249 -25.238346 -2.694565 -11.434952
11.867814 6.058406 -0.336395 6.130853
-8.159009 -21.656414 -0.837957 -8.944627
11.032050 4.965442 0.334249 5.030219
-5.218199 -16.808318 -2.105096 -6.607955
4.457280 -3.803438 -1.285283 0.196153
8.170051 4.927329 -2.726796 3.929214
9.376940 2.835382 -0.413833 3.663697
-10.062991 -24.278737 -0.193608 -10.302518
-26.451909 -44.452571 4.304780 -25.738143
12.743254 -12.917512 0.309728 -0.052278
2.483272 -6.625229 -1.234219 -1.242587
-6.544498 -17.696862 1.918820 -7.272408
-0.056254 -8.487394 -2.529907 -2.563094
6.001862 0.069785 -0.094771 1.821494
-2.872520 -14.162218 -0.480508 -5.110421
9.980962 3.842092 -0.503911 4.146916
5.498974 -1.595064 -1.958655 1.171173
2.208157 -7.084094 -0.808768 -1.462781
-0.031860 -10.007104 -0.972055 -3.011689
-9.700209 -23.692686 0.077428 -10.017869
-0.550743 -10.593112 -1.403143 -3.343157
10.514786 4.549372 -0.808694 4.538121
8.498031 1.595662 -0.632411 3.028108
-0.698539 -11.145279 0.056896 -3.553145
12.864237 7.637640 -0.214968 7.701909
-7.302672 -20.095989 1.389895 -8.219598
12.647974 7.371040 -0.162999 7.446213
9.261653 3.150928 1.234818 3.723774
-3.720579 -15.091041 -0.831465 -5.643486
9.858153 3.456042 0.520225 3.994258
0.236166 -9.409701 1.241426 -2.752061
3.717360 -4.214282 1.760628 -0.149077
5.163882 -2.555937 1.152952 0.782384
6.799069 -0.194339 1.231181 1.981419
-1.812625 -12.458318 -1.132956 -4.281283
4.098091 -3.834132 -1.350743 0.079187
0.034779 -8.673537 -1.271117 -2.591627
7.061352 -0.230006 0.341655 2.049404
0.149901 -7.855988 -1.765981 -2.311826
5.324834 -2.540655 -0.653264 0.835254
-2.177569 -11.698490 -0.483325 -4.162817
3.093565 -5.696253 0.503713 -0.780806
-1.696426 -10.740539 -0.482652 -3.731089
1.614519 -7.346548 -0.829706 -1.719609
2.870333 -5.334152 1.696895 -0.739146
-0.575242 -10.134659 1.969493 -3.212970
0.341346 -9.497396 -0.576232 -2.746815
5.187148 -2.987664 -0.165929 0.659845
-7.074020 -18.418109 -2.709361 -7.647639
-2.982442 -13.324945 2.056251 -4.892216
-4.742905 -15.292154 -1.148843 -6.010518
-0.740798 -10.913300 -0.893712 -3.496229
-9.328055 -18.284943 -2.310245 -8.283899
-4.805401 -13.479219 -1.332536 -5.485386
-5.008407 -13.110132 0.001044 -5.435562
-1.935904 -10.954075 -0.605284 -3.866994
-0.676751 -10.150246 0.019600 -3.248099
1.179508 -6.460418 -1.330063 -1.584273
-6.487395 -11.480273 -2.210929 -5.390300
-12.047096 -17.229277 3.266519 -8.782912
-4.394908 -14.677475 1.128770 -5.721715
-11.563673 -19.084228 0.413826 -9.194370
-3.283962 -13.868261 -1.948294 -5.145667
-17.390381 -31.015072 -4.546459 -16.235258
-6.911764 -17.667132 -3.113117 -7.373669
-13.291007 -21.591491 0.794470 -10.464749
-10.215031 -21.981816 -3.625286 -9.659054
-2.652805 -13.439117 -1.468126 -4.827577
-2.792585 -12.504900 -2.743909 -4.589245
-5.756191 -16.619495 -2.697013 -6.712706
-5.323744 -17.753744 0.028558 -6.923246
-2.167339 -11.412424 -2.825630 -4.073929
-11.900247 -24.800430 -3.297293 -11.303794
-4.633887 -16.551451 -0.567658 -6.355601
17.019812 14.157066 0.953762 13.916718
33.232813 -25.621227 -21.200770 2.283476
0.840478 -9.012382 -1.028393 -2.451571
-2.830127 -13.714160 -1.628435 -4.963286
-23.615827 -57.412540 -16.240474 -24.308510
-17.639117 -28.063678 3.599856 -13.710839
13.223686 9.069980 1.329879 8.740392
17.354693 14.593183 0.921316 14.359815
-10.471666 -30.765281 0.363327 -12.371084
-0.269116 -23.038823 7.177370 -6.992382
21.793270 -29.163448 11.659938 -2.211053
-30.518789 -51.607567 2.817908 -30.440037
12.184482 7.718860 1.452392 7.362674
-13.731930 -27.975401 -2.856266 -13.394369
-3.112838 -12.629711 -2.962862 -4.722765
0.916805 -8.342240 -1.846023 -2.227630
-6.589987 -14.391198 -4.554661 -6.294355
3.879244 -4.953326 -0.630813 -0.322225
-16.691960 -29.529865 -4.769946 -15.326952
-13.244666 -26.833267 -3.337296 -12.670191
-12.485635 -25.158779 -3.688275 -11.690731
-24.196814 -41.102515 -4.466339 -23.343303
-8.455863 -80.202761 -1.678074 -26.597587
-39.715515 -65.139218 1.419576 -39.973537
-46.692370 -69.863896 -7.363345 -44.922247
-23.618412 -42.698397 -1.315985 -23.782319
-15.576612 -31.851230 -0.102943 -15.799878
-0.301153 -9.918611 -1.735262 -3.065929
-15.323683 -30.398488 2.530342 -15.933530
-12.967421 -27.213266 2.458338 -12.757419
-24.160255 -41.514315 3.954720 -23.646208
-10.237085 -22.182464 -3.356490 -11.433284
-14.290581 -27.639274 -3.751820 -13.512546
-17.284462 -33.988245 0.511639 -18.652629
-1.983760 -11.244851 -2.677217 -3.968583
-20.858388 -34.925125 -5.189724 -19.382671
-7.916448 -18.994952 -3.316888 -8.073420
-5.701400 -15.126412 -3.678275 -6.248343
-25.537462 -43.686967 -3.868014 -25.007997
-11.270602 -24.542278 -2.742523 -11.000159
-14.227230 -27.016064 -4.137763 -13.212428
-14.871507 -28.160980 -4.090221 -13.930583
-4.012779 -14.124160 -2.715483 -5.441082
-4.458026 -7.614743 -4.954540 -3.621831
-16.847805 -28.165366 -5.465478 -14.847854
-17.671300 -30.955108 -4.792534 -16.339116
-8.344281 -16.690723 1.558381 -7.510501
-13.074909 -23.705123 0.543367 -11.034010
7.929197 5.928668 -2.949296 4.157360
-27.625376 -43.745609 -5.942828 -25.938367
-22.924168 -41.131134 -2.612354 -22.809520
-28.904014 -46.603693 -5.435423 -27.649484
-16.906256 -31.609210 0.117042 -15.546155
-11.648552 -22.136779 -1.457580 -10.135599
-18.366195 -26.457318 1.339224 -13.447054
25.041672 24.842058 -0.214929 24.716498
-16.887384 -16.187010 2.820537 -9.922318
-7.569898 -8.301923 -5.489703 -4.761546
-19.562122 -34.239091 -4.536630 -18.510452
-14.687956 -30.331438 -1.321107 -14.793116
-22.142157 -29.853513 -1.165881 -16.212284
-28.416670 -46.430950 -4.955975 -27.411578
-25.439475 -41.664193 -5.320388 -24.113973
-35.335821 -59.067506 -0.412519 -35.640729
0.057142 -9.881427 0.799143 -4.359598
-37.691863 -59.671486 -5.272067 -36.831664
-11.490736 -23.928797 -3.494005 -10.767267
40.133019 40.398043 -0.019749 40.717144
-9.992675 -7.152531 -5.228397 -5.143562
-0.319985 -8.890735 -2.700504 -2.763216
-47.393692 -75.714053 1.586492 -47.685684
-50.548783 -66.846685 -11.068646 -45.311307
-54.164100 -81.321988 -7.200991 -52.916222
-30.971704 -49.814514 -5.460709 -29.788944
-53.486755 -78.012552 8.440561 -51.253125
6.700138 -56.093343 3.860054 -14.817961
9.164054 13.455430 -1.113718 8.960878
-2.049950 -11.152697 -2.859336 -3.960794
10.849539 -43.175396 -6.660715 -9.697757
-3.321882 -55.403981 3.219399 -17.617759
-4.556644 -15.946619 1.557985 -6.150979
-3.564046 -48.817122 -5.928840 -15.714350
-29.556892 -49.115984 2.675009 -28.879954
-39.671467 -63.751037 3.673952 -39.438650
-53.843694 -82.484557 5.297021 -53.271902
-8.455229 -21.206287 -1.827335 -10.985069
-38.172638 -61.807237 3.679410 -37.936201
-1.045843 -11.551324 0.683934 -3.779150
-10.903063 -45.654958 -3.829561 -16.967406
-30.686301 -45.327867 3.717278 -28.346515
-14.587296 -29.062268 -2.771501 -15.988813
-10.630367 -44.731237 -2.532054 -16.608481
-9.351743 -54.525620 4.951192 -19.163209
-4.013029 -65.768899 6.390410 -20.934578
-25.889146 -51.298554 3.114834 -23.156310
-28.965991 -43.550357 5.094478 -26.110801
-0.864727 -58.990521 5.560329 -17.956574
38.871433 -57.444921 5.040755 -5.572046
0.577309 -51.664730 7.228247 -15.326226
9.085569 -53.637380 6.360982 -13.365543
-4.577963 -52.222374 6.028402 -17.040101
-10.279318 -23.542458 2.269344 -11.979114
-8.492185 -55.601458 7.171955 -19.228093
-18.470173 -35.253428 1.830042 -20.081548
-75.608760 -104.128887 -12.279555 -71.558071
-54.529817 -82.358161 -6.417805 -53.529240
-20.232367 -53.526850 5.802556 -22.127765
-29.692057 -48.328709 4.920699 -28.755975
-10.590840 -45.413162 1.739854 -16.801201
-32.885826 -53.030231 2.515320 -31.317532
-26.568998 -49.918063 1.802834 -22.946118
-25.839182 -40.510969 0.204859 -24.056951
-16.419140 -32.509179 -1.549146 -17.285130
-27.758278 -46.470977 -4.153495 -27.150219
-17.362259 -33.332191 -2.417824 -17.265941
-24.684224 -40.808711 1.861592 -23.414976
-45.152583 -72.762963 0.655271 -45.506965
-53.839629 -84.813119 1.087495 -54.216463
-9.871153 -22.627368 2.663508 -10.652133
-31.491799 -53.204493 2.540131 -31.495997
-6.891946 -19.692014 -0.388094 -10.780013
-40.736858 -66.264582 1.956972 -40.933473
-7.927343 -20.803643 1.535670 -8.619296
-8.768161 -22.248263 0.883783 -9.304927
-42.107059 -67.591958 -3.384541 -42.021182
-17.109752 -33.867713 -0.967137 -17.438461
14.333451 11.393961 1.677868 10.698042
-22.883645 -26.549217 7.742252 -14.829859
-24.289277 -43.978630 -0.058352 -24.570183
-29.100103 -49.984609 2.253859 -29.141917
-20.673235 -25.380761 3.127451 -13.816199
-21.231029 -26.576757 0.194536 -14.342336
-20.277606 -29.019675 1.884146 -14.789184
-16.440485 -8.012485 4.564833 -7.335891
-26.103732 -41.802273 5.783800 -24.465064
-21.730780 -21.679016 5.711569 -13.022939
-21.832683 -22.256518 6.433555 -13.226760
-5.706960 -9.397600 5.162095 -5.412730
-6.436096 -7.688324 -1.944288 -4.237326
-8.249690 -18.700171 -3.697391 -8.084958
-17.916624 -32.893357 -4.557372 -15.242994
-13.934178 -31.411977 -3.886389 -13.603846
-14.038529 -29.083922 -1.689072 -13.964303
-13.099209 -37.541607 -5.947273 -15.192245
-12.736532 -24.326611 -4.311389 -11.352563
-16.320997 -31.146768 -2.273615 -15.636207
-16.961573 -30.467932 -4.400582 -15.869888
6.406140 -41.632403 -2.953325 -10.567879
-10.562774 -21.320809 -4.161746 -9.565075
-7.535610 -37.271601 -14.379628 -13.442163
-19.559338 -34.693759 -4.114262 -18.746008
-21.771013 -38.514796 -3.588598 -21.337552
-18.064316 -26.062829 -4.307531 -13.238143
-12.878269 -33.512816 -6.574288 -13.917326
-19.854806 -23.222496 0.377987 -12.923191
-18.867922 -26.027377 -0.223701 -13.468590
-12.035926 -23.604101 -4.132173 -10.766314
-18.709507 -34.731794 0.228267 -18.703485
-18.212323 -54.836872 -5.180583 -21.914759
-18.182712 -31.762415 -4.594888 -16.751031
1.957655 -51.745049 -5.843513 -14.936218
-21.228835 -37.042264 1.554574 -20.576011
-19.476113 -35.237870 0.077176 -19.004162
-21.233674 -36.576660 0.362476 -20.220151
10.306234 -49.708410 -5.772804 -11.820653
12.364161 -55.663380 -8.945821 -12.989765
3.385224 -56.842714 -9.780984 -16.037247
1.002177 -39.816314 -5.513214 -11.644241
-4.549854 -49.569264 -9.305031 -16.235735
8.113876 -45.283405 -8.717302 -11.150859
4.403115 -44.500818 -12.481336 -12.029311
0.858170 -45.882236 -18.378109 -13.507220
-21.644794 -38.469409 -2.601004 -21.045769
-4.066449 -34.122500 -16.746003 -11.456684
-2.131380 -38.726705 -17.501206 -12.257426
-16.895260 -29.689048 4.848471 -15.482394
0.389030 -2.293080 4.168397 -0.967955
-7.839181 -18.878516 3.296176 -8.015309
-37.825538 -61.826218 2.848726 -37.822077
-26.283852 -26.294549 -3.306449 -17.755585
-13.117277 -19.730977 0.165370 -11.576232
-20.279484 -25.890983 3.433717 -13.851140
8.621100 3.319600 1.981878 3.582210
-45.240443 -70.253653 5.436963 -44.479980
-32.976127 -53.699837 4.642497 -32.298813
-6.086733 -16.639954 -3.106541 -8.130566
-12.590652 -25.897212 3.166944 -12.184261
-19.133494 -29.029968 1.791468 -14.449039
-18.546502 -32.236040 4.810715 -17.256268
-4.546894 -55.667217 10.562019 -18.064233
-26.237015 -114.193350 -19.452754 -42.129109
-96.160481 -123.848610 -17.229470 -88.491853
-15.134213 -29.516645 3.452760 -14.580882
-20.846763 -37.226470 3.888975 -20.216530
-6.528128 -62.498537 7.077486 -20.708000
-4.293097 -63.388925 2.104232 -20.304607
4.931958 -76.429398 8.092272 -21.449232
-19.121473 -34.341139 4.178890 -18.301660
8.369845 -74.101581 7.015171 -19.719521
-4.630129 -69.001977 4.119438 -22.089632
6.918009 0.150956 1.713411 2.120689
-8.778008 -68.322781 3.946419 -23.130237
16.578506 -49.064640 12.399141 -9.745840
-17.647603 -92.812248 -6.729108 -33.137955
-22.376500 -40.578929 -2.010951 -22.154529
-21.049694 -39.021044 -1.497969 -21.177414
-37.390557 -55.347788 7.587801 -34.930642
9.969853 4.712168 1.805854 4.404606
-5.308127 -39.999372 -17.685654 -13.592250
-4.996989 -43.847384 -23.239802 -14.653312
-17.268545 -31.187821 -4.268892 -17.100592
2.781566 -28.469974 -19.041589 -7.706522
5.577121 -54.329770 -11.777479 -14.625795
4.850317 -44.775195 -17.152754 -11.977464
6.226763 -43.917060 -22.153872 -11.307089
0.056857 -36.535251 -20.769475 -10.943518
15.346288 -64.088544 -6.162217 -14.622677
17.327731 -95.948208 -0.972147 -23.586143
19.862188 -63.694804 -17.149440 -13.149785
16.428344 -62.663938 -10.655405 -13.870678
13.609141 -67.756656 -13.521148 -16.244255
8.099483 -55.476455 -16.499961 -14.213092
22.403623 -53.831505 -30.699216 -9.428365
10.967960 -35.885162 -26.254481 -7.475161
-73.507142 -104.807209 10.292350 -70.933510
-5.066326 -31.173610 -19.964918 -10.871981
27.952784 -64.840844 -21.572003 -11.066418
13.142138 -54.310070 -21.376892 -12.350380
17.510861 -71.576534 -16.985396 -16.219702
39.985943 -65.684842 -27.399902 -7.709670
10.433395 -77.534458 -7.832877 -20.130319
11.553327 -89.035485 -1.697198 -23.244648
31.223780 -72.833503 -14.028200 -12.482917
43.480002 -76.381474 -16.685337 -9.870442
37.187123 -84.327175 -6.211310 -14.142015
14.812335 -106.687494 9.635684 -27.562548
22.339831 -89.019496 -10.499213 -20.003899
27.306984 -79.089378 -6.099078 -15.534718
67.631593 -63.316692 -16.479886 1.294470
67.903619 -78.995609 -17.921852 -3.327597
76.386368 -57.845127 -27.216476 5.562372
94.173796 -29.736340 2.765570 19.331237
82.830388 -50.214088 -19.306561 9.784890
57.725336 56.095733 -0.038605 57.096365
19.166097 -54.243212 -75.051284 -10.523134
90.533285 88.927390 0.031191 86.561672
25.774809 -50.068020 -35.229863 -7.287963
84.160696 -26.400919 -31.693600 17.327933
-39.839096 -59.819718 7.401961 -37.789305
114.383327 112.824820 -0.217074 110.011319
61.161360 -64.809437 21.828722 -1.094423
6.082443 -65.155798 3.535354 -17.722007
11.488886 -71.417705 6.075019 -17.978646
8.260364 -67.610166 7.784348 -17.804940
46.990901 -88.716435 -1.725290 -12.517660
55.542276 -114.850980 -27.231625 -17.792611
37.346716 -83.992718 -3.828396 -13.993801
69.706686 -64.147010 -34.737397 1.667903
17.171154 -75.111941 7.090915 -17.382236
8.720877 -72.838276 5.512775 -19.235220
16.478494 -77.831687 3.045441 -18.405958
13.234375 -79.771046 3.892641 -19.961001
17.824857 -79.060362 -6.147152 -18.370652
3.734346 -71.547180 2.833707 -20.343850
-3.658388 -77.193644 -1.491900 -24.255610
5.505257 -71.372304 3.176233 -19.760114
-3.323432 -63.738284 4.074700 -20.118515
4.899697 -73.460958 0.838437 -20.568378
0.184552 -67.143786 3.489732 -20.087770
10.325100 -74.611939 2.716985 -19.286052
9.408421 -71.415929 2.998262 -18.602252
4.527952 -74.699893 1.315133 -21.051582
6.339262 -67.722280 4.465136 -18.414905
8.526933 -71.181443 5.451896 -18.796353
5.560526 -72.442691 2.806207 -20.064649
14.696047 -74.860645 -0.601562 -18.049379
0.367716 -67.994476 3.626763 -20.288028
-0.974595 -57.087896 4.532381 -17.418747
5.349796 -66.688100 4.246193 -18.401491
1.601669 -62.055437 4.268165 -18.136130
3.285388 -62.400826 5.558994 -17.734631
-1.846204 -58.196467 4.417735 -18.012802
-3.462916 -63.970699 4.131897 -20.230085
2.342037 -62.068380 4.429393 -17.917903
0.753579 -61.316748 4.023962 -18.168951
-13.323215 -58.681170 3.308801 -21.601316
-5.977898 -61.530754 3.722666 -20.252596
-4.901407 -52.366104 1.807927 -17.180253
3.196892 -66.384669 4.341444 -18.956333
3.235783 -59.175938 6.098327 -16.782046
-0.400413 -65.498723 3.694058 -19.769741
2.233253 -69.682355 4.441085 -20.234731
0.330603 -61.009867 3.251131 -18.203779
1.687299 -64.843771 4.972898 -18.946942
2.885857 -64.721377 4.503730 -18.550656
0.365566 -73.591500 2.311337 -21.967780
3.172008 -64.539074 5.542601 -18.410120
2.557985 -63.619101 5.715055 -18.318335
5.183617 -52.377814 1.031132 -14.158259
-3.086467 -55.996593 0.535638 -17.724918
9.931591 -56.060042 6.979089 -13.838535
27.297329 -48.100197 5.079432 -6.240860
18.498834 -43.746782 -9.983850 -7.574385
12.887476 -50.863275 1.551577 -11.392740
-67.245959 -97.590352 8.945626 -65.267740
10.237501 -51.304675 10.639874 -12.320152
67.410574 -38.347584 -11.067388 8.718897
12.903027 -61.075849 -6.774979 -14.451847
0.698997 -53.816389 9.896051 -15.935218
3.345273 -53.921420 9.321223 -15.172844
13.702234 -49.308147 5.342277 -10.681774
20.388850 -52.862059 13.629537 -9.741963
-4.742280 -67.594614 4.684410 -21.701068
-6.669295 -58.687769 6.916447 -19.607119
-0.443842 -54.325145 8.843508 -16.430696
0.489998 -54.867097 7.575451 -16.313130
-4.791519 -73.332186 1.681527 -23.437111
2.853475 -63.109666 6.570670 -18.076857
1.055112 -65.223460 4.362931 -19.250504
0.173497 -60.370971 6.963076 -18.059242
2.155094 -70.701868 1.455147 -20.564032
-14.524488 -70.037989 -1.354355 -25.368743
-3.094501 -69.480204 0.812136 -21.772412
-13.883592 -67.254903 0.188458 -24.341549
-9.894835 -67.391069 1.246690 -23.185771
-13.007207 -61.490717 3.013686 -22.349377
-20.460002 -63.654026 -2.671206 -25.234208
-12.634187 -54.938245 4.842313 -20.271730
-17.435726 -63.963999 1.634146 -24.419917
-69.046384 -99.513331 33.990521 -50.567914
-11.731546 -71.952376 -2.191129 -25.105177
-22.807553 -78.361918 -6.078895 -30.350841
-15.060126 -64.911755 -0.413781 -23.991564
-13.810683 -65.451434 0.746279 -23.778635
-25.891695 -74.481653 -2.488593 -30.112004
-16.562051 -68.940779 -0.676601 -25.650849
-25.545143 -72.246092 -0.051198 -29.337370
-13.232271 -49.577624 2.045509 -18.842968
-4.645522 -76.540704 -7.288860 -24.355868
-9.524431 -71.906298 1.107496 -24.429218
-10.562152 -69.295959 0.410260 -23.957433
-13.516451 -75.094068 -6.176442 -26.583156
3.430656 -74.809692 -2.315712 -21.413711
-9.812885 -76.819734 -2.314726 -25.989786
-6.894760 -73.509159 -3.796265 -24.121176
-15.381399 -76.546885 -4.001875 -27.578485
0.524491 -77.157383 -6.327593 -22.989868
2.867460 -76.221276 -1.884335 -22.006145
-1.843614 -81.113992 -5.278104 -24.887282
-1.298940 -73.179866 -2.515405 -22.343642
11.383303 -89.504442 -16.990002 -23.436342
8.089596 -78.581801 -3.534278 -21.147662
8.660637 -84.756553 -10.113247 -22.828775
-6.841004 -79.181164 -13.207903 -25.806650
22.017790 -83.154338 -28.869676 -18.340964
16.703177 -81.713367 -19.319885 -19.503057
20.129584 -81.162745 -12.006044 -18.309948
-1.478228 -80.072225 -17.725003 -24.465136
10.829092 -80.865890 -11.340536 -21.011039
2.992385 -86.973434 -16.511145 -25.194315
7.350630 -77.097448 -6.748085 -20.924045
3.846922 -79.933148 -11.279752 -22.825868
-8.093489 -80.893478 -5.535444 -26.696090
-4.570376 -81.954679 -9.637217 -25.957517
-8.961924 -79.322183 -18.980537 -26.485232
-10.291053 -77.443725 -9.040255 -26.320433
-8.991193 -82.032326 -9.395605 -27.307055
-15.302769 -80.570650 -14.719737 -28.762026
9.338760 -90.415073 -36.371662 -24.322894
16.672250 -91.704528 -26.358959 -22.509684
6.428479 -81.594938 -18.082998 -22.549938
9.505110 -82.178934 -27.114687 -21.802147
1.210522 -85.061755 -45.430643 -25.155370
-1.918091 -86.043583 -23.821260 -26.388502
11.994124 -82.733317 -37.930741 -21.221758
-32.385941 -86.108094 -40.542978 -35.548210
-1.102399 -83.010199 -34.149798 -25.233779
-20.645493 -86.283611 -22.730855 -32.078731
-7.235565 -79.870077 -25.020787 -26.131693
-33.371176 -81.114723 -16.104556 -34.345770
-21.428270 -82.648904 -21.450900 -31.223152
-20.610573 -81.225860 -8.778311 -30.550930
-23.130933 -79.552912 -16.807783 -30.805154
-38.059477 -80.937577 -7.803723 -35.699116
-17.913413 -84.073436 -11.855974 -30.596055
-17.819978 -77.732542 -11.135160 -28.665756
-28.634942 -81.974271 -10.421332 -33.182764
-42.182748 -83.770973 -14.814005 -37.786116
-17.489233 -73.873775 -4.161255 -27.408902
-21.022538 -76.042566 -7.772359 -29.119531
-30.420048 -79.792676 -7.360092 -33.063817
-23.992019 -73.562442 -2.117622 -29.266338
-33.205809 -77.881489 -6.494269 -33.326189
-23.473767 -75.145618 -4.921509 -29.585816
-33.868843 -77.246169 -3.735691 -33.334503
-31.134273 -76.684630 -3.850391 -32.345671
-40.589378 -79.611610 -4.533519 -36.060296
-35.399145 -77.508423 -3.334395 -33.872270
-36.908541 -82.960581 -11.077402 -35.960737
-48.526488 -86.931161 -13.311514 -40.637295
-40.634512 -81.437369 -5.212375 -36.621564
-107.518082 -120.728850 -21.886379 -91.886364
-34.528993 -86.560095 -19.979194 -36.326726
-44.719570 -84.719067 -25.975890 -38.831591
-26.275166 -78.540723 -12.313128 -31.444767
-35.372061 -84.823420 -15.186097 -36.058644
-34.903654 -79.803875 -12.483406 -34.412259
-42.604773 -85.236490 -15.085743 -38.352379
-47.265328 -85.587318 -14.719373 -39.855794
-44.608573 -83.131455 -9.599897 -38.322008
-39.841250 -80.908284 -6.809832 -36.224860
-45.310134 -83.301633 -8.300372 -38.583530
-46.268696 -85.305625 -7.916665 -39.472296
-56.912547 -88.528828 -11.779268 -43.632412
-76.657646 -92.962727 -16.025810 -67.304730
-50.868633 -88.322896 -10.445846 -41.757459
-43.167409 -100.253537 -10.054121 -43.026284
-66.263887 -92.471740 -12.625884 -47.620688
-96.326690 -103.578568 -20.137290 -80.032815
-56.790664 -67.916834 -13.370103 -48.277690
-85.792149 -101.232173 -17.789401 -74.629312
-60.528276 -72.402167 -13.918563 -51.734027
-60.007402 -72.493887 -29.036424 -39.750387
-52.670664 -88.676589 -13.343544 -42.404176
-76.818922 -92.284942 -16.325439 -66.972346
-97.267971 -111.369750 -20.051298 -83.643880
-66.183923 -86.255316 -27.793839 -45.731772
-60.642931 -84.406414 -14.323329 -43.514804
-48.022647 -83.747687 -13.598695 -39.531100
-51.234795 -87.638055 -13.982061 -41.661855
-43.222102 -85.445983 -12.987937 -38.600426
-42.499530 -80.679372 -12.773064 -36.953670
-63.066652 -71.659090 -41.396668 -40.417723
-42.709123 -82.227677 -18.431705 -37.481040
-108.782813 -86.046904 -41.085225 -58.448915
-58.448749 -80.823210 -17.611798 -41.781588
-45.728766 -59.276070 -10.960949 -42.831436
-82.761260 -85.309976 -23.838255 -50.421371
-52.457726 -64.242182 -12.514550 -45.234517
-84.311176 -95.059972 -18.116295 -71.307666
-87.969738 -112.544617 -16.388173 -80.319540
-107.605318 -118.096744 -21.900379 -90.925506
-129.093906 -104.171466 -19.519892 -94.085516
-88.564395 -77.080941 -16.721528 -65.675010
-98.408982 -89.693864 -18.992199 -75.083071
-52.117060 -77.283099 -48.908276 -38.820048
-118.801659 -102.735399 -20.686528 -89.159521
-54.068550 -61.563660 -45.884659 -34.689663
-102.581439 -97.670705 -20.311490 -80.209635
16.844751 -81.170655 -52.574998 -19.297771
-35.704944 -68.700427 -55.596452 -31.321611
-34.515789 -82.740072 -56.628367 -35.176758
-28.223045 -77.626121 -30.914853 -31.754750
-46.648861 -83.520111 -35.090108 -39.050691
-45.401146 -76.656737 -32.192802 -36.617365
-56.224620 -84.843301 -21.542367 -42.320376
-20.203006 -87.073983 -29.067540 -32.183097
-32.738384 -86.747630 -29.426074 -35.845804
-31.899841 -81.506458 -21.066787 -34.021889
-45.923541 -79.047141 -24.104120 -37.491205
-12.154915 -87.012830 -59.433775 -29.750324
-0.397603 -85.537523 -33.881630 -25.780538
7.072564 -78.006886 -47.994567 -21.280296
-12.903176 -85.002866 -43.727831 -29.371813
-7.285388 -81.992526 -30.977119 -26.783374
-9.515286 -75.495836 -45.155029 -25.503337
-62.669343 -88.400427 -10.287923 -59.503768
21.889183 -148.316931 -60.676168 -37.928324
-102.401506 -141.435621 -13.949424 -98.569538
47.501358 -63.322001 -57.817761 -4.746193
-97.726994 -131.950143 -15.135485 -92.598014
-88.470543 -127.964451 -9.161236 -87.025118
-81.804129 -117.724334 -9.667536 -79.909738
-117.676678 -162.613472 -14.867849 -113.922068
-81.292118 -102.527070 -15.912725 -73.291851
-101.041900 -119.965800 -20.034532 -88.939603
-83.014096 -109.337612 -14.825921 -76.880915
-114.079249 -130.129723 -22.629300 -98.728758
-106.476793 -137.895734 -18.193694 -98.787629
-117.287586 -145.552446 -21.270736 -106.559074
28.329584 -84.414897 -68.103153 -16.825594
-95.722292 -97.760620 -19.880987 -77.361548
-97.602076 -120.171527 -18.761535 -87.582702
-94.240543 -105.303715 -19.645459 -79.909867
-76.690714 -91.139914 -16.300571 -66.633243
-123.440385 -154.752283 -21.723594 -113.028828
-122.742057 -176.572445 -9.342415 -121.916694
-131.917502 -176.945756 18.887183 -125.820133
-101.397017 -120.155147 -20.115312 -89.173284
-100.435458 -107.244852 -20.790616 -83.335321
-80.739524 -114.478909 -10.872840 -78.270370
-160.135382 -209.477102 23.847259 -151.423028
-110.721229 -145.460208 -17.990455 -103.747846
-107.989849 -145.050101 -16.402752 -102.427706
-98.229723 -107.702582 20.435654 -83.215681
-82.910920 -105.819559 15.810647 -76.489854
-101.713645 -126.931279 -18.969103 -92.154413
-103.789982 -135.809146 -17.410430 -96.774312
-113.257598 -139.230273 -21.026896 -102.194275
-96.891886 -128.113881 -16.161276 -90.632213
-99.055164 -114.666994 20.173819 -85.818742
-99.702804 -128.899464 17.555322 -92.090672
-106.080866 -123.800173 21.249613 -92.543825
-106.816815 -128.103375 20.884845 -94.659868
-72.396867 -99.068846 12.405189 -69.326791
-123.970402 -178.246279 9.631865 -123.081922
-164.347100 -221.410585 21.292889 -158.218203
-132.448625 -169.149097 22.228547 -122.746032
-50.809510 -77.616980 6.220933 -50.440675
-77.910634 -70.807523 15.990900 -58.589263
-99.966105 -111.315298 20.686464 -84.782553
-93.928626 -127.521623 14.675712 -89.020300
-46.933540 -107.076933 41.271339 -46.203142
-203.581527 -177.345082 32.626701 -156.223453
-154.203440 -170.650903 29.508093 -132.603813
-68.864586 -85.397736 14.599954 -63.057494
-69.913172 -107.278623 53.205836 -53.157539
-80.037063 -120.034102 37.208614 -60.021350
-57.763798 -113.625100 37.825242 -51.416669
-30.148960 -93.961721 64.661312 -37.233204
-36.240457 -110.588709 43.814662 -44.048750
-199.183746 -196.610588 36.315334 -162.512796
-35.239089 -117.585063 46.224437 -45.847245
-161.868890 -194.209396 28.857948 -145.827722
-163.202428 -231.366893 12.174973 -161.170878
-40.325832 -50.478201 10.606929 -34.003477
28.866598 28.919905 0.037200 28.763444
54.550976 -112.346708 17.319457 -17.338719
-36.955745 -123.356104 45.745051 -48.093555
-34.908535 -104.711403 44.907852 -41.885982
-16.248259 -116.253903 48.553780 -39.750649
11.741018 -127.374123 54.810536 -34.689932
-35.181855 -139.086921 40.428285 -52.280633
-46.277161 -213.655144 28.254542 -77.979691
-29.008086 -115.754807 26.514662 -43.428868
-40.092356 -123.806977 26.520527 -49.169800
-22.499632 -112.571250 30.334136 -40.521265
-39.849275 -112.705515 33.612322 -45.766437
-28.432448 -107.381462 36.632723 -40.744173
-18.545838 -108.723640 41.756662 -38.180844
-27.583174 -114.161052 45.557252 -42.523268
52.208187 -89.196740 -4.815869 -11.096566
-6.214362 -115.758481 47.198703 -36.591853
10.356791 -149.714321 49.027743 -41.807259
46.786260 -110.670458 -45.080680 -19.165259
65.334273 -93.132086 0.294104 -8.339344
-22.942043 -110.826416 42.417293 -40.130537
-21.145642 -129.136324 49.268656 -45.084590
-148.711277 -171.287655 28.119230 -130.533969
-53.556418 -82.837276 -4.325611 -53.317523
-20.108372 -23.940421 7.771354 -14.458602
22.978080 -163.263544 -53.887030 -42.085639
75.141706 -30.800912 -40.649351 13.302238
51.052267 -46.149968 -57.787950 1.470690
27.308997 -97.221364 -51.491027 -20.973710
52.142684 -75.063612 -51.227186 -6.876278
22.327281 -94.624237 -39.228397 -21.689087
33.217822 -86.320112 -54.515991 -15.930687
40.183048 -93.418814 -57.815124 -15.970730
38.679598 -89.323642 -43.191303 -15.193213
31.244395 -88.484538 -30.667066 -17.172043
51.728275 -89.540086 -29.521127 -11.343543
25.703290 25.449957 0.262601 25.769874
39.981872 40.519787 0.144120 40.630535
74.420248 76.321394 -0.515482 75.626545
81.681683 -60.742728 -10.447298 6.281687
48.547234 -131.037883 -30.374585 -24.747195
67.807112 -50.116934 -42.507829 5.307053
63.107897 64.713196 -0.015856 64.084133
65.769616 -85.292139 -1.066168 -5.856757
63.289455 62.323384 -0.077743 61.427252
83.413413 -30.020022 -11.330748 16.018017
68.208576 -58.887881 -38.909145 2.796209
101.029955 -7.329432 -14.139737 28.110157
44.929517 -112.463698 -46.731988 -20.260254
61.272453 -85.589314 -36.401644 -7.295058
45.794791 -86.091218 -21.260748 -12.088928
42.040386 -94.737551 -11.289279 -15.809150
33.182885 -92.827185 -18.521552 -17.893290
24.948404 -90.973910 -9.892088 -19.807652
64.203911 -83.503149 -32.901182 -5.789772
62.239077 -110.380436 -12.996585 -14.442408
86.619956 -20.959949 -30.915928 19.698002
42.241716 -100.409812 -24.419654 -17.450429
56.557572 -84.109792 -18.212059 -8.265666
69.857500 -81.022201 -18.369609 -3.349410
32.469302 -110.681130 7.676651 -23.463549
50.012642 -105.541679 25.344136 -16.658711
72.349977 -86.959052 3.979984 -4.382722
76.732511 -72.794945 -11.796437 1.181270
51.095721 -108.758522 25.360616 -17.298840
41.002666 -115.527064 16.324652 -22.357320
81.090007 -30.852646 8.883566 15.071208
66.021324 -84.486914 0.600807 -5.539677
5.529712 -107.251566 18.671249 -30.516556
-13.356135 -115.580091 26.423359 -38.680868
1.982524 -113.360713 37.759728 -33.413457
7.982390 -110.248585 36.433004 -30.679859
5.938944 -112.635776 27.367362 -32.009049
7.013347 -110.931262 19.952680 -31.175375
19.077656 -104.505699 17.267299 -25.628413
17.036899 -107.341948 25.831225 -27.091515
34.079537 -95.987357 5.263230 -18.572346
41.614569 -100.333450 11.530693 -17.615664
0.483172 -84.387682 20.936307 -25.171353
-14.812046 -101.722366 44.102835 -34.960324
-4.834170 -105.894517 23.475230 -33.218606
-3.043657 -112.052769 22.508345 -34.528928
-4.614931 -84.671711 34.521217 -26.785993
-15.295089 -84.254690 27.237926 -29.864934
-7.731242 -99.425027 24.100264 -32.146880
-4.460364 -80.771352 26.817759 -25.569515
-14.580222 -107.793783 35.584989 -36.712201
-20.005515 -90.093625 34.872725 -33.029742
-5.415352 -91.913409 41.064038 -29.198628
-1.317956 -91.298883 26.954846 -27.785052
-4.110471 -111.526222 22.247097 -34.691008
4.132123 -101.263358 19.408402 -29.139370
-3.006446 -109.373904 22.643326 -33.714105
-5.865859 -112.820723 21.292013 -35.605975
-11.365487 -117.811597 25.435312 -38.753125
-2.629544 -103.760427 24.438397 -31.916991
-11.023937 -115.315149 25.230822 -37.901726
-8.056201 -112.023829 26.789386 -36.024009
-29.585290 -129.803402 27.206269 -47.816608
-11.950269 -117.343251 31.249715 -38.788056
-14.059345 -114.189176 24.241363 -38.474556
-25.085502 -118.138343 24.869415 -42.967154
-2.879502 -13.487011 2.228780 -6.577408
-19.913995 -97.812576 41.513532 -35.317971
-23.833140 -125.412875 34.658008 -44.773804
-13.356358 -114.109821 29.503179 -38.239854
-12.650963 -81.112128 50.575166 -28.128927
-16.718704 -122.452347 32.153577 -41.751315
-13.724399 -118.309622 39.044396 -39.610206
-5.492230 -100.876590 31.646129 -31.910646
-14.414511 -113.981263 31.712726 -38.518732
-20.284661 -126.288278 26.013503 -43.971882
29.411785 29.403292 0.058810 29.419641
-43.297486 -80.639412 13.246613 -37.181069
-20.784718 -135.638345 38.650485 -46.926919
-6.347096 -77.796164 48.929857 -25.242978
-19.723056 -99.453645 62.108186 -35.753010
-66.153864 -167.703193 98.703798 -70.157117
63.587431 63.669782 -0.022507 65.296325
-16.122534 -32.818773 -1.186207 -16.340901
48.919629 -74.540432 53.595795 -7.686241
-11.023029 -75.880532 37.988529 -26.071068
46.484844 45.872175 0.274528 46.813524
-10.225215 -92.712969 43.901118 -30.881455
-54.545764 -258.127688 103.878594 -93.802036
-38.719648 -59.285419 6.588789 -38.128284
16.980554 13.042441 -0.014658 13.154388
-74.099775 -110.584256 6.100359 -73.615357
-55.385846 -83.066190 7.003340 -54.134042
-73.954735 -91.266286 15.429415 -65.497659
-31.159035 -20.008474 37.441154 -15.350253
-98.899665 -145.185800 -6.591191 -98.633457
-13.921343 -79.695522 48.632149 -28.085060
-39.028862 -66.774343 29.312580 -31.740962
-24.506808 -81.408192 47.164084 -31.774500
-1.950813 -46.881542 59.799467 -14.649706
-43.033453 -53.420536 30.307747 -28.936197
-28.980208 -43.643715 34.567573 -21.787177
-12.917495 -75.216785 30.878818 -26.440284
-19.827995 -68.435566 27.013412 -26.479068
7.456186 -0.060386 -0.007535 2.218740
-64.508698 -96.617259 -6.451046 -63.726988
-79.098699 -116.887626 7.240956 -78.315908
-32.592812 -19.405591 15.084105 -15.599521
-0.176265 -7.500434 -3.236748 -2.986886
14.152983 10.772938 -1.559007 10.245014
-13.908833 -29.395980 -0.701401 -14.966685
-53.051887 -77.093030 8.716956 -50.628187
-71.102654 -106.499649 6.165882 -70.577514
-71.519608 -96.775657 12.755222 -66.688136
-63.030022 -87.179213 11.238162 -59.061766
-64.641487 -74.865567 14.726830 -54.586805
-30.727600 -42.997614 8.248378 -28.708360
-58.168251 -84.927520 8.591080 -56.071433
-59.511557 -83.706593 10.299165 -56.143451
-72.048882 -99.101533 12.142543 -67.886594
-52.119662 -66.634733 11.899439 -45.809297
-47.863457 -65.319098 10.259912 -43.487710
-46.299443 -64.190967 9.778693 -42.355793
-63.657682 -78.355407 13.972624 -55.652558
-21.859769 -38.256440 4.118899 -21.570777
-44.497562 -62.326936 9.403354 -40.810795
-51.929793 -78.989090 6.311942 -50.938193
-52.517988 -79.200400 6.841567 -51.271895
-57.790458 -79.134022 11.080088 -53.505405
-56.596510 -78.615583 10.565272 -52.760385
-42.189229 -68.499966 -1.411177 -42.468407
-31.427603 -56.228914 -32.337745 -26.296955
-58.188082 -91.095703 -0.597191 -58.620482
-60.839332 -94.458465 1.686914 -61.204550
-53.962087 -105.884291 -26.966000 -47.953913
-66.575309 -76.305294 -19.970254 -42.864181
-70.661638 -106.441867 5.310112 -70.389989
-23.385607 -42.658793 0.398700 -25.256633
-37.702969 -58.580032 6.064805 -36.400758
-69.954301 -105.580153 4.939555 -69.777044
-64.661992 -96.897531 6.428826 -63.893083
-64.669471 -96.670785 6.723965 -63.777193
-52.850927 -66.524002 12.161735 -46.118582
-44.709157 -72.012144 -1.255292 -45.022953
-28.719455 -46.033313 -5.593359 -27.592032
-43.299254 -68.402264 4.410553 -42.904639
-59.603514 -91.359658 4.473623 -59.427668
-43.058304 -66.034502 6.213681 -41.860935
-55.370733 -45.700952 3.764240 -35.362100
-66.646764 -102.590366 0.273865 -67.119759
-55.670625 -76.798850 -1.468073 -48.877970
-64.483197 -97.222383 5.674647 -63.990842
-52.159369 -69.399578 2.840487 -45.170037
-61.860852 -59.252118 -1.560637 -41.703761
-46.223888 -74.186492 0.119656 -46.839931
-85.481357 -128.218416 2.698354 -85.879030
-23.757375 -41.497630 3.457018 -24.339302
-38.766588 -63.646447 1.669644 -39.579068
-54.788824 -85.951728 1.554232 -55.130935
-24.770425 -83.704056 16.338147 -32.542344
-79.283359 -117.085978 7.026129 -78.561682
-78.516709 -119.015266 -0.278271 -79.055222
-68.154242 -104.058591 -3.680132 -68.270573
-33.431869 -55.278175 3.367790 -34.878535
-40.797429 -38.042923 10.541013 -30.411162
-35.050613 -58.710771 -1.777739 -35.251223
-65.192765 -100.825514 -0.473918 -65.659858
-38.022284 -62.563725 1.825947 -38.539030
-64.710546 -99.647042 1.943084 -65.074060
-45.635507 -73.159696 1.822131 -45.885283
-41.166801 -65.477833 -4.311730 -40.861057
-58.405348 -74.685673 12.631753 -51.924672
-6.591625 -81.253497 35.451653 -26.353537
-109.180887 -131.021717 21.047222 -96.992129
-51.042281 -73.365612 9.083822 -48.235584
-42.980972 -47.270529 11.368837 -33.886745
-70.529552 -101.378033 9.698918 -68.229425
-2.688511 -13.997543 1.121475 -5.911041
-8.346655 -84.676683 37.786527 -27.907001
-15.004829 -89.439646 41.080975 -31.333342
-5.883739 -85.589292 37.905276 -27.441909
-5.556135 -18.000187 1.026300 -8.086913
-11.785217 -87.932531 38.273819 -29.915324
-9.081857 -86.484179 37.728818 -28.669811
3.506317 -89.372781 39.661736 -25.759939
-29.376433 -50.255759 2.607944 -29.447111
-85.675783 -108.950746 16.251809 -77.559981
-14.840537 -90.310267 38.051019 -31.545241
-64.046895 -188.043406 71.386243 -75.627090
-3.972059 -86.381486 11.054756 -27.106064
56.255413 -128.845099 3.467276 -21.776906
13.203259 -120.639863 42.877494 -32.230981
49.540893 49.669163 -0.077366 50.806282
-55.175965 -86.080309 2.897611 -55.353109
-21.025967 -137.915071 60.146314 -47.682311
-54.243846 -80.737863 7.559702 -52.665666
-68.192878 -104.541673 1.476758 -68.615515
-41.354362 -64.356459 5.587231 -40.496280
-81.713332 -114.100048 -11.891639 -78.348192
-43.027644 -126.587863 3.421218 -50.884652
-49.957477 -66.654045 0.801404 -43.105940
-41.867510 -62.804165 0.733373 -39.173321
-48.305728 -76.338405 3.028501 -48.500464
-49.091556 -77.562885 2.680997 -49.279857
-29.966090 -49.128531 4.645916 -29.539144
-37.756140 -61.960221 2.231524 -38.292137
-41.579276 -91.834149 13.560291 -40.024027
-33.632054 -54.298947 4.740107 -33.175543
-26.057718 -100.623608 14.545147 -38.004398
8.314779 -85.255659 21.888580 -23.082264
-27.937153 -132.984537 20.353201 -48.276507
41.545721 -76.261880 18.887051 -10.414848
4.367390 -125.753520 7.373239 -36.415839
-4.804965 -205.207569 33.017428 -63.003760
-44.650852 -99.540189 17.102638 -43.257312
-27.376232 -89.957389 22.585901 -35.200086
-42.551651 -95.434257 19.737256 -41.395772
-52.574543 -153.491918 31.853980 -61.819938
-39.865449 -77.534927 15.341993 -35.220113
-37.696961 -90.103118 17.231448 -38.340024
-36.549555 -80.155964 13.086968 -35.011656
-39.969701 -94.976739 21.322116 -40.483932
-25.845088 -52.803928 31.436987 -23.594705
-41.089279 -85.357632 16.092622 -37.934074
-42.478511 -96.538582 14.525761 -41.705128
-38.894836 -107.687996 23.684098 -43.974850
-43.036377 -101.582299 19.220480 -43.385603
-58.104579 -108.336140 24.096930 -49.932215
-50.626742 -85.879848 42.153466 -40.951977
-52.178675 -126.251586 31.639262 -53.529078
-33.380032 -55.325994 3.093560 -35.052280
-43.144845 -253.489624 39.260446 -88.990341
-50.216558 -79.719238 -0.322579 -50.602689
-0.823896 -11.484469 0.385905 -6.026174
58.712617 58.010094 0.536701 57.329799
103.208944 103.672731 -0.717310 106.284316
-23.972877 -43.536648 -0.164604 -25.088367
-28.496871 -49.388613 1.401992 -28.683379
-31.951458 -167.198825 53.893362 -59.745085
54.849229 54.084044 0.601462 54.311558
-15.038550 -86.618265 35.861443 -30.497045
-59.116602 -90.275330 2.988972 -58.436438
-49.453391 -71.520295 8.647747 -46.805909
-35.090388 -58.482493 1.558355 -35.881056
-86.166417 -111.375574 15.886483 -79.029512
-56.968443 -88.478931 3.367101 -57.049868
-34.305279 -57.583983 1.489924 -34.717500
-60.066668 -93.351094 1.787560 -60.415696
-105.590224 -115.832859 21.109828 -88.241070
-82.548125 -106.025540 15.598716 -75.283130
-89.789430 -97.070359 14.737759 -72.306859
-76.822203 -59.352104 6.325404 -51.960485
-79.548234 -77.881395 14.487381 -59.975487
-57.091192 -62.939782 -6.150635 -50.955147
-105.079906 -145.308715 -14.025640 -101.315976
-86.631580 -129.748776 -11.525358 -64.914107
-66.301047 -86.708105 13.143786 -61.874375
-77.593819 -62.265991 13.544362 -55.174324
-9.536354 -23.725723 -0.852993 -9.978623
-89.043139 -82.678861 3.787870 -66.740051
-60.280876 -75.940945 13.105728 -53.688256
-21.838738 -93.577248 38.649237 -34.624796
-69.779673 -60.952360 14.167042 -51.681369
-102.202904 -123.719264 19.807526 -91.012619
-10.483679 -76.911044 43.581224 -26.218417
-18.540113 -93.595243 37.159765 -33.640607
-71.278844 -102.406982 9.656962 -69.025794
-17.986666 -94.698855 43.436506 -33.805656
-16.311661 -89.839653 39.162389 -31.845394
2.166066 -76.381514 62.031436 -22.264634
-0.382344 -59.287508 68.184113 -17.900956
-23.473896 -76.215530 48.718257 -29.906828
-38.236767 -62.555664 3.548644 -38.212170
-37.945480 -61.239084 4.040569 -37.619880
-16.797302 -98.019553 51.313322 -34.445056
6.710294 -1.242117 -0.705009 1.640453
37.159613 36.935822 0.170837 36.642966
7.159278 0.023826 -0.962547 2.154931
-38.354382 -27.277096 7.862532 -28.199757
-72.579711 -104.191906 9.722352 -70.333988
-50.196303 -72.803948 8.765714 -47.574817
-102.550242 -71.594166 9.965853 -69.164216
-56.837423 -173.558042 66.217194 -69.118640
-40.225705 -63.150463 5.501385 -45.646500
-50.577849 -154.828742 16.025553 -61.621977
-130.123322 -181.012378 15.231116 -126.735791
-27.072037 -131.457446 26.720382 -47.558845
-34.154649 -152.260233 31.923478 -55.924465
-133.827878 -169.902102 22.794601 -123.596242
-24.281337 -124.778195 23.574814 -44.717860
-50.265148 -127.729478 22.276034 -53.398388
-55.973465 -118.912420 28.045024 -52.465765
-44.385952 -125.806379 21.383361 -51.057699
-43.054118 -118.465545 31.989682 -48.455899
-88.862281 -124.433122 18.394221 -63.988621
-51.436926 -135.384906 15.137199 -56.046550
-67.002792 -143.043624 10.060230 -63.013925
-69.712151 -124.640353 28.461861 -58.305751
-95.963889 -125.033772 16.991661 -88.765558
-55.962078 -72.676232 12.290402 -49.865522
-69.007028 -90.508210 13.615073 -63.910777
-121.023935 -153.736941 21.113671 -111.421050
-171.261661 -143.040967 72.364023 -94.290788
-113.703689 -126.786740 36.621593 -72.147128
-118.809152 -152.230525 20.471683 -109.831852
-27.761310 -27.506654 -8.746063 -27.891817
-113.129211 -145.170985 19.691227 -104.439157
-194.947276 -242.070333 31.985705 -179.846033
-88.949697 -83.275335 3.150146 -68.483886
-95.109612 -106.555789 0.160049 -60.499620
-141.207338 -188.598769 19.387882 -133.706330
-66.004095 -131.484022 7.615465 -59.246435
-0.608199 -259.260334 35.133340 -77.960560
-61.406331 -84.959231 11.202225 -60.175192
-63.465736 -152.957254 32.038215 -64.926897
-140.379664 -142.488484 27.181163 -114.952177
-31.361536 -43.807832 8.490980 -27.976624
-106.370549 -129.921735 20.446022 -95.224745
-95.656056 -208.887032 35.036887 -91.362926
-92.833409 -72.786212 6.296623 -60.995115
-71.351074 -85.815545 15.389536 -62.584953
-124.070994 -116.989116 23.491342 -97.399821
-80.494790 -126.864776 13.880358 -62.207870
-13.453976 -130.214570 14.928714 -43.100564
-110.213930 -227.063011 24.176429 -101.183082
-59.356046 -152.304198 18.478603 -63.498073
-90.841115 -91.039377 7.962578 -54.564148
-101.775611 -113.598975 0.028973 -64.612376
-95.897845 -114.548875 6.332881 -63.134016
-80.835041 -127.200685 17.968144 -62.410718
-98.194214 -114.456071 9.901788 -63.795086
-94.632786 -103.739859 2.904300 -59.511794
-111.145368 -138.233285 6.691304 -74.813596
-109.783892 -98.995025 8.776003 -75.450475
-126.787759 -228.204087 34.355289 -106.497554
-113.255104 -84.023744 6.851849 -75.513450
-141.126273 -118.166329 22.465934 -105.083256
-117.733038 -117.742834 22.945233 -94.191298
-106.863352 -187.795424 29.932486 -88.397633
-119.444491 -131.499763 21.737360 -100.666647
-135.021115 -189.592415 13.754406 -132.558643
-126.980376 -137.507863 25.112223 -107.263555
-97.220518 -110.577978 -18.502856 -81.850168
-106.920338 -156.382304 -6.415373 -106.609669
-73.381853 -84.936047 -16.100655 -62.508359
-89.882161 -138.366370 -0.108849 -68.474559
-90.784516 -103.472248 -1.260637 -58.277029
-90.149523 -113.390341 -8.590590 -61.061959
-105.631334 -131.076150 -0.415934 -71.012245
-114.501176 -165.132200 16.526622 -83.890013
-101.543858 -157.461866 23.306892 -77.701717
-105.631039 -163.065132 9.933096 -80.608851
-73.664159 -94.509481 -14.596515 -66.883155
-90.757819 -108.460945 1.693730 -59.765629
-99.177470 -103.637081 1.396026 -60.844365
-96.047789 -102.415519 4.640667 -59.538992
-82.537271 -99.179583 -11.841016 -54.515056
-90.867260 -104.694389 -12.207688 -77.284797
-90.207192 -102.483429 -1.005210 -57.807186
-82.194296 -105.977790 -10.455846 -56.451626
-46.395701 -118.043704 -25.285596 -49.331822
-71.439053 -81.686540 -15.884233 -60.317034
-39.579395 -49.904174 -10.356638 -33.492710
-79.060898 -90.127142 -10.516849 -50.756412
-104.755102 -153.158349 -6.956608 -104.443559
-87.316494 -128.134775 7.506413 -86.559382
-67.393212 -46.592045 6.947543 -42.867916
-70.336323 -102.608294 8.007063 -68.091741
-64.493629 -94.617221 -8.234151 -63.043245
-99.592265 -144.454194 7.391044 -97.769088
-72.325218 -101.448431 -11.194550 -69.009911
-74.193121 -65.763555 12.499762 -53.088896
-88.446044 -99.402704 2.027220 -56.354624
-84.936019 -85.325008 17.945389 -67.068873
-97.238158 -101.480898 4.503588 -59.615717
-92.277076 -99.855973 -2.411778 -57.639915
-79.935423 -87.706889 15.582045 -64.775233
-76.133861 -105.922490 5.246339 -69.782266
-70.248128 -66.020239 7.821937 -52.039431
-84.903334 -82.630836 13.502664 -65.518788
-77.024542 -109.922924 -10.330133 -74.568784
-40.552342 -65.571487 2.821925 -41.634155
-58.414993 -90.889462 -2.091383 -59.877499
-82.076122 -92.633564 14.837724 -67.100865
-69.340956 -92.511021 -1.008842 -59.492206
-97.342922 -104.210577 2.247660 -73.070551
-49.751975 -79.090336 -0.072417 -50.141281
-83.010986 -125.197459 1.521848 -83.522481
-71.125962 -108.332249 -2.725611 -71.430073
-57.439879 -87.028452 -6.072747 -56.679226
-92.379721 -137.620122 3.321464 -92.740599
-65.724881 -102.401326 27.197454 -50.437862
-18.585401 -34.429759 -3.226292 -20.588569
-69.470416 -105.875512 -2.835864 -69.797509
-64.220954 -88.713219 30.514069 -45.880252
-40.379220 -98.511511 28.973868 -41.667219
-55.609131 -85.020656 -5.266079 -56.100806
-85.063208 -128.104386 -0.280642 -85.626219
-55.070816 -97.650130 26.532577 -45.816284
-76.120069 -96.921691 41.032494 -51.912528
-68.813184 -101.028223 22.532863 -50.952422
-75.934467 -90.459794 26.935960 -49.918278
-39.178606 -89.131631 12.417584 -38.493071
-47.828715 -100.241392 14.687189 -44.421032
-54.551149 -106.489645 18.393295 -48.312238
-54.828916 -98.071457 23.364479 -45.870112
-43.191034 -85.414615 8.291260 -38.581695
-45.740394 -94.820421 15.188356 -42.168244
-49.122458 -79.979725 18.474972 -38.730655
-44.898374 -98.989627 13.313142 -43.166400
-52.230728 -94.705212 11.966416 -44.080782
-47.077710 -55.507769 -8.095541 -39.784692
-59.304041 -101.385853 11.925295 -48.206968
-48.875278 -95.230449 9.612285 -43.231718
-50.724390 -103.939093 15.950390 -46.399045
-54.678802 -101.399001 12.047657 -46.823341
-48.500372 -101.474788 20.608447 -44.992548
-67.554865 -106.416063 19.286278 -52.191278
-67.471956 -103.180873 28.091122 -51.195849
-58.735075 -105.303742 18.196915 -49.211645
-57.904677 -100.034447 13.454849 -47.381737
-52.585780 -100.212114 12.790847 -45.839368
-52.818630 -103.346384 17.037040 -46.849504
-60.121305 -107.071055 15.681781 -50.157708
-56.328856 -94.204872 14.881834 -45.160119
-57.736559 -88.980139 24.115380 -44.015009
-64.766552 -104.067170 13.756273 -50.650117
-53.758888 -97.074856 10.038669 -45.250123
-72.925124 -114.694358 19.683780 -56.285845
-64.432826 -102.719761 16.566728 -50.145776
-64.818390 -99.699889 14.960315 -49.355484
-58.204333 -91.752932 11.145090 -44.987180
-70.918048 -105.126875 23.183862 -52.813477
-74.455678 -90.422216 11.533016 -49.463368
-65.228285 -103.064907 8.149320 -50.487958
-57.336116 -101.920649 9.688174 -47.777029
-69.505658 -109.056791 17.485719 -53.568735
-62.380109 -104.287741 11.093067 -50.000355
-70.610224 -112.411491 15.815139 -54.906515
-81.465099 -120.028771 6.906373 -80.717448
-60.164162 -98.188329 18.058373 -47.505747
-86.920706 -127.888782 6.273678 -86.185346
-56.679560 -95.122446 25.858558 -45.540602
-54.540119 -100.762890 22.121696 -46.590903
-88.445084 -130.818640 5.520306 -88.207853
-74.298578 -111.747926 3.320841 -74.187291
-68.875327 -128.633407 16.477979 -59.252620
-67.234832 -120.290501 0.212572 -56.257600
-67.126850 -120.138452 0.103141 -56.179591
-69.014072 -103.020656 -6.480017 -68.303415
-62.473500 -125.398387 17.634968 -56.361566
-94.293544 -140.813673 -0.261560 -94.908232
-65.151726 -137.102011 17.334798 -60.676121
-66.411680 -117.105833 -0.411910 -55.055254
-59.551933 -135.804693 -0.553119 -58.606988
-62.766649 -123.167263 -0.648875 -55.780173
-62.674141 -143.276954 -9.198853 -61.785329
-78.263612 -151.799855 -15.373246 -69.019040
-61.930294 -144.508667 -11.960754 -61.931688
-67.149056 -138.784999 -9.951027 -61.780217
-69.438408 -142.611396 -7.917295 -63.614941
-65.095188 -144.903010 -12.755650 -62.999459
-66.921501 -76.304217 -15.180125 -56.153669
-88.792634 -100.232399 -18.769033 -75.415062
-53.120548 -156.567979 12.008149 -62.906558
-64.759355 -131.439909 0.667287 -58.859779
-67.744078 -155.526638 -1.975969 -66.981215
-67.496194 -155.058209 -10.055726 -66.766321
-62.088662 -135.979009 18.730112 -59.420301
-64.523289 -153.538290 11.676651 -65.418474
-55.741811 -132.364698 15.294471 -56.431953
-52.833471 -142.118998 6.841306 -58.485741
-62.618722 -100.425210 1.047345 -48.913179
-64.128303 -107.445912 9.320465 -51.472265
-80.805531 -110.921962 19.440409 -57.518248
-104.271958 -182.176987 54.445200 -85.934684
-37.347684 -57.012298 3.425390 -36.076777
-65.142452 -106.979863 9.549230 -51.636695
-73.454825 -131.514556 19.981291 -61.490814
-57.119005 -114.689489 10.804686 -51.542548
-78.111353 -118.657831 26.950562 -59.030755
-79.721515 -110.252037 25.318425 -56.992066
-67.527998 -113.665086 25.006873 -54.357925
-73.185230 -150.098451 14.504938 -66.985105
-71.546008 -113.613346 5.107737 -55.547806
-66.087965 -111.490062 8.787029 -53.273408
-86.953061 -125.879712 8.820982 -85.475444
-82.497488 -109.164957 14.483441 -76.582601
-60.331332 -160.943901 13.981658 -66.382570
-46.774236 -106.236037 37.551546 -45.903082
-59.774939 -90.474525 4.605229 -59.135423
-51.132242 -112.777744 0.269786 -49.172996
-75.539135 -113.645012 3.015895 -75.473051
-98.659857 -114.590296 19.659305 -85.643212
-84.605876 -117.563522 11.424824 -81.320215
-96.589863 -111.616304 19.416404 -83.348898
-44.907548 -68.140650 3.773754 -43.897254
-60.819211 -123.074883 24.036789 -55.168228
-103.086018 -109.291731 16.847148 -82.063428
-99.656489 -136.065979 13.078641 -95.435933
-123.764807 -160.979358 18.911439 -115.975892
-56.282304 -153.142443 25.818769 -62.827424
-87.766683 -125.258113 -9.055283 -85.601257
-122.803351 -164.368285 16.129653 -117.233845
-86.494334 -74.437832 33.492531 -48.279650
-98.836569 -132.729720 15.404423 -93.370759
-85.019084 -221.166449 32.205487 -91.855660
-52.289612 -137.284814 27.557112 -56.872328
-60.840730 -165.173846 26.988173 -67.804373
-77.704445 -215.137008 2.083951 -87.852436
-36.230878 -51.702943 8.162052 -32.854498
-39.329833 -52.414044 9.582351 -34.461760
-43.919600 -117.932110 16.224465 -48.555513
-64.266760 -161.960435 23.128154 -67.868158
-66.702964 -182.514110 6.711676 -74.765122
-71.969695 -189.814372 -6.020929 -78.535220
-66.325305 -170.326179 2.509592 -70.995445
-57.416895 -147.642496 -5.512856 -61.517817
-81.549047 -201.563249 -14.928444 -84.933689
-65.643805 -157.141381 -14.167356 -66.835556
-85.494486 -163.115698 -37.262262 -74.583055
-77.907859 -183.082667 -18.167962 -78.297158
-74.255472 -160.212766 -24.768088 -70.340471
-88.900746 -193.143196 -27.867504 -84.613183
-85.790944 -111.399996 -15.622317 -78.930380
-72.993544 -136.971076 -17.262570 -62.989386
-60.792845 -101.306428 -13.772552 -48.629782
-91.562231 -89.940579 -18.918857 -72.579208
-68.003832 -103.380651 3.856985 -69.073363
-84.427898 -116.116487 -4.113389 -60.163315
-83.836405 -155.000106 1.464903 -71.650953
-97.334637 -112.156784 -8.546163 -83.340654
-92.386986 -117.384851 -6.195573 -82.288809
-83.234247 -97.449761 -17.537960 -71.925279
-69.856630 -131.263787 -5.118215 -60.336125
-77.314794 -104.649584 -6.249968 -54.589313
-78.891703 -152.031198 -21.101884 -69.276871
-60.221454 -62.270684 -14.190955 -47.395467
-74.445498 -100.005109 -8.348752 -68.716810
-93.666964 -105.505019 -19.578012 -79.686806
-91.347179 -106.250155 -18.874322 -79.463712
-58.827930 -62.129819 -14.018658 -46.748714
-78.744522 -108.033586 -7.828485 -74.002734
-71.157052 -104.167877 -20.614595 -52.597479
-77.489185 -91.575024 -16.551274 -67.028993
-67.561621 -78.614261 -15.152133 -57.400046
-68.725759 -104.902555 -20.703794 -52.088494
-97.525898 -119.901705 -2.646335 -65.228281
-71.583270 -99.360154 -13.908639 -51.283027
-93.820127 -108.427517 -2.111277 -60.674293
-82.924544 -106.416020 -5.808352 -56.802169
-72.611025 -144.741558 -5.176982 -65.205775
-80.222152 -108.253028 -9.677776 -74.427940
-70.729212 -107.684422 -8.043052 -53.524090
-72.997446 -108.412527 -12.296872 -54.422992
-52.468341 -107.953715 -16.090597 -48.126617
-72.887184 -124.540556 -6.357258 -59.228322
-78.775218 -102.264706 -9.807720 -71.747454
-65.433830 -130.037780 -7.818368 -58.641483
-77.407458 -115.243797 5.958760 -77.522981
-73.545845 -160.953106 3.416639 -70.349685
-72.016348 -152.066999 -7.060331 -67.225004
-82.670798 -135.649308 -4.823435 -65.496032
-79.248345 -125.741512 -3.924566 -61.496957
-99.165401 -152.729752 -4.431825 -75.568546
-76.991885 -146.485554 -6.697999 -67.043232
-105.930813 -156.398738 16.207358 -78.698865
-78.815403 -149.349799 5.741631 -68.449561
-83.880691 -92.480967 15.918726 -69.407876
-87.843513 -132.993305 25.435145 -66.251046
-75.666485 -155.561237 4.080939 -69.368317
-87.649515 -156.573608 2.613302 -73.266937
-107.209081 -158.758798 0.176195 -107.890791
-96.399125 -123.574717 17.366216 -88.519705
-113.742040 -167.264820 3.530979 -114.224239
-120.900735 -173.713148 9.887058 -119.873348
-81.701136 -165.662370 1.002522 -74.209052
-95.004886 -136.945493 10.202890 -93.299775
-67.848493 -103.903967 2.268668 -68.798843
-67.465205 -103.748215 0.334032 -68.200896
-100.147932 -134.852078 -5.037659 -92.322971
-118.383297 -168.149938 -11.561121 -116.554358
-70.181996 -145.672377 -6.188555 -64.756312
-119.472798 -175.489224 -2.842487 -120.075015
-102.381872 -150.015707 -6.454926 -102.179133
-47.974123 -129.049217 14.544305 -53.107002
-113.132077 -163.971048 -8.101029 -112.581010
-76.122760 -114.598948 -4.144789 -76.205975
-100.605468 -147.872352 6.043754 -100.488731
-79.445354 -120.175580 1.169806 -80.020744
-116.056206 -171.113814 0.337686 -116.791086
-69.437346 -105.781944 3.199012 -70.100570
-103.610605 -153.650032 -2.165667 -104.180677
-101.693997 -150.763868 3.121375 -102.163905
-95.239944 -230.470261 -5.702907 -97.713061
-81.337422 -194.047795 8.649900 -82.615565
-81.637217 -170.094207 19.376878 -75.519427
-85.816731 -186.001050 12.534880 -81.545334
-87.512015 -168.131048 -0.764584 -76.692919
-67.932726 -167.820230 -2.291348 -70.725887
-81.755380 -187.884939 16.763418 -80.892096
-102.756047 -174.781260 12.404673 -83.261192
-81.406712 -180.561901 12.131367 -78.590584
-82.491879 -189.236945 11.508548 -81.518647
-86.739991 -189.224477 11.711656 -82.789341
-87.305831 -183.180070 12.777285 -81.145770
-80.660719 -195.353044 11.988660 -82.804129
-82.469336 -188.496987 11.222112 -81.289897
-94.470689 -184.837756 13.822915 -83.792533
-86.270698 -189.620720 12.325129 -82.767425
-83.963957 -198.963772 11.453700 -84.878319
-77.596403 -201.900277 12.022170 -83.849004
-81.637020 -200.444196 13.479168 -84.624365
-81.622262 -199.702257 13.169674 -84.397356
-84.205077 -197.123327 19.848562 -84.398521
-90.674025 -198.490949 15.519913 -86.749492
-84.057243 -181.193744 20.553883 -79.575296
-98.463763 -177.530142 25.921472 -82.798172
-86.715768 -187.567245 20.425375 -82.284904
-83.803107 -195.777702 16.553423 -83.874243
-105.165949 -196.216338 28.034129 -90.414686
-120.764707 -211.381165 20.551999 -99.643762
-103.217742 -186.235324 15.245058 -86.835920
-85.192013 -193.726693 11.523495 -83.675612
-89.323968 -194.624996 12.949288 -85.184689
-86.949555 -199.240357 18.427131 -85.856974
-88.830245 -197.471432 13.764668 -85.890503
-99.545612 -187.070450 27.665948 -85.984819
-97.039461 -192.145142 13.573183 -86.755381
-96.499047 -195.402353 15.728751 -87.570420
-118.059237 -202.114801 24.236871 -96.052211
-90.801231 -192.960518 18.170726 -85.128525
-96.135083 -199.892869 20.989832 -88.808386
-92.403892 -196.183910 22.983553 -86.576340
-95.818261 -184.009662 23.692270 -83.948377
-87.973589 -129.745900 6.682817 -87.558380
-116.585557 -199.919118 33.284004 -94.951402
-80.337071 -121.284073 2.530338 -80.996441
-115.660373 -185.953222 34.705759 -90.484078
-104.182664 -170.513984 29.119923 -82.408994
-100.714569 -200.444231 18.670919 -90.347640
-107.823291 -201.120686 25.329309 -92.683193
-106.467931 -180.657040 29.064327 -86.137491
-116.759181 -192.086781 25.160327 -92.653789
-109.291958 -184.342242 8.593999 -88.090260
-86.466123 -181.547340 13.094023 -80.404039
-102.630811 -191.727112 9.273712 -88.307377
-107.089089 -200.236425 14.788010 -92.197654
-93.233993 -186.244981 12.325072 -83.843692
-96.683616 -184.498817 11.722980 -84.354730
-97.114284 -187.980639 11.942207 -85.528477
-90.476205 -194.369022 11.293873 -85.453568
-64.324810 -80.085174 13.945036 -58.894587
-65.881090 -162.385392 25.971642 -68.479945
-174.966412 -252.209934 -6.032432 -175.549922
-88.412286 -178.009159 15.594544 -79.926434
-102.630393 -130.407285 18.487000 -94.009354
-145.271553 -190.486477 21.979672 -137.188470
-173.590791 -250.456223 -5.271334 -174.259886
-99.436474 -178.212360 17.510159 -83.294650
-156.799520 -226.985823 -5.140594 -157.365238
-102.898466 -174.331420 13.326636 -83.168966
-126.094130 -174.206607 15.481629 -122.306673
-114.857105 -166.310002 8.510212 -114.221926
-118.029610 -172.840926 5.188266 -118.298755
-106.961126 -156.256094 7.094652 -106.652649
-104.019846 -151.479011 8.062399 -103.377524
-85.825516 -129.515484 0.001151 -86.421280
-90.611131 -152.060794 27.517018 -72.801577
-104.726857 -179.447987 10.972662 -85.252453
-77.427017 -116.969158 3.799367 -78.783648
-96.531021 -125.578194 16.938838 -89.348044
-159.065458 -214.461980 20.638400 -153.140077
-137.500874 -196.781135 10.482572 -136.542704
-100.121438 -134.710478 15.611790 -94.734798
-93.723129 -113.619933 18.527498 -83.201804
-85.216904 -124.986827 7.667200 -84.419763
-115.195395 -168.427525 6.116165 -115.228370
-91.520791 -90.228176 17.744692 -71.085249
-106.364664 -144.707426 14.790190 -100.727870
-90.083206 -133.382451 5.774847 -89.935445
-117.693964 -149.942917 20.397564 -108.509264
-127.509135 -171.627806 18.213259 -121.749435
-114.763538 -111.931742 22.553851 -91.349886
-120.966311 -158.443964 19.461286 -113.428222
-107.740760 -147.882459 15.027871 -103.408051
-141.535441 -181.371386 23.055026 -131.803168
-189.842471 -247.447361 27.468560 -179.910094
-130.328952 -167.491948 21.633144 -121.168154
-188.143203 -219.780041 33.926815 -167.525016
-150.389343 -192.526941 24.253598 -140.179061
-139.033101 -185.168770 20.138880 -132.291602
-122.782710 -164.641100 18.009580 -116.832204
-92.259461 -132.542099 10.248531 -90.406130
-168.965549 -242.703262 7.500568 -169.207702
-71.544935 -86.950204 15.377168 -66.855743
-122.131900 -171.691145 13.200130 -119.581640
-110.029357 -152.137100 14.390228 -106.254762
-115.497682 -170.194205 3.010143 -116.080710
-128.574903 -188.657827 1.605257 -129.344265
-144.522058 -189.126341 21.956110 -136.361205
-111.162764 -130.480715 21.844077 -97.573057
-150.506977 -217.152948 7.410149 -150.612357
-147.747142 -212.836988 -7.893663 -147.688615
-111.876026 -142.407737 -19.608680 -102.955315
-117.855501 -163.168617 -14.702890 -114.217490
-110.474949 -143.340446 -18.587948 -102.758203
-100.840101 -124.057015 -19.227206 -90.585488
-92.641612 -133.257493 -9.831292 -90.987906
-103.378327 -141.434093 -14.761044 -99.036131
-89.574454 -129.197074 -9.516014 -88.088236
-103.562855 -137.573310 -16.630589 -97.418267
-97.379819 -145.501323 -0.787444 -98.031058
-99.982504 -136.611925 -14.591409 -95.501691
-97.521668 -145.668099 -0.313508 -98.170348
-131.941118 -215.204224 19.220871 -104.143602
-110.671208 -159.840779 -8.985595 -109.781245
-72.483965 -108.042706 -6.519192 -72.845601
-110.994527 -173.829837 18.343686 -85.447309
-147.301428 -213.024855 6.173564 -147.610424
-127.590010 -193.678918 28.981600 -96.380679
-166.247161 -234.178238 51.966623 -120.127620
-130.751801 -183.336044 15.145710 -94.226353
-108.440185 -189.607311 10.484589 -89.414249
-123.681559 -197.241950 21.325812 -96.277053
-107.380319 -196.947581 17.915944 -91.298370
-127.854855 -204.971167 32.504712 -99.847807
-74.707375 -112.211387 -5.154390 -75.864359
-125.451555 -184.382699 1.524344 -126.205575
-107.025374 -158.565335 2.935827 -107.566902
-93.333119 -139.962318 0.845350 -93.945228
-86.624359 -129.990294 3.589882 -86.951117
-102.675048 -151.943605 3.734292 -103.066348
-91.334648 -133.175617 8.279040 -90.355959
-67.663001 -103.706076 1.983776 -70.398822
-78.342673 -116.913733 5.717050 -78.551672
-64.068241 -98.914899 -0.985703 -64.594440
-56.618389 -79.815595 -9.955252 -53.337386
-77.244452 -116.150711 -4.288256 -77.307811
-17.077362 -15.869009 -6.902743 -13.265899
-87.896002 -117.127409 -15.013998 -82.138776
-72.935484 -109.870016 -4.698748 -72.853750
-33.566788 -113.668862 -20.082303 -44.170695
-62.962191 -140.531716 -22.073368 -61.048172
-100.264877 -136.963671 -14.708472 -95.724011
-79.466949 -120.078693 2.300671 -80.676997
-65.607695 -99.978510 -4.042406 -65.785996
-50.094429 -75.106550 -7.306949 -50.652714
-85.570701 -119.072133 -12.356594 -82.060921
-110.367600 -153.440501 -13.952872 -106.926397
-96.391144 -132.947807 -13.795318 -92.373438
-94.053183 -100.435915 -19.750921 -77.772402
-99.359738 -128.861914 -17.291671 -91.987910
-84.588914 -107.572777 -16.138502 -76.799412
-88.325134 -113.342863 -16.335528 -80.806918
-102.949433 -111.155673 -21.193280 -86.039092
-78.100150 -97.682940 -15.790814 -69.816047
-33.072384 -30.737028 -9.345219 -25.329090
-58.855691 -68.898390 -13.849604 -55.609125
-74.173459 -85.764515 -16.193650 -63.325410
-68.326762 -104.880972 0.306068 -70.101913
-66.405775 -92.036275 -11.259266 -63.911523
-49.072610 -71.608038 -8.524195 -48.480209
-56.849568 -78.922502 -10.480230 -54.075917
-62.760016 -148.937841 -25.774237 -63.509357
-63.352734 -120.635228 -31.006513 -55.196389
-56.647819 -120.961168 -22.004234 -53.282696
-56.233039 -101.032949 -27.903865 -47.179796
-61.367785 -99.542715 -28.038072 -48.273150
-64.459563 -82.687254 -13.457160 -61.542675
-58.795023 -92.016725 -29.287390 -45.243524
-65.466489 -79.960888 -14.416025 -59.744732
-79.873165 -101.032294 -28.451749 -54.271638
-117.023702 -114.627560 -22.981009 -93.417572
-74.003140 -84.237830 -14.891343 -61.150447
-57.675096 -72.349852 -12.847389 -51.217789
-80.649194 -94.211739 -17.095181 -69.521675
-60.446047 -93.464914 3.190947 -60.590839
-65.216885 -92.177367 -6.198795 -47.218276
-61.042696 -90.481818 -27.201938 -45.457354
-60.376685 -90.210500 -31.611352 -45.176156
-79.560038 -101.759124 -15.318456 -72.240104
-58.389838 -97.851333 -24.493643 -46.872351
-49.259991 -45.816285 -2.023221 -28.522883
-70.325136 -90.020523 -14.121260 -63.409420
-61.891443 -95.961168 1.954994 -62.260407
-61.857956 -110.118631 -30.252867 -51.592976
-59.927918 -103.612348 -31.612265 -49.062080
-55.397882 -123.659975 -25.587165 -53.717357
-50.087961 -79.182026 -28.592806 -38.780996
-41.440796 -105.137399 -31.940967 -43.973459
-55.682912 -103.150640 -27.534062 -47.650066
-53.433687 -97.239315 -22.677093 -45.201901
-70.010605 -120.719979 -34.519364 -57.219175
-61.706044 -99.719359 -27.912850 -48.427621
-47.779708 -97.782580 -24.228470 -43.668686
-59.985794 -123.399847 -28.783386 -55.015692
-54.791113 -86.016407 2.285243 -55.069860
-18.075513 -33.198937 3.777756 -19.664136
8.479475 1.803951 1.108816 1.718568
-42.153293 -134.794301 -2.237144 -53.084278
-24.464022 -98.372580 -17.524955 -36.850981
12.176077 -77.355165 -17.340834 -19.553726
-36.532270 -60.844841 1.359879 -36.838407
51.432307 -95.584618 16.095001 -13.245693
-21.617455 -110.759399 -12.072754 -39.713056
-14.840234 -30.033293 2.709624 -22.724081
43.178561 42.935418 -0.287714 43.522324
-129.136565 -188.912114 3.382036 -129.734176
-36.474177 -50.800462 -8.800916 -32.602938
-105.631587 -145.461985 -14.506891 -101.563262
-55.575003 -127.687308 10.860817 -54.978693
-42.290510 -231.899896 12.207861 -82.257122
-45.976357 -120.835308 -28.418996 -50.043499
-56.671065 -156.659285 -7.977025 -63.999105
-76.538014 -266.357848 45.623102 -102.868758
-69.795932 -106.729753 -1.714594 -71.116651
-91.491995 -132.715460 8.928181 -90.242833
-58.413054 -91.200450 0.369088 -60.647989
-111.654967 -142.196756 -19.580281 -102.752218
-86.686922 -130.576474 1.990149 -87.261213
-100.143811 -148.027593 5.351104 -100.224629
-68.691193 -104.237247 4.270456 -69.518283
-81.161026 -121.432084 4.704990 -81.336452
-90.819274 -130.313987 10.222419 -88.937645
-98.839984 -153.242499 29.016608 -75.624745
-98.549863 -144.618613 6.667118 -98.247469
-61.764304 -93.021335 6.318168 -62.584758
-65.799604 -99.590560 5.336904 -65.862101
-85.395209 -126.928410 5.396309 -85.277155
-91.894005 -127.025583 -13.276664 -88.027970
-66.243749 -101.869753 1.301488 -66.766327
-92.081266 -137.292100 -3.156696 -92.468175
-69.322749 -105.692157 -2.990268 -69.566016
-114.987872 -161.793925 12.948869 -112.353593
-102.203003 -146.655847 10.234936 -100.613430
-75.447805 -108.676926 9.731469 -73.326517
-77.364574 -117.429800 0.102189 -77.895933
-98.137850 -144.682873 6.204180 -97.963372
-71.060894 -108.268887 3.593233 -71.731649
-78.127766 -131.978486 4.792197 -63.031876
-58.943771 -91.262915 3.683627 -60.783758
-106.527901 -149.656889 12.928044 -103.613233
-89.382717 -143.403393 10.145859 -69.835833
-100.741830 -141.361976 12.788007 -97.708048
-82.138039 -135.240258 8.884626 -65.213489
-97.858432 -136.771942 12.971401 -94.547140
-98.731046 -136.314556 13.924692 -94.775519
-68.576198 -105.027910 -1.889685 -68.964817
-164.338102 -231.601498 14.004442 -162.501815
-54.226798 -83.799715 4.701275 -54.968250
-120.870832 -170.360863 13.087440 -118.387479
-101.999926 -144.290995 11.824393 -99.557650
-140.639472 -199.949189 11.563397 -138.746220
-52.821763 -75.437866 9.433614 -54.113126
-21.476390 -38.910329 2.912760 -29.298548
-14.706206 -25.544232 -5.273992 -13.155416
-93.271432 -139.272294 3.061728 -93.700672
-128.143075 -186.377753 -6.016275 -128.312707
-140.338985 -200.870207 -10.276993 -139.502293
-17.899678 -28.612101 6.109301 -18.158766
-63.580536 -96.035097 -15.442497 -47.884690
-46.454477 -91.019956 -15.380966 -41.242330
-3.038115 -87.027145 -5.601651 -27.019578
-130.268515 -167.531283 21.561576 -121.173010
-44.604386 -71.164481 -3.256940 -44.583309
-102.857707 -138.825560 15.767918 -97.571740
-134.340248 -172.300839 22.091203 -124.971947
-23.806290 -29.654356 8.083281 -23.768099
-30.608935 -50.763455 4.013581 -31.419894
-112.589717 -244.294836 -19.120914 -107.065366
-123.459365 -268.843562 -9.414858 -117.690878
-106.300338 -103.511930 -16.624600 -82.056807
-114.274322 -119.498782 -12.482142 -89.137686
-111.905771 -239.976367 -15.318259 -105.564641
-120.181983 -247.097576 -23.465284 -110.183868
-98.994396 -108.421582 -15.929071 -81.244800
-100.893991 -80.382004 15.880525 -72.233521
-110.107141 -125.797037 -10.483562 -90.141724
-119.375463 -129.393237 -11.982993 -94.916707
-128.822270 -152.623205 3.682523 -84.433642
-62.007912 -189.243802 -36.067428 -75.375514
-117.991769 -122.912881 -17.803121 -94.630617
-125.455787 -266.307219 9.103476 -117.528902
-117.344908 -136.418749 -8.102281 -96.086480
-122.354053 -131.421831 -7.465787 -93.862164
-111.024954 -133.286011 -8.983072 -93.090510
-131.776512 -185.013965 1.913782 -127.153689
-96.416059 -118.834044 -13.458573 -84.851098
-98.578311 -131.532408 -12.101978 -91.549733
-139.722386 -181.589742 8.371146 -96.393638
-117.576033 -149.041675 -8.460829 -103.754410
-115.873335 -128.625051 23.173440 -99.622992
-102.847097 -144.894102 7.054326 -99.900471
-135.123910 -184.343382 24.631533 -95.840188
-143.366453 -233.672850 22.810451 -113.111791
-151.543143 -190.569532 15.611896 -138.693378
-215.746940 -301.162852 16.682364 -212.169058
-136.182637 -149.529020 13.913307 -85.713497
-131.440634 -162.311397 15.541744 -88.125609
-132.429773 -161.479195 11.287976 -88.172690
-134.946630 -171.004169 11.662677 -91.785240
-136.500269 -172.060379 11.012405 -92.568194
-139.157648 -172.869100 12.140497 -93.608024
-137.959860 -160.963615 9.628082 -89.677043
-140.485006 -158.786139 6.125173 -89.781344
-135.621133 -166.827858 9.378232 -90.734697
-139.866848 -167.954076 9.543370 -92.346277
-126.042032 -179.354263 27.175558 -91.618889
-137.400839 -168.849857 12.406236 -91.875209
-45.372032 -192.406408 77.011779 -71.333532
-130.976835 -186.022828 14.272033 -95.099899
-139.492394 -171.691848 14.489491 -93.355273
-117.245359 -223.324897 23.948579 -102.171077
-108.106065 -217.414640 37.047246 -97.656211
-44.136482 -54.444100 -6.731365 -36.562195
-134.692212 -156.343109 10.991148 -87.310596
-131.738322 -157.956531 8.631000 -86.908456
-137.123121 -189.549767 18.993016 -98.001866
-131.717728 -187.429510 22.064757 -95.744171
-136.969987 -123.677386 8.121487 -94.292112
-123.692645 -113.964850 22.241560 -94.850852
-107.361042 -75.190895 8.785444 -71.783171
-118.528979 -150.447656 12.819669 -80.692991
-109.317210 -111.338824 21.957865 -88.154269
-96.793991 -109.476269 -0.743830 -76.648993
-111.243310 -77.864806 9.269513 -74.699582
-150.136360 -168.315333 -4.120847 -95.535508
-108.448074 -276.323215 -5.421894 -115.431387
-117.856852 -294.525783 -10.475344 -123.714790
-106.020922 -110.483819 13.861673 -80.934604
-119.245481 -396.250715 23.558836 -154.648859
-62.844843 -254.879071 -12.497303 -95.317174
-54.428798 -289.101503 -17.106488 -103.059090
-116.099541 -130.984959 -15.603915 -97.488245
-185.160964 -261.182328 -4.551448 -181.937199
-145.603144 -201.266114 -25.737904 -104.060777
-192.574800 -268.934784 -4.783714 -188.170403
-137.837219 -194.112178 -10.514155 -99.584819
-102.457621 -126.469874 -2.537713 -90.222333
-130.577835 -171.254146 -20.162184 -90.549595
-110.362544 -203.726761 -17.569983 -94.226792
-147.846030 -168.592874 -10.438311 -94.931671
-119.273554 -226.967786 -16.626163 -103.872402
-144.842567 -185.000231 -4.878841 -98.952840
-106.008794 -104.232592 21.232062 -84.262287
-131.793546 -188.059548 -4.543117 -95.955928
-126.623397 -171.722571 -12.622182 -89.503790
-137.380594 -193.892308 -16.104846 -99.381871
-102.835996 -72.056234 -2.898710 -67.102742
-98.039919 -103.348965 4.937466 -60.416665
-112.836471 -179.149096 23.342333 -87.595670
-101.644395 -170.991248 18.895003 -81.790693
-140.292195 -199.992114 -10.334474 -102.085293
-116.223379 -170.981474 -1.496366 -116.338719
-101.611835 -268.668109 6.219029 -111.083983
-90.252605 -108.568032 -11.157911 -80.328809
-122.364460 -162.990481 0.084807 -85.606482
-142.662127 -203.952957 10.229173 -141.853215
-100.244037 -144.071287 9.826869 -98.478198
-119.306412 -169.457226 11.700131 -117.452265
-54.770641 -75.216656 10.634762 -50.631921
-118.222067 -169.551019 -9.988030 -117.075812
-97.759693 -79.354236 -9.891205 -68.564702
-93.734935 -137.741819 7.203821 -93.198519
-109.793970 -159.950929 6.304682 -108.639663
-116.223049 -148.665525 -22.376026 -79.466572
-95.680554 -172.579296 -19.115349 -80.477955
-117.727185 -170.286989 -4.975876 -115.878780
-57.019740 -144.811853 -32.650526 -60.549478
-89.432640 -130.903119 6.717295 -88.313738
-79.536491 -243.755995 -30.940931 -96.987746
-158.275295 -211.476048 21.561776 -151.549671
-93.080090 -73.363166 -7.387992 -63.848991
-140.935934 -130.532700 4.673242 -95.666711
-102.907014 -131.408790 12.706019 -93.093996
-144.214860 -183.799200 5.421371 -128.490883
-91.538180 -124.452661 0.868115 -85.509869
-73.631393 -109.626229 6.888983 -72.884545
-84.965111 -162.710713 11.729375 -74.302747
-93.220504 -136.858886 7.449818 -92.626164
-55.937891 -85.239204 5.969664 -55.284442
-82.062352 -122.394125 5.756877 -82.649684
-120.287048 -174.759086 8.195774 -119.853380
-155.376895 -215.347638 16.976519 -151.834419
-92.101561 -185.124256 32.595431 -83.167745
-70.158729 -104.615239 7.238739 -69.218578
-270.911747 -311.548446 47.329925 -241.080021
-114.707529 -145.369644 7.870812 -102.368968
-102.066774 -147.339073 11.325957 -74.821754
-115.521076 -153.581584 9.475813 -80.730798
-116.041364 -192.328061 21.110529 -92.510827
-88.345187 -106.099798 15.438033 -75.698634
-107.466120 -116.040941 3.262673 -78.926642
-121.961023 -134.107697 7.550670 -76.820616
-87.717812 -110.550509 11.046556 -77.062855
-129.228310 -140.339489 19.291099 -80.870340
-151.909545 -147.959902 20.926745 -116.019903
-132.653774 -155.196362 11.721820 -86.355041
-108.307834 -170.147056 10.263173 -83.536467
-120.327370 -169.866381 10.533803 -87.058125
-128.885425 -173.769314 15.709210 -90.796422
-133.265147 -229.344395 20.297844 -108.782863
-94.764851 -136.358544 10.321747 -92.973453
-120.625935 -191.440019 20.584386 -93.619786
-66.919867 -58.209351 12.474073 -47.477113
-59.892390 -89.458457 7.393319 -60.020704
-92.010972 -174.503062 9.557345 -79.954210
-141.844090 -199.826987 13.762948 -139.588113
-124.192254 -227.854512 23.961130 -105.614030
-133.600966 -183.257310 17.066148 -129.109762
-102.580484 -139.294446 15.504091 -97.592114
-93.233320 -126.217897 14.933662 -88.156081
-139.506779 -184.967070 11.829730 -132.432637
-189.251499 -244.490258 28.171502 -178.476608
-125.194055 -172.685881 15.947450 -121.115649
-158.636953 -209.560956 22.624574 -150.938333
-49.792466 -78.113141 3.958507 -56.671355
-136.140207 -192.370549 13.107172 -134.092590
-100.392310 -139.377801 13.442761 -98.673013
-84.193559 -125.181710 5.567270 -86.177772
-182.992163 -240.618518 26.032860 -174.036790
-109.920196 -159.592140 8.780550 -109.125164
-107.314034 -155.377117 9.050345 -106.360091
-247.731008 -328.248493 31.624333 -238.152637
-118.036624 -171.800451 7.890856 -119.033955
-91.269757 -175.474105 13.950270 -80.023159
-82.434701 -167.072738 8.646591 -74.852232
-172.121888 -203.047600 31.003137 -153.852311
-79.164810 -157.985819 17.147160 -71.145189
-68.001403 -151.345127 7.244477 -65.803959
-92.501410 -128.805969 -1.802925 -89.083121
-47.278740 -143.286181 5.088517 -57.169476
-133.448351 -181.930444 14.247845 -126.731921
-191.562035 -232.083426 32.890912 -174.220998
-29.286982 -49.323521 3.717195 -43.240029
-147.940325 -188.380711 24.124151 -137.513335
-71.418058 -158.491513 12.537834 -68.972871
-88.863854 -131.823296 5.290608 -91.016654
-163.077353 -215.454396 23.130654 -155.245479
-67.950215 -149.415783 3.005456 -65.209800
-122.606740 -164.569685 7.137195 -116.407860
-67.784987 -134.958961 3.041436 -60.823184
-116.734298 -159.188875 1.542661 -112.207271
-62.469058 -136.483183 3.403034 -59.685672
-51.342375 -136.552942 0.054451 -56.368595
-76.067239 -129.902615 9.476934 -61.790956
-69.844945 -140.274862 0.411056 -63.035942
-79.348737 -142.753880 10.512187 -66.630785
-74.782100 -140.879943 -0.868450 -64.698613
-85.152432 -159.060784 7.212277 -73.263965
-49.584067 -139.279967 1.281671 -56.659210
-120.193474 -170.633421 -5.891317 -117.655991
-93.144651 -136.041082 -5.385606 -92.574906
-97.574816 -139.540203 -1.879281 -96.067601
-101.242963 -127.458050 16.573212 -90.437436
-127.481322 -183.962304 -6.578993 -127.174541
-140.319522 -198.113943 0.930780 -138.728977
-101.973788 -143.012985 5.706754 -97.872450
-104.239899 -150.297749 9.517963 -103.677334
-95.508230 -142.521001 0.068655 -96.217426
-170.650472 -238.170105 16.079941 -168.010066
-172.503294 -229.617668 23.567026 -165.052885
-83.021742 -121.661294 -0.791852 -83.333182
-179.696205 -251.153614 16.538361 -177.089071
-120.916696 -170.610024 12.736971 -118.585967
-95.957526 -138.247187 10.287179 -95.428884
-98.060527 -146.962941 -1.167726 -100.214547
-153.087444 -214.804435 10.694382 -150.687135
-150.778093 -215.337064 11.291422 -149.793121
-87.926491 -124.508009 11.348709 -88.609953
-157.212219 -228.811695 -1.265070 -158.195322
-86.663942 -128.706162 -2.846365 -87.737771
-153.390558 -218.502107 7.869348 -152.482317
-139.479185 -183.788508 21.254569 -131.804426
-116.854247 -169.357075 9.173900 -116.030607
-123.873943 -167.696554 17.189144 -118.716142
-100.514812 -146.733579 7.437052 -101.384884
-106.403616 -201.789776 36.375896 -92.458017
-230.682467 -285.994014 37.079860 -213.310697
-139.872689 -187.466085 20.164095 -133.383422
-78.595318 -113.393569 9.998223 -79.698362
-179.283715 -253.203592 13.911864 -177.824523
-91.074839 -183.725622 16.442583 -82.440138
-105.994341 -155.132751 7.737836 -105.537931
-120.566234 -164.212459 16.437926 -115.793309
-89.117892 -122.248828 13.746773 -87.503251
-105.565579 -149.090918 12.626928 -103.281684
-21.282690 -32.827951 6.556185 -35.545658
-91.443495 -136.056195 5.709251 -92.491299
-126.727219 -180.942576 11.281536 -125.249324
-170.533109 -235.391616 13.409953 -164.402495
-144.656929 -201.266653 15.956309 -141.360307
-25.594776 -27.842566 8.478108 -18.486895
-127.023849 -260.074805 19.679997 -116.129596
-141.864769 -309.014281 24.091002 -135.263715
-150.741242 -215.066434 10.671882 -149.916447
-83.881840 -116.911606 12.142091 -80.441698
-221.965556 -317.846720 1.621951 -223.205973
-193.440008 -260.172144 22.694470 -185.382862
-116.016487 -169.646831 5.677460 -116.146398
-154.853692 -224.861211 0.847862 -155.772222
-108.333127 -159.151583 5.450137 -108.904075
-83.939881 -125.664510 -4.166844 -86.863978
-135.425938 -197.942532 0.909592 -136.242004
-142.778227 -195.176804 29.202532 -101.386509
-71.162431 -108.226521 4.207676 -73.092203
-144.257830 -208.023076 8.006790 -144.137469
-167.594469 -197.266347 10.986705 -109.458245
-137.323487 -199.351873 5.804220 -137.619175
-96.342434 -136.899705 11.178332 -96.659621
-148.829506 -216.479629 1.372519 -149.701667
-85.406681 -160.592661 54.257446 -73.799803
-127.384477 -180.158285 12.390426 -125.390064
-142.551916 -195.463651 17.354114 -138.231365
-140.054311 -202.928584 6.297715 -140.289681
-257.149642 -366.704094 2.394568 -258.555930
-210.699075 -269.363993 31.623644 -198.039848
-165.431214 -230.081281 16.479749 -162.435140
-137.342889 -217.360156 42.227380 -106.410914
-127.077111 -185.436543 5.078536 -127.442008
-131.677597 -330.670085 -13.200959 -138.704304
-86.565413 -189.029079 55.968739 -82.678348
-199.705926 -287.130222 0.045296 -200.866766
-115.178484 -204.366296 34.385187 -95.863434
-129.468654 -208.029858 37.292021 -101.249554
-118.410792 -182.969321 25.120272 -90.414034
-128.231622 -193.621157 28.716424 -96.555834
-116.186766 -182.444546 25.544208 -89.589394
-102.523049 -152.157634 1.654291 -103.916832
-111.502638 -189.819600 13.909142 -90.396671
-72.744041 -156.153201 39.305304 -68.669173
-114.549417 -181.084392 24.454658 -88.690143
-105.638926 -194.159323 23.922135 -89.939475
-199.022420 -252.774999 30.757804 -186.132472
-181.985415 -257.564721 8.941585 -179.221132
-110.069759 -166.824159 20.334538 -83.068175
-30.577169 -160.842430 20.506803 -57.425880
-114.847359 -179.761641 22.857720 -88.382700
-105.017486 -166.307173 28.730386 -81.397398
-105.990270 -181.167238 26.150436 -86.147252
-132.567752 -186.217679 39.780121 -95.635629
-107.311315 -184.379711 25.751522 -87.507308
-156.618922 -204.147085 50.092781 -108.229802
-112.953463 -186.928624 28.577336 -89.964626
-115.393185 -196.946289 29.244940 -93.701842
-107.322937 -162.074650 33.283805 -80.819276
-108.819290 -175.198710 32.217227 -85.205400
-64.342637 -90.883386 10.990024 -60.855609
-95.631873 -126.510072 16.195629 -89.312641
-128.767544 -169.512294 20.365452 -121.123141
-108.836594 -144.157555 31.597943 -75.898245
-122.503514 -163.774772 18.701150 -116.024580
-116.098655 -150.404826 18.876851 -108.075040
-116.759399 -120.583437 23.383086 -95.829219
-89.607284 -114.966030 16.689073 -81.889577
-110.791185 -185.160852 34.055695 -88.785611
-111.102308 -170.369557 35.656821 -84.441560
-112.720653 -171.967592 30.967018 -85.406473
-126.768991 -164.824934 20.556240 -118.546700
-104.568274 -177.839012 33.829006 -84.722186
-113.475237 -152.875218 17.383061 -107.697700
-109.407010 -149.159440 16.192167 -104.411024
-99.361868 -134.878216 15.622917 -94.151202
-83.324285 -122.882046 6.877445 -84.783713
-92.733482 -133.631075 9.537698 -92.071511
-80.883534 -120.929731 4.945682 -84.022766
-123.835923 -165.744854 18.775440 -117.416051
-108.619738 -112.079710 18.301948 -85.580943
-101.375046 -118.359988 16.483857 -85.348537
-88.393751 -105.891141 17.942308 -78.830588
-118.047811 -127.239536 23.576756 -99.375219
-134.675556 -178.490490 20.178685 -127.609684
-96.525614 -121.686813 17.075249 -88.086650
-83.882918 -116.342913 12.726243 -80.653399
-91.585658 -121.778897 15.553988 -86.220611
-114.253791 -153.790128 17.488560 -108.375486
-65.756190 -92.498858 11.281168 -62.426702
-111.007562 -116.549384 22.509107 -91.699741
-112.232784 -116.167245 22.593370 -91.458453
-119.292446 -122.977701 38.133072 -72.681044
-112.172932 -119.310482 22.713146 -93.458038
-135.120845 -129.581914 25.511949 -107.367684
-91.487752 -91.361698 12.070579 -70.435266
-90.757707 -95.431980 19.157006 -74.825186
-88.101734 -91.266053 16.729706 -70.288892
-71.641691 -79.922751 13.495981 -59.219636
-61.861436 -59.161138 1.520340 -45.759543
-123.408408 -119.949458 40.609674 -73.007360
-121.783934 -112.644497 38.402511 -70.328529
-73.467801 -96.804309 13.502372 -67.042918
-126.121019 -132.640792 24.425145 -103.815552
-109.681381 -130.946783 21.197920 -97.227197
-130.535398 -128.503112 40.450803 -77.711553
-126.909544 -127.243702 24.846032 -102.893932
-95.771580 -93.766265 19.546041 -75.714155
-116.179297 -111.721040 22.590961 -91.853413
-102.260013 -121.433513 20.181867 -90.094632
-106.131067 -135.799932 18.865890 -97.648026
-92.918111 -106.673769 19.212570 -80.132482
-119.987336 -101.966522 20.303928 -89.350700
-123.496368 -115.609265 23.255147 -96.588457
-108.123952 -144.088432 28.255671 -75.663715
-104.662183 -130.236355 27.189127 -70.469561
-100.433451 -124.427858 19.230699 -90.375231
-95.433977 -106.147124 19.844596 -80.779714
-116.148915 -126.782666 23.374859 -98.140009
-85.091597 -106.517522 16.639668 -76.545503
-90.446647 -110.982168 18.041825 -80.503741
-113.887708 -138.392394 21.458602 -102.088194
-117.070681 -131.400742 23.275859 -100.524660
-94.035829 -123.526211 16.186844 -87.468032
-117.582787 -156.574124 18.163224 -111.175396
-127.894610 -141.416768 37.260091 -80.793413
-133.213205 -154.387042 25.407328 -117.051654
-110.020707 -143.301887 18.386928 -102.528207
-82.232367 -109.261951 14.379096 -77.149094
-132.951130 -137.294962 32.715432 -81.073828
-118.476507 -144.607102 21.937386 -106.684733
-111.506752 -146.967450 17.938148 -104.683522
-123.853416 -129.283122 34.629404 -75.940961
-108.752728 -123.562385 21.824565 -93.722839
-126.929277 -160.701486 21.730134 -116.528888
-126.572191 -156.999132 22.365618 -115.176013
-99.153652 -135.704415 14.364639 -94.818046
-125.988377 -169.844010 17.826271 -120.415040
-101.419558 -130.895869 15.844024 -93.470119
-125.031611 -164.465781 18.552030 -116.650184
-169.308038 -165.932785 31.346367 -137.061690
-126.603332 -146.816899 24.356489 -111.541626
-128.463093 -134.969945 25.366549 -108.017924
-113.988608 -130.611020 22.555091 -98.565621
-169.878887 -177.235707 32.141859 -142.063439
-161.118263 -161.919689 30.401116 -131.921403
-144.681518 -178.505830 25.262272 -131.996884
-131.453071 -158.247505 24.232213 -117.892648
-183.266069 -156.903718 53.655681 -102.050936
-105.875286 -124.209029 20.949951 -95.542149
-176.072022 -186.499669 33.198900 -148.576242
-118.161295 -158.297886 17.484368 -112.316254
-117.357871 -128.366135 23.503359 -100.071191
-156.997184 -143.682585 37.787316 -90.203931
-125.255323 -120.867671 24.067934 -100.766954
-116.226098 -138.975207 35.803310 -76.560392
-200.766155 -179.452197 33.369080 -156.006946
-113.316918 -136.794512 32.815772 -75.033429
-123.163978 -135.931405 35.103826 -77.728615
-131.926481 -133.697479 39.392794 -79.687188
-135.333439 -140.967654 37.585308 -82.890328
-113.362568 -129.359200 51.981754 -72.816530
-128.802066 -141.428366 44.020428 -81.069130
-89.700516 -119.330523 25.743983 -62.709312
-200.908526 -249.587495 32.649424 -185.600255
-125.177167 -166.507414 10.899939 -115.072141
-118.057562 -169.888790 45.421684 -86.383906
-148.006836 -188.354080 19.734905 -134.375509
-97.124788 -129.556469 22.725189 -68.004377
-101.872231 -136.242555 27.637550 -71.434436
-116.273523 -137.585169 34.244194 -76.157608
-98.779102 -134.638448 37.583178 -70.025265
-115.156984 -135.550311 32.477813 -75.212188
-122.080373 -142.633712 37.730326 -79.414226
-106.537029 -134.001881 30.940388 -72.161673
-116.290140 -141.667350 35.598454 -77.387247
-128.050281 -131.609276 38.550700 -77.897867
-126.047027 -132.030999 35.730733 -77.423408
-115.401209 -130.386501 32.672356 -73.736313
-123.022960 -126.882461 33.334796 -74.971626
-131.658270 -136.734204 32.858844 -80.517742
-128.959744 -132.588312 38.112005 -78.464417
-123.274924 -132.479613 34.284188 -76.726361
-129.979749 -138.614725 33.155735 -80.578342
-123.372983 -141.373373 23.864847 -106.597072
-106.014571 -128.991180 20.220948 -94.860595
-111.494864 -132.952192 32.381466 -73.334117
-123.791214 -131.383898 33.024252 -76.552534
-121.682082 -126.355293 35.171941 -74.411213
-76.898307 -102.958752 13.531437 -71.639594
-138.412621 -134.807687 41.754528 -81.966092
-118.835048 -142.586987 22.446752 -105.986150
-144.104971 -144.022080 44.836084 -86.438115
-127.448583 -131.097608 34.009402 -77.563857
-116.373146 -122.592728 31.244103 -71.689762
-120.905966 -119.410606 36.992654 -72.094972
-106.524101 -115.402006 29.010920 -66.577832
-116.160895 -112.066025 33.422629 -68.468076
-114.218444 -116.708061 32.735406 -69.277951
-114.837733 -111.452861 34.305210 -67.887178
-114.571152 -121.704508 32.248288 -70.882698
-106.833746 -108.976781 29.366491 -64.743158
-107.495673 -119.583355 29.932961 -68.123708
-99.309042 -112.966954 26.594689 -63.682799
-92.709108 -112.951075 25.406514 -61.698055
-108.194792 -120.233355 29.525676 -68.528444
-116.169797 -126.674680 32.896007 -72.853343
-95.515013 -122.402059 25.648834 -65.375122
-116.155181 -126.249888 32.597638 -72.721521
-122.312793 -131.117914 34.853861 -76.029212
-107.496907 -124.626281 30.030794 -69.636956
-112.268000 -129.691056 31.686520 -72.587717
-100.743005 -127.920564 27.356453 -68.599071
-108.797643 -150.125876 33.264779 -77.677056
-98.088093 -134.274317 22.534004 -69.708723
-98.562188 -131.970378 29.108415 -69.159770
-99.548674 -138.845638 22.916494 -71.518294
-95.946002 -126.687498 25.835587 -66.790050
-100.058004 -128.602102 27.778101 -68.598032
-96.585336 -126.839004 25.516256 -67.027302
-95.887783 -124.276454 20.586278 -66.049271
-87.467875 -115.440045 25.274582 -60.872376
-100.414412 -118.593643 27.409331 -65.702417
-100.157220 -123.212545 27.097260 -67.010930
-85.827438 -113.693987 24.606848 -59.856428
-101.101367 -124.757826 28.640895 -67.757758
-97.564022 -124.473558 27.807582 -66.611274
-93.239472 -122.238812 26.533486 -64.643485
-89.949175 -114.119616 25.103043 -61.220637
-91.843648 -112.504086 26.172138 -61.304320
-85.518391 -112.527937 24.635517 -59.413898
-92.829982 -118.856067 26.828613 -63.505815
-92.761425 -117.953469 25.469299 -63.214468
-89.840192 -118.358175 26.526190 -62.459510
-89.481032 -117.530592 24.776503 -62.103487
-92.719138 -121.347980 24.486701 -64.220135
-81.043559 -111.679353 25.561796 -57.816874
-70.612698 -106.340955 24.665417 -53.086096
-78.237539 -110.831736 26.747256 -56.720782
-68.933282 -105.454541 28.568082 -52.316347
-84.166071 -110.325774 25.394009 -58.347553
-81.401301 -109.578064 23.968798 -57.293809
-75.673632 -108.770332 26.199111 -55.333189
-75.713390 -106.931746 24.682391 -54.793541
-77.245167 -99.751934 23.331990 -53.099130
-61.236012 -95.273040 24.427095 -46.952716
-77.171630 -103.143182 23.343276 -54.094443
-69.806698 -104.379524 23.756454 -52.255867
-96.218333 -106.041233 26.334862 -60.677870
-83.878698 -106.747402 25.057291 -57.187830
-85.095662 -109.506333 24.730992 -58.380599
-86.970429 -106.704525 24.755769 -58.102486
-97.160610 -108.508374 26.392919 -61.700695
-85.220069 -98.941304 25.456110 -55.248412
-105.741446 -114.367051 29.401845 -66.032549
-92.147278 -108.506871 25.133906 -60.196245
-97.784186 -104.742051 26.761213 -60.757871
-84.675868 -97.311964 25.162948 -54.596350
-73.728820 -90.975906 26.349449 -49.411418
-54.285631 -69.771036 32.794360 -37.217000
-96.412970 -101.207267 26.610598 -59.286071
-87.011733 -102.228977 24.320172 -56.772213
-75.192017 -93.062033 25.697617 -50.476215
-60.409411 -82.775109 37.613309 -42.955356
-77.499114 -88.991678 30.499305 -49.947238
-66.724586 -88.671874 25.121564 -46.618938
-48.387834 -78.890871 51.849961 -38.183612
-77.435095 -105.106468 13.052102 -72.752650
-78.670167 -104.456966 28.216540 -54.938140
-49.615792 -73.399994 48.672486 -36.904736
-106.229712 -109.189992 40.423148 -64.625911
-74.538539 -102.116479 12.400990 -70.272098
-84.529353 -100.780403 30.231585 -55.592927
-68.371614 -100.012337 36.342853 -50.515185
-100.652074 -102.011471 23.474523 -60.799064
-77.292879 -97.345332 28.683008 -52.391463
-111.722737 -101.707373 28.251444 -64.029033
-97.165326 -97.879852 27.219619 -58.513554
-122.374246 -115.842978 37.612400 -71.465167
-122.091032 -107.794411 35.473339 -68.965633
-109.285608 -108.174533 31.377172 -65.238042
-98.928150 -102.281519 27.560688 -60.362901
-122.477024 -120.018360 42.683970 -72.748615
-126.084881 -116.836963 39.583674 -72.876553
-126.376980 -127.847496 44.033956 -76.267343
-125.860975 -120.647889 41.007402 -73.952659
-102.945888 -103.781451 7.706622 -79.586149
-151.460979 -143.404965 54.315489 -88.459783
-136.151924 -132.356320 49.528321 -80.552473
-78.700995 -62.008037 -0.814395 -53.817249
-89.543704 -57.522931 1.979206 -58.428443
-107.921314 -98.021040 8.055195 -76.148167
-130.867273 -117.325778 40.702983 -74.457915
-118.395620 -103.530497 30.312254 -66.577835
-126.497610 -115.503192 39.857168 -72.600241
-108.965483 -105.014152 31.531771 -64.193891
-110.623414 -141.719858 19.159494 -102.538762
-88.284878 -90.713599 18.694049 -71.962503
-106.162257 -116.928365 21.645517 -89.832628
-124.345972 -147.505783 68.769367 -81.555527
-111.863020 -109.905992 19.488040 -86.779754
-100.023576 -128.365568 17.777561 -92.062699
-113.755486 -93.664888 10.629783 -78.081084
-98.902487 -91.736351 12.060019 -70.556077
-118.858173 -160.261448 16.994951 -113.117562
-94.786816 -140.207196 5.022194 -96.190710
-110.284886 -122.314442 22.261156 -93.734614
-109.840469 -133.048079 20.897989 -98.227674
-114.294231 -161.736650 12.155840 -112.388142
-98.541892 -138.048115 12.547066 -95.226093
-102.490769 -125.373384 14.573299 -88.263083
-104.903258 -146.147691 12.598649 -101.281419
-114.543319 -152.492231 17.568660 -108.368231
-96.407292 -133.433519 13.387950 -92.682234
-117.145123 -163.414625 13.955683 -114.097616
-112.995278 -165.895274 4.438874 -113.333056
-96.441712 -126.587544 16.440744 -89.798931
-98.369771 -129.333055 16.560155 -92.118209
-81.901032 -108.465442 14.482290 -76.673109
-105.209304 -142.390653 12.761797 -98.279285
-96.482605 -80.700653 61.440328 -53.154977
-117.234757 -139.536150 22.415410 -104.013134
-84.642749 -111.073092 15.134511 -78.297331
-93.820688 -135.704121 9.114601 -92.529675
-91.974290 -121.530305 15.662190 -85.796331
-86.599087 -115.617807 14.641042 -81.039557
-84.170214 -163.745741 10.584461 -74.374786
-89.409002 -126.387620 11.482515 -86.712597
-90.611849 -129.970994 10.052151 -88.778418
-85.662691 -116.031280 13.948625 -80.782454
-93.984606 -125.449095 14.434102 -87.258621
-89.504139 -121.742568 13.997628 -84.842720
-94.826626 -195.300402 -5.090623 -87.038108
-116.465242 -159.265367 15.831864 -111.956639
-83.030359 -107.449460 15.415147 -76.096732
-84.450455 -116.010774 13.049402 -80.294248
-89.630983 -119.191798 15.134881 -83.815620
-84.760069 -117.345830 12.617781 -80.990059
-58.185037 -81.724704 10.245694 -54.762722
-78.750438 -111.786475 10.692716 -76.111518
-72.025409 -135.314678 8.818533 -62.202026
-73.104932 -100.403540 12.242188 -68.910106
-95.938550 -131.223331 14.255734 -91.506736
-69.679198 -96.157176 11.705840 -65.714796
-74.875377 -142.819326 10.219055 -65.308411
-73.975234 -148.174703 1.532673 -66.644981
-80.567508 -139.686907 5.279889 -66.076324
-81.544131 -158.504745 6.785785 -72.014663
-62.910337 -125.550788 6.104136 -56.538337
-68.860128 -128.407795 8.673892 -59.180377
-74.811291 -142.924430 7.866573 -65.320716
-71.086343 -134.374409 10.055167 -61.638225
-63.781024 -130.881650 8.273470 -58.398802
-68.989891 -135.969585 9.603356 -61.487843
-63.879262 -122.572684 7.467228 -55.935584
-64.865536 -130.302550 7.803255 -58.550426
-64.341732 -119.930661 11.462511 -55.281718
-76.967169 -106.617632 12.064816 -73.186380
-67.676685 -96.399370 10.057368 -64.968769
-58.367999 -84.055803 9.195832 -55.834332
-73.848558 -130.714248 6.830771 -61.368842
-90.823082 -125.738317 13.087609 -87.048852
-80.981552 -111.761317 12.589346 -77.018530
-81.990343 -112.518931 12.921560 -77.784361
-71.344240 -98.255499 11.927764 -67.296890
-75.863335 -103.174173 12.830101 -71.278289
-70.043575 -99.914422 10.064947 -67.448899
-74.439506 -103.005097 11.936491 -70.602282
-64.179207 -91.159612 10.051413 -61.292538
-71.613274 -99.141647 11.711217 -67.783762
-66.465590 -100.429139 5.248514 -66.149190
-69.368130 -99.076566 9.966792 -66.806329
-60.751330 -86.273032 9.898986 -57.790138
-67.135110 -92.155184 11.706036 -62.966024
-70.587047 -91.916371 13.731461 -64.324387
-73.562639 -93.061492 14.795741 -66.060811
-64.942868 -82.667676 13.535411 -58.053761
-59.405031 -79.888612 11.650353 -54.545997
-69.208668 -93.260127 12.562408 -64.302703
-57.465438 -69.868414 34.999534 -38.200156
-72.962028 -95.201494 13.959520 -66.707565
-57.699526 -73.037853 12.671448 -50.947951
-73.739732 -99.950172 12.774528 -69.025832
-75.300500 -101.771584 13.037317 -70.449168
-74.624733 -99.076387 13.607196 -69.041113
-79.741885 -107.385591 13.590757 -74.690410
-79.042470 -108.040941 12.880064 -74.659999
-79.467597 -108.937293 12.770666 -75.219703
-72.951139 -100.877511 11.859605 -69.078348
-76.990226 -105.623699 12.540385 -72.780238
-84.367197 -110.522423 15.163899 -77.952962
-84.858676 -112.825657 14.636175 -79.134861
-66.969772 -83.120973 36.080064 -45.027223
-77.528814 -102.612574 14.031843 -71.749691
-64.787323 -91.554589 37.651357 -46.902574
-78.369843 -104.621959 13.802607 -72.950963
-71.081639 -91.640695 30.378147 -48.816700
-49.529877 -62.251547 44.630687 -33.534427
-62.252757 -76.466633 36.062671 -41.615817
-60.709239 -85.771086 25.387037 -43.944098
-65.568118 -85.577147 30.020189 -45.343580
-69.488312 -83.468121 29.832455 -45.886930
-75.872011 -100.496730 24.578941 -52.910622
-56.848551 -96.889084 24.152566 -46.121291
-63.002462 -81.426735 28.878547 -43.328759
-45.885419 -48.573601 43.860951 -28.337706
-56.674395 -76.825121 28.181383 -40.049855
-58.826824 -79.433874 27.944128 -41.478209
-62.070649 -90.653399 23.939932 -45.817214
-69.226043 -97.303677 23.116282 -49.958916
-54.401488 -81.674918 26.057753 -40.822922
-62.889564 -95.097864 23.328639 -47.396228
-67.219758 -93.260988 25.069954 -48.144224
-75.975088 -104.458835 24.779298 -54.130177
-60.510570 -90.009973 24.907890 -45.156163
-68.556563 -102.136326 24.984763 -51.207867
-68.101869 -98.016653 24.616820 -49.835557
-69.588981 -101.150356 23.275104 -51.221801
-63.330560 -101.984658 25.572753 -49.594565
-71.147906 -107.141116 27.487342 -53.486706
-68.993515 -106.613766 27.174664 -52.682184
-68.659005 -105.582284 26.095591 -52.272386
-62.018602 -103.056725 28.624670 -49.522598
-68.646007 -104.733241 29.296605 -52.013774
-57.148071 -100.173199 30.415449 -47.196381
-62.567472 -103.334826 27.520158 -49.770689
-63.685583 -102.238484 30.227220 -49.777220
-57.681858 -100.403026 30.398865 -47.425465
-54.762291 -92.034090 23.826973 -44.038914
-57.731052 -92.994479 23.445482 -45.217659
-51.154371 -98.204446 26.896339 -44.807645
-58.174814 -101.040156 26.830847 -47.764491
-62.342011 -103.089267 29.148560 -49.629383
-56.509711 -100.809472 28.321638 -47.195755
-56.594730 -101.021909 28.279118 -47.284992
-51.218789 -94.039378 23.647614 -43.577450
-45.697403 -96.479823 28.470355 -42.653168
-51.445921 -98.408781 27.260371 -44.956411
-49.420056 -96.174527 31.938285 -43.678375
-44.418699 -94.607442 31.284563 -41.707842
-53.965919 -97.131022 32.392968 -45.329082
-50.606560 -97.926996 30.682757 -44.560067
-44.481654 -96.258529 27.506019 -42.222055
-46.139883 -93.229778 24.436869 -41.810898
-44.044050 -84.206784 33.290806 -38.475250
-43.999267 -91.544026 33.671081 -40.662988
-45.545484 -77.915488 21.208346 -37.038292
-48.275975 -87.989464 22.741337 -40.879632
-48.050849 -95.923683 25.537751 -43.192360
-46.462401 -92.375249 22.534367 -41.651295
-49.118969 -74.630718 22.794979 -37.124906
-49.145854 -69.001873 23.108685 -35.444318
-50.162081 -80.214625 22.058379 -39.113012
-53.389503 -84.506028 23.037626 -41.368659
-51.540486 -65.504665 28.840087 -35.113546
-59.201779 -84.765121 26.463021 -43.190070
-52.343388 -84.354536 23.894116 -41.009377
-55.518752 -88.038592 24.467908 -43.067203
-56.277561 -67.144793 31.738906 -37.026706
-57.358253 -78.238825 28.812446 -40.679124
-57.067903 -83.069326 25.711257 -42.041169
-52.461260 -70.361131 25.857323 -36.846717
-61.336090 -75.248545 13.610795 -53.409266
-52.349063 -66.869075 31.406726 -35.765441
-52.855744 -62.805017 27.002630 -34.698228
-53.376944 -56.521712 30.267671 -32.969597
-55.076662 -73.639194 27.515075 -38.614757
-54.399383 -79.893415 25.246181 -40.287839
-48.560363 -54.933035 24.388242 -31.048019
-50.069210 -68.051932 10.461285 -45.631835
-44.162573 -57.579426 23.499564 -30.522600
-50.483099 -60.165201 25.831704 -33.194490
-45.048497 -61.837874 20.587508 -32.065911
-48.603360 -61.153453 11.507458 -42.117486
-35.890489 -40.684356 16.609445 -22.972453
-50.413935 -55.913930 12.616461 -42.065183
-36.126659 -49.414570 25.372616 -25.662369
-47.066617 -63.336410 20.198555 -33.120908
-111.846779 -95.651907 19.490838 -83.215814
-36.326466 -71.674838 14.620026 -32.400391
-47.181065 -75.518200 19.072027 -36.809779
-47.827110 -65.016251 23.737779 -33.853008
-44.014572 -56.234167 22.345821 -30.074622
-44.428848 -66.174083 20.772552 -33.180879
-40.421002 -72.457686 18.410508 -33.863606
-41.408833 -102.878981 33.079652 -43.286344
-40.735065 -91.490163 20.997213 -39.667568
-42.657178 -95.033242 25.375966 -41.307126
-41.592396 -94.473790 31.431039 -40.819856
-41.495610 -93.524170 24.729758 -40.505934
-42.570141 -88.224455 33.398605 -39.238379
-39.346684 -98.027301 27.074015 -41.212195
-33.943772 -93.071936 29.167826 -38.104712
-41.623221 -95.198460 32.236278 -41.046504
-41.738482 -74.800561 32.816315 -34.961713
-41.907717 -88.294774 34.874328 -39.060747
-35.217630 -72.181492 16.156237 -32.219737
-39.943055 -84.405768 16.763156 -37.304647
-32.082728 -96.611852 22.165924 -38.608374
-36.647085 -94.057818 25.794864 -39.211471
-37.090250 -92.405464 31.037206 -38.848714
-40.797709 -98.976924 33.132345 -41.932390
-35.245232 -90.245832 21.800950 -37.647319
-48.290602 -104.795388 25.753137 -45.925797
-36.875449 -92.708673 34.892415 -38.875237
-43.263835 -89.430378 37.042389 -39.808264
-52.133079 -92.198375 45.058837 -43.299436
-50.247831 -84.462933 37.154834 -40.413229
-64.536330 -86.766754 42.443942 -45.390925
-31.664046 -72.284063 29.404393 -31.184433
-48.396289 -112.123941 24.300734 -48.156069
-122.070370 -112.643870 22.822929 -94.681514
-51.630092 -53.222685 33.678770 -31.455833
-41.211525 -61.118234 27.266368 -30.698928
-57.402935 -79.812147 43.713213 -41.164524
-51.063059 -51.245890 31.948548 -30.692685
-119.901951 -106.885425 21.717315 -91.332482
-79.414987 -67.260348 14.992051 -60.722845
-61.633703 -49.110777 11.693017 -48.780063
-58.026281 -62.119113 35.562422 -36.043618
-37.143039 -60.554884 29.028973 -29.309377
-86.781179 -69.712907 14.674942 -64.719929
-60.274608 -43.750413 9.677188 -46.554780
-32.737429 -59.744050 15.325791 -27.744444
-107.383900 -91.318898 18.750752 -79.500195
-14.738709 -67.694734 14.086075 -24.730033
-58.910012 -79.936553 11.457873 -54.295248
-54.895216 -71.006515 11.961820 -48.910645
-82.119992 -74.218697 16.483665 -61.676433
-24.247778 -55.338249 13.739592 -23.875808
-27.779176 -34.024638 8.751746 -21.864152
-32.917578 -46.614982 8.263691 -29.347354
-83.151382 -84.269266 17.871917 -66.302896
-24.179095 -25.826141 8.269204 -17.267004
-50.150164 -56.694683 28.578104 -32.053454
-17.501367 -10.778576 5.697434 -18.109687
-65.326167 -88.277250 12.137483 -60.542919
-45.037318 -66.006129 8.239555 -42.542823
-58.093532 -78.419589 11.518384 -53.310704
-37.320301 -56.513897 7.022415 -35.351354
-62.240046 -91.211925 8.256120 -60.491616
-33.650931 -53.374002 5.470087 -32.533815
-52.481347 -74.290814 9.641074 -49.216089
-31.551336 -49.695271 5.928440 -30.253271
-38.157733 -51.621031 9.339147 -33.693555
-36.021753 -54.164653 7.130821 -33.859783
-68.998915 -97.191506 10.703109 -65.863103
-41.265541 -61.093702 7.707857 -38.956302
-64.637391 -90.504799 10.747332 -61.202285
-59.306123 -81.621750 10.961552 -55.236168
-52.152925 -77.035720 7.857545 -50.269430
-38.446778 -50.760102 9.733232 -33.397216
-42.035518 -62.213274 7.730809 -39.750293
-57.865425 -81.805991 9.929684 -54.694610
-50.658261 -66.850170 11.165270 -45.338838
-46.227570 -67.156722 8.410590 -43.623239
-54.522330 -75.737306 10.309113 -50.728342
-58.546043 -82.907219 9.903467 -55.446818
-59.569699 -76.442670 12.690614 -53.169912
-55.744116 -74.785416 11.331696 -50.855832
-63.760442 -93.595542 8.133574 -62.137122
-67.854345 -97.584137 9.504511 -65.542495
-61.806715 -89.120466 9.202316 -59.430068
-61.440621 -89.546926 8.592707 -59.460647
-56.655320 -85.358297 6.510362 -55.666259
-61.658974 -90.309213 8.294163 -59.872948
-62.306353 -94.032729 5.868513 -61.704104
-53.735651 -78.067286 8.637267 -51.378853
-56.670961 -84.370424 7.332900 -55.264749
-48.234147 -70.158470 8.435671 -45.730403
-58.796203 -110.113458 7.065786 -50.672898
-61.137350 -121.222968 6.110740 -54.708095
-56.102406 -119.597182 14.570481 -52.709876
-84.001466 -100.406047 17.326137 -73.539403
-60.794785 -126.426332 8.222485 -56.166335
-61.878602 -120.569425 5.073528 -54.734408
-62.675895 -124.068427 9.468500 -56.023296
-72.041217 -133.627248 20.499994 -61.700539
-61.910641 -113.061109 7.698754 -52.491525
-66.590351 -130.840799 8.547341 -59.229345
-63.089237 -127.961749 6.521139 -57.315296
-64.040888 -125.258123 7.201203 -56.789703
-61.885101 -115.635209 4.841110 -53.256093
-62.090639 -123.411666 6.226306 -55.650691
-62.885702 -120.575651 5.848070 -55.038406
-64.807027 -126.211164 6.870045 -57.305457
-62.477300 -121.269634 4.754270 -55.124080
-62.632844 -124.052352 5.761082 -56.005559
-50.627528 -101.307966 8.418614 -45.580648
-56.017472 -111.998214 8.809323 -50.404706
-60.872136 -116.775706 5.936050 -53.294353
-60.699483 -110.323158 6.048455 -51.306792
-55.882211 -112.206098 5.455746 -50.426493
-62.218553 -125.466730 5.395340 -56.305585
-61.755953 -124.598841 10.940092 -55.906438
-44.056759 -34.480894 9.439539 -28.971280
-20.369056 -28.946984 -6.997048 -16.666879
-54.625178 -120.357742 8.695651 -52.494876
-51.296857 -45.752101 -0.791891 -29.820707
-64.831971 -95.055118 8.167794 -63.218239
-55.445968 -105.391140 6.139500 -48.251132
-60.114289 -111.043834 5.308027 -51.347437
-57.282728 -111.462721 7.676613 -50.623635
-62.004502 -117.228630 6.014306 -53.769940
-44.121041 -118.351190 6.050274 -48.741669
-60.264985 -123.954324 7.985006 -55.265793
-53.103417 -107.795340 9.119631 -48.269627
-54.456907 -102.570673 9.206563 -47.108274
-48.405506 -99.460719 9.650636 -44.359868
-55.042408 -104.664199 8.253789 -47.911982
-56.912981 -104.685608 8.448031 -48.479577
-55.643351 -108.027096 8.645780 -49.101134
-51.724869 -99.907971 10.492967 -45.489852
-58.009886 -106.832362 6.398225 -49.452674
-58.681320 -112.452452 8.074293 -51.340132
-54.818005 -103.547543 9.521760 -47.509664
-57.863284 -107.782597 8.831739 -49.693764
-48.525090 -99.056038 11.126051 -44.274338
-50.486558 -103.214193 10.306561 -46.110225
-53.552267 -107.581592 9.589756 -48.340158
-46.534363 -99.093104 10.878167 -43.688240
-52.525313 -102.948537 10.239085 -46.642155
-40.904310 -98.373289 8.607308 -41.783279
-48.692723 -103.618923 10.082558 -45.693494
-45.149581 -99.451226 10.347154 -43.380242
-48.982666 -103.073951 9.637063 -45.616985
-48.565663 -111.783301 10.591981 -48.104689
-45.827448 -106.967571 11.194385 -45.838506
-51.792982 -116.065331 9.664509 -50.357494
-43.277865 -100.769679 11.043646 -43.214263
-49.290810 -110.313241 10.046948 -47.881215
-57.565363 -118.482267 7.693226 -52.814289
-47.343932 -103.930037 9.797888 -45.382191
-48.988396 -110.395333 9.926198 -47.815119
-50.996495 -108.130327 9.267660 -47.738046
-50.366100 -109.110658 9.629342 -47.843027
-43.886269 -99.857700 9.976717 -43.123191
-49.528794 -108.970126 9.527514 -47.549676
-61.453072 -116.938971 7.214764 -53.517613
-55.790887 -107.428836 9.428874 -48.965917
-56.617348 -117.620419 8.095445 -52.271330
-61.290339 -121.737872 6.525584 -54.908463
-56.361685 -112.467995 8.375595 -50.648904
-57.894290 -116.304418 7.983950 -52.259612
-55.371500 -119.588735 8.692879 -52.488070
-54.387507 -112.895320 8.838973 -50.184848
-61.348127 -124.990969 6.286577 -55.901729
-69.809497 -128.740334 4.604412 -59.564949
-57.887024 -127.279618 8.209389 -55.549993
-56.798821 -121.066109 8.041855 -53.359479
-61.205983 -129.280548 6.626103 -57.145959
-61.760984 -125.537736 6.535075 -56.189616
-58.444473 -120.815562 7.626513 -53.778010
-65.271725 -125.996715 5.373383 -57.380532
-58.854150 -116.918158 7.593166 -52.731693
-65.250212 -126.557495 5.237979 -57.542312
-60.349762 -116.196996 7.762348 -52.964027
-62.255902 -115.498018 6.817196 -53.326176
-68.819495 -126.432266 4.572404 -58.575528
-71.474858 -127.447957 9.200614 -59.676845
-63.233969 -116.724762 7.702160 -53.987619
-63.273233 -117.070533 7.243204 -54.103130
-60.745776 -112.334763 8.344427 -51.924162
-63.010555 -121.615198 6.007537 -55.387726
-64.113585 -117.930207 7.072257 -54.613138
-58.120544 -109.112146 7.749620 -50.169807
-61.583532 -115.546212 5.858357 -53.138923
-59.642151 -110.693119 6.859143 -51.100581
-65.301877 -117.550629 7.603194 -54.855752
-73.005901 -126.115535 6.080367 -59.736431
-64.999408 -118.947113 7.477411 -55.183957
-62.125669 -114.487567 6.542748 -52.983971
-62.380574 -116.425827 5.435342 -53.641920
-64.165203 -119.738979 6.423688 -55.171255
-64.126782 -121.287865 6.889668 -55.624394
-67.109978 -130.897863 8.505400 -59.402352
-68.645798 -122.511010 7.880110 -57.347043
-72.881726 -129.114341 4.335988 -60.598820
-66.776095 -123.106370 7.443996 -56.964739
-66.882631 -121.180086 7.283076 -56.418815
-67.004773 -124.172128 8.024297 -57.353070
-72.773600 -125.922185 7.928819 -59.608736
-69.330770 -122.132586 6.850264 -57.439007
-66.094356 -120.827770 6.371350 -56.076638
-75.688305 -129.345721 8.737649 -61.510208
-70.161327 -123.976908 7.022374 -58.241470
-69.827659 -125.269493 8.096024 -58.529146
-73.407964 -132.919298 5.112194 -61.898179
-68.531683 -129.056981 9.056736 -59.276599
-72.409209 -129.516065 9.498424 -60.577582
-80.553614 -136.823727 6.717645 -65.213202
-75.420985 -134.777051 10.633196 -63.059411
-71.574792 -134.973907 10.351921 -61.964609
-74.540230 -132.472016 10.997256 -62.103674
-79.437059 -134.168755 11.154589 -64.081744
-78.061820 -138.829042 12.697483 -65.067259
-83.915104 -147.457305 13.162553 -69.411723
-80.902922 -147.489460 13.120608 -68.517715
-75.136211 -137.394731 3.702703 -63.759282
-73.720403 -136.552748 6.445001 -63.081945
-77.304167 -133.798053 4.295676 -63.330666
-82.517973 -139.552619 12.571871 -66.621178
-77.905123 -133.995716 7.898704 -63.570252
-75.045144 -129.779453 4.558812 -61.447379
-73.246728 -126.707618 6.036248 -59.986304
-77.492043 -131.274338 7.837628 -62.629914
-77.189498 -131.128671 6.335376 -62.495451
-78.194870 -132.331681 8.814968 -63.157965
-75.445872 -130.640281 4.795769 -61.825846
-75.367132 -141.826845 3.022052 -65.158193
-75.668973 -131.271678 5.120101 -62.082195
-74.676379 -132.747051 2.624598 -62.227029
-75.169095 -133.703088 3.184815 -62.661655
-80.193662 -152.822621 4.726975 -69.904885
-74.595940 -141.500119 5.093724 -64.828818
-77.720904 -140.708430 4.362142 -65.528800
-76.029622 -156.436114 5.094323 -69.739721
-98.400954 -176.548236 21.455765 -82.484757
-64.664392 -144.067637 7.913788 -62.619609
-79.749604 -156.604042 2.666844 -70.906094
-76.609902 -138.911334 1.230824 -64.656371
-76.509719 -145.278228 1.049204 -66.536384
-75.337194 -134.465162 3.554246 -62.940707
-70.247975 -130.067994 3.665160 -60.094791
-80.748678 -148.421763 9.140148 -68.751132
-76.462498 -146.016641 7.345625 -66.743742
-70.359572 -148.233682 8.960842 -65.577976
-71.610841 -141.950533 2.986111 -64.068412
-73.305097 -137.452957 1.633661 -63.227416
-62.044578 -130.462281 7.006286 -57.752058
-72.213343 -134.442938 3.267874 -61.996884
-69.104470 -132.634621 3.673588 -60.521727
-75.649173 -128.651073 6.519645 -61.290074
-75.724660 -128.673114 6.930347 -61.319332
-70.424168 -125.089035 5.723440 -58.653961
-63.598365 -121.605381 6.316714 -55.561124
-70.027180 -124.239431 5.596499 -58.279983
-66.852575 -121.237524 6.829377 -56.427030
-64.371819 -137.038638 8.630211 -60.423137
-66.496270 -136.979378 5.796414 -61.042694
-69.507156 -138.035891 3.331508 -62.262914
-65.659808 -131.849365 4.767558 -59.252752
-65.188462 -120.373896 6.564092 -55.668707
-61.668021 -120.711780 6.756876 -54.713940
-66.811608 -140.845931 10.601769 -62.297262
-65.851703 -128.223952 8.730428 -58.222697
-66.184696 -139.264754 7.849053 -61.634835
-54.707456 -122.211484 8.931390 -53.075682
-54.773181 -122.487550 -0.596958 -53.178219
-60.735633 -128.103775 9.247105 -56.651822
-76.956801 -136.616588 9.294545 -64.072017
-70.240577 -142.527491 13.408211 -63.830421
-78.811812 -150.580641 8.430481 -68.817736
-70.490635 -134.191212 11.758548 -61.404554
-73.487849 -130.044327 10.140540 -61.059653
-70.734440 -142.839651 8.757040 -64.072228
-75.941223 -114.303862 5.341697 -75.842596
-69.405166 -134.895555 14.456250 -61.290216
-70.383539 -144.294515 6.108786 -64.403416
-72.004531 -146.269046 10.870858 -65.482073
-101.078289 -148.658363 6.819037 -100.789713
-79.318659 -155.277728 12.189450 -70.378916
-72.068067 -145.810368 8.982517 -65.363531
-78.406457 -135.572820 16.678616 -64.193783
-97.359439 -136.269642 8.647691 -70.088724
-46.855817 -74.327695 4.154540 -46.930113
-86.576670 -127.963214 30.144454 -64.361965
-152.042622 -210.967273 58.563053 -108.902969
-124.788994 -181.009261 8.262584 -124.375935
-130.782158 -182.866845 14.328715 -127.886105
-106.182694 -156.516799 5.700101 -106.254833
-81.213416 -150.677595 10.824993 -69.567303
-90.204132 -133.352334 6.791087 -89.806468
-131.513815 -190.983576 7.161713 -131.519977
-75.974172 -114.277179 5.503572 -75.795985
-70.250165 -126.236971 6.046372 -58.946141
-90.384868 -162.508722 19.191806 -75.868077
-99.973404 -165.316963 3.290410 -79.587110
-92.285731 -123.014539 15.445981 -86.444145
-33.448372 -53.513373 5.486427 -33.216224
-83.208196 -121.259445 8.594911 -81.927176
-62.692530 -96.170792 4.560790 -62.590931
-79.419770 -114.772287 9.435587 -77.671190
-101.956295 -149.102071 7.787075 -101.389373
-128.911224 -180.880810 13.751622 -126.287273
-108.643497 -157.549173 8.738627 -107.832964
-59.050613 -165.188985 31.910088 -67.271879
-79.809969 -179.669172 18.248039 -77.843742
-51.530751 -77.555182 -6.831461 -51.272641
-36.977167 -61.515968 0.372808 -40.034392
-73.747716 -106.264970 9.768522 -71.546042
-90.325686 -181.579295 48.784173 -81.571494
-91.304607 -124.168217 14.353206 -86.496309
-87.996112 -171.013768 18.442796 -77.702964
-89.473637 -126.198977 11.853554 -86.579900
-36.078772 -58.409802 4.440183 -36.655997
-31.702456 -51.207782 5.208347 -32.089249
-109.688924 -155.834798 11.746854 -107.582470
-112.424504 -155.462637 14.682891 -108.594150
-107.241335 -145.622346 15.847979 -102.231070
-119.538738 -171.310972 10.561482 -118.220945
-94.742326 -137.082967 9.480508 -93.337646
-117.519818 -172.431960 4.620734 -117.878947
-64.557879 -121.935995 9.259552 -55.948162
14.878647 10.030843 -0.175403 10.111468
-72.369364 -136.286370 12.655056 -62.596720
-59.215587 -91.242425 3.948235 -59.235076
-84.032418 -123.474559 7.737428 -83.145524
-117.775654 -160.206154 16.435976 -112.877400
-19.943605 -37.892309 -0.997012 -21.731412
14.676641 9.848978 -0.061096 9.942323
-109.838725 -150.890246 15.113944 -105.558352
-28.125364 -49.156086 -1.162778 -29.611919
-45.984407 -71.652276 5.119877 -45.965106
-107.135343 -158.727545 1.418976 -107.782319
-71.095373 -92.917724 0.660232 -49.203929
-50.996942 -78.866595 -4.998111 -50.521168
-102.755563 -152.031916 -3.785373 -103.125875
-60.877899 -105.490677 2.019214 -49.910573
-69.572111 -96.268960 -5.379388 -49.752321
-67.124400 -98.549472 6.759764 -49.702162
-54.084591 -112.938166 6.500600 -50.106827
-58.551265 -109.251260 10.300762 -50.340758
-64.489462 -127.033190 7.275407 -57.456796
-70.151930 -106.258999 14.491168 -52.923279
-61.972994 -104.979542 5.380318 -50.085761
-87.281366 -137.329743 23.822122 -67.383333
-66.941079 -123.857070 16.610371 -57.239445
-70.214072 -133.006840 11.565695 -60.966274
-57.175558 -119.628450 8.068149 -53.041202
-65.167217 -128.074197 8.981933 -57.972424
-63.241234 -133.865292 9.341468 -59.131958
-65.777386 -135.312932 11.470952 -60.327096
-62.038364 -132.800693 7.706238 -58.451717
-61.775006 -133.155703 9.892197 -58.479213
-59.389745 -128.871198 8.859851 -56.478283
-56.458041 -124.838644 8.865989 -54.389005
-59.060623 -128.428188 8.773301 -56.246643
-53.081900 -122.528931 9.551325 -52.683250
-56.697735 -126.673466 9.746962 -55.011360
-58.155677 -125.284765 7.849431 -55.032133
-57.515940 -123.995077 8.407619 -54.453305
-54.123805 -122.679474 8.062401 -53.040984
-53.254748 -123.241811 10.086346 -52.948968
-63.911602 -129.293655 9.760864 -57.961577
-58.905971 -128.677871 10.022610 -56.275153
-44.984309 -111.851778 12.610056 -47.050826
-52.437467 -121.152500 9.533530 -52.076990
-51.360636 -120.935964 9.261695 -51.688980
-50.818495 -117.467519 10.236247 -50.485804
-48.147653 -111.420436 10.779672 -47.870427
-47.057977 -112.811428 11.854741 -47.960822
-50.751515 -117.253209 10.354635 -50.401417
-55.088158 -121.915431 9.223232 -53.101077
-45.562404 -98.548935 12.506662 -43.233402
-46.573759 -112.122580 11.617437 -47.608902
-45.562472 -114.172021 12.024171 -47.920348
-48.928820 -117.593553 10.835738 -49.956712
-43.448637 -113.609309 12.572161 -47.117384
-49.091011 -116.486742 5.961226 -49.673326
-43.389328 -115.541287 9.485443 -47.679185
-46.992023 -117.318932 10.516905 -49.293287
-45.256972 -110.881761 12.851568 -46.841620
-45.456842 -114.567079 12.209721 -48.007176
-41.731819 -113.497151 12.055357 -46.568691
-40.439864 -108.904318 2.611453 -44.803255
-42.075051 -112.713522 8.624910 -46.436572
-45.458631 -115.242413 6.948550 -48.210313
-52.244119 -118.823270 7.475992 -51.320217
-48.883710 -119.361381 8.546460 -50.473527
-44.974407 -115.729260 9.777574 -48.211100
-49.661692 -119.592205 8.673977 -50.776169
-38.702769 -102.600921 -4.125291 -42.391107
-29.405584 -99.040643 -9.171466 -38.533868
-51.134130 -111.326488 1.704826 -48.738185
-58.551845 -105.968360 -7.391355 -49.356062
-21.872236 -86.924771 -0.232318 -32.639102
-33.426473 -105.112487 2.611039 -41.561688
-38.877452 -103.656356 -6.218864 -42.760142
-40.850998 -87.804924 -21.515436 -38.596777
-38.782456 -111.737909 11.330639 -45.156109
-36.959007 -108.679186 4.870684 -43.691458
-27.930139 -87.084254 1.999032 -34.504318
-84.683225 -127.648214 1.366533 -85.208999
-17.045077 -98.309216 3.438218 -34.606288
-39.740054 -96.643012 8.926517 -40.914920
-48.641711 -76.641802 3.762980 -48.535642
-39.195630 -96.028814 9.312220 -40.567333
-45.123291 -108.192677 14.203049 -45.994790
-37.734725 -106.717615 8.884037 -43.335702
-62.041111 -95.599652 3.372137 -62.178817
-42.430113 -96.681598 11.693260 -41.733513
-64.692541 -112.837075 3.500558 -53.258885
-45.184162 -107.363473 13.430333 -45.764290
-76.589298 -116.161545 1.758706 -77.036995
-87.041771 -130.787794 1.543182 -87.565970
-62.666663 -96.358890 3.571116 -62.749181
-50.157066 -112.183329 7.627202 -48.702119
-48.998279 -76.582930 4.190116 -48.755868
-50.426368 -78.890030 4.212884 -51.104402
-79.582258 -119.996782 3.487560 -79.832021
-62.648992 -95.350764 5.173029 -62.309073
-83.012612 -99.922266 -17.220299 -72.816976
-61.683846 -95.174099 3.207169 -61.835793
-54.198055 -85.107176 -1.415568 -54.544115
-67.403465 -103.182615 3.112782 -67.614104
-50.786092 -75.435257 -7.804789 -48.909541
-72.863624 -109.845863 -4.599288 -72.807882
-49.581500 -95.015017 -4.261559 -43.378955
-47.776327 -74.960004 4.219784 -47.525728
-81.923942 -122.931659 3.905282 -82.113444
-34.299968 -56.539743 3.366765 -34.641835
-34.111045 -55.840900 4.084640 -34.054121
-78.105933 -117.912622 -3.109014 -78.398361
-69.541548 -102.066958 8.245939 -68.054242
-54.668583 -100.564957 10.176175 -46.570062
-51.381728 -97.081329 10.117690 -44.538917
-51.499075 -104.675650 16.154485 -46.852417
-50.086696 -85.115665 5.824283 -40.560708
-52.435687 -103.073909 10.899800 -46.652879
-62.892047 -96.834840 2.571228 -63.151086
-43.330254 -68.794068 -3.872554 -45.551925
-54.647598 -80.905611 7.664758 -52.976968
-72.002328 -109.494524 -2.668679 -72.313470
-53.158446 -82.856150 3.432428 -53.171234
-56.583949 -80.979243 9.337261 -53.826372
-60.957013 -91.909789 6.010287 -60.269819
-65.920722 -99.754639 3.921572 -65.006214
-44.284105 -91.409393 6.232308 -40.708049
-55.299387 -83.504025 6.335653 -54.352838
-58.819246 -84.971212 8.971588 -56.049699
-58.164582 -84.526404 8.660173 -55.722910
-45.851463 -90.812022 11.096603 -40.999046
-38.360090 -88.329566 7.431131 -38.006897
-41.684311 -96.008839 10.890048 -41.307945
-40.676689 -89.136193 7.862906 -38.943864
-50.333884 -101.842573 15.303278 -45.652937
-44.858175 -93.342730 9.966223 -41.460272
-46.872648 -105.569341 14.675237 -45.732597
-42.731161 -92.811719 9.908899 -40.662864
-39.177552 -108.757264 13.806820 -44.380445
-41.348643 -111.527242 11.950972 -45.862766
-43.582205 -101.725047 14.698505 -43.592176
-43.276623 -109.926945 13.169292 -45.961070
-42.857199 -102.455866 13.293173 -43.593919
-41.970864 -105.999923 14.488477 -44.391236
-42.951345 -96.972941 13.180033 -41.977286
-45.158192 -108.126382 13.113640 -45.985372
-44.534733 -106.874176 12.262900 -45.422673
-45.187349 -103.252698 12.927974 -44.532014
-43.985527 -102.121751 11.610620 -43.832184
-45.546286 -107.405652 12.054993 -45.885581
-46.599294 -104.794060 9.971636 -45.418006
-41.154512 -95.142660 9.907929 -40.889152
-39.728512 -91.758797 9.752008 -39.446193
-42.584097 -97.237586 11.368705 -41.946505
-41.896692 -96.654654 10.519477 -41.565404
-55.542502 -81.121458 8.375404 -53.464817
-36.228130 -90.392342 6.521899 -37.986142
-39.536601 -90.420089 9.316434 -38.987007
-40.937739 -95.864294 9.425494 -41.040610
-63.116875 -85.927753 11.641905 -58.656569
-45.904403 -106.083810 10.391197 -45.596464
-38.423558 -89.469334 8.271207 -38.367868
-43.396878 -99.783769 9.235511 -42.954194
-43.499857 -100.231364 10.067786 -43.119366
-36.844824 -91.517032 6.917764 -38.508557
-43.015311 -100.662677 9.814220 -43.103397
-45.709349 -103.714682 9.438960 -44.827209
-41.981503 -99.275740 9.528504 -42.377173
-36.369696 -91.103015 7.284473 -38.241813
-40.076825 -95.951543 8.778827 -40.808510
-35.879839 -94.394519 8.650370 -39.082307
-36.603122 -94.738688 8.408792 -39.402543
-46.075049 -67.237521 8.278889 -43.578917
-37.094702 -90.213197 7.500393 -38.192370
-72.507110 -95.136647 13.779315 -66.463213
-34.968490 -90.847109 6.990520 -37.744680
-40.667214 -94.746915 8.924248 -40.624239
-39.817676 -94.940465 8.216228 -40.427442
-34.499136 -86.052013 6.394646 -36.165345
-35.132827 -85.189055 6.481586 -36.096565
-39.651002 -95.282140 8.397574 -40.479943
-37.529425 -94.621047 8.020091 -39.645142
-33.845655 -84.568075 5.141704 -35.524119
-49.838766 -72.170305 8.664710 -47.247674
-38.918786 -87.251942 6.633469 -37.851218
-43.344289 -65.673809 6.814706 -41.778190
-32.461119 -85.286432 3.912306 -35.324265
-67.266785 -89.766221 12.697386 -62.005458
-65.791798 -91.224515 11.248170 -61.983373
-50.680203 -72.252585 9.245099 -48.016652
-40.344178 -61.795818 6.466726 -38.878040
-71.830751 -93.464111 13.911013 -65.490489
-42.179325 -63.783477 6.931693 -40.485707
-44.872918 -65.917904 8.017555 -42.606703
-45.157574 -66.873220 7.725687 -43.040730
-46.559722 -69.959811 7.082967 -45.105607
-64.558247 -86.049834 12.451862 -59.296970
-50.934381 -73.428478 8.854332 -48.717066
-63.486729 -87.179934 11.405174 -59.326339
-37.835055 -60.371673 4.670637 -37.566099
-51.952003 -76.500137 7.959686 -50.217748
-57.755663 -80.937715 10.268677 -54.271655
-36.244034 -83.901367 7.359219 -36.043621
-33.799095 -84.904516 6.307322 -35.611083
-52.184265 -75.329801 8.835079 -49.817866
-47.409026 -68.494556 8.646155 -44.710788
-41.250175 -92.118653 9.962587 -40.010648
-38.478772 -88.085651 8.175579 -37.969327
-37.795263 -86.526443 8.020449 -37.296512
-40.111990 -91.351113 9.528522 -39.438931
-57.866934 -82.086346 9.761020 -54.833807
-57.572650 -90.458423 0.255150 -58.008060
-36.246064 -85.950980 8.195374 -36.659113
-59.160907 -83.780025 9.899520 -56.091608
-60.538213 -87.277243 9.186381 -58.113895
-58.923628 -83.674186 9.799728 -55.931512
-44.572727 -68.895131 5.700098 -43.696464
-56.505557 -84.594380 6.965164 -55.285897
-77.530354 -116.749775 -4.077636 -77.638652
-36.973618 -60.065899 3.644218 -36.737123
-54.815309 -86.635251 -0.832694 -55.226028
-59.015020 -91.860287 1.215245 -59.405287
-42.946775 -63.090761 7.974898 -40.549570
-12.561669 -27.350054 -1.291212 -14.902192
-40.897194 -62.113494 6.781788 -39.249724
-50.056440 -73.221717 8.263027 -47.799163
-37.634302 -50.812529 9.326130 -33.109007
-36.329861 -57.453689 5.346537 -35.366958
-40.208034 -60.738253 6.999385 -38.381639
-36.742282 -56.084199 6.731840 -34.946025
-53.905883 -76.872542 9.405248 -50.941186
-52.295173 -76.442534 8.349090 -50.076430
-55.324657 -80.433089 8.654394 -53.034191
-39.794965 -61.591744 6.040844 -38.564225
-45.235756 -67.689263 7.308938 -43.419816
-40.344334 -61.216844 6.921030 -38.590242
-49.925682 -73.789738 7.829925 -47.963320
-48.082227 -71.456782 7.580852 -46.209152
-49.564343 -74.080977 7.306374 -47.935118
-43.380765 -66.470004 6.291712 -42.131898
-36.760979 -57.846285 5.636036 -35.697099
-23.940265 -18.843235 -3.219738 -12.835050
-41.284967 -63.159517 6.556796 -39.812118
-33.213704 -63.252564 7.686403 -28.939880
-48.611366 -71.566654 7.985861 -46.476193
-46.445438 -70.023230 6.945578 -44.917707
-29.143023 -40.464194 2.899083 -23.970497
-44.125010 -65.834907 7.522881 -42.124221
-38.094677 -59.550317 5.721711 -36.989461
-39.232093 -59.561949 6.927328 -37.420755
-44.189093 -56.844608 -2.234287 -36.476609
-39.624347 -62.829022 5.425561 -38.770852
-39.685673 -57.421802 4.798891 -35.389972
-26.038643 -43.074149 4.926774 -24.976500
-31.845557 -25.460091 -1.188475 -17.191694
-22.511627 -41.259607 -0.363809 -23.174772
-13.475864 -16.382983 6.261810 -8.957654
-8.894820 -20.875519 2.868994 -8.931102
-17.079238 -39.288297 3.692048 -16.910260
-21.101836 -68.284715 5.377628 -26.815965
-28.204287 -60.426720 2.739267 -26.589302
-17.934510 -56.898622 4.630476 -22.449940
-26.191287 -33.193103 3.367655 -19.257980
-26.148187 -68.611332 1.016883 -28.427856
-44.963923 -65.821870 8.104823 -42.535474
-30.917252 -48.079248 6.258004 -29.157999
-21.474084 -39.444279 2.993755 -21.236546
-32.672135 -54.994415 2.066985 -32.785142
-33.458605 -56.498443 -1.276152 -33.693206
-25.169987 -37.871350 5.143167 -21.449750
-34.483749 -54.656638 5.529328 -33.370245
-41.342566 -62.833045 6.861261 -39.685785
-31.195152 -50.067812 5.435093 -30.035850
-30.238844 -42.941468 7.525761 -26.237932
-33.201351 -132.775741 11.629712 -49.793128
-48.184841 -77.193606 -0.191323 -48.581292
-30.635796 -44.616527 7.725391 -27.489215
-40.210847 -63.313923 5.291895 -39.397881
4.105743 -2.850186 2.300179 0.376667
-72.436760 -88.354796 15.361645 -63.551374
-22.169650 -101.903165 -22.335617 -37.221845
-69.835174 -87.993630 14.427897 -62.316367
-60.778135 -92.656733 5.857346 -60.187353
-73.847409 -112.540345 -1.497335 -74.308210
-3.422561 -125.255534 -16.179321 -38.603428
-11.237312 -85.833800 5.795152 -29.121334
-49.682012 -69.623607 9.808740 -46.052995
-4.521480 -12.499854 4.007456 -5.106400
-34.794732 -70.899536 -27.130788 -31.708280
-1.723857 -67.688589 -8.899269 -20.823734
-0.280971 -52.926833 -24.374796 -15.962341
-10.942495 -22.534882 3.975248 -10.043213
-33.375523 -113.644719 -9.204647 -44.106073
-33.124688 -55.896373 -1.867584 -33.279327
-22.545874 -87.336036 -8.666776 -32.964573
-45.757229 -74.115820 -0.084175 -46.180745
-64.236926 -92.019528 9.778329 -61.595070
-33.683308 -54.191820 5.083000 -32.793917
-23.261348 -40.573544 4.062142 -22.603062
-26.188708 -81.182494 5.072210 -32.211361
-35.430708 -59.460942 -0.454048 -35.753034
-48.793143 -96.558959 -11.407627 -43.605630
-27.044351 -84.035921 5.191716 -33.324082
-55.294770 -87.143951 1.062013 -55.712273
-56.971723 -86.165768 6.142495 -56.150012
-46.381633 -69.220748 7.408927 -44.619508
-61.432143 -90.996882 7.497321 -60.078601
-54.369009 -82.883335 5.718631 -53.671799
-63.391024 -98.302013 -0.133395 -63.867847
-62.830087 -97.582250 0.371270 -63.309985
-46.186638 -74.383339 0.612456 -46.549360
-51.283921 -81.283499 2.051001 -51.941735
-40.434896 -89.683864 -7.483339 -39.035628
-56.161172 -88.203715 1.878805 -56.519271
-55.379420 -87.137402 0.621665 -55.794282
-41.769853 -93.266980 -2.470603 -40.511050
-57.999395 -90.804131 0.058814 -58.433904
-50.158956 -79.947728 -0.246421 -50.576847
-75.905319 -120.781047 -25.333392 -59.005910
-47.843497 -85.989656 -7.708659 -40.149946
-44.190098 -86.715259 -2.362438 -39.271607
-47.477362 -91.735373 -9.469865 -41.763820
-59.090253 -92.098378 -1.981280 -59.952432
-45.325505 -84.922099 -8.075741 -39.074281
-47.599248 -76.222950 -1.455542 -47.928393
-65.129151 -101.927370 -14.704854 -50.116956
-50.591440 -87.509251 -3.099960 -41.430207
-52.946524 -86.771482 -8.204435 -41.915402
-56.473941 -89.176465 -4.234907 -43.695122
-78.413299 -99.855843 -15.447398 -70.825893
-52.008271 -98.158008 -4.975875 -45.049883
-44.083303 -81.564869 -5.600183 -37.694452
-42.599972 -80.443268 -1.462388 -36.912972
-37.227249 -83.154162 -4.321567 -36.114423
-20.992461 -89.105425 -0.940573 -33.029366
-53.514798 -86.592642 -8.313793 -42.032232
-32.356402 -76.175816 -2.514491 -32.559666
-33.972957 -76.158222 -1.584499 -33.039354
-24.344725 -71.518063 -1.367890 -28.758837
-32.316808 -72.898885 -1.034363 -31.564708
-27.001869 -78.947007 -1.281038 -31.784663
0.433481 -58.256056 2.217602 -17.346773
-16.169720 -72.563825 -17.227454 -26.620064
-29.712023 -78.538536 -6.965462 -32.475168
-59.055057 -89.016559 6.578530 -58.124161
-36.126272 -59.217900 3.579239 -35.900141
-21.673310 -73.067277 -3.222129 -28.422176
-23.402745 -105.485377 -18.380225 -38.666437
-19.191086 -65.451792 0.835176 -25.392864
-24.853390 -74.054373 -2.017584 -29.672329
-20.905058 -75.912249 -9.769358 -29.045192
-13.827182 -62.863922 -6.901429 -23.007331
-13.264992 -70.013493 -1.067044 -24.983545
-17.379924 -72.190282 -5.817559 -26.871062
0.502842 -73.937987 11.949539 -22.030543
-5.670534 -18.515992 0.082019 -7.255958
-89.346467 -133.248856 4.466378 -89.506379
-21.305068 -38.652712 3.153238 -21.002948
-6.888249 -108.977246 20.550404 -34.759648
75.118484 75.884499 0.627584 77.166990
11.769830 -50.775848 6.402618 -11.701805
-6.456393 -55.214971 7.471233 -18.501409
22.534737 -73.855453 2.406763 -15.396215
5.285392 -69.207221 7.458158 -19.176549
12.294557 -66.125309 6.242859 -16.149226
0.276693 -62.911883 2.702808 -18.790557
-97.033954 -142.218654 7.201107 -96.539610
21.526187 8.976638 -43.864111 9.150847
-75.074565 -111.195141 7.205446 -74.219121
7.601071 -72.450156 3.945813 -19.454725
-5.880053 -40.964522 -5.969819 -14.053373
-8.227625 -20.643842 2.579111 -8.661440
-2.979998 -49.341584 -6.859479 -15.696475
15.226214 -71.625386 1.158889 -16.919752
35.746183 -43.976673 6.731544 -2.469147
35.854652 -75.009503 13.250925 -11.746455
-91.481154 -108.293679 18.681975 -79.953751
99.807638 -12.534299 -11.198521 26.182002
-7.965983 -67.765059 -3.878997 -22.719313
-3.904066 -78.874569 -4.492976 -24.833591
-8.140196 -44.847453 3.342781 -15.896295
0.710655 -64.237228 6.516944 -19.057972
-5.846229 -71.701461 -2.289104 -23.264307
-2.804668 -82.950243 -6.008995 -25.726473
-8.691483 -45.240986 6.958549 -16.179741
-9.852216 -44.412994 10.698219 -16.279563
0.651997 -49.203911 -1.322436 -14.565574
-4.889734 -57.896285 2.643678 -18.835805
-3.864456 -49.043221 7.300690 -15.872303
-14.076889 -41.725008 6.913092 -16.740569
-2.790610 -51.198437 4.404093 -16.196714
-10.265860 -38.804959 5.158455 -14.721246
-6.746336 -44.466556 4.219302 -15.363868
-4.928443 -41.102109 1.775221 -13.809166
-8.839956 -42.701980 1.779266 -15.462581
-7.653177 -30.315543 3.350068 -11.390616
-8.380576 -31.377104 3.556371 -11.927304
-2.025953 -6.573156 -1.326714 -2.579733
-8.123987 -34.289054 3.158577 -12.723912
-8.921869 -31.493680 3.850415 -12.124665
-9.637469 -44.774297 7.485909 -16.323530
-11.630694 -37.301678 5.870218 -14.679712
-7.825897 -33.608589 4.262833 -12.430346
-8.597549 -21.667905 1.940766 -9.079636
-16.251970 -42.617680 9.166095 -17.660895
-8.436903 -46.531974 9.662740 -16.490663
-7.133587 -52.513727 9.370880 -17.894194
-6.820339 -43.683113 7.388672 -15.151036
-9.437665 -55.156742 10.369216 -19.378322
32.359898 -62.871422 3.392986 -9.153457
-0.805683 -59.758457 8.801179 -18.169242
-9.816563 -53.514304 9.254378 -18.999260
-47.828752 -63.925426 10.616512 -42.939852
-9.447062 -53.795938 14.585102 -18.972900
-6.250088 -61.871389 14.517462 -20.436443
-6.651347 -62.848903 12.313653 -20.850075
-4.760827 -4.788739 5.081350 -3.855037
-10.689166 -70.249464 16.311459 -24.281589
-20.561042 -21.922719 7.656830 -13.755727
-7.439575 -36.189680 15.981796 -13.088777
-16.213873 -48.034734 3.838489 -19.274582
-21.131307 -48.738708 10.259960 -20.961005
-17.707996 -21.673144 7.165842 -12.456413
-16.145599 -48.548046 6.624204 -19.408094
-16.604270 -20.683861 6.975853 -11.573077
-14.769981 -38.580205 5.803497 -16.005056
-14.036679 -38.273151 5.934848 -15.692949
-10.086058 -23.614187 1.555215 -10.110074
-15.510361 -34.121941 6.377025 -14.889691
-8.666364 -38.417309 7.493930 -14.125102
-14.974286 -27.857288 3.878343 -12.849472
-8.942304 -27.170962 3.062391 -10.833980
-9.247841 -27.144090 2.604360 -10.917579
-0.703103 -6.941727 -2.004350 -2.293449
-15.799367 -30.204076 3.405832 -15.244751
-13.110742 -20.103954 3.076924 -9.964409
-7.770982 -20.643468 -1.068844 -8.524335
-6.984020 -18.766272 2.285539 -7.725088
-3.155030 -13.786694 1.575126 -5.082517
-4.366079 -14.670922 2.611773 -5.711101
-0.461064 -10.188136 0.059347 -3.194760
-1.957851 -12.786003 0.158086 -4.423156
3.287097 -2.459981 -1.398244 0.248135
1.506312 -6.642610 -1.167859 -1.540889
2.811380 -1.968236 -1.006924 0.252943
1.961161 -1.537486 -0.473105 0.127103
2.531355 -1.999337 -0.654964 0.159605
1.859999 -7.140211 1.145049 -1.584063
-2.286412 -12.733347 1.532229 -4.505928
-1.947082 -12.763994 -0.346706 -4.413323
1.201654 -6.857208 0.187984 -1.696666
-5.651383 -12.746271 0.153945 -5.519296
2.806104 -2.413818 -0.613659 0.117686
-6.963581 -19.384039 1.305035 -7.904286
-3.203065 -7.297180 -0.199116 -3.150074
-3.557675 -14.490403 -1.396346 -5.414423
-4.278047 -11.604044 -1.023189 -4.764627
-0.888457 -7.232480 -0.469819 -2.436281
3.049500 -2.086863 -1.100268 0.288791
0.972798 -7.996663 -1.685740 -2.107159
4.552244 -1.774697 -1.927421 0.833264
4.328952 -1.439570 -2.760416 0.866815
-0.470718 -1.904395 -0.844408 -0.712534
-8.982374 -21.745828 2.043800 -9.218460
-6.727722 -17.455453 1.236092 -7.254952
0.922182 -1.261621 -1.514051 -0.101832
-5.208778 -12.336407 0.250787 -5.263556
-1.488808 -1.903750 -0.483564 -1.017767
-7.760856 -19.503395 1.830884 -8.179275
-12.781137 -33.096289 5.559979 -13.763228
-6.408241 -15.114348 0.909889 -6.456777
-9.897163 -24.019539 2.867797 -10.175011
-8.997873 -22.247607 1.252959 -9.373644
-13.310926 -26.548175 3.258603 -11.957730
-6.092441 -12.813474 0.057155 -5.671775
-6.978019 -16.176025 0.217807 -6.946213
-13.065212 -39.446948 7.539747 -15.753648
-11.925076 -31.541305 5.009612 -13.039914
-9.123896 -28.808391 3.901179 -11.379686
-11.950500 -31.470327 5.119657 -13.026248
-10.792709 -29.449706 3.881205 -12.072724
-10.461122 -24.312128 2.759991 -10.431975
-9.117072 -22.391204 2.185298 -9.452483
-6.270591 -17.358029 1.111026 -7.088586
-9.405336 -27.280274 3.146064 -11.005683
-9.102076 -22.264018 2.349174 -9.409828
-7.855223 -25.822862 3.145423 -10.103426
-8.355589 -30.415580 3.903856 -11.631351
-4.276421 -13.676656 -0.269017 -5.385923
-6.710099 -20.504912 1.920528 -8.164503
-5.749122 -10.574907 -0.012768 -4.897209
-9.906023 -18.536831 4.902807 -8.532856
-5.088601 -18.717261 2.218768 -7.141759
-10.206616 -37.404725 3.137639 -14.283402
-5.153626 -15.399034 0.105571 -6.165798
-7.087502 -20.554979 2.060449 -8.292744
-5.368258 -14.982513 0.200469 -6.105231
-3.784409 1.697380 2.742438 -0.626109
-8.828876 -21.583378 2.243662 -9.123676
-5.704833 -15.585905 0.191368 -6.387221
-7.976754 -20.987306 1.924237 -8.689218
-5.098272 -10.443787 -0.292773 -4.662618
-5.161724 -10.746528 -0.080577 -4.772476
-5.542330 -11.466053 0.219890 -5.102515
-4.429249 -6.021155 -0.215537 -3.135121
-6.186807 -16.644377 0.550300 -6.849355
-5.320608 -11.505955 0.025812 -5.047969
-2.490280 -1.964008 0.043020 -1.336286
-5.563686 -10.915736 -0.096296 -4.943827
-4.119455 -6.265207 -0.295962 -3.115399
-4.093762 -6.273178 -0.346348 -3.110082
-5.335545 -6.292789 0.043448 -3.488500
-3.188996 -2.181419 0.335947 -1.611125
-6.151376 -6.142865 0.630014 -3.688272
-5.961828 -2.663931 1.335188 -2.587728
-5.128705 -5.598822 0.204213 -3.218258
-4.838693 -5.924912 -0.166876 -3.229082
-4.837667 -1.907473 0.869479 -2.023542
-5.734880 -9.785028 0.520714 -4.655973
-5.106564 -13.459780 0.590490 -5.569903
-5.500730 -0.092593 1.308597 -1.677997
-4.908927 -7.214488 2.445752 -3.637024
-3.868834 -24.608136 1.864583 -8.543091
-12.298466 -5.888389 4.694658 -5.456057
-5.537017 -5.812775 1.733538 -3.404937
-3.414321 -4.205034 4.820416 -2.285806
-2.431382 -3.695679 4.680021 -1.838118
-12.011077 -9.413242 5.819194 -6.427296
-8.468573 -12.941999 5.523954 -6.423172
-5.075754 -14.853931 3.212433 -5.978906
-6.301459 -5.582889 5.393445 -3.565304
0.624976 -3.926525 3.897787 -0.990465
0.250279 -3.464731 4.105423 -0.964335
-10.275787 -19.577123 4.784538 -8.955873
-1.017044 -7.901406 3.566927 -2.675535
-4.561415 -8.351732 0.015598 -3.873944
-2.009938 -18.434244 0.459079 -6.133255
-1.031270 -2.737659 4.444271 -1.130679
-2.760582 -9.466246 -0.530262 -3.668048
14.553916 14.083776 1.929582 12.420201
-2.646604 -6.065702 4.513732 -2.613692
-22.788832 -33.849978 6.898194 -19.712479
-13.028666 -23.092430 5.082640 -11.098130
-9.828505 -20.967848 3.814665 -9.238906
2.732059 1.472164 4.060409 1.261267
5.233236 -1.030000 2.358065 1.260971
-7.730629 -13.532046 5.432588 -6.378803
-4.549446 -11.754378 4.242649 -4.891147
-3.924643 -7.434704 5.057197 -3.407804
-33.063741 -49.150788 7.478505 -30.434117
4.080455 -4.084848 1.129149 -0.001318
6.647318 3.903631 3.314740 3.165285
-14.101416 -26.382165 4.376360 -12.902208
-49.737196 -54.323054 12.564347 -39.595008
-16.191931 -26.503348 5.950902 -13.717142
-10.786580 -13.618091 6.229605 -7.321401
-2.622920 -12.696239 2.091252 -4.595748
23.563439 23.486065 0.504167 23.026246
-11.929033 -37.108503 2.970854 -14.711261
-14.698578 -28.912299 3.639497 -14.068411
-39.831627 -61.437156 6.615107 -38.296250
-39.568463 -52.915735 9.717342 -34.772685
-3.759699 -17.163380 1.103503 -6.276924
13.346566 9.081158 1.303138 8.776260
-19.364573 -35.703057 3.164951 -19.009669
-4.911333 -24.165991 3.454228 -8.723197
-6.228333 -24.999723 3.369852 -9.368417
-7.635236 -25.355347 4.703458 -9.897175
-9.112237 -28.863860 4.286607 -11.392829
-9.377464 -36.766990 3.910451 -13.843336
-8.465411 -29.436532 3.918813 -11.370583
-9.758295 -34.151529 4.121689 -13.172947
-7.501786 -25.052462 3.896654 -9.766274
-10.703125 -33.263479 4.073797 -13.189981
-8.235210 -29.200089 4.267206 -11.230590
-8.827518 -32.481535 3.716146 -12.392716
-12.260319 -33.613731 3.910918 -13.762215
-8.904633 -28.714560 4.560438 -11.285758
-9.602208 -32.488218 3.590352 -12.627128
-11.492606 -37.936626 3.185058 -14.828770
-10.057538 -40.336544 1.344952 -15.118225
-11.492908 -36.754421 3.419870 -14.474199
-12.067768 -43.280268 3.353192 -16.604411
-8.447015 -37.068480 1.879868 -13.654648
-11.102751 -44.046400 2.177008 -16.544745
-7.493508 -32.939887 0.212411 -12.130018
-7.291763 -52.878090 4.217728 -18.050956
-6.408588 -46.904434 0.523234 -15.993906
-6.435801 -40.126715 0.224812 -13.968755
-3.420664 -41.456540 2.262319 -13.463161
-10.206860 -42.936680 2.712339 -15.943062
-6.789228 -40.732973 -2.153137 -14.256660
1.562415 -38.034000 -7.254210 -10.941475
0.885862 -39.467832 -3.661593 -11.574591
0.902332 -42.801130 -2.170664 -12.569639
-8.854923 -45.831772 3.634554 -16.406009
-5.936685 -41.683649 -5.812462 -14.286100
-11.105025 -60.358651 9.441355 -21.439103
-5.054158 -47.590952 6.754644 -15.793533
7.015154 -43.131265 -3.499735 -10.834833
-10.181806 -56.566586 3.579874 -20.024518
-0.022151 -8.494549 2.539234 -2.555010
9.062309 3.651958 2.145397 3.814280
-42.239521 -68.117019 2.808560 -42.289063
3.472585 -3.346912 2.893748 0.037702
20.009902 20.509026 1.018715 19.246527
-9.824143 -37.713895 2.771626 -14.261411
-28.692480 -45.896074 5.703673 -27.252659
-18.954869 -33.890996 4.423833 -17.976662
-40.240870 -57.172152 8.710984 -36.878751
-15.503065 -31.729368 1.322488 -15.612119
-14.156063 -105.506388 8.128798 -35.898735
-7.305579 -14.709597 4.821979 -6.968623
17.334874 16.430114 1.436376 15.418029
17.799741 15.534032 1.164661 15.073453
-14.387332 -52.567051 7.911191 -20.086315
28.637618 28.671076 0.010389 28.531620
-19.836212 -80.855453 7.709530 -30.207500
-4.169018 -44.313200 13.817242 -14.544665
-35.207206 -58.898028 6.055871 -28.231570
-33.154880 -61.270623 5.245761 -28.327651
-32.378287 -58.932947 7.686619 -27.393370
-23.614237 -43.933884 5.208290 -20.264436
-36.409541 -62.910848 1.971765 -29.796117
-32.544795 -55.996521 4.921848 -26.562395
-32.798263 -54.819293 7.652957 -26.285267
-24.886955 -59.880574 4.549338 -25.430259
-26.347917 -49.294158 6.408113 -22.692623
-26.145288 -47.061781 7.118280 -21.962121
-28.129701 -48.724358 6.386968 -23.056218
-31.177881 -53.580644 8.556909 -25.427558
-30.757427 -53.952890 7.588928 -25.413095
-32.500988 -58.059199 7.803091 -27.168056
-29.912886 -54.844565 6.107081 -25.427235
-29.902071 -51.865693 8.157759 -24.530329
-30.519818 -50.840938 6.951177 -24.408227
-33.900108 -56.938248 8.095547 -27.251507
-37.238443 -56.049519 8.200002 -27.986389
-36.647530 -57.510672 7.102967 -28.247461
-33.138142 -52.199988 6.401787 -25.601439
-28.797718 -46.728703 7.639482 -22.657926
-43.019762 -61.669228 7.322736 -31.406697
-35.176881 -52.336241 6.711997 -26.253937
-22.730150 -36.022752 6.343842 -17.625871
-26.726015 -46.336046 7.695485 -21.918618
-21.542948 -35.712293 5.959622 -17.176572
-21.033568 -37.436496 5.458045 -17.541019
-28.147920 -48.354349 7.000924 -22.950681
-29.538724 -50.875542 7.437568 -24.124280
-25.914196 -45.925340 6.297101 -21.551861
-28.242165 -49.118546 8.042611 -23.208213
-25.812067 -45.727294 6.406126 -21.461808
-30.220613 -51.828217 8.571308 -24.614649
-21.978853 -41.984477 5.926676 -19.188999
-24.204165 -44.278128 7.005280 -20.544688
-24.683943 -41.420744 6.659804 -19.831406
-17.010130 -30.819830 5.506979 -14.348988
-22.600341 -41.969407 6.524946 -19.370924
-18.298934 -31.011496 5.256761 -14.793129
-15.025584 -30.402437 4.056227 -13.628406
-14.318760 -31.678217 4.390634 -13.799093
-19.624610 -35.365543 5.024677 -16.497046
-13.635783 -24.191634 3.802786 -11.348225
-12.885515 -25.000002 4.781269 -11.365655
-5.007446 -10.922419 -0.617748 -4.778960
-17.260921 -36.957228 4.853482 -16.265445
-19.441130 -38.639256 6.164759 -17.424116
-17.313075 -36.378504 4.191812 -16.107474
-18.861892 -36.648358 5.536210 -16.653075
-23.651069 -45.826409 5.680612 -20.843243
-4.275253 -12.483090 -1.152539 -5.027503
-12.432182 -33.593710 1.644274 -13.807768
-12.850057 -32.783310 4.039321 -13.690010
-15.275868 -36.267253 4.613762 -15.462936
-20.050867 -39.157809 3.899357 -17.762603
-14.293495 -35.026864 2.920743 -14.796107
-17.649942 -38.970810 3.753438 -16.986225
-26.135556 -52.850535 5.210071 -23.695827
-21.394003 -39.931325 4.501160 -18.397598
-28.955054 -50.505149 6.078353 -23.838061
-25.405737 -45.003440 6.088113 -21.122753
-17.440755 -41.546042 7.910464 -17.696039
-20.766301 -55.038607 6.681352 -22.741472
-22.583063 -48.963585 5.066827 -21.463994
-16.179056 -33.799552 3.368830 -14.993582
-20.361718 -41.018906 5.376526 -18.414187
-22.785385 -45.515387 4.978859 -20.490232
-15.492556 -47.482519 5.886169 -18.892522
-10.134587 -29.602829 1.365356 -11.921225
18.756639 -22.402034 12.565496 -1.093618
-38.705530 -62.993239 -2.781652 -38.720553
-2.093415 -34.525720 2.429896 -10.985740
-3.252078 -27.984929 4.637392 -9.371102
7.107440 -18.932464 9.968116 -3.547507
-10.372751 -31.735926 2.917693 -12.632603
-2.419098 -8.808082 4.011960 -3.368154
-7.563165 -28.845166 1.619872 -10.922500
-4.993401 -11.145106 0.101885 -4.841552
-5.286079 -22.815264 5.836137 -8.430403
-18.141170 -34.959432 1.402272 -18.252220
-23.875660 -43.160141 -0.452172 -24.120580
-5.091258 -15.496853 2.746080 -6.176433
-3.292916 -26.095656 5.096686 -8.816572
-20.575213 -37.736901 2.604490 -20.425644
7.847228 2.235166 -1.933184 3.024718
-5.093746 -16.580929 1.629715 -6.502403
-5.015085 -15.402978 2.748808 -6.125419
4.775342 -3.401411 0.504347 0.412179
-17.084813 -31.874722 3.550312 -16.492984
-13.281916 -25.811431 3.914210 -12.356499
-4.982778 -10.110352 2.474321 -4.527939
-2.604631 -10.570430 0.035237 -3.952518
8.881948 4.272401 -2.156246 3.946305
0.237950 -8.190838 2.447312 -2.385866
-6.948077 -15.568166 4.230364 -6.754873
-7.706802 -10.965391 5.486996 -5.601658
1.926922 -21.007061 8.824614 -5.724042
-10.474981 -20.008148 4.682228 -9.144939
-11.872240 -20.911405 5.171401 -9.835094
-1.954266 -28.893581 15.525556 -9.254354
-4.372815 -11.582387 0.824446 -4.786561
-3.260180 -6.946636 -0.389663 -3.062045
-6.650269 -6.144710 -0.032206 -3.838493
-11.710352 -13.427064 4.735423 -7.541225
-5.014085 -2.907382 -1.492015 -2.376440
5.093491 0.266163 -2.913985 1.607896
1.427285 -0.184242 -2.328410 0.372913
-3.992046 -1.921466 -0.461342 -1.774054
-3.280841 -6.310671 0.395362 -2.877454
-1.206122 -0.734610 -0.554015 -0.582219
-3.292860 -2.256311 0.806510 -1.664751
-3.276311 -2.216287 0.294909 -1.647779
-3.300008 -11.456676 -0.658661 -4.427005
-3.936541 -6.733536 0.675661 -3.201023
-3.613776 -11.717222 -0.546578 -4.599300
-3.825616 -6.546127 0.416405 -3.111523
-8.178758 -31.533945 9.852613 -11.913811
-4.258260 -10.423621 1.038779 -4.404564
-8.559941 -29.695327 5.221853 -11.476580
-3.144835 -10.472342 -0.109317 -4.085153
-3.533121 -27.584710 4.312728 -9.335349
-12.430538 -32.576516 3.732438 -13.502116
-12.318989 -26.822319 4.373178 -11.742393
-7.558192 -29.127982 4.704237 -11.005852
-6.424385 -31.758433 8.228707 -11.454845
-6.247461 -15.910036 0.012135 -6.647249
-13.814979 -33.449371 7.370510 -14.179305
-9.624578 -25.615875 5.774189 -10.572136
-5.864368 -16.269672 -0.464870 -6.640212
-3.320276 -6.725156 0.213382 -3.013630
-9.541616 -22.988120 0.734996 -9.758921
-10.032180 -23.366963 2.510737 -10.019743
-19.802482 -33.139500 5.746745 -15.882595
-13.877325 -29.759821 3.667059 -13.091144
-6.328511 -10.816806 2.576081 -5.143595
-5.865082 -14.961919 -0.866862 -6.248100
-14.760015 -16.029854 4.577015 -9.236961
-19.003064 -26.776192 6.905548 -15.174315
-11.125083 -18.795121 5.423746 -8.976061
-11.273568 -5.585209 2.885623 -5.057633
-19.391142 -29.727982 6.372992 -16.572455
-5.429809 -11.792276 4.623013 -5.166626
-14.491175 -27.832014 2.819458 -12.696957
-6.174725 -16.226046 -0.647473 -6.720231
-8.175149 -7.625963 1.599494 -4.740333
-5.385875 -14.005313 0.605892 -5.817356
-3.891145 -10.991977 -0.147045 -4.464936
-4.755466 -3.526579 1.255908 -2.484614
-6.154594 -16.124896 -0.461982 -6.683847
-5.964008 -11.812689 -0.236121 -5.333009
-3.023731 -2.119943 0.695064 -1.543102
-4.032887 -6.749680 0.198990 -3.234770
-6.934091 -7.573328 0.912760 -4.352226
-3.537019 -1.545102 0.798700 -1.524636
-6.366340 -11.030637 0.177236 -5.219093
-7.475799 -4.399730 1.679501 -3.562659
-5.378052 -6.680710 0.274263 -3.617629
-5.858501 -10.949157 -0.009962 -5.042297
-5.754085 -5.169477 0.950999 -3.277068
-2.488513 2.281726 0.412414 -0.062036
-1.865357 -7.102784 4.187854 -2.690442
-8.851570 -7.673010 3.648169 -4.957374
-8.436389 -16.624077 4.715976 -7.518140
-5.744811 -8.157332 5.201504 -4.170643
2.549724 -0.957733 3.718505 0.477597
-14.131785 -25.136888 4.999864 -12.398000
-14.620349 -10.948235 6.022430 -7.670575
-2.189549 -3.269354 4.677454 -1.637671
-1.576101 -3.950930 4.526377 -1.658109
-10.415487 -9.240341 5.830864 -5.896748
-4.997871 -6.936689 5.136272 -3.580368
1.774078 0.208847 4.098513 0.594878
6.430455 -1.153777 -0.574023 1.583003
-8.513808 -11.229256 5.775945 -5.922919
-8.381991 -21.371864 1.441917 -8.926156
11.273406 6.366725 -1.370317 6.086899
-0.600658 -6.832789 3.676983 -2.230034
-2.167028 -9.112525 3.782925 -3.383866
-17.268777 -24.287719 6.807950 -13.337764
0.362807 -5.097642 3.777202 -1.420450
-10.912977 -17.218597 5.757279 -8.439472
-31.894536 -41.030439 9.103282 -26.545579
-5.767200 -7.631528 5.349438 -4.019618
-10.802263 -18.890402 5.324585 -8.907799
-9.392420 -22.972900 -0.776171 -9.709596
-8.773932 -4.629317 -1.970904 -4.020975
11.325334 8.559782 -2.192040 7.458862
2.217535 0.179295 -3.596938 0.719049
-8.199243 -0.908301 3.352242 -2.732263
-9.876808 -2.435377 3.648017 -3.693655
-9.033019 -1.652299 0.074286 -3.205595
-11.348425 -6.985463 5.270275 -5.500166
-9.194096 -5.318623 5.043499 -4.353816
-14.163355 -5.474052 3.843814 -5.891222
-14.866420 -22.367306 2.741701 -11.955551
-13.598490 -8.258833 1.844209 -6.557197
-10.366111 -7.015918 -0.152110 -5.214609
-9.852433 -3.053245 2.420511 -3.871703
-14.423877 -14.381461 0.884492 -8.641601
-7.996904 -9.764409 -1.240887 -5.328394
-4.344931 0.200191 -0.734708 -1.243422
4.715532 1.451082 3.437424 1.849984
-20.947620 -32.764234 6.286140 -18.464984
6.709280 3.268537 2.949379 2.993345
3.177825 -1.736692 3.277215 0.432340
-15.537195 -18.278300 6.819119 -10.144649
-9.062400 -12.803273 5.685517 -6.559702
-5.781802 -9.436717 5.135452 -4.565555
-23.534271 -25.475479 8.130211 -16.534002
-24.591867 -40.083844 5.578048 -19.402713
-24.979816 -40.137499 6.267700 -19.535194
-28.253520 -44.484979 5.685615 -21.821550
-24.864037 -36.880186 7.408216 -18.523267
-27.397083 -31.961592 8.838909 -20.791935
-11.727542 -16.860060 6.101098 -8.576281
-20.772381 -28.525973 2.225768 -16.921250
-11.209177 -15.698696 6.131339 -8.072362
-14.741128 -15.312134 3.186540 -9.015979
-30.434966 -51.531081 2.549955 -30.416188
-40.608651 -44.971437 10.948381 -31.921618
-32.469513 -36.655215 9.615616 -24.983496
-25.850972 -29.251617 8.560492 -19.057549
-28.704456 -23.900692 8.130990 -18.085879
-31.806981 -45.373399 5.129409 -23.154114
-26.267554 -39.848942 6.855441 -19.834949
-27.772227 -40.000508 6.150926 -20.331820
-27.720562 -24.128626 8.218387 -17.735254
-27.666507 -36.647526 7.608398 -19.294210
-30.331668 -46.179366 7.357610 -22.953310
-38.575826 -39.610052 10.533640 -28.824912
-32.951940 -32.179278 9.339339 -22.974789
-32.002008 -32.307615 9.345534 -22.679668
-35.375849 -38.493088 10.193238 -26.896077
-18.580014 -18.749839 7.263852 -11.699061
-50.558201 -51.270654 11.053654 -37.442204
-17.756989 -20.193495 7.235143 -11.832739
-19.141997 -14.809919 6.655341 -11.325477
-23.585589 -24.905746 5.661142 -16.732210
-28.899140 -35.030005 8.968738 -22.752535
-32.292448 -43.299661 4.617445 -27.695632
-17.050524 -34.328958 16.821325 -15.413845
-17.213393 -19.786168 7.181486 -11.409882
-23.461992 -26.251507 8.216345 -16.742791
-16.719394 -21.106108 7.054124 -11.736056
-22.874466 -29.776612 4.813392 -18.497192
-18.406919 -20.244725 7.102456 -12.850258
-20.191821 -20.293703 3.966145 -13.043589
-8.825303 -3.621675 4.527520 -3.734093
-11.479328 -6.354509 5.043559 -5.350151
-14.473762 -17.623455 4.879446 -9.723115
-26.228898 -30.695326 6.391846 -20.080224
-13.531383 -14.920805 6.437295 -8.535657
-15.396892 -8.995499 4.466375 -7.317717
-13.795639 -8.944797 5.548700 -6.822131
-11.403158 -7.771682 5.489007 -5.752452
-21.203177 -26.637466 7.621191 -16.645422
-14.540368 -13.808317 6.502706 -8.504606
-24.993813 -23.376289 8.114764 -16.245677
-14.245551 -12.483346 6.331710 -8.018669
-22.790839 -34.245352 15.734151 -17.110857
-26.865759 -35.352050 16.007549 -18.665343
-13.665355 -19.149600 6.117351 -10.188884
-27.271629 -32.720450 10.471652 -17.997624
-23.779697 -30.021529 14.208154 -16.140368
-30.187041 -40.401773 14.925422 -21.176644
-20.886011 -23.216391 7.701434 -14.854003
-26.162260 -32.774282 12.001988 -17.680963
-17.704433 -16.939618 7.012192 -10.485475
-25.536684 -23.095323 3.412216 -14.589602
-24.777717 -25.296121 8.273166 -16.980504
-11.158339 -10.316074 5.979178 -6.442324
-20.042863 -11.422141 0.204414 -9.439501
-28.758057 -23.487371 8.032719 -17.892915
-23.887570 -19.576690 7.435413 -14.198089
-25.569703 -18.034603 16.592857 -13.081292
-32.422069 -45.974026 14.427254 -23.518829
-31.818715 -45.787003 12.971815 -23.281715
-30.132149 -40.465619 11.900340 -21.179330
-33.224249 -51.064062 17.702186 -25.286493
1.657175 7.464600 2.111088 2.736532
-40.430698 -57.025653 20.701451 -29.236905
-37.191934 -46.204606 16.007947 -25.018962
-39.327916 -56.181346 20.298270 -28.652779
-57.393284 -70.371324 13.178004 -49.585892
-33.008986 -46.986908 17.803166 -23.998768
-37.459591 -47.347619 19.458036 -25.442163
-48.950115 -52.474251 23.908108 -30.427310
-32.814743 -48.009335 15.450738 -24.247223
-30.961750 -38.118517 13.371622 -20.724080
-35.969572 -33.392463 9.754664 -25.102193
-40.793346 -43.855018 11.002434 -31.512619
-29.571163 -44.467267 20.728179 -22.211529
-32.978356 -22.165002 23.451302 -16.543007
-49.703507 -53.056769 12.463290 -39.138630
-28.812521 -25.284000 8.516944 -18.593233
-66.132690 -61.780992 14.517498 -49.665841
-70.520690 -69.307280 15.671007 -54.652810
-53.251590 -63.150616 12.733995 -44.903365
-37.069845 -50.095129 9.220092 -32.593701
-59.547620 -61.231288 14.011990 -46.730714
-41.109705 -45.723764 11.027840 -32.449735
-59.567232 -57.509785 13.700039 -45.163990
-48.546090 -54.211427 12.237283 -39.154116
-56.491976 -57.159663 13.431337 -43.746621
-40.281918 -37.539998 10.464738 -28.642799
-77.479229 -69.685186 15.752086 -57.782902
-22.169683 -18.994063 7.398678 -13.788971
-29.446193 -30.457641 9.106786 -21.073362
-21.198220 -15.281949 6.599516 -12.248981
-21.675417 -27.211202 7.796867 -16.398951
-49.652881 -57.082724 12.422402 -40.747016
-22.661791 -26.905871 8.082552 -16.653778
-24.158594 -39.129010 22.878447 -18.986281
-47.902773 -53.065710 12.236210 -38.320339
-32.133719 -37.275339 9.577664 -25.064454
-42.272050 -51.970339 10.941781 -35.473797
-52.240913 -56.760242 12.966964 -41.696628
-64.301777 -59.886803 14.155396 -48.148391
-34.355675 -32.698468 9.609487 -24.136860
-43.185018 -47.847472 11.430480 -34.167972
-57.482145 -57.781629 13.587994 -44.400697
-39.479867 -46.480304 10.692120 -32.030132
-46.562646 -49.099139 11.949750 -36.132648
-33.941733 -48.691688 6.734603 -24.790026
-43.217349 -45.159448 11.337311 -33.111073
-43.912279 -44.977432 11.402095 -33.331930
-51.892016 -55.095106 12.758702 -40.594073
-46.799343 -47.238072 10.423198 -34.174299
-33.559051 -31.862272 9.473553 -23.450029
-44.823550 -41.959033 10.495056 -31.678557
-39.707831 -37.259811 10.375887 -28.246970
-41.809576 -57.382077 5.077851 -29.757496
-41.874531 -64.194409 6.063472 -31.820682
-40.035122 -37.492792 10.415856 -28.462073
-49.743113 -60.495903 5.363269 -33.071705
-35.799738 -57.712031 8.814718 -28.053531
-38.007374 -58.598947 7.784594 -28.981896
-35.825082 -49.306418 6.644047 -25.539450
-39.166351 -56.037001 5.480299 -28.561005
-34.124400 -59.721807 7.861196 -28.153862
-39.114045 -66.038085 7.998073 -31.545639
-34.108607 -56.891161 8.481693 -27.299930
-40.679163 -66.579920 6.395914 -32.177725
-47.085999 -71.057652 6.959238 -45.588822
-37.460628 -63.675433 7.273809 -30.340818
-35.659046 -65.146253 6.205741 -30.241590
-45.806565 -69.180666 6.962301 -44.252398
-42.788510 -65.174538 6.678013 -41.301675
-39.635872 -62.123889 5.452695 -38.976605
-34.283616 -62.062233 5.736082 -28.903755
-38.969265 -60.456479 6.074556 -37.706762
-41.415107 -64.096676 6.006696 -40.300221
-65.740103 -92.496172 10.618784 -62.495903
-38.062639 -61.215907 7.841825 -29.783564
-36.983558 -60.820029 7.981625 -29.341076
-42.387882 -66.727589 6.086132 -32.734641
-38.887889 -62.155833 5.561748 -30.313117
-39.579459 -61.245589 6.128348 -38.305472
-42.043303 -64.782796 7.859317 -32.047830
-37.854996 -60.368809 3.503211 -36.669330
-50.363435 -74.686077 11.972729 -37.514854
-53.837694 -79.563213 7.833455 -52.038669
-45.628029 -69.235211 6.675783 -44.229629
-54.791890 -81.171946 7.745958 -53.099786
-45.770334 -70.163668 6.125177 -44.683542
-47.364420 -69.672606 8.021578 -45.145381
-43.382408 -66.431036 6.327966 -42.112547
-46.339001 -69.044152 7.506054 -44.443460
-47.374868 -71.704216 6.737101 -46.004085
-43.636106 -67.877972 5.494060 -42.812784
-50.976920 -75.613868 7.675026 -49.165750
-47.078334 -70.159536 7.523632 -45.213345
-50.694787 -77.421837 5.981681 -49.937671
-64.849513 -91.300453 10.556131 -61.599265
-59.345537 -88.748524 7.028099 -58.195967
-49.116150 -76.280203 4.884511 -48.652025
-45.562316 -69.222657 6.667043 -44.555841
-49.250813 -63.898115 9.462380 -42.176516
-25.077697 -43.831409 3.021791 -25.638428
-48.318615 -68.622687 1.437126 -35.082391
-39.861355 -69.358481 7.498238 -32.765951
-45.993578 -65.877423 6.474840 -41.643680
-48.388259 -56.120703 8.186437 -36.962937
-41.671258 -41.575482 10.625096 -30.427812
-48.285404 -49.115611 11.079394 -35.864949
-46.275876 -45.953719 11.686923 -34.736148
-46.306770 -45.369038 11.631637 -34.205399
-48.031809 -59.432257 10.924653 -40.384318
-38.401095 -51.967361 8.491489 -33.176445
-47.857528 -43.879019 11.487848 -34.517235
-45.326971 -47.879804 10.824709 -34.218302
-50.692756 -62.740065 11.979371 -43.540922
-50.357182 -42.716111 11.133437 -35.078702
-45.528333 -61.733281 10.058282 -41.059947
-40.027421 -53.813040 9.612164 -35.405687
-40.746114 -49.851475 10.643295 -34.030951
-43.274945 -48.205341 11.363941 -34.419769
-25.052268 -43.762219 3.021684 -26.517303
-23.828039 -43.144733 -0.171330 -24.293244
-58.412940 -76.682846 12.199869 -52.715896
-58.653725 -81.725188 10.623084 -54.928523
-59.853591 -83.141076 10.766291 -56.070640
-52.047265 -74.696464 9.163686 -49.207616
-92.889573 -117.332362 17.467307 -84.354793
2.529880 -2.386798 -3.418599 0.042925
-72.885222 -106.114860 8.734724 -71.223345
-42.170778 -66.113514 5.182073 -41.446254
-64.659488 -93.345690 9.235120 -62.393582
-36.450470 -56.085645 6.521365 -34.792960
-24.961151 -84.041015 2.816468 -32.700650
-86.006571 -106.822757 16.963351 -77.043526
-49.013841 -72.764106 7.678580 -47.125038
-48.674415 -66.276041 10.358493 -44.257080
-49.391648 -69.834860 9.440128 -46.532780
-31.645084 -89.847404 6.704295 -36.447746
-78.268042 -101.040536 14.938507 -71.367875
-61.558058 -86.473967 10.441475 -58.192160
-29.662513 -85.626827 4.312205 -34.586802
-32.264413 -85.856607 3.972591 -35.436306
-83.807011 -106.943355 15.972012 -76.185610
-44.849014 -63.580918 9.084173 -42.494067
-13.968924 -85.387554 1.296747 -29.806944
-48.789054 -68.317500 9.690101 -45.409050
-5.641045 -87.445593 4.684203 -27.925991
-92.794998 -118.358028 17.142352 -84.770524
22.246837 -79.435227 0.801943 -17.156517
-39.478233 -55.276325 8.979061 -36.572804
-24.832606 -94.297242 5.128843 -35.738955
-18.053036 -82.153062 -0.337429 -30.061829
-22.467652 -90.583964 9.568849 -33.915485
-30.442503 -94.094073 4.829605 -37.360973
-42.019616 -98.672688 9.725172 -42.207691
-29.077182 -89.411849 6.531969 -35.546709
-34.226653 -90.955841 7.434601 -37.554748
-26.073827 -89.102610 2.614664 -34.552931
-40.599323 -95.471954 10.004064 -40.821383
-43.251069 -98.246398 9.769492 -42.449240
-42.278166 -95.820879 12.620164 -41.429714
-26.563861 -92.223671 6.249117 -35.636260
-32.837071 -94.537378 11.972815 -38.212335
-47.949419 -95.888642 10.546556 -43.151418
-37.667651 -90.161198 13.824271 -38.348655
-50.042901 -100.099806 10.143826 -45.042812
29.616487 -91.438324 -9.275457 -18.546551
-33.588612 -110.042952 0.147509 -43.089469
-59.372939 -84.011667 10.083039 -56.205117
-66.904295 -102.101442 -3.339683 -67.060506
-38.527706 -166.095308 19.138499 -61.386904
-38.121677 -54.231724 8.594287 -35.350713
-39.242974 -56.853496 8.293279 -36.289463
-86.706535 -109.373194 16.705273 -78.394700
-34.063525 -49.674217 7.894121 -31.063653
-35.019235 -52.258608 7.446700 -32.567750
-45.823354 -64.129260 9.514719 -42.134000
-64.010195 -86.810014 11.982842 -59.313567
-54.683530 -80.251640 8.176732 -52.693125
-57.076181 -86.896584 5.514372 -56.509319
-57.938743 -85.922636 7.608544 -56.421940
-54.553368 -75.105441 10.677395 -50.407348
-48.470193 -69.209419 9.133752 -45.395897
-52.032872 -70.308278 10.907144 -47.324996
-34.184920 -53.101543 6.292587 -32.669812
-52.785645 -71.072720 11.022337 -47.994835
-29.063633 -44.762212 6.688340 -26.950535
-21.899754 -33.265343 6.715551 -19.694851
-73.454291 -91.568370 15.213030 -65.278873
-73.086415 -76.014927 16.286856 -58.640344
-87.894918 -80.950468 17.636127 -66.931068
-55.971489 -60.683866 22.854534 -34.996606
-36.500997 -33.279555 9.810062 -25.224824
-32.558785 -38.880535 9.543583 -25.979802
-71.389334 -64.267564 14.875264 -52.936560
-54.118315 -70.197824 23.253625 -37.294842
-65.055561 -79.495216 14.347126 -56.661069
-47.317927 -58.062831 11.679730 -40.185555
-83.580311 -67.031917 14.322019 -59.223059
-44.059836 -38.818037 10.719878 -30.717363
-49.283924 -66.831005 10.531634 -44.724212
-45.944378 -62.177846 10.167301 -41.396837
-30.658113 -34.053553 9.466299 -23.021596
-63.723786 -102.367532 42.315465 -49.827395
-43.431574 -55.888710 10.601450 -37.693797
-46.263071 -59.822451 10.892075 -40.556501
-49.023284 -52.564651 12.353669 -38.647618
-35.671573 -39.543156 10.230851 -27.482230
-69.289154 -102.317214 50.261967 -51.481910
-21.481179 -20.260066 7.703419 -13.377143
-54.724993 -72.959037 31.182368 -38.305209
-34.172122 -55.469763 22.075196 -26.892566
-21.884693 -11.589794 4.766558 -10.042346
-10.167357 -6.077559 5.245469 -4.873475
0.020790 6.139338 2.301681 1.848039
-57.289585 -72.889938 31.425005 -39.053857
-51.948122 -77.562557 28.368948 -38.853204
-51.636394 -77.555326 28.822407 -38.757516
-56.057278 -63.176099 24.876323 -35.770013
-56.379225 -70.536001 34.317853 -38.074568
-30.828613 -52.133869 15.605753 -24.888745
-40.195567 -73.174540 37.277783 -34.011032
-37.871538 -53.165576 19.054888 -27.311134
-46.905667 -59.945282 25.905826 -32.055285
-40.737620 -52.125013 19.015758 -27.858790
-42.605662 -60.921925 24.563150 -31.058276
-29.301061 -59.771103 20.392404 -26.721649
-32.842114 -48.984893 15.720049 -24.548102
-31.192977 -33.207801 9.388199 -23.009139
-24.432022 -44.357800 11.357150 -20.636946
-12.949131 -11.199212 6.128653 -7.264429
-30.785670 -50.019077 15.845059 -24.241424
-31.296122 -41.173403 8.822306 -26.394303
-31.122929 -53.175137 16.381993 -25.289420
-29.372648 -35.714299 8.982369 -23.302269
-38.979405 -42.974275 10.687618 -30.393941
-44.413942 -69.346810 28.303825 -34.128225
-49.929200 -68.225308 33.916595 -35.446352
-39.983606 -80.462876 25.923827 -36.133945
-34.302491 -58.600473 17.849683 -27.870889
-47.876758 -63.804654 32.711324 -33.504424
-50.657544 -65.569289 31.957016 -34.868050
-39.150165 -65.160491 30.619976 -31.293197
-51.759606 -66.765781 42.094934 -35.557616
-54.168393 -78.949471 41.055665 -39.935359
-55.105708 -78.054970 41.913170 -39.948204
-41.312335 -56.578258 9.457766 -37.112117
-45.901505 -74.874008 33.568126 -36.232654
-41.653496 -51.524010 10.695997 -35.146536
-25.240536 -61.423713 17.137200 -25.999275
-59.630612 -58.052663 13.812746 -45.378386
-40.420280 -48.975296 10.660301 -33.521798
-48.029544 -49.452843 12.107448 -36.933397
-68.386371 -65.450314 28.250440 -40.151006
-98.216968 -133.864738 18.972852 -69.624512
-92.918805 -121.664089 23.686652 -64.374868
-97.364663 -137.828696 19.726198 -70.558008
-98.801059 -115.214099 21.745444 -64.204547
-98.076374 -125.608280 15.601092 -67.105396
-109.174655 -114.865826 14.000705 -67.212144
-106.750317 -129.855531 12.562727 -70.981754
-116.042503 -143.970343 3.595916 -100.887869
-100.079845 -119.143129 15.441806 -65.766892
-126.199883 -122.191076 18.652783 -74.517288
-97.747339 -111.881102 22.094317 -62.888532
-110.882239 -123.902039 13.558748 -70.435284
-98.471082 -130.122629 19.572877 -68.578113
-101.437650 -127.023376 17.293143 -68.538308
-96.511867 -123.324687 21.012283 -65.950966
-104.013344 -121.940863 17.355792 -67.786262
-91.961660 -117.356989 23.148522 -62.795595
-94.480612 -99.187619 26.538130 -58.100469
-86.499549 -111.207717 25.827646 -59.312180
-95.765321 -118.140290 19.731535 -64.171683
-75.873933 -106.825127 28.889055 -54.809718
-97.861264 -119.749424 20.676994 -65.283206
-81.237826 -102.622712 30.003484 -55.158161
-80.662723 -108.121840 27.521669 -56.635369
-84.476740 -105.808299 27.817538 -57.085512
-90.459266 -104.110751 25.841562 -58.371005
-69.927767 -97.354327 32.775430 -50.184628
-80.838509 -100.550455 30.180940 -54.416689
-90.688728 -108.936156 25.895217 -59.887465
-91.583067 -113.580462 24.079855 -61.549059
-106.021608 -117.429585 18.576623 -67.035358
-91.045557 -111.730206 23.798599 -60.832729
-96.491574 -113.209593 20.658906 -62.910350
-98.311942 -110.755049 22.539811 -62.720097
-97.858934 -104.080141 18.709066 -60.581723
-98.090780 -106.932013 21.760160 -61.506838
-100.086296 -112.710880 17.697962 -63.839153
-63.671238 -70.386916 14.754648 -52.306671
-79.876544 -88.116895 31.990992 -50.398032
-92.067920 -101.962955 24.257671 -58.209262
-95.919759 -90.694035 21.931869 -55.984138
-101.102586 -107.898694 20.878707 -83.905099
-96.082466 -90.711790 19.208879 -74.522124
-100.247311 -78.615920 38.446549 -53.658970
-105.769480 -104.948450 21.307890 -84.612722
-101.763768 -93.286331 19.595442 -78.009699
-100.691675 -93.873235 19.733606 -77.794122
-99.194021 -114.912556 17.971326 -64.231973
-99.502220 -103.484802 20.593019 -81.351620
-97.991859 -91.702576 19.359417 -75.754204
-108.894582 -100.962542 20.886079 -84.233074
-107.002315 -105.560302 21.458746 -85.383449
-96.970300 -90.509220 38.587433 -56.243856
-97.545185 -93.484670 19.612520 -76.323623
-94.877777 -89.148300 18.948401 -73.355642
-97.075766 -91.043006 19.265577 -75.079267
-110.950714 -103.299890 21.273918 -86.089231
-97.686893 -91.070854 19.266407 -75.353854
-102.928239 -115.688049 16.969061 -65.584886
-105.454416 -119.871583 10.657089 -67.597800
-102.997190 -118.891879 19.090527 -66.566721
-105.299990 -119.911033 20.005474 -67.563307
-123.383258 -111.796529 22.582300 -94.898777
-115.339591 -112.813852 22.708403 -91.935313
-119.121700 -118.351654 23.507575 -95.847986
-101.693347 -102.606446 20.763094 -81.929825
-106.858482 -20.946535 42.372076 -38.341505
-92.949561 -92.484597 19.242686 -73.982021
-118.706111 -97.763828 36.268725 -64.940982
-118.199792 -73.251731 43.837844 -57.435457
-116.426419 -110.078522 43.042484 -67.951482
-116.376829 -106.681440 35.512030 -66.917481
-100.944575 -51.119280 39.394747 -45.619156
-101.288812 -69.012346 36.257261 -51.090348
-107.681418 -103.899706 47.009923 -63.474337
-108.890504 -76.574471 43.947952 -55.639492
-102.939680 -115.043437 50.461326 -65.394935
-114.786690 -135.990500 48.588525 -75.233157
-108.731750 -120.744909 44.612405 -68.842998
-62.647738 -71.006163 14.479655 -52.216738
-136.390703 -120.595039 30.741405 -77.095723
-132.577781 -129.627814 39.695508 -78.661678
-120.636456 -141.337077 40.441556 -78.592060
-129.266677 -160.787278 46.227586 -87.016186
-112.160230 -154.860734 43.891899 -80.106289
-139.092198 -148.425516 43.353460 -86.255314
-118.604539 -35.689406 58.315660 -46.288183
-158.147471 -186.116036 28.911870 -140.864767
-113.709288 -72.033703 53.224319 -55.722897
-54.312662 -37.702192 8.220014 -35.321539
-102.902876 -50.779193 38.781137 -46.104621
-82.595458 -51.859581 30.939010 -40.336512
-75.980867 -43.831065 32.267093 -35.943580
-81.438092 -149.475368 30.139455 -69.274038
-73.498648 -74.613086 16.220259 -58.256846
-87.221082 -41.876356 40.594373 -38.729231
-108.833196 -165.442956 45.806078 -82.282846
-130.588348 -235.468512 51.948904 -109.817058
-93.038757 -94.428810 19.394301 -74.840513
-61.007147 -65.195007 14.306335 -49.025130
-85.194952 -80.661986 17.519732 -65.729527
-85.496411 -72.697006 15.786335 -62.511979
-73.293129 -102.422537 29.382533 -52.714700
-95.822830 -186.496483 26.111627 -84.695794
-75.352045 -134.528452 18.459069 -62.964149
-84.079822 -87.020898 18.036477 -67.934313
-74.247465 -75.796331 16.363859 -59.073237
-69.504291 -61.686369 14.329777 -51.223152
-13.753797 -15.711109 6.567327 -12.102915
-59.412860 -59.567223 13.870754 -46.125214
-38.704394 -47.059032 10.379735 -32.158122
-68.041542 -71.260087 15.438131 -54.544675
-32.789806 -26.790706 8.548451 -23.061902
-26.816751 -40.783085 6.783702 -25.745819
-46.674835 -93.846003 27.289621 -42.156251
-53.122558 -59.711191 12.986051 -43.377138
-46.496274 -97.718370 19.375588 -43.264393
-72.151445 -160.837334 20.170079 -69.896634
-87.322786 -86.261080 43.044666 -52.075160
-71.443433 -108.326696 47.607922 -53.931039
-5.497174 -97.006013 45.369330 -30.750956
-67.760744 -113.657091 41.335627 -54.425350
-88.068273 -110.193141 49.051356 -59.478424
-101.339736 -117.828106 52.676115 -65.750352
-91.109733 -149.583272 32.602524 -72.207902
-82.652270 -105.884408 44.906197 -56.561003
-93.531477 -107.333545 42.636566 -60.259507
-98.813595 -78.492016 37.256915 -53.191683
-87.700134 -86.280642 34.204519 -52.194233
-96.903988 -101.091381 47.212411 -59.398611
-115.958827 -124.723668 23.317427 -97.240817
-105.685073 -122.392746 21.119634 -91.929705
-74.718611 -99.173140 44.191308 -52.167525
-94.916271 -80.826688 38.511987 -52.722888
-83.793135 -110.623693 37.518627 -58.325048
-85.999323 -82.398570 32.432955 -50.519368
-82.835753 -113.493750 13.026648 -78.390241
-79.661584 -101.717226 15.366763 -72.275687
-59.064342 -81.386919 10.890636 -55.043171
-108.445657 -108.965073 36.844103 -65.223219
-77.645564 -102.273618 14.191977 -71.636313
-67.145115 -96.772025 9.322202 -64.915243
-65.147719 -90.130780 11.229626 -61.288255
-51.472104 -71.637890 10.029540 -47.714507
-66.381717 -85.446309 13.486708 -59.761754
-57.175752 -84.885412 7.479446 -55.752394
-56.524415 -85.480041 6.203055 -55.673607
-64.051576 -91.885173 8.175930 -60.616099
-53.392554 -77.868365 8.407171 -51.287120
-57.877699 -83.971545 8.748265 -55.631163
-63.409562 -86.045697 11.782379 -58.826256
-74.347564 -101.278815 12.615051 -69.848508
-5.180039 -133.338635 26.596695 -41.555602
-79.862032 -80.235006 17.236191 -63.277710
-78.462203 -95.880652 16.149604 -69.307928
-73.691439 -88.976414 15.674677 -64.359350
-22.139616 -22.809516 7.898975 -16.308843
-47.681747 -68.160592 8.981898 -44.663425
-62.258383 -52.730091 12.678168 -44.310594
-39.008802 -33.498636 9.762693 -26.388634
-50.921870 -61.985225 12.205933 -43.409860
-79.193421 -79.227346 17.108585 -62.561868
-58.075118 -62.488879 13.862213 -46.618295
-68.121857 -65.018962 14.971183 -51.920673
-48.442420 -75.684136 4.381600 -48.143194
-55.083893 -80.624292 8.309884 -53.029797
-47.809709 -58.896705 11.617584 -40.837900
-55.029460 -83.512295 6.054481 -54.206863
-55.298753 -83.108833 6.774414 -54.153801
-48.973270 -64.970967 10.874227 -43.835064
-65.119366 -81.885551 13.783564 -57.798422
-40.045778 -38.095884 10.554632 -28.753566
-74.169835 -89.171228 15.776670 -64.664687
-50.371687 -47.762247 12.128222 -37.197017
-75.183632 -75.457550 16.460668 -59.303756
-65.507434 -16.979255 35.383514 -24.746007
-45.442595 -43.721004 11.453905 -33.408379
-56.989056 -59.434672 13.643786 -44.884605
-91.271866 -111.144533 18.112003 -81.096782
-41.112411 -38.625885 10.631819 -29.592861
-14.421479 -15.891206 6.643982 -9.878070
-35.334754 -34.461421 9.911418 -25.241762
-32.769309 -70.164499 20.814143 -30.880142
-24.124874 -24.771602 8.214963 -17.159448
-58.203356 -70.246548 13.326368 -49.988604
-83.675496 -96.018848 17.761391 -71.543254
-51.542342 -74.772608 8.623641 -49.081856
-54.338363 -68.285155 12.316023 -47.531350
-60.787031 -84.910147 10.579355 -57.238233
-56.549047 -62.695477 13.536591 -46.110773
-59.337470 -75.652651 12.772783 -52.740235
-59.280099 -77.480686 12.301667 -53.483606
-47.050935 -71.206553 6.723348 -45.676014
-63.600771 -87.794270 11.230661 -59.631431
-67.397425 -103.294018 2.431234 -67.728568
-63.876965 -98.843735 -0.292576 -64.361277
-51.534253 -81.220286 1.963400 -51.836985
-34.804434 -57.979187 -2.012133 -37.557114
-70.305826 -91.495539 13.731901 -64.021554
-34.746872 -58.364534 0.366785 -36.447407
-63.761759 -96.787600 5.070856 -63.469597
-59.263347 -76.341638 12.589024 -52.996163
-51.492946 -76.358989 7.644552 -49.724397
-57.271663 -76.663441 11.540410 -52.296292
-30.645555 -66.645464 16.352010 -29.187306
-69.574605 -73.639181 67.553447 -42.964136
-17.399994 -33.984313 -1.816718 -19.430039
-66.952582 -86.096426 13.575680 -60.346659
-34.513970 -75.209577 30.505863 -32.917064
-50.745870 -84.781092 36.807089 -40.658088
-39.490462 -76.311934 32.419167 -34.740719
-41.224683 -59.092126 42.781385 -30.095043
-39.225784 -70.178156 37.694730 -32.821182
-62.397149 -77.189666 13.722926 -54.621819
-54.855275 -76.260539 36.625598 -39.334744
-67.435122 -82.313096 34.612568 -44.924465
-32.843015 -49.129137 43.608323 -24.591646
-53.812289 -58.266639 36.630547 -33.623678
-32.366103 7.135134 58.274785 -7.569291
-37.591066 -22.112478 47.891016 -17.911063
-74.856700 -73.647814 16.242354 -58.432701
-49.903669 -67.102331 10.644909 -45.157113
-70.985539 -76.613475 15.933866 -58.047459
-61.958965 -87.030048 10.337919 -58.183844
-91.109694 -93.254788 19.146090 -73.516680
-82.443616 -77.219247 16.962998 -63.129003
-103.196559 -108.080713 21.200033 -84.863994
-127.509350 -121.564750 49.199699 -74.722230
-61.385223 -64.149139 14.340688 -48.746631
-83.535717 -77.128986 31.196358 -48.199411
-115.405371 -129.410635 23.056792 -98.955117
-87.230345 -87.425123 18.395782 -69.419427
-66.163668 -60.418816 38.037464 -37.974745
-54.160052 -67.699037 40.150305 -36.557727
-99.294043 -116.719232 19.954299 -86.817557
-52.858681 -51.648061 40.625620 -31.352023
-61.989027 -75.437699 13.872506 -53.719770
-72.887779 -88.875342 15.436609 -63.959207
-62.742384 -95.211395 34.496339 -47.386134
-67.436738 -91.240368 33.682748 -47.603132
-58.056992 -92.005180 33.884370 -45.018652
-60.180692 -89.500252 36.383325 -44.904283
-70.463853 -94.745935 33.845755 -49.562937
-63.147135 -100.593819 31.434787 -49.122286
-79.062554 -89.831894 30.956014 -50.668335
-80.352035 -94.751895 31.498490 -52.531179
-61.838911 -99.998958 31.652197 -48.551361
-70.816459 -104.178261 30.119929 -52.498416
-71.700563 -101.262602 31.540740 -51.888950
-70.558030 -103.494478 30.525696 -52.215752
-55.381755 -97.742924 32.237693 -45.937404
-49.763006 -92.846812 32.713050 -42.782946
-55.122115 -91.229321 35.490736 -43.905431
-63.946949 -98.993228 32.609627 -48.882053
-57.304990 -95.859669 33.961916 -45.949398
-61.345497 -97.510166 32.816637 -47.656699
-50.848084 -93.097461 34.137556 -43.183664
-45.672152 -86.253899 34.696561 -39.577815
-49.591553 -88.364044 33.894501 -41.386679
-40.282888 -77.412870 30.087771 -35.308728
-43.648661 -80.036158 35.496116 -37.105446
-41.247626 -80.566134 32.917093 -36.544128
-46.674742 -75.164550 38.857802 -36.551788
-48.874600 -84.879636 33.484059 -40.126271
-41.710540 -77.618219 30.812141 -35.798628
-42.475128 -80.711376 32.449791 -36.955951
-37.277608 -75.768561 33.726935 -33.913851
-40.517075 -78.919198 31.800803 -35.830882
-45.298901 -90.089462 32.905933 -40.616509
-46.268768 -86.053583 34.909701 -39.696705
-46.590925 -93.103936 33.437897 -41.908458
-46.511444 -89.723080 34.089041 -40.870357
-45.395228 -88.312831 34.024311 -40.112418
-44.934528 -85.398627 32.719706 -39.099947
-43.137978 -66.969023 33.943396 -33.032100
-38.819702 -71.567091 26.927882 -33.116038
-40.785966 -72.626775 27.413593 -34.023822
-47.449370 -76.918749 32.174284 -37.310436
-35.738808 -35.593751 10.075106 -26.124253
-53.702616 -72.047246 31.985481 -37.724959
-40.520931 -65.344885 24.169708 -31.759745
-43.929149 -50.138395 21.737852 -28.220263
-61.133785 -61.133890 14.150618 -47.362199
-59.987473 -56.854954 13.666949 -45.033796
-31.270510 -70.617358 25.428699 -30.566360
-36.745693 -52.462471 16.861156 -26.762449
-40.574412 -70.181056 29.255373 -33.226641
-44.617786 -81.222923 32.418278 -37.752213
-35.940590 -75.454968 22.315597 -33.418667
-38.148931 -63.527720 23.370933 -30.502995
-29.484769 -81.634791 34.618506 -33.335868
-28.746713 -64.475539 18.821203 -27.966675
-36.591520 -76.137893 27.697956 -33.818824
-33.359324 -75.942696 32.729324 -32.790606
12.461470 7.040007 0.084250 7.122711
-28.614261 -72.188792 25.271988 -30.240916
-6.783560 -17.406895 3.290797 -9.729901
-23.513925 -66.141868 36.768395 -26.896738
-30.435038 -39.224572 8.862589 -25.218997
-21.786810 -74.243030 26.620339 -28.808952
-29.367692 -50.223546 -2.561237 -29.357586
-8.012853 -9.507202 5.609904 -5.256016
-64.508731 -91.549160 10.147137 -61.572613
-15.340280 -54.731490 11.163841 -21.021531
-12.533209 -27.462982 0.780774 -16.077626
-15.504776 -69.293895 13.043587 -25.439601
-7.217460 -20.097413 -0.927518 -11.054825
-25.932386 -88.377937 24.536280 -34.293097
-42.915032 -38.760661 5.743166 -26.596503
-32.728274 -44.245838 8.725030 -28.309712
-31.404040 -29.398280 9.129038 -21.567023
-32.311958 -34.874973 11.387720 -20.156079
-54.220960 -52.096512 12.821453 -40.633225
-44.234792 -47.427801 2.458550 -29.350510
-27.444234 -46.225713 4.027439 -26.897685
3.771926 -2.282009 2.852014 0.446975
-39.513966 -36.457406 4.524496 -24.346246
-31.234664 -33.951608 13.679255 -19.555882
-37.799511 -29.565185 8.785486 -24.240106
-56.513838 -27.285712 42.925081 -25.139865
-39.580520 -39.320181 9.015231 -23.670210
-53.022059 -45.919957 10.245173 -36.240824
-30.411642 -33.748821 9.266789 -22.914424
-53.484471 -43.851017 11.153604 -36.843500
-42.377913 -42.464742 11.106496 -31.611744
-20.317422 -37.825482 1.859262 -21.395861
-37.933189 -45.316861 5.147520 -27.622389
-41.416816 -48.698658 8.816735 -32.119182
-65.493272 -69.488546 15.073183 -52.690728
-26.213204 -41.248164 6.116284 -24.553594
-48.645286 -66.447474 10.235989 -44.339969
-48.985990 -54.710922 12.342980 -39.516795
-50.454448 -52.385086 12.567795 -39.150586
-34.338338 -43.424673 7.361765 -27.023745
-49.846394 -54.295999 12.517312 -39.695906
-39.139328 -42.757378 10.730518 -30.357245
-31.865197 -29.741120 9.169048 -21.906900
-45.086800 -37.871273 10.349224 -30.812793
-19.159646 -22.361855 -0.971338 -12.457887
-30.768251 -34.304573 6.717391 -21.217498
-41.560658 -55.035314 9.992711 -36.564675
-29.303989 -28.841372 8.931900 -20.585845
-23.159648 -25.984674 12.952409 -14.743297
-34.596125 -37.971915 19.112119 -21.770412
-29.030354 -36.594031 13.221582 -19.687316
-42.051995 -47.601129 18.731006 -26.895937
-16.001178 -16.970557 11.780980 -9.891520
-26.058994 -30.338071 14.273954 -16.919120
-35.993702 -39.876244 13.218799 -22.760984
-32.325348 -44.400606 12.347110 -23.017786
-21.854785 -28.625073 7.625163 -17.120427
-18.183436 -15.501566 6.808686 -10.105501
-20.465421 -17.769370 7.184485 -12.169927
-24.408746 -27.139541 8.322955 -17.564253
-19.780849 -21.169571 14.567553 -12.285126
-23.699649 -25.335586 8.189554 -16.511328
-17.380785 -20.366394 15.318204 -11.324154
-22.795788 -25.418365 8.051587 -16.168199
-17.986931 -19.690934 7.240354 -11.745278
-11.126545 -8.348281 5.660642 -5.842448
-15.364638 -16.352043 6.791948 -9.515004
-18.900620 -19.830959 7.377958 -12.178121
-7.432117 -5.097851 5.133627 -3.758990
-11.909880 -9.507920 5.865754 -6.425340
-8.405735 -20.945795 13.178392 -8.805459
-6.482595 -2.142131 3.727518 -2.587418
-10.092527 -5.446790 4.497908 -4.661795
-6.295424 -3.228052 3.877555 -2.857043
-13.668612 -14.343498 6.020685 -8.403633
-8.947990 -8.372704 5.480879 -5.196208
-13.650824 -10.821490 5.757660 -7.341694
-11.365758 -10.160793 5.867980 -6.457965
-11.646790 -5.690829 4.358201 -5.201286
-16.109356 -23.962373 13.345041 -12.021519
-9.354493 -1.620417 2.867859 -3.292473
-17.076531 -27.084380 11.922288 -13.248273
-35.240066 -27.760511 8.613078 -22.366925
-8.201156 -3.312757 3.711333 -3.454174
-8.076631 -8.999675 5.532401 -5.122892
-9.061651 -3.474053 4.334844 -3.760711
-10.113768 -5.513267 4.786846 -4.688111
-9.240550 -3.189826 4.342723 -3.729113
-5.554180 -9.009136 1.127060 -4.368995
-9.649625 -12.056126 3.567252 -6.511725
-23.203193 -29.839345 12.727521 -15.912761
-13.844364 -11.309653 6.175012 -7.546205
-13.819059 -13.998806 6.517022 -8.345359
-6.736677 -4.254040 5.017173 -3.297215
-6.461044 -5.865507 2.400489 -3.697965
-31.604089 -33.598852 11.854115 -19.560882
-5.709127 -6.831675 5.266266 -3.762241
-12.900659 -8.383599 5.567455 -6.385277
-32.254011 -33.961598 12.561353 -19.864683
-28.172582 -32.933429 12.875425 -18.331803
-39.348961 -36.803389 13.270753 -22.845705
-23.942877 -31.409566 13.009828 -16.605733
-36.663227 -30.740869 12.284150 -20.221229
-36.949998 -38.245080 10.722166 -22.558523
-27.765079 -22.293497 7.816199 -17.785054
-5.928583 -10.610836 5.076768 -4.961826
-3.902990 -4.879942 4.973387 -2.634880
-30.992815 -34.089616 14.079017 -19.524729
-39.403020 -29.211257 8.416669 -24.735850
-33.098499 -36.102494 14.553449 -20.760298
-39.696138 -48.207060 19.665252 -26.370959
-57.210903 -58.562192 13.608894 -44.615783
-39.400496 -28.032597 7.898722 -24.239531
-46.827976 -39.000627 10.531928 -31.975359
-53.504195 -52.753846 12.843472 -40.616303
-37.132483 -29.130445 8.779431 -23.738097
-46.325577 -36.188098 9.708285 -30.598043
-22.959286 16.253630 33.223101 -2.011697
-31.317542 -13.255616 32.046195 -13.371947
-24.415648 -29.107540 26.497519 -16.056956
-26.911741 -14.274087 4.184058 -13.922008
-25.110304 2.532903 33.806250 -6.773220
-30.593631 -34.536206 9.324457 -23.284915
-11.610894 -10.354645 41.464089 -6.589662
-29.894421 -22.650016 7.731667 -17.957857
-31.952015 -24.483790 8.026310 -19.596774
-34.464477 -22.421154 6.476793 -19.834210
-40.489218 -27.262924 7.180137 -24.373936
-32.139504 -22.934476 7.427249 -19.038910
-25.569572 -25.679243 8.449917 -17.413747
-23.674068 -23.057769 8.071017 -15.506229
-12.725774 -15.233696 6.354303 -8.387841
-6.346163 -4.612059 5.075852 -3.287467
-11.038675 -12.273177 6.072829 -6.993556
-8.350915 -6.834540 5.441021 -4.555636
-14.416932 -9.465842 5.625800 -7.164832
-3.604798 -4.251604 3.623226 -2.356921
-24.182968 -17.724325 6.953266 -13.487801
-24.584327 -28.221122 8.335638 -18.096848
-12.484027 -10.407680 5.980284 -6.867512
-11.394886 -5.364226 4.186518 -5.027734
-3.716394 -1.314403 2.847118 -1.509239
-13.612001 -4.544433 3.448929 -5.446930
-7.103037 -6.967024 5.338572 -4.221018
-0.158811 -8.536771 2.681806 -2.608674
-7.515008 -12.832629 5.238834 -6.104291
-6.558275 -1.750992 4.257037 -2.492780
-10.412974 -4.226155 4.451744 -4.391739
-11.722018 -4.100305 3.998630 -4.746697
-3.096740 -0.949382 4.418611 -1.213837
-11.932050 -8.650905 5.600028 -6.174887
-1.822497 -2.340882 3.691104 -1.249014
-10.335196 -16.419970 5.623064 -8.026550
-0.072276 -6.374399 3.550495 -1.934003
-7.769165 -15.508012 4.728566 -6.983153
0.329054 -8.005646 2.510529 -2.302978
-3.988502 -12.424075 3.616779 -4.923773
-0.143840 -3.767108 4.212924 -1.173284
-6.136319 -6.959230 5.309152 -3.928665
-6.076882 -5.296707 5.158324 -3.412077
-36.586494 -41.654058 33.671813 -23.472166
-1.947431 -10.919078 2.841216 -3.859953
-27.999537 -40.941028 24.990882 -20.682170
6.729483 -0.468135 1.096695 1.878404
-13.017150 -8.238520 35.285732 -6.376701
-21.680605 -44.005101 27.060470 -19.705712
-18.602552 -47.774694 23.800464 -19.913174
-30.586782 -44.696724 28.444103 -22.585052
-12.743306 -22.157917 5.272276 -10.572811
-21.095676 -33.560823 18.522103 -16.396950
-8.254831 -19.218900 3.420582 -8.242119
-14.925269 -29.686393 2.770934 -14.639939
-2.327130 -4.575167 4.699465 -2.070689
-6.153791 -13.556073 4.579556 -5.912959
-10.227761 -18.587183 5.137443 -8.644483
2.378470 -6.473240 1.233767 -1.228431
-9.858638 -15.764037 5.616595 -7.686802
-0.684931 -4.570532 4.254608 -1.576639
-17.464878 -48.599880 14.708359 -19.819427
-16.407673 -36.500334 10.058136 -15.872402
-14.564779 -21.029972 6.372565 -10.846094
-14.140257 -22.808256 5.799494 -11.426443
-17.737369 -54.275673 21.378898 -21.603913
-15.161750 -46.149228 17.051877 -18.393294
-18.732785 -49.449380 20.256936 -20.454650
-1.649448 -12.238151 1.033840 -4.166280
-19.239212 -48.293761 24.256292 -20.259892
-22.010831 -40.974013 17.575990 -18.895453
-15.468513 -36.865157 14.732118 -15.700101
-0.682216 -10.657212 1.416433 -3.401829
-14.833064 -31.700822 28.479671 -13.960166
-13.577439 -53.416503 23.431535 -20.098183
-15.447914 -47.081315 25.096309 -18.758769
-16.593915 -47.693145 22.142766 -19.286118
-61.356511 -74.445669 13.783194 -53.040075
-13.731953 -37.187580 28.698085 -15.275860
-6.119124 -16.367454 42.125784 -6.745974
-18.320926 -48.636537 25.854822 -20.087239
-34.457334 -23.554794 42.196151 -17.403638
-31.358624 -35.211506 9.449347 -23.893384
28.041953 58.617861 55.276088 25.997944
-14.196522 23.904066 42.327857 2.912263
-38.319042 19.281132 75.417899 -5.711373
-12.898544 -34.341581 27.303167 -14.172037
-24.830295 -43.169860 32.382399 -20.400046
-31.183104 -67.805778 17.542520 -29.696665
-14.351617 -49.196873 27.580740 -19.064547
-23.205313 -57.381154 21.014387 -24.175940
-39.983605 -56.538593 37.035219 -28.956660
-25.139971 -26.092570 41.887677 -15.369762
-18.546366 -59.935027 21.013437 -23.544418
-28.679308 -86.842680 26.733253 -34.656597
-38.147117 -52.965628 8.988493 -34.232201
-45.590060 -64.408781 9.218271 -42.149665
-45.107750 -11.035838 37.694745 -16.843077
21.139016 20.380050 0.872649 19.894302
-1.672433 -7.026079 4.217169 -2.609554
-21.651960 -40.766513 52.519377 -18.725542
25.102568 24.856539 0.216366 24.786999
42.385908 41.913845 0.247749 42.563733
64.551262 65.077273 0.787621 65.739279
-67.875927 -176.293213 70.374659 -73.250742
-22.520206 -59.968146 47.973612 -24.746506
-15.598051 -87.880726 28.698584 -31.043633
-42.646629 -89.471431 30.843522 -39.635418
-41.728924 -153.682820 50.607155 -58.623523
-30.101028 -58.992578 22.583623 -26.728082
-29.256908 -73.340857 21.750532 -30.779329
-33.362743 -57.257396 22.891553 -27.186042
-23.077081 -57.720804 20.479530 -24.239365
-30.015523 -59.657776 19.697514 -26.901990
-18.700464 -52.988798 19.888396 -21.506779
-31.735154 -56.502256 22.472797 -26.471223
-29.548021 -63.463620 25.990633 -27.903492
-15.345735 -55.754243 17.261487 -21.329993
-19.289640 -50.814731 19.254336 -21.031311
-25.246218 -32.083997 8.229424 -20.039883
-19.882983 -27.081486 7.211140 -15.641136
-37.867237 -65.591589 25.029646 -31.037648
-38.759256 -70.930497 27.400483 -32.906926
-33.812307 -64.604944 23.596939 -29.525175
-8.331922 -12.489176 5.564480 -6.246330
-6.855374 -8.257263 5.438741 -4.533791
-41.673005 -99.762367 23.886683 -42.430612
-52.672358 -41.486237 10.463880 -37.526582
-97.612835 -60.800677 52.105309 -47.524054
-63.354454 -48.362451 10.967447 -42.955211
-49.172012 -40.874234 10.764301 -34.802778
-67.753548 -48.686183 38.122871 -34.931919
-45.608450 -36.672250 28.625181 -24.684210
-14.956514 -13.555955 6.492436 -11.352830
-103.123430 -69.500349 57.275037 -51.787134
-43.628172 -43.867709 55.431777 -26.248764
-56.842966 -52.381427 36.947867 -32.767318
-102.367667 -83.442567 16.813080 -74.122969
-106.493009 -88.833058 18.018544 -78.130448
-46.619725 -83.276470 48.712751 -38.968858
-107.955769 -87.655814 17.338504 -78.252124
-59.561274 -80.607923 43.437834 -42.050759
-38.094167 -66.725234 52.451467 -31.445820
-53.785502 -31.537219 40.945847 -25.596816
-41.350242 -43.411155 11.050031 -31.577189
-58.025318 -86.012136 33.363438 -43.211236
-63.977139 -46.698821 9.993490 -42.479310
-29.497446 -29.375901 9.014026 -20.746627
-49.804466 -69.342929 29.531377 -35.744219
-64.003009 -92.415109 41.549227 -46.925436
-72.120916 -102.095537 42.880724 -52.264936
-65.824427 -53.011435 12.303161 -45.919293
-62.462069 -67.122816 52.014851 -38.875466
-22.823555 -23.009967 7.952524 -15.957062
-34.889839 -33.323501 1.803831 -20.820319
-43.930043 -57.165050 43.151425 -30.328528
-105.105137 -92.201044 19.170485 -78.965524
-22.010906 -30.795838 7.279225 -19.988027
-112.497637 -94.756928 19.073446 -83.153311
-29.517277 -28.595619 68.991662 -17.433869
-22.473853 -49.625575 48.739923 -21.629828
-23.085823 -32.432216 7.353320 -19.283667
-36.913646 -51.126975 24.640446 -26.412186
-13.199624 -23.439169 5.064882 -12.785404
-29.509703 -34.547074 9.070055 -22.865855
-30.435252 -27.595604 8.827352 -21.750375
-16.249456 -17.022279 6.909818 -10.730687
-22.957316 -20.455454 6.340821 -15.124336
-36.338726 -34.620670 9.926903 -25.779304
-12.099459 -16.218250 6.187870 -8.907365
-21.990417 -33.115747 6.680628 -19.092251
-13.899877 -19.705845 6.315272 -10.933317
-23.582856 -25.826535 8.145312 -16.700273
-7.100223 -15.120520 4.513339 -6.666223
-27.037045 -34.088816 14.839363 -18.337758
-9.978577 -14.048762 5.825112 -7.224565
-20.116423 -32.098178 5.981709 -17.868268
-47.926395 -46.269649 27.072067 -28.258813
-62.621143 -45.427060 31.928291 -32.414461
-23.267994 -31.274547 15.929320 -16.362762
-33.073119 -36.337510 22.287631 -20.823189
-59.074762 -93.168782 37.365486 -45.673063
-19.595064 -38.378104 16.052411 -17.391950
-41.236170 -66.826352 26.526775 -32.418757
-55.031675 -48.975648 12.283526 -39.687956
-56.830218 -47.624224 34.095300 -31.336333
-56.306702 -52.445476 12.928028 -41.655214
-67.989743 -53.126074 39.004409 -36.334745
-51.252408 -45.529869 31.091960 -29.034683
-54.464785 -39.548675 35.220947 -28.204038
-46.426528 -40.032895 22.794851 -25.937827
-38.460699 -30.974820 9.112541 -26.208771
-24.346894 -17.168224 6.714347 -15.623111
-58.310364 -48.478125 36.273852 -32.036547
-55.875851 -49.825728 34.347130 -31.710474
-14.328378 -24.709982 5.259660 -12.912579
-9.744622 -13.558127 5.851231 -6.990825
-33.826380 -32.002233 9.512763 -24.490540
-20.601026 -28.601809 4.597861 -17.350490
-35.058397 -45.187370 9.461685 -30.200019
-23.089624 -40.685378 3.262899 -23.213638
-16.447193 -15.708939 6.535159 -10.549630
-13.025673 -16.772172 3.786195 -8.939353
2.134431 -0.384775 -3.874838 0.524897
-3.542041 -9.545408 4.344874 -3.926235
-13.927100 -18.357995 6.272267 -11.121333
-11.953840 -7.210966 3.630347 -5.749442
-16.547883 -22.477289 6.809880 -12.452794
-4.578207 -12.238795 4.087554 -5.045101
-13.152466 -7.404385 2.824265 -6.167055
-7.859457 -16.749060 1.956052 -7.382555
-5.560615 -13.132458 4.390953 -5.607922
-0.750453 -7.172112 3.683855 -2.376769
-9.053198 -14.065532 5.618848 -6.935619
-6.503074 -10.341263 5.306795 -5.053301
-5.476618 -4.615949 5.066704 -3.027770
0.145416 -3.769321 4.078156 -1.087172
-3.690945 -9.944210 4.087372 -4.090547
-6.566238 -13.341541 4.770839 -5.972334
-13.047091 -12.674423 2.590796 -7.716454
-5.855082 -15.503355 3.483726 -6.407531
-9.426478 -9.188583 1.919883 -5.584518
-8.850446 -9.272869 -0.055042 -5.436994
-6.606133 -4.167493 0.247362 -3.232088
-12.252173 -5.552705 1.723024 -5.341463
-2.814122 0.145152 -1.078368 -0.800691
-12.157879 -7.610437 5.156429 -5.930495
-12.644340 -8.094346 5.439955 -6.247593
-8.318002 -4.011764 3.631322 -3.698930
-7.682825 -3.532610 2.169015 -3.364631
-7.991970 -2.096044 1.262173 -3.026404
-10.983565 -9.057868 4.147261 -6.012430
-6.150513 -0.810076 2.491063 -2.088177
-9.024069 -8.457499 4.059178 -5.244470
-14.226483 -14.684779 6.389771 -8.673378
-7.878247 -2.473943 2.016402 -3.105657
-7.889378 -5.132536 4.046434 -3.906574
-10.871410 -7.235899 4.143462 -5.432193
-5.572532 -0.423773 1.591691 -1.798891
-8.070966 -5.412931 3.644276 -4.045169
-9.615036 -7.078327 3.388794 -5.008009
-2.168742 2.028946 2.557743 -0.041939
-3.550750 1.665984 1.612139 -0.565430
-13.816752 -11.616759 4.287480 -8.115996
-11.469922 -13.515985 6.155507 -7.495772
-10.427372 -11.229371 5.965361 -7.067611
-14.916546 -21.658911 6.352469 -11.805955
-16.686642 -18.889626 7.020504 -11.254682
-12.362915 -16.910305 6.211547 -10.166914
-21.666147 -23.763277 7.839399 -15.013916
-14.619471 -23.215510 5.910439 -12.327313
-11.652522 -17.817459 5.853748 -9.088732
-11.106816 -13.703620 5.458408 -7.443131
-17.919928 -25.322093 6.785349 -14.114821
-15.196322 -19.768382 6.679125 -10.842966
-11.891582 -17.882536 5.923181 -9.397543
-10.857642 -13.756300 5.559015 -7.384183
-13.910852 -10.700981 6.000055 -8.679609
-35.019768 -34.938785 9.887726 -25.358363
-21.825007 -25.976026 7.826734 -16.096121
-33.094953 -34.845441 9.707260 -24.589886
-26.188053 -28.014222 8.556528 -18.723478
-39.595464 -40.655540 10.720924 -29.840306
-9.988809 -10.637663 5.857975 -6.187941
-36.632768 -41.689521 10.249837 -28.906752
-7.088803 -9.430989 5.426510 -4.955937
-15.248023 -14.806689 6.387453 -9.016414
-6.318295 -7.520835 5.201831 -4.151739
-18.253025 -21.725097 7.248567 -12.732590
-20.144005 -21.294946 7.554747 -13.343811
-16.227822 -15.608653 6.764808 -9.772003
-22.564358 -25.751992 7.979446 -16.254963
-19.272639 -21.253499 7.433744 -12.961427
-14.843847 -18.439979 6.683695 -10.412102
-7.931225 -9.972033 5.575243 -5.370977
-9.284040 -11.828418 5.791444 -6.333737
-6.134267 -5.721489 4.830774 -3.556727
-8.609543 -7.426564 5.252842 -4.810832
-8.590973 -9.383127 5.283361 -5.392230
-8.998105 -9.407601 5.567408 -5.521712
-9.008327 -7.874435 4.672241 -5.064829
-3.264739 -1.866457 4.248461 -1.539359
-11.220184 -11.316079 6.038373 -6.760879
-5.045279 -3.594088 4.350086 -2.591810
-13.481736 -13.282483 6.236966 -8.029266
-5.691737 -5.452368 4.603550 -3.343231
-9.660743 -8.813496 5.351107 -5.542272
-24.285923 -25.712779 8.190326 -16.877760
-1.993578 1.790804 2.492354 -0.060832
-14.876126 -9.390960 4.401528 -7.280126
-25.302246 -17.039352 6.439061 -13.723146
-13.965056 -12.003428 6.632061 -7.790545
-21.300809 -19.196820 7.804990 -12.630003
-0.227940 -0.064236 2.168062 -0.087653
-0.168411 2.114804 3.640452 0.583918
-18.116145 -12.404810 5.615154 -9.156286
-16.997060 -13.109144 5.653006 -9.031861
-21.348056 -14.087100 5.716293 -10.874803
-4.761110 -3.652964 4.528728 -2.524222
-28.606687 -27.384819 9.099295 -19.136370
-3.575603 0.388350 3.801543 -0.956176
-20.917246 -17.662481 6.774787 -12.224369
-7.824852 -6.607987 4.760368 -4.329852
-6.882469 -8.342040 5.121023 -4.567353
-4.870999 -0.998795 4.285842 -1.760938
-14.298419 -7.587657 4.957186 -6.565823
-2.009725 -1.042724 4.818615 -0.915735
-17.937663 -17.698409 6.688258 -10.996643
-27.317008 -26.082868 8.510337 -18.370169
-47.434765 -39.358843 9.234767 -32.430510
-10.339379 -10.796602 6.283963 -6.340794
-29.570903 -25.438535 8.418560 -19.051864
-7.343731 -4.386755 4.868048 -3.519146
-27.713332 -23.042266 7.984774 -17.242273
-25.727243 -22.626755 8.045576 -16.213440
-56.683477 -39.316503 8.352379 -36.271240
-6.245790 -3.078470 4.753179 -2.797278
-1.596457 -20.331879 9.654232 -6.578501
-17.531326 -9.522561 5.115226 -8.116166
-16.772237 -5.212536 1.852045 -6.595432
-4.548773 -2.454621 4.731180 -2.101018
9.354940 9.162067 2.715225 6.613959
-12.532760 -15.393440 6.316825 -8.377860
-8.198050 -4.336246 4.377331 -3.760289
-19.741809 -16.307799 6.926904 -11.077691
-5.116814 -10.315387 2.663433 -4.629660
9.176326 4.036794 1.808133 3.963936
-23.858710 -20.104049 19.697635 -13.188828
-10.536167 -11.097208 5.857491 -6.490013
-16.583860 -13.595756 6.551959 -9.053885
-23.361599 -15.808342 6.342043 -12.382491
-27.795611 -21.228296 7.506448 -16.853094
-16.508020 -10.892770 5.848560 -8.220237
-24.822333 -21.285039 7.816272 -15.255775
-9.989076 -7.536311 5.563876 -5.257616
-23.315658 -23.237688 7.957310 -15.471085
-32.447724 -33.501725 9.547445 -23.738544
-36.091412 -26.510340 7.968302 -22.758283
-26.327739 -24.174918 8.047641 -17.519448
-24.523650 -21.399651 7.800393 -15.216171
-30.582682 -24.677890 7.374126 -19.665168
-18.899504 -19.614576 7.333891 -12.143869
-50.950897 -53.564969 12.621248 -39.904633
-13.303289 -18.576627 6.275778 -11.794466
-40.517881 -41.826653 10.870030 -30.570757
-55.069067 -51.948123 12.792408 -40.973505
-3.656497 -4.757206 4.871762 -3.797477
-31.795832 -35.915757 9.479004 -24.302278
-23.899353 -26.495422 8.530564 -16.824040
-61.812545 -42.631845 8.372728 -39.832796
-40.035759 -41.058589 11.095568 -29.763947
-18.923494 -9.119251 4.322665 -9.768099
-18.029562 -8.960008 4.590257 -8.096871
-22.748162 -26.957481 21.102258 -14.911693
-32.020687 -22.957901 18.049000 -16.493576
-18.719577 -29.956420 17.658454 -14.602799
-12.102091 -16.742183 14.401715 -8.653282
-40.937298 -40.123050 11.046117 -29.822782
-20.292965 -21.861562 7.898639 -13.356993
-31.214907 -22.375412 22.398779 -16.077096
-22.537096 -18.563051 20.540620 -12.330044
-27.049314 -22.676965 7.163704 -17.042526
-53.780360 -51.715821 12.494524 -40.309031
-40.894991 -30.858268 6.390359 -25.486756
-54.743477 -43.547035 10.596194 -37.184354
-61.961422 -41.276227 7.252158 -39.659412
-26.055226 -14.383811 4.657996 -13.634063
-42.052682 -26.378416 24.606565 -20.529329
-25.030259 -20.192463 18.711962 -13.566817
-13.354042 -34.648569 12.816816 -14.400783
-9.905752 -24.356506 11.389740 -10.278678
-13.095289 -35.030392 12.957987 -14.437704
-9.429881 -13.017688 4.724217 -6.734271
-17.157117 -46.847464 16.209149 -19.201374
-12.838162 -23.954368 3.426927 -11.239284
-12.794085 -31.045528 11.684508 -13.151884
-6.962368 -3.567260 4.727528 -3.158889
-9.805315 -8.678856 5.413923 -5.545252
-11.874406 -12.951293 5.907343 -7.447710
-9.410365 -14.645668 2.910426 -7.216810
-10.699630 -10.015291 5.881578 -6.214476
-5.503827 -4.594811 3.328933 -3.029592
-25.152496 -16.266959 6.130419 -13.339623
-6.570478 -5.532105 4.407804 -3.630775
-6.138606 -8.519719 2.779458 -4.397497
-5.472958 -4.285211 3.171862 -2.927451
-8.808832 -8.479046 2.590490 -5.186364
-6.987887 -8.378381 3.927433 -4.609880
-6.863458 -3.888164 2.544752 -3.225487
-38.957060 -33.565461 9.795728 -26.378849
-3.088664 -1.751742 4.558758 -1.452122
-16.536112 -10.161177 5.525516 -8.009187
-20.437842 -14.332588 5.989262 -10.563429
-7.044340 -7.457279 3.818408 -4.350486
-12.920051 -7.631611 4.834961 -6.165499
-4.545214 -2.605817 4.692516 -2.145309
-13.405576 -9.613189 5.786298 -6.905630
-10.377866 -7.285625 5.429607 -5.299047
-20.831181 -18.255891 7.339258 -12.304350
-12.627706 -11.937717 6.193177 -7.369627
0.757105 0.196474 4.131346 0.286074
-34.116476 -24.382926 7.529534 -20.522280
-1.710999 0.202262 4.262868 -0.452621
-25.342570 -20.256773 7.496067 -15.092768
-10.315121 -1.686475 3.006095 -3.600479
-16.630523 -6.631343 3.570484 -6.978560
1.579020 5.120960 3.226002 2.009994
-9.365471 -1.124895 3.019809 -3.147110
-13.843189 -9.677234 5.764931 -7.056127
-18.410821 -12.559528 6.077340 -9.291105
-12.959541 -4.330875 3.685485 -5.187125
-11.858598 -9.285059 5.856139 -6.343097
-32.503716 -23.735470 7.639820 -19.544640
-23.425449 -23.072841 12.638545 -13.949487
-13.742289 -10.996035 6.137179 -7.421497
-13.200880 -12.393636 6.285609 -7.678355
-36.925834 -24.774990 6.954099 -21.863686
-5.714605 -7.983172 5.218970 -4.109333
-35.130303 -24.688229 7.513435 -21.008822
-18.942190 -7.298685 2.665959 -7.872262
-34.829771 -62.240735 29.796601 -29.121152
-27.430029 -21.144165 6.363590 -16.203367
-42.263059 -48.527508 -7.239135 -31.169931
-102.284979 -75.521650 13.050468 -70.719980
-37.495152 -47.215563 9.968120 -31.560429
-26.026915 -15.321543 64.011895 -12.404538
-18.183521 -15.197967 6.824435 -10.014446
-21.028699 -16.124221 6.805551 -12.182488
-73.212921 -106.559097 48.253847 -53.931605
-65.063263 -52.535805 27.612969 -35.279720
-23.333418 -30.364408 7.818646 -18.779453
-21.577786 -41.301332 20.756244 -18.863735
-58.649149 -41.175969 28.627559 -29.947535
-24.700662 -31.911604 23.157114 -16.983680
-37.598950 -46.081302 29.365221 -25.104075
-25.080453 -66.091629 28.713277 -27.351625
-29.600551 -62.738521 22.217618 -27.701722
-4.192926 -2.132518 4.614382 -1.897633
-7.679402 -8.701568 5.522992 -4.914291
-19.144430 -47.856228 17.332484 -20.100197
-23.773662 -15.692522 -0.347956 -14.155941
-48.685373 -29.612920 4.548726 -28.862943
-16.399777 -10.572043 5.701109 -9.717788
-22.547427 -12.629719 5.039992 -11.386156
-12.738228 -14.250285 3.613748 -8.096554
-14.196377 -12.449257 5.451647 -7.993690
-11.104257 -14.307837 2.471641 -7.623628
-16.663366 -10.855145 3.420037 -8.383756
-22.462761 -25.113649 20.019713 -14.272923
-27.568789 -20.159827 20.545460 -14.318585
-32.842090 -36.980547 26.955323 -20.946791
-34.180737 -40.194682 26.665330 -22.312626
-21.634618 -39.714061 15.704310 -18.404604
-17.977616 -22.363925 7.156813 -13.351876
-34.228109 -20.309069 21.074400 -16.361154
-34.493809 -32.113674 25.608111 -19.982245
-24.604532 -24.202513 20.379416 -14.642113
-36.548785 -23.992002 23.657320 -18.162236
-48.732906 -26.434487 24.956541 -22.550218
-74.708876 -70.892591 16.143941 -57.001672
-35.083956 -29.039033 24.355841 -19.236897
-46.221812 -28.563001 26.788796 -22.435444
-64.282872 -91.207901 32.589462 -46.647232
-87.471766 -65.863867 11.741739 -59.887534
-51.498902 -38.567599 -1.380798 -32.205649
-51.725003 -45.905848 4.391575 -35.683026
-72.238377 -60.807069 12.922106 -51.676726
-52.231954 -48.377169 12.470935 -38.072701
-61.922872 -61.622630 13.263022 -46.859181
-50.577328 -25.562496 20.195922 -22.841947
-30.116776 -67.812198 40.849602 -29.378692
-57.414464 -76.080111 56.946743 -40.048373
-46.635946 -69.510305 37.744027 -34.843875
-61.813618 -62.815560 38.790622 -37.388753
-36.207167 -43.558643 20.366390 -23.929743
-106.308063 -87.612456 17.622066 -77.539945
-31.844709 -65.283589 28.490683 -29.138489
-61.792586 -77.766117 27.726898 -41.867611
-49.658621 -38.837093 10.033380 -34.598265
-69.111251 -51.902648 24.739318 -36.304170
-27.855009 -62.799140 24.216867 -27.196245
-46.652804 -60.478754 23.705652 -32.139467
-36.188133 -67.187560 30.598082 -31.012708
-62.329569 -76.946156 32.960800 -41.782718
-60.643494 -89.115055 29.432503 -44.927565
-63.555936 -77.034626 35.158560 -42.177169
-64.793749 -85.986114 29.887370 -45.233959
-62.223148 -97.327913 31.665361 -47.865318
-58.368241 -77.443689 31.808413 -40.743579
-64.459019 -90.904725 32.735896 -46.609123
-60.835468 -81.183478 29.162722 -42.605684
-61.107382 -102.060580 31.910307 -48.950389
-47.211044 -61.063829 25.055553 -32.482462
-49.179353 -41.555228 27.836810 -27.220374
-46.811018 -71.905241 31.648950 -35.614878
-60.595041 -77.421313 28.276600 -41.404906
-47.385273 -35.786544 22.074325 -24.951545
-59.272113 -24.607886 28.486051 -25.164000
-59.803349 -51.670017 28.087922 -33.442010
-64.411392 -38.726585 24.428901 -30.941393
-54.337438 -69.638841 27.233232 -37.192884
-66.735559 -64.117741 26.891452 -39.255990
-46.983658 -72.591235 31.689465 -35.872468
-55.805991 -70.053325 26.215143 -37.757795
-61.263541 -85.954881 27.696747 -44.165527
-62.544593 -88.608826 27.806502 -45.346026
-63.787766 -92.568963 27.956562 -46.907019
-62.687710 -90.120525 29.073608 -45.842470
-61.272129 -95.981503 30.206288 -47.176090
-60.579452 -96.323388 29.635879 -47.070852
-40.866101 -31.788983 7.348637 -26.615913
-33.372980 -18.237353 -0.564546 -18.193517
-17.237234 -14.967318 6.979872 -9.661366
-65.365245 -55.793690 12.187749 -46.475270
-50.862511 -33.540106 26.715397 -25.320785
-44.796969 -32.155278 27.118546 -23.085674
-45.831100 -34.892014 27.060084 -24.216934
-44.561697 -40.848020 29.587538 -25.622915
-46.970427 -23.481797 25.708778 -21.135667
-47.005555 -14.860519 21.403113 -18.559822
-49.307439 -30.097410 27.621102 -23.821455
-24.736283 -19.820283 7.682252 -15.236074
-53.689555 -40.368409 24.490346 -28.217389
-51.375849 -37.936364 28.021159 -26.793664
-40.393123 -26.630206 12.472243 -20.106999
-34.663683 -29.073014 19.452077 -19.121009
-13.597951 -12.130729 6.327380 -7.718604
-36.835269 -23.125757 10.830779 -17.988308
-27.579073 -19.580806 7.032041 -16.687796
-61.633352 -32.642732 27.502126 -28.282825
-21.356812 -18.081569 7.293990 -12.447173
-67.138336 -9.246866 21.801909 -22.915561
-79.357035 -54.973205 24.459855 -40.299072
-89.242347 -70.542592 14.458213 -63.135708
-17.582140 -13.652289 6.518707 -9.370329
-51.924988 -41.313012 10.563999 -37.640031
-5.610396 -2.479076 4.854174 -2.834451
-54.308779 -42.451152 34.813142 -29.027979
-62.811987 -46.214808 18.382756 -32.708038
-56.037365 -34.895910 21.866947 -27.279983
-57.860198 -101.979428 32.996238 -47.951888
-61.859676 -97.850043 28.924501 -47.912916
-29.850707 -25.255203 7.004691 -19.452364
-35.425413 -29.065721 3.198515 -22.803223
-71.756586 -46.580718 34.406603 -35.501191
-90.864203 -56.556051 39.430361 -44.226076
-59.764822 -60.258767 23.299900 -36.007077
-83.462519 -88.887115 33.884645 -51.704890
-67.391963 -88.469384 30.102049 -46.758404
-62.317765 -93.191844 27.716856 -46.652883
-63.282262 -91.469161 28.874109 -46.425427
-58.125616 -99.878745 30.250284 -47.401308
-61.260569 -97.874713 30.099958 -47.740585
-60.564547 -101.140700 34.905914 -48.511574
-32.684908 -30.584266 9.285151 -22.690777
-25.207699 -25.774262 8.286453 -17.792042
-70.518128 -64.339222 15.048989 -52.514620
-32.094190 -27.063999 8.892395 -20.607124
-68.565256 -92.398959 30.249353 -48.289265
-70.220318 -103.474764 35.030746 -52.108524
-40.649928 -17.737686 20.922160 -17.516284
-33.877499 -30.752203 25.943764 -19.388911
-70.514763 -73.744254 28.259778 -43.277705
-83.057572 -69.361180 31.458881 -45.725626
-63.592508 -83.814085 27.991948 -44.221978
-72.732982 -96.893766 34.766758 -50.888024
-71.586263 -63.796702 27.091244 -40.614890
-98.559355 -66.306993 38.518361 -49.459904
-59.187031 -102.086804 31.660827 -48.382151
-65.054167 -104.569477 39.545199 -50.887093
-54.577455 -102.916542 32.085861 -47.248199
-66.503902 -107.424007 37.576501 -52.178373
-49.492545 -103.716226 40.184459 -45.962631
-19.235237 -23.175411 7.400237 -14.265376
-108.924623 -81.673285 14.181214 -76.152224
-89.986826 -70.845250 14.418604 -63.575758
-180.273315 -134.571915 19.092293 -128.430534
-131.737921 -94.926846 13.124323 -91.328229
-45.841216 -36.546348 18.592796 -24.716269
-48.182804 -37.298554 27.163706 -25.644407
-64.441911 -42.369895 27.695765 -32.043542
-106.570721 -79.265135 13.674773 -74.106976
-29.841957 -20.432489 15.165901 -15.082334
-48.573228 -29.919680 23.179403 -23.547873
-9.986430 -15.466426 11.681950 -7.635857
-37.003240 -23.853238 18.750192 -18.256943
-143.438915 -42.572868 29.652126 -55.803535
-64.647522 -66.926996 34.422588 -39.472355
-59.129113 -26.392894 15.456517 -25.656602
-62.722358 -43.482336 31.566431 -31.861408
-48.183302 -18.113071 11.862453 -19.888912
-56.490373 -30.565337 21.351470 -26.116713
-10.684863 -1.979374 0.383369 -3.799271
-29.259158 -16.382790 -1.414114 -13.692584
-9.525674 0.481232 -0.143260 -2.713332
-12.190431 -1.616787 -0.497382 -4.142165
-28.046517 -16.805068 5.605701 -14.713121
-17.267221 -5.184088 -0.154441 -6.735393
-14.266919 -2.941196 -0.174249 -5.162434
-26.832805 -9.025035 -0.803416 -10.757352
-16.338705 -5.925962 0.249000 -6.679400
-22.438284 -8.933859 -0.151982 -9.412813
-17.737955 -20.425227 10.956474 -11.448955
-24.324117 -18.233303 11.424394 -12.767226
-16.467430 -14.696628 6.692463 -9.349217
-5.567221 2.216454 2.272500 -1.005230
-10.551305 -5.312298 4.855435 -4.759081
-19.074304 -20.033722 10.460397 -11.732408
-13.616964 -8.876844 5.577512 -6.748143
-8.643781 -4.370999 4.838404 -3.904434
-9.282934 -5.712352 5.148944 -4.498586
-17.068888 -5.431852 1.850550 -6.750222
-12.811469 -2.029786 -0.888761 -4.452376
-9.108373 0.746779 -0.234127 -2.508478
-18.059511 -5.862628 1.057636 -7.176642
-14.432273 -3.327968 1.467339 -5.328072
-11.363940 -0.953567 -0.240810 -3.695252
-8.850793 -0.265868 1.533925 -2.734998
-5.947684 -1.164807 1.769582 -2.133747
-17.141714 -5.563943 1.786662 -6.811697
-10.240999 -1.972622 -0.651404 -3.664086
-11.234765 -2.095976 -0.675127 -3.999222
-3.260836 -1.809394 -0.197908 -1.521069
-10.372133 -2.039411 -0.159471 -3.723463
-10.605969 -2.085499 -0.030091 -3.807441
-7.480199 -2.389433 0.516048 -2.960890
-4.369608 -2.523105 0.461039 -2.067814
-13.313682 -2.347807 0.028582 -4.698447
-21.384271 -8.472806 1.619133 -8.957123
-14.188834 -2.988232 -0.055854 -5.153120
-11.672994 -1.196827 0.523160 -3.860946
-4.170153 -2.264358 0.579602 -1.930353
-4.004847 -1.966843 -0.103215 -1.791507
-3.824950 -2.143665 -0.329735 -1.790584
-9.057257 -2.099291 -0.459448 -3.346964
-13.057790 -2.204068 -0.495427 -4.578557
-7.277769 -2.509404 -0.549374 -2.936152
-6.906066 -1.864288 -0.232021 -2.631106
-8.685863 -2.520618 -0.706814 -3.361944
-9.284827 -7.188914 -0.901644 -4.942122
-10.157631 -2.518540 -0.895722 -3.802851
-12.854471 -6.044517 -1.874301 -5.669697
-12.715244 -1.987251 -0.650082 -4.410749
-9.242150 -2.218618 0.325192 -3.438230
-6.680131 -1.930930 0.102768 -2.583318
-10.543849 -2.120503 0.084981 -3.799306
-6.842737 -2.294577 0.290444 -2.741194
-6.573785 -2.295129 -0.063239 -2.660674
-7.278451 -2.276435 -0.688885 -2.866466
-8.768292 -1.976624 -0.515031 -3.223475
-3.680916 -2.182642 0.318134 -1.759068
-3.162915 -2.688174 -0.102133 -1.755327
-13.071957 -2.448444 1.325092 -4.656120
-4.266103 -2.176299 1.194669 -1.932721
-19.893951 -7.215446 1.543485 -8.132819
-18.905630 -6.696334 1.684599 -7.680589
-22.707845 -11.109141 2.087827 -10.145096
-3.508791 -2.311833 0.309321 -1.746187
-16.423498 -6.290550 1.602802 -6.814214
-21.896712 -11.737711 3.147625 -10.090327
-4.424629 -2.735919 -0.609429 -2.148164
-16.718309 -9.551725 2.595065 -7.881010
-11.505581 -6.263434 -0.400736 -5.330705
-11.540014 -5.972800 -0.233729 -5.253844
-11.492480 -6.366799 -0.062470 -5.357784
-13.908097 -14.920042 2.951773 -8.648442
-3.030034 -2.440458 0.058458 -1.641147
-20.700945 -11.423170 2.362944 -9.637235
-12.532579 -8.929009 -1.204443 -6.438477
-11.204914 -5.740145 -0.625095 -5.083518
-22.298227 -9.185228 1.692415 -9.445036
-19.784781 -7.105627 1.493668 -8.067122
-7.038589 -7.029527 -1.099135 -4.220435
-5.686975 -2.594337 -0.614157 -2.484393
-7.484813 -7.429356 -1.240214 -4.474251
-8.127052 -2.160015 -0.708431 -3.086120
-9.821791 -8.520612 -3.244008 -5.502721
-16.003181 -13.199740 -1.058097 -8.760876
-12.172951 -13.977066 2.671077 -7.845005
-8.474293 -2.507967 0.438250 -3.294678
-9.855360 -7.862582 1.188853 -5.315383
-7.511780 -6.438148 0.244188 -4.184978
-11.407765 -6.450029 0.285286 -5.357338
-9.485298 -2.188427 0.357240 -3.502117
-11.165771 -6.619754 0.654392 -5.335657
-8.682800 -2.370286 0.533399 -3.315926
-18.952608 -8.812113 -1.395954 -8.329416
-11.966627 -1.377038 -0.082886 -4.003100
-13.282015 -2.323459 0.013752 -4.681642
-8.651345 -6.595528 0.142947 -4.574062
-9.703420 -11.419234 -3.061704 -6.336796
-10.875682 -7.309008 -1.956375 -5.455407
-13.255078 -9.305510 -2.981623 -6.768176
-20.227080 -9.576925 -0.427601 -8.941202
-17.610356 -5.451843 -0.204796 -6.918660
-12.783951 -6.494231 -2.120868 -5.783455
-20.571160 -13.249944 -3.994986 -10.146331
-15.354072 -8.940362 -2.849789 -7.288330
-18.370629 -7.708404 -1.888134 -7.823710
-9.219866 -7.676066 0.834802 -5.068780
-9.647839 -11.308719 -0.716785 -6.286967
-11.091894 -6.151563 -1.975264 -5.173037
-16.817120 -15.287395 -5.089759 -9.631355
-13.392394 -10.259901 -0.196905 -7.095689
-18.983707 -16.800416 1.585834 -10.735237
-11.382767 -6.154902 0.441678 -5.261301
-13.217984 -10.446090 0.204763 -7.099222
-9.917978 -7.402733 1.464318 -5.196213
-19.570227 -17.091982 -1.688045 -10.998663
-11.176608 -11.351851 -2.326390 -6.758538
-10.188968 -7.837816 -2.030971 -5.408035
-20.900067 -12.454529 -1.914690 -10.006379
-18.774885 -6.506646 -0.762651 -7.584460
-19.406015 -6.829616 -0.117249 -7.870689
-18.016466 -9.684397 -2.936978 -8.310259
-20.358389 -10.705160 -2.019032 -9.319065
-18.230434 -9.665683 -2.511053 -8.368835
-21.713227 -12.750127 -0.921459 -10.339006
-10.012889 -12.318458 0.494308 -6.699404
-19.625511 -17.099567 -1.752069 -11.017523
-14.901736 -11.002357 -3.355908 -7.771228
-19.979264 -15.297575 -4.982010 -10.583052
-10.982158 -6.289731 0.819981 -5.181567
-13.255018 -10.564830 0.755409 -7.145955
-10.317541 -6.562438 1.103390 -5.063994
-22.095234 -23.723950 -1.170176 -13.745755
-8.242139 -7.244983 1.046123 -4.646137
-11.850022 -10.841386 2.232439 -6.807422
-8.632077 -7.200671 -1.777886 -4.749824
-22.490925 -18.745962 2.556868 -12.371066
-10.537218 -5.567126 -1.110831 -4.831303
-15.283841 -12.235857 -3.314304 -8.255910
-11.327447 -6.166130 -0.849765 -5.248073
-16.778856 -15.014512 -1.091211 -9.538011
-12.893748 -9.484163 -0.528019 -6.713373
-13.600568 -9.983691 -0.747254 -7.075278
-15.097718 -4.483602 2.355993 -5.874396
-34.159932 -25.279166 4.734720 -17.831729
-23.214859 -15.331428 3.554353 -11.563886
-17.438387 -9.622657 3.196027 -8.118313
-7.344409 -8.456856 -0.804937 -4.740380
-5.862882 -5.892268 -0.736391 -3.526545
-20.653947 -13.948268 3.502752 -10.380665
-21.657932 -16.577521 1.970779 -11.470636
-18.210993 -5.980244 2.158662 -7.257371
-28.453569 -18.991688 3.717457 -14.233577
-13.890764 -6.211922 1.571799 -6.030806
-18.131908 -6.886221 1.974218 -7.505439
-19.055118 -10.751267 2.365972 -8.941915
-13.738498 -6.835545 1.646667 -6.172213
-8.055727 -6.765841 -1.574233 -4.446470
-10.768461 -13.752801 -2.507263 -7.356379
-9.705746 -6.748782 -2.078074 -4.936359
-13.629628 -10.217173 -2.779599 -7.154040
-10.725065 -6.140849 -1.392889 -5.059774
-13.669520 -9.777044 -1.577301 -7.033969
-18.905309 -6.453301 1.598485 -7.607583
-19.475934 -10.432473 2.429215 -8.972522
-5.345280 -5.457909 -0.277965 -3.240957
-24.429592 -19.190770 3.693710 -13.086109
-8.362067 -8.399256 -1.607944 -5.028397
-10.733092 -11.998709 -2.597408 -6.819540
-24.497863 -10.438861 0.606855 -10.600593
-14.574221 -3.263192 0.144337 -5.351224
-24.289214 -10.256013 -0.016097 -10.441969
-17.343285 -5.316146 0.723360 -6.797829
-13.392921 -4.028813 0.614716 -5.226520
-31.959178 -9.625234 0.315183 -12.475324
-11.787600 -4.110790 0.366179 -4.769517
-29.485640 -10.005445 -0.577762 -11.847326
-19.313255 -6.589488 -0.386433 -7.770823
-21.053412 -7.896063 0.011746 -8.684842
-38.944025 -17.807333 1.324070 -17.025407
-26.358418 -11.914368 1.279014 -11.995169
-25.360333 -11.066964 0.740554 -11.220804
-19.840810 -7.057142 0.056542 -8.069386
-26.446207 -11.863974 0.745531 -12.019698
-23.702538 -9.839568 -0.011206 -10.062632
-22.030081 -8.672240 0.624019 -9.210696
-24.895268 -10.233081 0.822414 -10.538505
-19.486356 -7.786140 2.669617 -8.181749
-25.664871 -12.129469 0.706643 -11.338302
-23.841120 -9.939801 0.118635 -10.167261
-25.562928 -11.503072 1.648434 -11.503202
-23.795243 -9.980914 0.823258 -10.132847
-33.209555 -16.701659 0.466433 -16.907862
-30.200842 -13.234339 -0.835186 -13.030554
-26.677772 -8.450861 0.045160 -10.538590
-33.276853 -13.109274 0.730014 -13.915838
-37.839508 -20.036223 0.499813 -20.257793
-26.834408 -12.088836 -0.835598 -12.247092
-23.086281 -3.994363 2.726529 -8.124193
-22.992621 -9.339649 0.554646 -9.699681
-31.682285 -15.546283 -1.278464 -14.168571
-28.347802 -10.855336 0.035645 -11.760941
-21.425131 -1.752550 -3.693683 -6.953304
-26.074407 -11.458589 0.417915 -11.639726
-10.116002 -0.044325 -0.753705 -3.048098
-15.151500 -3.623909 -0.584740 -5.632623
-32.939073 -16.425238 -0.026237 -16.648289
-24.888965 6.025759 -4.127912 -5.658962
-35.746698 -2.433673 4.264533 -11.454111
-34.454961 -18.071101 2.482439 -17.936048
-28.426706 -13.210429 1.066419 -13.340873
-23.756009 -13.345089 4.022835 -11.487403
-12.561198 -1.815039 0.850841 -4.312871
-35.878389 -15.215530 -3.620248 -15.328176
-28.501423 -13.274866 0.457768 -13.619127
-19.385167 -7.824044 0.472812 -8.162763
-27.740299 -12.763402 1.298788 -12.874806
-28.445661 -12.644160 -2.292243 -12.326946
-22.951006 -8.015679 -1.531578 -9.290006
-13.886495 -2.575686 -0.032512 -4.938654
-33.926745 -17.140967 0.470574 -17.360172
-20.584120 -7.398201 0.058090 -8.394696
-19.583383 -7.474297 2.190668 -8.448695
-17.284509 -5.531487 1.565519 -6.844799
-16.304819 -4.488723 1.019709 -6.238062
-26.840405 -8.833349 -1.336200 -10.702126
-24.687264 -4.132526 0.128361 -8.645937
-10.130852 -0.119695 0.934161 -3.075164
-23.376017 -9.828624 1.616498 -9.961392
-21.193702 -8.546632 2.228295 -8.922100
-30.153207 -14.603776 1.403580 -14.697773
-21.672497 -9.522233 2.973623 -9.358419
-12.885953 -2.013975 0.011322 -4.469978
-14.595610 -5.378124 1.356613 -5.992120
-11.907978 -2.837984 0.634237 -4.423789
-8.038176 -2.230465 1.154054 -3.080592
-12.157128 -4.863375 1.992227 -5.106151
-13.396447 -2.241290 0.154893 -4.691321
-18.507558 -6.137845 -0.951483 -7.393621
-11.231928 -1.564854 -1.134022 -3.839034
-20.597833 -7.546023 0.729627 -8.443157
-11.791292 -1.217022 0.238740 -3.902494
-10.754246 -0.525409 0.388533 -3.383896
-13.138276 -2.170150 -0.634467 -4.592528
-12.732460 -1.835231 -0.015407 -4.370307
-8.275247 -2.139650 -1.149721 -3.124469
-25.545634 -5.479824 -3.463811 -9.307637
-17.833166 -5.529337 0.248253 -7.008751
-18.835526 -6.228089 -0.191114 -7.519085
-16.505538 -5.662879 0.882763 -6.650525
-12.348574 -2.958753 0.140980 -4.592198
-14.150415 -5.108087 0.983895 -5.777551
-20.014329 -8.859799 1.007632 -8.662238
-18.420588 -6.152387 1.248571 -7.371892
-17.391178 -5.176795 -0.145627 -6.770392
-21.234361 -7.945609 0.002003 -8.753991
-18.796176 -6.218718 -0.398823 -7.504468
-19.647236 -6.860443 -0.598326 -7.952304
-21.293415 -8.200228 -1.220164 -8.848093
-18.552146 -6.119544 -0.033844 -7.401507
-12.956822 -2.087426 -0.116683 -4.513274
-19.739581 -7.044320 0.742602 -8.035170
-13.866330 -2.803283 0.811034 -5.000884
-18.501594 -6.103095 0.479103 -7.381407
-20.368587 -7.472511 0.636425 -8.352329
-11.509889 -1.070097 -0.320647 -3.773996
-17.706896 -5.517089 -0.001777 -6.967195
-20.331236 -7.417184 0.240211 -8.324526
-11.970598 -1.375286 0.256596 -4.003765
-14.899944 -3.503708 0.424225 -5.521095
-11.965961 -1.400333 -0.356174 -4.009888
-13.093944 -2.205465 -0.305096 -4.589822
-17.454714 -5.328517 0.082659 -6.834969
-12.876238 -2.044969 0.406964 -4.476362
-11.805747 -2.181133 2.340652 -4.196064
-12.596681 -1.834389 -0.129652 -4.329321
-12.909724 -2.052397 -0.119937 -4.488636
-13.589734 -2.544945 0.264556 -4.840404
-12.266071 -1.489179 0.084417 -4.126575
-20.369750 -7.480020 -0.710043 -8.354931
-12.648468 -1.785519 -0.382622 -4.330196
-5.005702 1.724579 2.967578 -0.984337
-8.589677 1.137650 -0.096765 -2.235608
-8.731777 1.019559 0.033437 -2.313665
-17.954325 -5.660535 -0.726945 -7.084458
-4.391127 -1.573243 0.574463 -1.789311
-11.429666 -0.915892 -0.352125 -3.703667
-14.524458 -3.133516 -0.294867 -5.297392
-14.493649 -3.907123 2.159271 -5.520232
-27.435498 -7.315456 -2.701889 -10.425286
-7.248172 -3.009708 -0.201517 -3.077364
-10.557792 -1.496949 0.114642 -3.616422
-9.924148 -1.860360 0.022779 -3.535353
-12.509505 -4.314732 1.833905 -5.047271
-8.722517 -3.113867 0.828308 -3.550915
-12.271359 -1.726657 0.111962 -4.199405
-13.834481 -2.762022 -0.114245 -4.978951
-12.678392 -3.327722 0.545051 -4.801834
-15.379725 -3.834464 -0.104776 -5.764257
-11.161877 -1.035751 -1.195615 -3.659288
-22.997364 -11.515378 3.061523 -10.689848
-25.334965 -13.554994 2.512084 -12.513187
-16.708638 -6.340851 0.592624 -6.914847
-10.092869 -1.600522 -0.051685 -3.508017
-11.692199 -2.631995 0.448787 -4.297258
-15.222463 -5.231910 1.181513 -6.136312
-10.765847 -0.491554 -0.669369 -3.377220
-18.100322 -5.874441 -0.824871 -7.192429
-16.404691 -4.732786 -0.671715 -6.341243
-14.727540 -3.568435 -1.191710 -5.488792
-20.545478 -7.634312 -0.702680 -8.453937
-12.167245 -1.574091 0.532534 -4.122401
-17.126252 -5.432738 -0.064856 -6.767697
-15.173789 -3.686883 0.081607 -5.658202
-11.558480 -1.170208 0.748525 -3.818607
-10.287196 -1.754826 -0.424632 -3.612607
-23.542690 -12.501211 -0.084348 -10.813170
-23.778638 -9.875278 0.822425 -10.096175
-15.010452 -3.690606 -0.925387 -5.610317
-15.667021 -6.211881 2.318857 -6.563671
-27.379874 -20.651108 7.398616 -16.134408
-11.027365 -2.166350 0.773388 -3.958114
-9.532929 -1.309728 1.517851 -3.252797
-9.688454 0.048723 -1.151284 -2.891919
-32.611583 -16.177147 0.386466 -16.385356
-31.291799 -31.093957 17.642420 -18.715727
0.730826 6.873639 1.951070 2.281339
-8.423668 -1.078496 2.367511 -2.850649
-16.035069 -11.227100 5.979437 -8.178651
-50.554969 -27.479569 21.473383 -23.410361
-44.963682 -26.977306 19.920589 -21.582296
-38.061619 -25.732981 7.107685 -22.742125
-53.161544 -49.135922 29.911497 -30.689240
-51.877021 -59.139328 20.838772 -33.304905
-53.950481 -64.424248 27.257815 -35.512419
-63.961961 -49.108506 31.609233 -33.921140
-63.345373 -64.150539 23.861108 -38.248774
-83.823070 -48.416635 34.441881 -39.671911
-64.263398 -56.487085 30.346755 -36.225145
-66.251517 -36.017333 26.011246 -30.680655
-63.457981 -50.069250 30.485525 -34.058169
-57.205464 -64.092753 28.828173 -36.389465
-50.676363 -40.504622 10.451565 -37.944724
-57.145105 -28.084808 22.352644 -25.568974
-65.025237 -42.056255 28.353102 -32.124448
-51.116402 -25.859375 19.136607 -23.092733
-59.226403 -36.437357 27.077249 -28.699128
-54.411636 -33.873281 25.376478 -26.485475
-43.509610 -28.822747 21.260724 -21.699707
-10.766204 -5.627671 4.917322 -4.918163
-11.219696 -5.850570 4.916974 -5.121080
-14.940759 -6.011506 2.921840 -6.285679
-83.373906 -40.287974 43.550632 -37.098564
-71.870036 -75.018935 43.889919 -44.066691
-31.302570 -24.302123 14.672817 -16.681408
-37.808769 -19.540447 15.954533 -17.204765
-4.098848 0.014566 4.070836 -1.225285
-29.858885 -19.768322 6.528031 -16.780785
-26.276331 -21.137990 7.849643 -16.164634
-62.919084 -45.760207 20.668555 -32.603787
-68.934478 -54.479356 12.293981 -48.413340
-70.411469 -54.507837 11.984623 -48.773933
-46.006953 -42.267595 11.417166 -32.899909
-52.184355 -42.213985 10.812293 -35.607922
-65.916165 -52.569887 12.157878 -45.975236
-55.461812 -42.038588 10.146640 -38.127706
-75.160272 -90.927885 31.858368 -49.826447
-74.320460 -84.657898 31.824848 -47.693507
-73.040376 -97.132069 33.024626 -51.051734
-77.944343 -102.774658 37.279913 -54.215700
-81.351226 -59.874737 31.663081 -42.367789
-106.275441 -64.545771 50.103266 -51.246364
-83.166101 -79.479990 32.372530 -48.793827
-89.369858 -72.054290 39.370136 -48.427245
-94.362483 -106.586160 15.278849 -77.556815
-88.581775 -82.992055 17.931815 -68.117129
-114.849488 -70.719657 34.372605 -55.670743
-144.905326 -45.942061 36.554882 -57.254216
-97.839293 -146.645002 19.025755 -73.345289
-101.678856 -135.631297 14.246894 -71.193046
-100.387416 -125.572019 9.574375 -67.787830
-120.664963 -127.522195 15.460161 -94.666043
-114.541717 -132.526859 6.624089 -74.120573
-115.988847 -134.552986 8.012697 -94.903707
-91.755267 -110.826447 10.852941 -78.338560
-109.050537 -112.550597 12.778702 -82.972971
-104.056812 -12.637336 47.676431 -35.008244
-129.688951 -133.792878 25.528657 -106.812043
-170.534881 -183.857607 32.252285 -145.132614
-143.956316 -154.058057 35.804439 -89.404312
-132.110258 -116.256280 62.513284 -74.509961
-164.740927 -185.866565 30.870101 -143.137468
-132.619082 -123.527748 24.550386 -103.764058
-164.686761 -132.982620 34.098291 -89.300814
-94.549094 -66.738647 41.755961 -48.386322
-101.586030 -76.684866 64.582256 -53.481269
-105.496139 -138.407101 7.866200 -73.170972
-97.151927 -134.512372 11.493638 -69.499290
-138.031714 -104.741182 25.650047 -72.831869
-105.016206 -103.118837 21.060179 -83.544275
-89.877137 -145.506815 23.520143 -70.615185
-104.828391 -137.564483 7.144606 -94.653983
-112.612193 -130.110080 7.814678 -92.176720
-115.611557 -134.445468 8.530031 -95.992262
-106.333823 -115.821864 9.691213 -83.499048
-109.474279 -109.773842 22.003826 -88.203599
-150.325955 -115.155516 26.564748 -79.644441
-169.438890 -101.490765 23.535902 -81.278896
-101.479206 -75.099644 44.735958 -52.973655
-98.860081 -111.065977 47.396091 -62.977817
-92.541468 -86.960166 37.982836 -53.850490
-81.342947 -71.389237 32.913820 -45.819655
-38.421143 -24.629893 6.270279 -22.418602
-46.620332 -58.128605 11.335480 -40.000012
-55.102365 -103.769718 38.226252 -47.661625
-71.979116 -111.226603 43.556095 -54.961716
-62.791970 -107.512987 39.872040 -51.091487
-62.482468 -107.493641 41.805055 -50.992833
-56.338085 -51.018649 10.752934 -42.522664
-65.409175 -51.666201 6.015386 -35.122613
-66.288598 -49.563569 10.786481 -45.365073
-107.087052 -74.736594 9.900703 -72.451182
-62.977929 -59.769920 14.080788 -47.579501
-84.756158 -65.510976 13.325014 -59.130858
-21.296341 -16.556409 7.107128 -12.316069
-66.987295 -66.155002 13.581507 -52.643133
-57.322742 -66.531629 21.590083 -37.156311
-45.656358 -59.617008 27.316931 -31.582010
-47.475130 -43.543177 11.420161 -36.898364
-76.181694 -61.305080 13.098594 -55.193785
-94.578720 -83.672674 17.840430 -70.962970
-58.012573 -49.491672 12.162042 -43.221436
-90.095658 -70.768197 14.501709 -63.488510
-22.893538 -11.896924 4.541319 -12.058911
-67.833351 -59.978023 11.661419 -50.709431
-56.039913 -59.393610 13.701645 -34.630057
-84.412208 -97.991544 38.399223 -54.721125
-77.488729 -93.660357 35.452597 -51.344726
-73.567162 -110.215357 42.054429 -55.134756
-82.383351 -110.830395 42.726109 -57.964124
-88.098974 -89.118677 39.121840 -53.165295
-99.432051 -87.350033 43.880897 -56.034625
-76.429580 -99.458065 37.634161 -52.766293
-75.724863 -107.589532 39.500463 -54.994318
-125.358330 -120.704558 24.039659 -99.517545
-127.986007 -150.254463 24.336010 -113.065500
-110.896385 -117.751127 77.085516 -68.594254
-125.091643 -116.651280 80.647893 -72.522877
-108.166541 -123.545316 8.395184 -87.486708
-120.073067 -155.206616 2.046894 -107.720639
-141.623537 -95.215645 18.615647 -71.051754
-126.075001 -82.288199 36.195966 -62.508960
-98.940086 -149.094258 24.804314 -74.410303
-107.234954 -141.031851 15.409346 -98.755086
-111.181610 -119.733215 11.628512 -87.297462
-113.639078 -128.611324 11.068542 -90.817531
-100.305592 -94.767595 19.853190 -78.023215
-83.502386 -73.559600 16.244332 -63.158363
-112.135045 -107.587153 70.123785 -65.916659
-127.084858 -100.402116 74.532981 -68.246092
-105.880726 -98.765136 58.840953 -61.393759
-110.918434 -86.288150 58.577914 -59.161975
-94.616527 -92.125050 48.550401 -56.022473
-94.130801 -79.905560 46.687330 -52.210908
-88.716285 -80.741094 39.716126 -50.837214
-93.827141 -88.104258 54.336700 -54.579420
-101.172166 -122.735999 19.189309 -89.353923
-128.139518 -161.362602 22.132986 -117.808110
-107.463553 -135.045322 19.476096 -98.020071
-70.843037 -115.775850 63.170886 -55.985666
-115.082174 -120.597141 17.607364 -90.578193
-116.988885 -138.436315 6.166198 -97.381786
-103.409679 -99.934600 20.640991 -81.507773
-127.406438 -111.260056 22.140975 -96.389242
-93.289837 -90.262074 62.852532 -55.065573
-91.107624 -101.413381 70.069069 -57.756302
-94.819752 -99.614599 42.003242 -58.330305
-100.631011 -95.528294 50.253882 -58.847791
-83.326386 -106.072817 40.819696 -56.819761
-72.832785 -108.618648 42.303148 -54.435430
-82.056982 -109.861136 42.433679 -57.575436
-88.569663 -114.673284 44.554397 -60.972884
-89.600926 -100.472457 39.271134 -57.022015
-90.111558 -93.704403 38.293745 -55.144788
-93.577685 -103.938529 41.783604 -59.254864
-83.718118 -106.799862 40.560557 -57.155394
-82.964317 -120.520553 46.566494 -61.045461
-28.851273 -22.156842 7.664429 -19.201960
-80.354070 -63.766251 13.561772 -56.658714
-54.248822 -43.380388 3.537555 -40.982598
-95.029850 -74.922591 14.932303 -67.453798
-119.521300 -83.084270 9.716235 -81.203253
-78.681863 -60.246697 12.608577 -54.283530
-36.639939 -19.292395 1.323636 -21.225786
-58.129517 -51.195631 2.904195 -43.338656
-53.985343 -58.508875 14.108592 -33.748266
-62.850865 -62.647085 21.041995 -37.649385
-57.638476 -62.653980 24.755409 -36.087737
-69.791867 -44.957081 28.145243 -34.424685
-59.238802 -33.340015 25.081518 -27.773645
-10.315593 -1.135622 2.427446 -3.440119
-49.916542 -33.509874 7.359095 -30.991460
-31.079714 -27.348764 8.764700 -20.491837
-39.184977 -25.907284 6.825086 -23.278199
-63.837677 -39.374806 27.944754 -30.963745
-67.202697 -37.845887 26.538362 -31.514575
-48.963169 -33.129700 24.296716 -24.627861
-63.753292 -40.457355 28.930121 -31.263194
-61.471871 -63.736461 22.441972 -37.562500
-62.279510 -57.562548 28.183191 -35.952617
-57.700554 -53.477379 31.521162 -33.353380
-66.023631 -59.125844 28.608847 -37.544843
-52.812341 -57.351571 23.293770 -33.049173
-56.541889 -61.789712 20.931370 -35.499480
-62.942881 -50.063348 30.784004 -33.901869
-66.559749 -56.348124 28.979306 -36.872362
-67.400115 -45.245010 31.696807 -33.793538
-64.649317 -52.644406 31.080890 -35.188117
-63.360450 -40.776366 28.909722 -31.241045
-63.054858 -38.442203 27.784853 -30.449118
-55.219612 -29.556991 22.998011 -25.432981
-60.621580 -33.571485 25.168720 -28.257919
-21.216408 -15.341058 6.576655 -11.309394
-15.462111 -11.141284 6.015847 -7.981019
-42.133406 -34.395521 23.417991 -22.958678
-55.603874 -36.950965 26.936251 -27.766452
-35.192054 -37.986897 22.815779 -21.953685
-46.965971 -35.166531 23.301234 -24.639751
-2.933023 4.239282 2.065084 0.391878
-39.768064 -38.493531 22.633470 -23.478478
-24.661817 -18.313291 7.026852 -14.170397
-29.594193 -17.320958 5.038661 -15.929076
-25.647330 -13.165268 1.707888 -12.492887
-19.202500 -8.383963 1.761618 -8.275939
-27.774605 -20.000909 7.120045 -16.155080
-19.579375 -11.369902 5.333614 -9.284783
-18.005654 -7.222764 0.908287 -7.568525
-15.467002 -5.506004 1.222442 -6.291902
-10.606498 -2.129099 1.693451 -3.820679
-21.835579 -9.964153 1.281489 -9.539920
-13.336196 -2.715641 -1.555987 -4.815551
-19.168612 -6.651635 0.810137 -7.746074
-22.366097 -8.859902 -0.226249 -9.367800
-15.244381 -3.674740 0.263712 -5.675736
-28.236608 -13.048297 -0.200809 -13.325727
-16.737213 -4.870887 0.644367 -6.482430
-27.497468 -12.794625 -1.435696 -12.853622
-19.871549 -7.267553 -1.303890 -8.141731
-24.327952 -12.685881 -0.585874 -11.826270
-16.869757 -5.853679 -0.153776 -6.817031
-17.813258 -7.223667 -0.667765 -7.511077
-16.914155 -6.248498 -0.212178 -6.948796
-17.770353 -9.315037 -1.960828 -8.125617
-21.340382 -12.482944 -2.131242 -10.146998
-29.234575 -13.745655 0.259307 -13.948350
-25.060176 -10.740260 0.511277 -10.918502
-32.156338 -23.730755 7.685596 -19.414025
-32.906095 -22.051681 6.754873 -19.408134
-28.546451 -16.300572 2.430319 -15.193006
-21.286154 -9.737925 0.741776 -9.307223
-23.107423 -11.488432 2.265913 -10.609242
-21.472877 -9.671504 0.422432 -9.343314
-12.357082 -3.513571 1.766672 -4.761196
-26.624012 -13.730435 1.932210 -13.073735
-21.786665 -10.399075 0.200509 -9.655722
-28.962652 -11.635022 -3.804897 -12.179302
-24.603917 -11.540841 -1.785072 -11.372459
-33.518135 -17.945270 -3.150516 -17.555275
-27.021681 -12.415261 -1.350548 -12.723338
-26.081131 -11.880696 -1.640602 -11.900427
-23.628393 -9.477650 -2.959531 -9.931813
-27.795196 -13.072659 -1.106290 -12.260356
-24.885067 -10.919769 1.429373 -10.996862
-19.009826 -6.348560 -0.036907 -7.607516
-33.185704 -18.319831 -2.699733 -15.451660
-17.609955 -7.627440 2.311935 -7.571218
-25.404091 -10.963196 -0.001578 -11.174318
-33.282430 -16.624868 0.278720 -16.843281
-36.379458 -19.322788 1.851865 -19.393584
-24.443516 -12.303396 0.833379 -11.746375
-22.566385 -10.695173 -0.583667 -10.216131
-50.440519 -29.627449 2.685048 -29.576060
-35.959942 -19.035465 -1.864147 -19.136201
-28.531598 -13.855897 -0.971713 -14.165642
-30.968071 -15.691954 -2.352633 -15.699590
-35.504250 -18.442512 -1.330411 -19.456869
-36.502563 -20.920415 4.238617 -20.076136
-38.697774 -21.087567 -1.924820 -21.234209
-32.557433 -17.683720 -1.941236 -17.214687
-28.712004 -16.330334 -0.418843 -15.077373
-32.972292 -20.338945 2.684221 -18.490854
-30.169050 -18.544638 5.123976 -16.887332
-42.278676 -22.932002 -2.552230 -19.563204
-28.122058 -15.842963 2.737611 -14.613639
-30.077501 -20.537882 6.835514 -17.865316
-36.012873 -25.465887 7.554034 -22.312951
-32.488308 -18.326219 2.774530 -17.459535
-33.124282 -18.255581 1.659171 -17.698535
-28.332031 -14.430000 1.447163 -12.828609
-56.336115 -28.153978 -3.157712 -25.347028
-84.768032 -48.327925 32.175714 -39.928787
-54.624821 -35.682297 6.669500 -33.879288
-75.572673 -65.629736 40.662616 -42.360723
-38.682478 -30.161852 8.839524 -24.872431
-70.266599 -51.251790 28.718171 -36.455517
-63.055278 -53.565220 29.717928 -34.986149
-106.814563 -85.597208 56.417712 -57.723532
-59.655363 -52.386458 31.978607 -33.612546
-68.718618 -65.904457 22.618601 -40.386922
-60.791235 -64.172154 15.760383 -37.489017
-70.273262 -57.497683 28.828983 -38.331283
-66.988082 -52.133958 30.236752 -35.736612
-69.151782 -56.656609 11.295697 -37.742517
-60.058351 -57.776167 10.551903 -35.350356
-67.107710 -61.785369 13.400742 -38.667924
-70.199476 -64.798994 16.753747 -40.499541
-85.147498 -59.494097 7.881454 -43.392478
-59.745576 -57.631506 10.619961 -35.213124
-67.578659 -64.543847 25.850840 -39.636752
-58.952381 -62.552063 21.487239 -36.451333
-77.062219 -51.103516 28.535659 -38.449721
-76.917248 -47.537298 28.254923 -37.336364
-65.129599 -37.141916 26.425818 -30.681455
-82.663440 -45.191653 27.553262 -38.356528
-70.125933 -57.569846 28.469463 -38.308734
-65.685419 -49.572505 29.510308 -34.577377
-59.443501 -43.413900 30.079249 -30.857220
-62.216651 -38.364568 26.988705 -30.174366
-57.621181 -55.528506 2.762639 -44.609484
-85.551091 -57.957570 7.811074 -56.583335
-60.691045 -63.024281 18.443157 -37.114598
-65.619348 -64.585693 19.856972 -39.061512
-64.023179 -63.759120 28.820925 -38.334690
-63.432807 -62.224416 24.280431 -37.697167
-82.590682 -114.266144 43.517991 -59.057048
-69.711036 -118.553693 44.967872 -56.479419
-87.807628 -125.136202 44.863311 -63.883149
-88.414198 -133.945928 51.667672 -66.708038
-91.049372 -108.858444 42.209925 -59.972345
-94.079232 -111.102918 43.197999 -61.554645
-78.387052 -60.900734 12.966218 -54.427314
-87.042317 -65.844191 12.984328 -60.129539
-97.105414 -101.648692 45.891433 -59.626232
-89.519422 -105.644214 41.370730 -58.549091
-91.085204 -102.392444 40.852836 -58.043295
-95.190963 -108.933225 42.569721 -61.237256
-90.282330 -101.157219 58.389325 -57.431865
-93.310420 -93.750985 44.432765 -56.118421
-99.420487 -105.140010 49.721045 -61.368149
-93.839439 -99.435820 46.968899 -57.982578
-123.640162 -118.791366 23.794679 -97.939470
-116.655219 -131.458588 12.855210 -93.152762
-108.568858 -113.364908 21.297568 -88.225604
-70.310391 -104.655940 54.267591 -52.489899
-116.174586 -128.495858 10.552593 -91.152151
-105.517232 -108.493151 21.528699 -85.996810
-111.019371 -109.429691 18.669001 -85.709866
-105.556620 -117.602737 14.225377 -84.713924
-125.442090 -148.202212 17.290672 -106.346237
-122.481956 -148.670202 8.965201 -104.343396
-81.362722 -69.180830 15.307249 -59.756031
-121.142280 -110.007452 22.316379 -93.193036
-105.518840 -108.657448 21.176836 -85.284531
-93.584351 -82.092911 17.540370 -70.091656
-110.108660 -134.740089 20.662163 -99.005280
-116.257520 -144.540227 20.579423 -104.785744
-83.986511 -118.002660 64.764198 -60.596751
-71.443464 -98.716923 59.856186 -51.048116
-115.181397 -130.096055 22.478714 -98.264680
-99.847625 -106.666027 20.331817 -82.076798
-80.938010 -117.864988 67.631435 -59.640900
-77.002431 -121.330709 60.043674 -59.499942
-138.889882 -161.597038 26.204934 -122.438942
-117.328952 -137.825538 13.029855 -97.345684
-114.558311 -119.691630 16.849052 -89.541982
-191.421635 -184.743588 87.085844 -112.849567
-160.072495 -187.487986 29.329219 -142.260355
-156.275598 -209.752210 19.517733 -148.591223
-118.275960 -145.327545 21.698788 -106.907569
-131.602997 -161.252159 13.790199 -113.714646
-121.715955 -144.442476 18.732532 -104.515099
-56.779308 -86.091111 5.428100 -56.199556
-72.708491 -93.190229 61.101403 -49.769616
-95.488033 -117.508658 18.434531 -85.593384
-101.892702 -107.872107 55.659895 -62.929443
-93.271336 -99.239774 42.712804 -57.753333
-93.952325 -107.544777 48.953098 -60.449131
-104.845388 -126.210107 42.104632 -69.316648
-86.611834 -115.010968 58.106987 -60.486841
-102.727941 -113.843273 63.666478 -64.971364
-98.183389 -119.156052 57.229536 -65.201832
-93.156909 -99.931095 52.234046 -57.926401
-88.821077 -110.615355 42.781791 -59.830930
-89.024067 -114.820020 43.741676 -61.153226
-32.781206 -16.355528 -0.232889 -17.611108
-88.526571 -71.174278 14.962011 -63.013190
-95.882114 -104.509929 43.907697 -60.117613
-94.013534 -107.997109 42.133535 -60.603193
-89.547285 -119.851212 44.536293 -62.819549
-84.076158 -119.853126 43.963288 -61.178785
-94.773681 -120.170552 45.962813 -64.483270
-86.086280 -112.107075 41.385996 -59.458006
-95.630054 -126.101983 47.037621 -66.519611
-95.890333 -130.590507 46.721537 -67.944252
-73.378369 -61.669737 15.388610 -40.514432
-63.870423 -60.270095 13.910974 -37.242156
-83.486073 -63.521012 15.892379 -44.102125
-78.194825 -63.739654 15.252356 -42.580344
-76.943029 -64.910450 17.934216 -42.556044
-67.080441 -63.011410 18.219843 -39.027555
-93.685727 -104.426937 41.773530 -59.433799
-104.982143 -124.714712 43.997004 -68.909056
-99.132525 -120.284963 45.553986 -65.825246
-90.017231 -126.287800 44.762070 -64.891509
-98.132847 -113.155631 43.263575 -63.386543
-89.039554 -111.123391 42.766507 -60.048884
-95.054214 -113.352501 43.336114 -62.522015
-94.153674 -115.337912 44.578957 -62.847476
-71.712164 -111.082994 58.640386 -54.838548
-72.860445 -120.697674 59.480993 -58.067436
-100.355326 -115.616254 43.459652 -64.791474
-96.067287 -107.371520 42.830815 -61.031642
-139.127954 -165.964479 25.632626 -124.377463
-106.229255 -131.581140 19.761132 -96.053727
-114.817018 -107.034866 21.846860 -89.166918
-140.534035 -142.578391 27.176507 -115.083154
-120.290795 -138.501049 17.035391 -99.989646
-135.603981 -163.627854 24.763597 -121.903350
-119.194226 -117.110022 23.362402 -95.385235
-176.743109 -177.917467 61.899147 -106.398173
-113.202341 -110.910904 22.341428 -90.276740
-102.707391 -104.379344 20.525195 -82.234083
-73.687085 -116.728536 54.288034 -57.124686
-76.114379 -125.616454 61.388349 -60.519250
-93.177511 -128.178618 55.120132 -66.406839
-81.228479 -121.475347 61.108184 -60.811148
-95.712380 -132.568240 49.727889 -68.484186
-99.449381 -114.712548 51.930114 -64.248579
-89.612762 -121.167742 52.595067 -63.234151
-99.393363 -120.115939 48.316568 -65.852791
-130.387439 -161.097957 23.210078 -118.648041
-135.681889 -235.210087 33.615644 -111.267593
-68.308448 -82.627585 65.985887 -45.280810
-99.067531 -112.316525 20.285659 -84.915808
-110.624731 -120.144654 22.412869 -93.106921
-119.846234 -127.515175 20.157402 -96.732847
-132.801761 -141.691887 26.098195 -111.474253
-73.619543 -86.786454 59.292487 -48.121799
-70.303810 -105.955652 60.316785 -52.877839
-74.038124 -99.850978 55.728237 -52.166731
-103.286325 -141.752358 46.823379 -73.511605
-81.253922 -131.147382 53.341541 -63.720391
-96.894038 -112.568748 43.076760 -62.838836
-103.288372 -120.772456 43.442159 -67.218248
-94.798826 -115.725329 43.729510 -63.157247
-101.828059 -120.396249 44.676893 -66.667292
-101.905141 -120.889790 44.135104 -66.838479
-96.283961 -107.408281 45.816405 -61.107673
-97.582329 -109.865981 43.908439 -62.234493
-101.208542 -124.631286 45.572344 -67.751948
-85.228115 -65.110935 16.068700 -45.101715
-79.207859 -59.958880 12.250942 -41.750022
-78.688974 -68.210891 23.863615 -44.069959
-68.169472 -64.008682 21.554661 -39.653446
-96.689136 -125.826385 45.098740 -66.754656
-103.777022 -132.133928 44.960079 -70.773285
-94.665441 -143.793950 40.864784 -71.537817
-101.833985 -132.883751 47.670535 -70.415321
-94.901648 -73.866961 14.492609 -66.953849
-82.560613 -63.699469 16.710728 -43.878024
-85.827828 -60.163884 26.060602 -43.797513
-86.737040 -56.118602 26.068157 -42.856693
-71.922869 -49.118088 29.497458 -36.312287
-82.158150 -57.074826 27.382886 -41.769893
-62.857036 -56.239618 36.158553 -35.728996
-210.007209 -187.617874 101.591107 -119.287525
-67.706860 -45.463117 7.569596 -43.496364
-58.503798 -38.067405 6.482439 -36.514568
-73.919877 -41.484567 28.054528 -34.621333
-89.106733 -49.749179 26.175693 -41.656774
-72.582937 -43.117851 30.641918 -34.710236
-91.031593 -48.226701 26.962642 -41.777488
-73.799122 -66.256757 23.231613 -42.016764
-78.890033 -68.687488 21.564814 -44.273256
-82.935333 -53.347588 27.289881 -40.884877
-75.084279 -43.752970 27.420499 -35.651175
-70.447250 -62.293682 27.255061 -39.822280
-80.276353 -64.395093 26.433926 -43.401434
-76.437787 -55.042443 28.567643 -39.444069
-74.586142 -57.093094 28.005978 -39.503771
-75.143513 -52.209251 28.203503 -38.205829
-80.847470 -54.040565 27.257881 -40.466411
-75.283906 -47.345068 27.854552 -36.788692
-81.449894 -49.934154 27.111997 -39.415215
-82.014341 -46.871234 27.079390 -38.665672
-76.137292 -44.774452 28.205887 -36.273523
-74.772112 -42.927585 28.856799 -35.309909
-74.602173 -41.699863 27.354768 -34.890611
-68.824995 -46.926764 33.426313 -34.725528
-82.988544 -44.858085 31.364888 -38.353989
-81.722253 -54.103323 36.270458 -40.747673
-79.736384 -48.852031 36.752611 -38.576524
-14.099903 -3.944057 2.667118 -5.413188
-74.280410 -60.480185 44.002735 -40.428178
-46.343723 -41.312403 9.062607 -32.492309
-45.989829 -20.792858 2.324028 -20.034806
-46.696585 -23.730268 -3.066556 -21.128056
-48.288173 -21.567029 -1.081759 -20.956561
-33.557100 -24.320470 7.390638 -20.947880
-34.852959 -23.807283 7.076510 -21.872472
-42.450642 -20.410146 -0.254173 -18.858237
-37.192850 -17.933072 1.008580 -16.537777
-44.004123 -18.239946 3.322625 -18.673221
-44.320128 -24.562821 -0.029905 -24.824340
-29.917947 -14.251993 0.588256 -14.459733
-60.523179 -36.685489 2.254527 -36.801556
-35.364931 -18.454788 1.877023 -19.190696
-26.693949 -12.134591 1.407719 -13.562102
-36.174675 -21.324447 -0.179420 -20.193523
-67.066116 -41.231756 -1.823837 -41.448414
-38.793025 -20.646120 -0.191840 -20.905895
-31.088626 -15.322282 -1.370790 -16.021811
-59.391809 -35.998261 -2.685374 -36.020532
-43.675519 -25.050884 -1.960899 -24.653237
-41.815454 -23.898781 -3.350659 -23.545340
-47.785029 -27.188699 0.126861 -27.460068
-56.105593 -24.056371 5.090160 -24.048589
-61.762078 -23.335236 2.064507 -25.529194
-42.257379 -23.948674 2.972517 -23.741580
-25.623650 -11.083728 -0.378792 -12.069287
-54.222486 -32.802917 -0.829491 -32.464378
-73.651222 -53.395883 10.491300 -49.333159
-120.271291 -44.473196 9.811287 -49.423346
-51.023430 -27.438885 -1.021809 -23.538694
-76.141141 -30.558645 0.654764 -32.009936
-66.260138 -26.854548 0.285990 -27.934406
-50.391124 -21.154570 -1.770547 -21.463708
-63.352447 -26.844336 -1.324936 -27.059035
-47.300508 -26.851067 -0.024303 -27.121005
-60.509071 -38.773218 5.778031 -37.667643
-33.150109 -16.606709 0.559916 -16.811826
-35.768275 -18.464098 -0.300646 -18.717388
-23.163835 -10.869253 3.422175 -11.273266
-19.841315 -7.125071 0.952363 -8.406256
-58.346347 -25.777004 -0.523545 -25.237005
-59.618389 -29.755181 -1.156554 -26.812071
-53.407914 -26.115174 -3.045040 -23.856926
-36.884983 -19.228385 -0.185242 -19.467839
-65.675978 -26.596994 -2.881620 -27.681892
-41.237063 -23.483538 -3.477204 -23.091020
-40.803548 -18.911493 -1.646880 -17.914512
-53.691445 -31.539367 -1.845100 -31.702504
-51.677502 -17.123561 -7.064308 -20.640319
-52.175666 -31.114949 -3.246483 -30.917038
-44.941679 -26.234134 -3.693516 -25.831834
-44.165832 -26.594540 -4.828635 -26.005720
-48.072153 -28.828205 4.225483 -28.220983
-31.118197 -8.033629 -1.595711 -11.745548
-42.640559 -23.496737 0.618191 -23.730523
-48.251096 -27.541110 0.455108 -27.805885
-46.256106 -24.448368 0.446702 -21.211342
-39.291813 -20.498551 0.452557 -17.937109
-42.025568 -23.652392 2.557540 -23.530666
-37.375970 -19.332689 4.192017 -17.012598
-40.240913 -20.417288 -0.806260 -18.197460
-43.405132 -23.565733 -0.408513 -20.091259
-32.650086 -16.343254 0.781428 -16.522507
-41.967339 -23.013781 0.564898 -23.248595
-43.080185 -21.233667 -1.132191 -19.294156
-33.700513 -17.226388 1.372763 -17.335767
-37.581547 -20.173278 -1.744904 -17.326448
-36.674540 -19.583291 -1.067562 -16.877349
-51.259882 -32.727283 2.718054 -25.196149
-51.937985 -32.036856 -0.422818 -25.192452
-34.867417 -19.696269 4.210649 -18.839606
-41.631515 -23.443391 2.968660 -23.240076
-43.683555 -21.564282 1.422397 -19.574351
-35.240334 -18.260935 1.120197 -18.414375
-39.653208 -22.931277 1.106235 -18.775346
-42.777547 -23.613306 0.641151 -23.845629
-38.791695 -21.067733 1.981370 -21.090990
-38.932435 -20.845280 0.700914 -21.058773
-33.534999 -17.229281 1.735379 -17.268843
-39.505757 -22.819676 4.038428 -22.139920
-33.417604 -17.244651 1.981469 -17.225915
-37.975500 -21.624280 3.936074 -17.879934
-37.862703 -20.416003 2.194077 -20.451393
-35.150765 -18.249913 1.688112 -18.315954
-36.864510 -19.697924 -1.611832 -16.968730
-26.667150 -11.647827 -1.546632 -11.494493
-36.848837 -17.496816 -0.814578 -16.303696
-52.241311 -22.239108 0.640223 -22.344126
-43.635614 -18.324263 -0.140267 -18.587963
-37.565642 -14.619853 -2.416364 -15.655649
-20.256414 -20.044266 7.526336 -13.028439
-36.643512 -7.392303 -0.659846 -13.210745
-27.924800 -16.686345 -4.327838 -14.832413
-49.453388 -35.816664 3.278444 -28.923858
-38.190857 -20.896146 -2.770528 -20.731576
-40.592730 -23.084054 -3.596997 -22.628469
-41.514474 -19.214202 -4.420063 -18.218603
-43.399784 -24.113735 -1.366830 -24.273086
-24.445306 -10.424718 -0.941967 -10.551341
-11.605315 -7.795920 5.488326 -5.820370
-37.038863 -20.292701 -3.039738 -20.090412
-40.463338 -22.017099 -1.541863 -22.137214
-38.463839 -16.086690 -4.172515 -16.365159
-28.757821 -13.367853 -0.364735 -14.073440
-34.887591 -18.038059 -1.347133 -18.156974
-40.929697 -22.332674 1.382938 -22.487911
-33.316570 -16.701003 -0.448904 -16.913741
-34.157379 -17.297607 -0.138177 -17.521890
-36.942332 -19.414385 1.016186 -19.595937
-41.905671 -24.579513 4.184864 -23.875128
-43.320987 -19.621082 -2.796853 -18.882621
-37.262377 -18.581561 -3.062527 -16.753181
-41.239912 -12.257104 0.565246 -16.049105
-44.965487 -9.487567 0.972037 -16.335916
-37.812673 -10.604663 1.064369 -14.525201
-37.685563 -20.766662 3.151230 -20.443726
-36.003032 -16.071990 -2.471816 -15.622507
-32.232907 -14.862328 -3.689519 -14.128570
-33.448298 -13.715661 -3.094731 -14.149188
-37.414976 -16.594699 -3.416290 -16.202902
-32.191307 -15.926947 -0.502902 -16.130528
-24.531511 -10.415313 -0.386121 -10.611765
-27.524277 -12.491930 -0.377624 -12.689276
-23.132271 -9.410946 -0.790717 -9.773162
-21.604159 -8.295730 0.140689 -9.015012
-30.620994 -14.997787 -1.427649 -15.082964
-28.787186 -13.486460 -0.704789 -13.663330
-26.065670 -11.481383 -0.384132 -11.672473
-35.316730 -18.097640 0.354125 -18.321123
-26.413813 -11.974080 1.611675 -12.023559
-38.371174 -20.391649 -0.658329 -20.607969
-17.207254 -8.557615 2.675826 -7.729461
-32.372178 -16.167723 -1.108956 -16.540119
-22.708302 -9.421644 1.642882 -9.638984
-31.611878 -8.888096 0.088268 -12.149992
-32.072232 -12.569955 -2.996497 -13.392656
-33.991068 -19.149645 4.269297 -18.234989
-31.012312 1.643134 1.315433 -8.810753
-26.803949 -12.060323 0.335278 -12.247874
-34.427400 -14.517356 -0.658072 -14.683427
-34.839948 -15.175423 -1.176866 -15.004611
-31.660386 -16.164053 -1.796619 -14.347332
-25.789007 -11.257669 0.433006 -11.459248
-29.733941 -14.333952 1.552236 -14.516624
-24.501793 -10.329827 -0.151025 -10.546887
-31.475154 -15.480795 0.752556 -15.667346
-27.529680 -11.612707 0.682810 -11.742716
-34.629458 -17.862350 0.491902 -15.747542
-32.127398 -15.948460 0.778731 -16.127948
-34.555005 -17.859217 1.461519 -17.957391
-28.727396 -13.323396 -0.923769 -12.615237
-36.185122 -17.964587 -0.880309 -16.244913
-28.820575 -13.317978 -0.133868 -12.641566
-36.993279 -17.196514 1.642758 -16.256938
-26.417434 -12.250948 1.979041 -12.174075
-39.475168 -19.083518 -0.027842 -17.567606
-32.337929 -16.821409 -0.555242 -14.747801
-36.413709 -18.141273 -0.274609 -16.366495
-29.619429 -12.969086 0.776394 -12.776555
-37.580060 -18.127878 0.471641 -16.712381
-35.407885 -5.711193 0.235651 -12.335724
-45.849861 -25.760149 -0.542690 -26.011812
-39.420813 -21.493657 2.219960 -21.486063
-36.024889 -19.057493 2.197253 -19.009075
-36.418777 -18.996440 0.703721 -19.203755
-33.624551 -16.959531 0.806474 -17.153199
-30.271870 -13.593547 1.593883 -13.159625
-34.228441 -16.367232 0.254416 -15.178702
-32.286075 -12.515879 -0.108601 -13.440586
-35.029350 -17.197416 0.945834 -15.668030
-29.225355 -13.904491 0.960034 -14.049631
-37.998599 -20.216195 1.004218 -20.398565
-28.488916 -13.393768 0.980752 -13.532303
-33.234978 -16.843267 1.218667 -16.973822
-26.158983 -14.698800 2.594587 -12.257335
-30.256868 -17.150990 3.054254 -14.222357
-25.185672 -15.087524 3.299948 -12.081959
-26.674648 -18.766840 3.655466 -13.632446
-26.937905 -20.427136 3.289182 -14.209513
-21.416055 -13.938536 3.477918 -10.606377
-24.544840 -18.150594 2.977246 -12.808630
-23.474527 -19.256262 2.650779 -12.819237
-20.405893 -14.037073 2.623382 -10.332890
-18.607083 -15.575180 -3.045849 -10.254679
-14.489457 -11.659859 -1.706777 -7.844795
-14.103055 -11.317258 -2.814259 -7.626094
-22.068183 -10.855891 2.617014 -9.877222
-27.738747 -18.091385 3.327038 -13.749040
-23.564156 -14.502456 3.109313 -11.419984
-26.999544 -18.404756 3.498303 -13.621290
-25.251885 -12.270221 1.902762 -11.256632
-29.555328 -14.835104 2.166181 -13.317130
-23.158968 -16.536342 3.653350 -11.908593
-23.131687 -14.990480 2.766928 -11.436650
-21.486569 -10.732276 2.049020 -9.665654
-26.547734 -15.022808 2.857966 -12.471163
-20.572864 -10.425159 2.430415 -9.299407
-24.185944 -14.346428 2.875195 -11.559712
-19.073326 -11.817724 3.625480 -9.267315
-20.951637 -13.594118 2.685379 -10.363726
-13.001090 -9.898267 -0.028234 -6.869807
-16.599669 -17.688535 0.384040 -10.286461
-21.712911 -15.698881 3.242468 -11.223538
-22.283680 -16.299595 2.752282 -11.574982
-25.450462 -22.202581 3.591987 -14.295913
-15.908219 -12.740739 -2.194991 -8.594688
-22.017013 -24.205291 1.230944 -13.866691
-16.660633 -13.935965 -2.276746 -9.178979
-12.890336 -9.923999 0.468942 -6.844300
-16.081580 -18.765041 0.577004 -10.453986
-12.128274 -10.089093 1.700232 -6.665210
-15.843306 -14.447841 1.275507 -9.087344
-12.948043 -10.865431 1.334350 -7.144042
-12.527109 -10.010619 1.003279 -6.761318
-10.993993 -10.980356 2.049701 -6.592305
-12.048120 -13.833838 3.746230 -7.764587
-11.155500 -13.425348 1.845815 -7.374254
-20.103530 -17.087037 -1.863688 -11.157170
-12.669628 -10.047433 -3.149872 -6.815118
-16.604885 -15.115320 -5.186393 -9.516061
-20.158919 -17.783287 -0.800143 -11.382662
-7.925952 -11.624498 1.034507 -5.865135
-20.792388 -18.340266 -1.115238 -11.739796
-12.079848 -12.885436 -4.148046 -7.489585
-20.256869 -12.056710 -3.406004 -9.694074
-24.230049 -15.886803 -1.897359 -12.035056
-20.521326 -10.964410 -0.403010 -9.445721
-10.960912 -13.660295 3.011499 -7.386362
-9.832603 -12.902468 2.292834 -6.820521
-17.808466 -11.041120 -3.609205 -8.654876
-19.928331 -13.987110 -4.581740 -10.174632
-14.708461 -13.977404 0.304373 -8.605759
-15.169290 -14.236224 0.199015 -8.821654
-13.728773 -13.262054 1.768263 -8.097248
-14.566618 -13.611029 0.914103 -8.453294
-21.417901 -21.439071 0.927573 -12.857092
-23.066628 -21.533013 0.827723 -13.379892
-22.036843 -21.651199 -1.603869 -13.106413
-20.852983 -19.146560 -0.630305 -11.999863
-22.469963 -14.527721 -3.427477 -11.099305
-23.800681 -15.608420 -0.953797 -11.822731
-28.054340 -24.427205 -2.928358 -15.744464
-27.070212 -20.650096 -6.921668 -15.459196
-18.990596 -17.024372 -5.928856 -10.804490
-27.880228 -16.633805 -4.477645 -13.984652
-22.478094 -14.093821 -2.645522 -10.971575
-24.183478 -16.613752 -4.347464 -12.239169
-22.723792 -14.332459 -0.487275 -11.116875
-26.440733 -24.962791 2.658393 -15.421057
-22.617971 -22.541783 -1.889849 -13.547926
-23.248246 -21.360259 -2.189498 -13.382552
-29.031298 -30.170339 -3.863925 -17.760491
-15.719396 -14.960158 0.821827 -9.203866
-14.975654 -14.404651 0.480321 -8.814092
-22.882473 -28.832553 -1.515629 -15.514508
-20.102796 -18.647835 -0.946655 -11.625189
-22.461506 -20.587316 0.415572 -12.914647
-32.567936 -33.270472 5.010646 -19.751522
-16.500128 -13.483228 -3.201675 -8.995007
-31.604655 -30.116977 4.612479 -18.516489
-26.190553 -13.707166 1.495631 -11.969316
-33.709517 -17.834676 2.467894 -15.463258
-25.774615 -21.221032 3.095786 -14.098694
-26.652572 -24.476232 3.147516 -15.338641
-30.446159 -14.796168 1.211259 -13.572698
-34.575256 -15.169986 2.607295 -14.923573
-35.397121 -20.730124 4.209804 -16.838174
-33.519461 -20.136444 3.950914 -16.096772
-27.439937 -16.119914 2.469209 -13.067955
-30.501493 -19.011443 3.164039 -14.853881
-28.222171 -20.569352 4.224574 -14.637457
-28.124212 -24.749514 4.125398 -15.862118
-18.351345 -15.958176 -2.993108 -10.292856
-19.172713 -17.041779 -1.560799 -10.864348
-29.272044 -23.484336 4.305692 -15.826914
-35.927496 -34.052744 5.157241 -20.994072
-26.229576 -27.061745 3.580634 -15.987396
-23.886375 -22.548599 2.315454 -13.930492
-29.956522 -18.506435 3.458477 -14.538887
-36.798902 -30.637822 5.690911 -20.231017
-27.867561 -19.019353 3.690081 -14.066074
-33.049331 -26.547888 4.634594 -17.879166
-33.453636 -20.441003 3.954162 -16.168392
-35.079032 -21.175425 4.146464 -16.876337
-30.837249 -21.223880 3.782656 -15.618339
-32.974256 -21.568058 4.169045 -16.362694
-29.466504 -22.673600 3.709587 -15.642031
-30.528441 -25.442796 3.764279 -16.791371
-22.409980 -26.977791 2.411832 -14.816331
-29.174074 -28.684510 4.276160 -17.357575
-26.279414 -33.794484 4.475749 -18.022169
-21.247617 -19.249153 -2.569613 -12.149031
-18.721763 -19.116885 -0.159298 -11.351595
-25.323557 -41.416670 -1.768197 -20.022068
-24.197195 -24.600028 -2.464201 -14.639167
-23.992568 -26.822154 -2.322959 -15.244417
-15.315753 -18.411041 -0.648946 -10.118038
-20.985516 -26.235895 -1.726148 -14.166423
-21.164299 -22.816713 -0.724897 -13.194304
-25.568091 -26.459281 -3.111610 -15.608211
-28.519863 -28.203658 -3.811980 -17.017056
-28.335898 -26.387379 -3.425978 -16.416983
-22.571079 -18.140271 -6.017706 -12.213405
-25.845377 -23.905392 -2.425510 -14.925231
-26.342865 -25.649215 -2.881856 -15.597624
-29.646960 -31.829110 -4.524453 -18.442821
-21.875783 -18.742672 -6.776624 -12.412838
-28.060608 -25.218389 -2.850166 -15.983699
-26.242108 -17.268809 -3.144887 -13.053275
-27.439709 -23.252809 -0.601704 -15.207755
-28.808587 -28.619336 -3.429340 -17.228377
-30.971896 -32.749585 -5.059696 -19.116444
-25.112317 -17.694698 -0.395221 -12.842104
-26.039005 -32.536028 -3.119841 -17.572510
-30.326236 -39.882527 -5.719510 -21.062629
-26.979275 -27.961914 -3.375032 -16.482357
-31.405101 -29.517871 -4.321817 -18.276892
-26.666730 -30.018337 -3.383914 -17.005520
-31.954187 -34.006078 -4.756242 -19.788080
-31.193778 -33.092823 -4.808955 -19.285980
-31.504087 -33.867702 -4.396318 -19.611537
-29.282646 -18.504511 -5.068898 -15.315987
-30.254922 -21.135466 -3.701687 -15.515530
-27.000432 -22.747855 -0.344169 -14.924486
-25.677356 -18.868046 -0.651838 -13.363621
-26.405321 -19.638482 -1.334471 -13.813141
-29.389822 -24.013681 -1.294078 -16.021051
-26.853608 -21.502819 -0.230457 -14.506928
-27.986503 -23.154732 -0.786619 -15.342370
-36.266094 -39.408416 -1.047306 -22.702353
-28.434056 -17.248322 -3.163392 -13.855876
-28.950866 -27.576236 -0.301759 -16.958131
-28.072913 -25.853032 -0.081927 -16.177783
-28.983082 -32.102895 -4.286706 -18.325793
-33.992037 -39.521166 -6.030706 -22.053961
-31.051358 -32.412785 -4.420604 -19.039243
-33.944932 -36.558833 -3.374716 -21.151130
-25.053161 -29.195836 -2.869739 -16.274699
-27.525281 -37.929374 -4.291927 -19.636396
-31.493802 -35.906389 -5.383130 -20.220057
-28.668304 -30.183881 -4.167897 -17.655655
-33.313136 -36.785867 -5.487385 -21.029701
-30.782225 -30.654383 -4.231499 -18.430982
-19.903879 -27.464279 -1.092564 -14.506269
-31.058880 -41.859824 -5.210054 -25.772893
-24.002492 -32.412596 1.337134 -16.924527
-25.712594 -37.045881 -3.468718 -18.827542
-16.993066 -21.947985 -0.885217 -11.682315
-33.849745 -48.737372 1.110581 -29.503636
-33.511155 -45.361506 -4.528454 -27.998565
-25.036701 -34.937508 -2.923660 -19.974681
-27.367545 -25.819044 2.286246 -15.955977
-19.100008 -18.548730 -0.138374 -11.294621
-22.173919 -29.223689 1.024995 -16.031504
-23.570111 -30.684158 2.142180 -17.052248
-27.898277 -27.312974 2.604536 -16.563375
-18.794081 -20.664246 0.788667 -11.837498
-21.083226 -26.865510 1.553408 -14.406475
-25.825932 -30.685359 3.783336 -17.345292
-23.775937 -19.230683 -2.699406 -12.901986
-24.599069 -22.426761 0.467562 -14.107749
-23.806897 -31.598865 -0.363458 -17.696634
-23.235323 -29.784189 2.317580 -16.653448
-13.933590 -15.072446 -4.320867 -8.701811
-25.009095 -33.361365 -2.981179 -19.207721
-23.255227 -27.514455 -1.158681 -15.230905
-25.139161 -34.335752 -2.857753 -17.842474
-18.806623 -23.927205 0.739415 -12.820148
-19.020674 -23.530707 0.607320 -12.765414
-21.678914 -25.981503 0.869958 -14.298125
-25.561722 -34.223587 -2.510520 -17.935593
-21.705397 -19.803187 -0.657538 -12.452575
-24.866017 -23.382348 0.882106 -14.474510
-21.610514 -22.404548 1.041744 -13.204519
-21.897986 -27.141081 2.510102 -14.825854
-19.013341 -23.386052 1.478051 -12.719818
-19.854301 -22.269672 1.454159 -12.637192
-31.094247 -36.193942 5.043195 -20.186457
-26.659718 -27.814033 3.406237 -16.342125
-29.747130 -32.508699 4.739385 -18.676749
-34.000419 -43.651405 8.198955 -23.295547
-30.735256 -32.763552 4.183833 -19.049642
-29.431358 -32.412066 4.779172 -18.553027
-24.702302 -22.410346 -1.901032 -14.133794
-20.930916 -17.561213 -2.941996 -11.547639
-33.781608 -26.793367 4.767715 -18.172493
-33.628619 -26.157069 4.747908 -17.935706
-29.300518 -26.421636 3.588581 -16.716646
-33.853156 -30.774603 4.242580 -19.388328
-32.632474 -26.938321 4.443545 -17.871239
-30.015656 -22.811119 4.085701 -15.848033
-30.460914 -26.609513 4.426789 -17.121128
-28.207507 -23.348994 3.436844 -15.466950
-41.273999 -22.553378 0.883496 -22.762646
-52.310277 -30.499743 0.881444 -30.753489
-41.945753 -23.138137 1.325793 -23.296636
-45.713433 -25.766286 1.012300 -25.983310
-36.820570 -24.849691 7.010007 -21.861556
-40.503160 -21.332492 0.966452 -18.550696
-56.228274 -27.976464 1.360605 -25.261421
-42.603440 -23.326812 1.277072 -19.779075
-49.315812 -38.243806 2.336990 -26.267885
-48.887986 -27.994115 -0.953605 -23.064630
-53.103452 -30.937331 -1.987145 -25.212235
-46.614943 -25.159155 -0.334151 -21.532230
-53.513824 -27.837959 -0.916495 -24.405535
-65.232024 -31.771259 -2.948054 -29.100985
-35.898645 -24.298850 5.196544 -18.059249
-40.488777 -34.291159 7.287151 -22.433981
-34.148443 -26.309474 4.836929 -18.137375
-34.662168 -25.878355 4.990373 -18.162157
-38.253307 -25.475096 5.605588 -19.118521
-40.121831 -30.478619 7.553477 -21.180135
-40.720549 -33.866296 7.270321 -22.376053
-36.600423 -27.973259 5.529548 -19.372105
-48.331825 -25.402365 0.255832 -22.120257
-32.455427 -26.081057 7.880620 -19.983533
-46.371648 -24.295605 1.549643 -21.200176
-41.157673 -30.687241 6.089231 -24.440314
-46.408328 -26.228889 -0.886683 -21.791165
-53.899920 -36.173548 -1.060469 -27.022041
-52.019220 -28.621572 -1.794420 -24.192238
-34.129881 -24.797232 7.687668 -20.708445
-38.228779 -29.021556 6.361086 -20.175101
-41.018830 -30.330174 7.170383 -21.404701
-38.976098 -35.864072 5.856442 -22.452051
-35.781928 -30.224818 5.264287 -19.802024
-37.785090 -35.222313 5.461520 -21.902221
-35.419255 -30.819001 4.957577 -19.871477
-35.184844 -31.366278 4.748768 -19.965336
-36.016956 -31.198695 5.124502 -20.164695
-34.915952 -33.722221 4.381365 -20.591452
-36.630499 -33.402213 5.395205 -21.009814
-31.667145 -28.461861 3.901808 -18.038702
-32.703144 -28.716814 4.706847 -18.425987
-29.993429 -29.722560 3.844901 -17.914797
-34.945908 -35.512019 5.111354 -21.137378
-34.439832 -38.278549 4.863294 -21.815514
-33.375860 -36.316085 5.409186 -20.907584
-35.816618 -38.195295 5.347761 -22.203574
-29.665271 -38.538661 5.815874 -20.461179
-34.303294 -40.622401 5.626265 -22.477709
-38.750421 -48.988903 10.180783 -26.321797
-33.644354 -42.544860 7.226642 -22.856764
-28.931979 -24.952041 -0.568945 -16.165206
-38.977392 -38.397025 5.035290 -23.212325
-35.967427 -33.241600 4.600198 -20.762708
-36.794349 -36.911686 5.201869 -22.111810
-37.951848 -36.472078 5.478537 -22.327178
-38.224840 -41.087942 5.265903 -23.793834
-39.882042 -54.617099 8.069715 -28.349742
-38.106286 -43.152164 5.644643 -24.377535
-38.057294 -45.447359 6.070722 -25.051396
-43.119425 -39.659223 8.168903 -24.833595
-40.118549 -36.108579 6.514436 -22.868138
-38.391427 -35.402583 5.321458 -22.138203
-40.679197 -38.239927 6.350671 -23.675737
-38.532499 -31.296454 6.338715 -20.948686
-41.931443 -39.615583 7.280944 -24.464108
-36.444591 -30.057878 5.281694 -19.950741
-39.547278 -35.392613 6.237254 -22.481967
-40.812231 -29.318517 6.688509 -24.392207
-41.412003 -29.282038 8.973224 -21.208212
-42.319049 -35.498028 8.277223 -23.345123
-43.710831 -30.092018 7.594005 -26.970192
-50.420683 -30.681500 -0.471241 -24.330655
-39.922081 -54.100525 4.490338 -36.036004
-59.394271 -32.209603 -3.658627 -27.481162
-52.002049 -31.129351 -2.368825 -24.939420
-52.579372 -33.103419 -1.548349 -25.704837
-53.872411 -35.984504 -1.755456 -26.957075
-56.215243 -33.450383 -3.610679 -26.899688
-54.141377 -36.513258 -3.067136 -27.196390
-39.167023 -34.218382 4.321561 -22.800102
-39.772173 -33.668008 4.154800 -22.946601
-42.123986 -36.112908 6.054993 -25.830939
-46.445815 -33.387260 8.461579 -29.510539
-46.731153 -34.799788 9.034007 -30.224770
-39.423794 -40.745151 1.283596 -26.920285
-46.613947 -51.570112 10.193064 -29.455218
-42.889680 -36.991469 8.086620 -23.964345
-41.691562 -39.575382 7.248088 -24.380083
-44.282284 -38.924763 8.740182 -24.962114
-43.972441 -49.263219 -0.491904 -34.608478
-38.342828 -41.321024 0.901153 -27.982884
-39.301119 -34.726641 4.523879 -23.096486
-44.770148 -36.715945 6.975839 -27.933614
-39.875063 -41.820272 3.725588 -26.463609
-41.503405 -49.796031 7.169667 -31.841457
-39.303076 -38.549175 3.298080 -23.407323
-35.211818 -43.966688 4.545465 -25.929633
-45.309855 -38.330433 9.807458 -25.092086
-27.896802 -25.472142 -2.262808 -16.920375
-46.735098 -45.508699 10.589573 -27.673139
-42.260867 -38.909249 7.825154 -24.351035
-39.899455 -38.296767 5.647201 -23.458867
-42.558491 -41.777433 7.142217 -25.300777
-40.301527 -39.649839 5.756336 -23.985410
-40.612863 -39.249555 5.986303 -23.958725
-41.519634 -40.140098 6.634934 -24.497920
-40.245484 -35.064523 6.870779 -22.593002
-38.951070 -39.333660 5.497400 -23.485419
-37.131264 -36.224662 4.664817 -22.006778
-39.535614 -46.479470 5.486700 -25.804525
-38.034764 -40.912836 5.177710 -23.684280
-37.330554 -41.512219 4.992711 -23.652832
-42.520763 -49.229855 6.200983 -27.525185
-41.347610 -44.809630 5.409486 -25.847172
-38.890303 -40.666472 5.258059 -23.867033
-37.462990 -43.615798 5.294545 -24.323636
-40.132223 -46.060942 5.785882 -25.857950
-39.576085 -50.237590 6.386191 -26.944102
-37.522960 -45.350641 6.051078 -24.862080
-39.544279 -44.004360 8.838186 -25.064591
-38.424660 -47.474696 7.059093 -25.769807
-30.937437 -31.235830 9.247965 -21.950420
-29.781028 -17.696579 0.451561 -14.243282
-34.286231 -39.793338 5.474839 -23.881655
-35.666027 -40.270244 4.883559 -24.232962
-39.799780 -56.181663 -5.564946 -35.690955
-32.211016 -42.492535 3.254502 -25.269830
-33.773409 -44.191124 -6.618831 -27.952942
-28.138680 -38.870072 -1.224082 -22.797171
-36.901125 -49.850541 -6.557675 -31.591191
-29.405058 -43.216085 -5.700680 -21.786343
-35.480435 -47.062379 4.644177 -28.958513
-27.111505 -35.937903 2.586500 -20.550715
-32.305699 -45.729424 -4.406966 -27.872124
-29.709470 -40.936477 2.410897 -24.205719
-33.981250 -27.809032 1.904576 -18.537085
-26.961265 -19.648358 -1.727617 -13.982887
-27.751922 -34.690867 2.871260 -19.407802
-31.371645 -36.500504 3.263737 -20.460518
-24.856787 -27.708090 2.101927 -15.769463
-29.242134 -32.752131 4.772860 -18.942317
-24.835226 -32.413665 2.502792 -18.114493
-30.610997 -38.010898 4.279217 -22.607212
-28.881585 -39.635821 1.974009 -23.131162
-25.071383 -33.654949 1.723390 -19.074400
-26.779364 -35.870935 -5.183349 -21.578523
-32.928342 -43.301521 -6.717902 -27.302633
-24.566296 -34.512229 0.588969 -19.492535
-27.626642 -39.329120 1.310519 -22.829556
-30.709060 -40.275089 -4.618500 -24.661903
-31.107162 -42.834484 -4.930928 -26.130634
-35.321075 -46.770980 -6.834486 -29.676897
-35.789617 -51.912221 -4.618225 -32.064561
-32.937622 -40.994564 -6.553344 -22.179656
-37.715707 -51.747666 -6.509508 -32.836920
-39.492258 -42.114338 -7.057051 -24.481979
-31.468854 -33.782296 -4.694287 -19.575345
-29.713659 -35.145605 -5.256444 -19.457779
-29.824422 -37.655784 -5.429214 -20.244062
-33.868028 -39.049912 -5.342826 -21.875382
-33.474007 -34.630158 -4.514525 -20.431249
-30.978841 -35.218973 -3.075473 -19.859344
-36.662728 -37.479226 -4.771362 -22.242586
-29.628233 -17.543252 -0.988477 -14.174284
-27.621931 -22.039134 -0.552580 -14.898320
-35.296420 -39.331751 -6.205420 -22.388451
-35.556937 -36.255934 -5.317879 -21.543861
-21.337785 -31.025744 3.251458 -16.943391
-32.114213 -33.491088 2.537196 -19.713343
-28.328320 -27.324572 -0.261041 -16.695868
-29.874816 -27.884013 -0.625969 -17.327649
-28.767206 -27.846307 -0.297804 -16.984054
-31.491647 -26.200410 0.486395 -17.307617
-29.445965 -30.434364 -0.025527 -17.988887
-33.426578 -39.919959 -6.554434 -22.003961
-35.871338 -45.166916 -7.348052 -24.311476
-34.739556 -40.152907 -5.760814 -22.467739
-21.796047 -34.333322 2.044734 -18.760680
-34.751003 -46.857804 -6.154523 -24.482642
-35.742924 -52.883690 -3.903635 -32.522289
-34.712695 -43.228527 -7.010017 -23.382366
-34.667673 -48.626111 -6.480211 -30.646093
-39.000269 -47.575763 -8.316824 -25.972810
-29.401466 -41.100095 -0.128672 -24.043124
-21.705433 -27.739454 4.934500 -15.225727
-31.141207 -37.326263 0.084374 -21.587801
-31.079116 -37.307234 0.107941 -21.443475
-29.622236 -31.854199 -0.102974 -18.571402
-34.102560 -44.028824 -5.906188 -23.439415
-34.311737 -49.494246 -4.537024 -30.318958
-29.205451 -37.400504 1.260672 -21.681469
-31.901254 -41.913802 -0.733892 -25.165660
-32.742431 -40.301998 0.055076 -23.375989
-33.580943 -44.420772 -0.697217 -26.084023
-30.966515 -35.313731 0.109493 -20.463402
-37.750083 -52.460631 -5.490651 -33.151794
-36.209478 -51.018847 -5.825695 -31.917828
-33.242252 -50.109264 -3.926521 -30.264923
-34.815185 -52.779955 -5.056991 -32.381185
-36.141744 -47.681085 -6.537662 -30.258152
-39.795165 -56.072231 -5.993914 -35.414810
-34.051606 -46.140371 -6.808298 -29.172269
-35.969569 -48.293290 -6.351346 -30.555747
-50.401769 -73.094046 -8.213887 -37.048745
-38.815334 -55.480874 3.512424 -34.189927
-41.532880 -60.347746 2.328746 -37.685542
-33.714293 -47.660432 1.637012 -28.626370
-40.087692 -45.385033 5.469378 -25.641817
-40.642983 -44.926525 5.600888 -25.670852
-33.803338 -42.433850 4.466520 -25.707505
-41.617360 -44.857419 9.162181 -30.639585
-41.492711 -49.353677 5.974867 -27.253916
-43.146443 -53.141258 6.669477 -28.886310
-40.479285 -53.932750 7.457022 -28.323611
-39.610864 -48.922822 5.768756 -26.560106
-36.581084 -49.510695 6.264211 -25.827534
-38.855765 -50.201363 6.353668 -26.717139
-30.817732 -34.626946 9.243465 -23.152915
-45.928413 -61.882988 7.122794 -39.426879
-45.518191 -69.699463 -1.733054 -34.565296
-37.186441 -50.757623 -6.020193 -31.973447
-36.463667 -47.857157 4.080111 -29.014987
-37.709298 -48.153240 5.755843 -29.481075
-39.275282 -54.376254 5.591986 -33.840488
-45.731463 -66.365175 -4.766930 -33.628992
-44.562370 -56.292522 7.993053 -30.256468
-40.465111 -50.679458 6.300917 -27.343371
-35.489792 -46.329356 6.383459 -28.291495
-54.445362 -68.683741 1.028969 -36.938731
-44.013528 -49.837676 5.810938 -28.155361
-48.516121 -58.914963 6.271210 -32.229325
-43.544258 -54.206545 7.114223 -29.325241
-43.657206 -58.390928 8.896312 -30.614440
-41.307495 -51.149908 10.389625 -34.377599
-41.711370 -58.827041 6.507310 -36.797865
-37.431363 -51.364866 6.777606 -31.879794
-39.600171 -53.677556 4.524126 -33.030395
-38.853538 -53.591960 -6.281090 -33.974297
-44.268431 -64.491136 -0.181007 -32.627870
-39.497557 -55.410880 -6.071350 -35.038516
-42.099491 -62.774010 -3.355937 -39.493362
-38.729680 -54.988409 -5.983401 -34.570494
-36.841414 -54.154308 -5.365180 -33.540441
-32.498124 -47.219436 -5.448492 -28.764290
-37.508477 -54.593280 -4.459314 -33.968110
-29.641517 -45.393138 -5.077255 -26.986837
-31.944913 -46.240329 -5.659924 -28.065304
-31.099413 -45.563550 -1.428671 -26.983912
-30.667134 -45.674241 -2.365745 -27.047362
-35.076395 -49.131424 -2.499801 -29.913177
-33.701010 -44.771372 -0.793724 -26.870103
-31.708827 -40.320348 -0.204644 -23.706870
-33.684927 -44.869715 -0.105783 -26.884772
-32.504786 -39.868349 -0.436040 -23.130254
-31.364479 -39.313715 0.100202 -22.598681
-34.176415 -42.635173 -0.499788 -24.943292
-33.257859 -42.206484 -0.293176 -24.569995
-35.487687 -44.793660 -0.036912 -26.422892
-37.837869 -56.494493 -3.177418 -35.222754
-36.822435 -53.642607 -4.713474 -33.594070
-32.378783 -45.567405 0.621023 -27.446599
-36.342702 -48.155251 -1.774023 -29.026415
-42.566567 -60.759108 -2.178224 -38.156082
-43.189626 -65.336342 -1.377991 -40.922108
-34.021998 -46.600132 -1.346585 -28.432656
-36.874189 -55.666128 1.907338 -34.142177
-37.214199 -52.533531 -2.105564 -32.178809
-40.239191 -53.218015 -3.288707 -33.030134
-40.032621 -50.299534 -1.826311 -30.698729
-37.668680 -47.289196 -0.926705 -28.282613
-40.673477 -55.597148 -3.304667 -34.601089
-43.337828 -54.709020 -3.089753 -34.090556
-39.139115 -48.621735 -0.254994 -29.316107
-35.844285 -50.418867 -2.973925 -30.704902
-35.323670 -52.177607 -5.049834 -32.193348
-44.740251 -53.803742 -1.218939 -33.561182
-41.643029 -51.078727 -1.305253 -31.258114
-49.745611 -75.691266 -1.988621 -37.631063
-39.381104 -58.320462 1.435109 -36.002922
-48.249534 -70.066041 0.325880 -35.494673
-49.470191 -69.692906 7.074482 -45.051584
-41.535519 -62.186691 -2.915921 -38.962931
-49.031829 -72.158198 3.679753 -36.357008
-36.784044 -55.276050 1.494353 -33.801508
-49.556306 -95.065381 0.881981 -43.386506
-37.379835 -55.923210 0.362508 -34.157230
-34.500276 -53.159826 0.093652 -32.198621
-50.326046 -72.820479 -2.056869 -36.943958
-47.525141 -72.389692 -0.218054 -35.974450
-46.329877 -70.510269 0.715617 -35.052044
-43.724929 -67.606657 -0.191394 -33.399476
-45.572440 -70.768544 0.635492 -34.902295
-51.051264 -82.959146 2.424788 -40.203123
-44.754254 -69.904044 0.619546 -34.397489
-49.709168 -79.189073 2.136026 -38.669472
-53.664776 -63.558638 7.761238 -35.167024
-54.919337 -74.260773 7.346079 -38.754033
-53.604449 -79.677817 2.105338 -39.984680
-43.841663 -60.817111 5.249152 -38.231536
-52.989335 -63.492556 9.180448 -34.944567
-52.186954 -73.660791 12.790721 -37.754324
-53.838193 -55.696249 13.054412 -41.711262
-48.597457 -61.867688 9.593496 -40.991958
-47.952770 -74.861670 0.971487 -36.844332
-46.084446 -70.872627 -0.815361 -35.087122
-47.106834 -56.417817 6.863546 -31.057395
-50.657271 -60.845431 7.006160 -33.450811
-45.528593 -58.955923 8.994650 -31.345355
-44.388681 -49.598914 11.483676 -35.129013
-41.038168 -51.102485 9.746876 -33.883773
-45.685464 -60.385071 8.937656 -39.340673
-50.598285 -67.280254 -0.856143 -35.363562
-53.419823 -68.598203 -3.076753 -36.605408
-44.083389 -62.266467 -1.774578 -31.904957
-45.008477 -63.828264 -0.256525 -32.651022
-41.577256 -63.130794 -1.789900 -31.412415
-35.189295 -60.776202 -4.176225 -28.789649
-47.210714 -57.152054 7.502783 -31.308831
-48.224483 -59.650468 8.317954 -32.362485
-37.501955 -51.381946 4.980716 -31.348394
-40.394784 -55.268608 6.530268 -34.383660
-47.987408 -66.631347 -3.422284 -34.385626
-34.207143 -48.928539 5.438206 -29.755478
-45.778323 -50.849904 6.311071 -28.988468
-43.024564 -43.935092 8.165080 -26.087897
-47.506627 -57.247010 6.088182 -31.426091
-44.683626 -52.223465 6.376484 -29.072127
-51.067994 -66.193808 6.580550 -35.178541
-50.284380 -64.958241 8.102073 -34.572786
-46.121830 -51.251305 6.796892 -29.211940
-46.633622 -54.129644 7.750455 -30.228980
-48.140998 -55.750457 6.763971 -31.167436
-48.449307 -58.023012 7.032863 -31.941695
-48.063899 -56.073257 6.637184 -31.241147
-51.675792 -62.851425 7.466705 -34.358165
-49.258287 -58.077924 7.230441 -32.200863
-49.005457 -60.468638 6.519730 -32.842229
-47.882485 -58.255809 6.097017 -31.841488
-49.288396 -60.165488 6.610975 -32.836165
-47.682713 -58.055447 6.269471 -31.721448
-47.639667 -56.868734 6.656099 -31.352520
-48.187601 -58.782667 6.282792 -32.091080
-49.328590 -62.854877 6.013176 -33.655040
-50.047260 -60.595313 7.202421 -33.192772
-49.326030 -60.115742 7.214975 -32.832532
-52.379748 -71.640821 7.114780 -37.206171
-50.702088 -62.908169 5.918291 -34.083077
-53.071195 -74.446589 8.497453 -38.255335
-42.533247 -52.491301 -3.410859 -35.303015
-52.830639 -65.750597 8.024306 -35.574371
-51.150708 -65.655860 7.643928 -35.041970
-48.383337 -60.424560 7.671775 -32.642369
-40.258677 -45.450262 -4.974483 -31.268195
-51.466794 -62.358777 6.230861 -34.147671
-48.427069 -63.865877 7.647208 -33.687884
-48.911148 -57.257647 6.185505 -31.850638
-47.828359 -58.654017 6.751650 -31.944713
-43.958576 -61.195904 5.665946 -38.525061
-43.178176 -55.007913 2.813348 -35.667504
-48.359735 -60.853981 7.502827 -32.764115
-35.187677 -37.888725 -3.994490 -25.637553
-49.216801 -63.532635 9.238572 -41.896208
-50.869448 -73.336419 5.331020 -46.954091
-47.085859 -59.840529 0.520548 -39.576442
-43.395789 -58.617481 0.857784 -37.519121
-35.953776 -34.804953 -2.580601 -24.094838
-44.205162 -44.327276 0.986585 -31.527997
-43.061362 -54.888496 7.803305 -35.274915
-53.536651 -55.957945 -0.252237 -39.172046
-52.396164 -53.489672 6.954526 -35.959283
-48.387374 -51.273659 4.307327 -33.848127
-40.145858 -50.987041 8.599140 -32.949571
-38.960424 -39.889135 3.887586 -24.572835
-58.374941 -72.054530 16.736433 -39.128841
-37.491191 -38.873031 -0.531527 -26.673813
-48.075096 -52.567732 -0.138754 -36.299710
-44.274974 -47.715516 2.771528 -32.171993
-46.222797 -56.694129 9.289009 -37.564619
-37.529716 -39.380332 3.737462 -23.258913
-37.895320 -51.043394 3.844645 -31.729442
-39.368242 -48.838361 3.968427 -30.888326
-32.306723 -40.099204 2.185593 -24.758037
-36.682275 -44.979675 -1.100148 -28.839638
-47.862569 -62.558368 8.836976 -33.126281
-45.169857 -45.481994 8.870844 -27.195556
-61.255279 -70.427859 11.938630 -39.504941
-46.189146 -50.699911 -0.520510 -35.189561
-33.111456 -32.377752 -2.242870 -22.172015
-53.795435 -36.722002 -1.946217 -27.155231
-43.790535 -48.526988 5.300902 -31.138388
-39.572830 -37.987807 3.723188 -24.415012
-42.073418 -45.670964 3.689916 -29.562125
-41.222040 -48.599932 6.001251 -30.485565
-40.766732 -46.110218 4.848554 -29.188665
-36.128742 -47.035758 6.483351 -28.875896
-40.452469 -46.738709 2.134153 -32.293832
-46.334785 -51.431863 0.314181 -36.094831
-41.964978 -43.983420 2.511355 -30.387917
-39.396263 -39.742826 4.880610 -26.894646
-40.069487 -48.618926 5.832311 -30.393820
-35.975242 -46.552179 4.856544 -28.607779
-45.164404 -55.796363 9.268075 -30.288230
-45.821941 -54.404535 7.690174 -30.067943
-38.671616 -49.628199 5.913233 -30.782696
-32.093304 -37.735612 2.385710 -22.953641
-40.876754 -46.889649 0.026797 -31.021604
-31.232670 -31.613214 -3.223304 -21.081674
-44.726594 -48.185988 6.614710 -27.873775
-47.479061 -55.145044 6.835679 -30.787231
-44.538658 -49.933514 5.880557 -28.341652
-46.367793 -53.059329 6.313453 -29.828137
-42.734519 -46.876201 5.515827 -26.883216
-46.027497 -53.680529 6.251854 -29.912408
-43.490483 -49.376446 6.006091 -27.860079
-45.764846 -53.843513 6.049782 -29.882508
-42.503395 -43.247564 6.194585 -25.725288
-44.210510 -47.203238 6.775742 -27.424124
-45.727871 -52.166642 6.475313 -29.368354
-44.376011 -50.148159 6.127976 -28.357251
-46.919485 -56.529314 8.919006 -31.034640
-46.300959 -52.949704 6.896425 -29.775199
-46.561736 -52.619390 7.037469 -29.754338
-44.225877 -48.516819 7.501689 -27.822809
-46.485911 -51.954340 6.552841 -29.532075
-42.359644 -42.671753 6.505116 -25.509419
-52.184167 -47.544124 13.868506 -29.918487
-43.422933 -49.698277 11.030672 -27.936363
-43.798168 -49.164023 9.031884 -27.888657
-45.808246 -50.353084 8.498168 -28.848399
-44.184107 -48.193051 6.008038 -27.713147
-43.471987 -47.249397 6.189388 -27.216415
-43.114923 -49.100376 5.734315 -27.664590
-40.008277 -41.597600 5.130677 -24.481763
-41.921120 -45.245193 5.868700 -26.149894
-40.927081 -41.968043 5.813387 -24.868537
-42.351216 -48.737356 5.950766 -27.326571
-40.677066 -44.785804 5.508338 -25.638861
-44.832402 -48.316821 7.492041 -27.944767
-43.902885 -44.864140 7.772357 -26.630107
-44.273417 -47.328365 6.712362 -27.480534
-41.818713 -41.760683 6.212317 -25.073819
-44.203518 -46.888192 6.497152 -27.327513
-44.090390 -47.176928 6.286691 -27.380195
-40.629747 -38.942584 4.345317 -24.632729
-38.090561 -39.486165 3.693866 -24.288987
-42.131546 -40.563653 4.180583 -25.633058
-39.107877 -43.962738 4.548622 -26.914255
-42.783546 -35.351093 3.645230 -24.672042
-34.757915 -38.112125 2.714435 -22.048387
-48.482742 -53.311911 12.816930 -30.538396
-43.688168 -42.685354 11.810047 -25.912057
-39.839956 -41.883971 2.909173 -27.445323
-40.483967 -42.500599 3.348170 -27.808386
-39.666327 -43.740667 4.015150 -26.983177
-40.120057 -44.049034 3.814096 -27.260862
-41.473801 -43.860238 -0.016452 -30.525494
-35.667630 -37.900929 2.151660 -25.295573
-36.603561 -37.347444 3.990826 -24.053736
-27.637408 -33.312147 4.409789 -20.918943
-38.673048 -37.930216 3.692537 -24.374852
-40.109084 -41.994200 3.532771 -26.508719
-37.640316 -45.323406 -2.027602 -30.926404
-57.290713 -56.399055 11.835822 -42.284151
-29.581622 -36.671713 1.718260 -23.571205
-39.216653 -45.990658 0.641876 -31.782140
-52.122798 -62.125397 7.794972 -42.805381
-56.686229 -55.047199 13.037500 -42.454293
-39.593530 -48.104321 2.981914 -32.383759
-36.072675 -40.701663 0.429951 -27.910902
-56.569896 -45.371024 11.125750 -38.615413
-58.036508 -41.449799 9.044222 -37.570275
-53.074488 -44.546312 11.346194 -36.841484
-50.972268 -48.709961 12.047714 -37.416611
-72.799895 -44.418490 -1.592971 -35.165516
-51.158826 -29.630568 1.568565 -29.804884
-58.339629 -47.500068 11.349789 -39.981788
-57.042555 -43.909098 10.510266 -38.312045
-49.571773 -39.393046 -5.334172 -31.315005
-64.212169 -42.764468 -6.169436 -40.229854
-69.188159 -35.481980 -9.304527 -31.401042
-64.540520 -35.498461 -5.247356 -30.011694
-71.312318 -46.306440 5.895760 -45.887358
-72.136194 -37.555021 1.191349 -32.907364
-85.530168 -61.103747 10.660841 -57.543065
-77.291413 -51.707017 7.430260 -50.117753
-84.331292 -38.803254 0.041977 -36.940364
-76.562386 -52.510237 8.699455 -50.112343
-76.722890 -52.038624 8.218928 -49.955922
-80.407223 -34.906590 8.871361 -34.594144
-58.002201 -38.720603 7.419089 -37.170263
-76.678642 -52.431092 8.506256 -50.148277
-54.978931 -36.761436 7.485323 -34.663176
-70.949266 -57.395250 13.357920 -38.503355
-64.111440 -48.496116 -5.932946 -40.411506
-60.749545 -37.230262 -3.115207 -37.144724
-77.780939 -51.734931 7.017433 -50.364272
-77.530613 -67.863335 9.264977 -43.618184
-54.479250 -43.644591 -8.655628 -35.484423
-64.100663 -49.579816 -3.268023 -39.838243
-66.198108 -43.565249 6.983282 -41.953431
-95.018420 -61.209404 1.168850 -61.625122
-70.415970 -49.278330 9.186423 -46.322515
-69.959565 -47.034315 7.726101 -45.050798
-102.550257 -48.072285 1.378929 -45.186763
-71.318073 -46.743393 6.651492 -45.451418
-93.689061 -64.755796 9.365078 -62.458578
-87.510474 -64.963240 12.244542 -60.040956
-76.253358 -72.371742 10.295338 -44.587530
-73.288099 -45.575781 23.170776 -35.659164
-72.274432 -48.054583 -6.997659 -46.551364
-76.708163 -58.013517 11.480112 -40.416504
-59.597717 -45.250707 9.754280 -39.285265
-60.924078 -43.638587 9.283396 -39.833613
-59.591129 -50.753706 12.387287 -42.224861
-58.446732 -46.564816 10.936345 -39.587993
-53.547102 -38.723926 -9.062172 -34.740831
-56.283614 -34.437971 -3.849489 -34.088039
-55.651338 -40.520006 9.319827 -36.335305
-93.727734 -51.517900 0.890077 -43.573690
-58.186242 -45.503469 10.888071 -39.279881
-57.546926 -47.746565 11.752024 -40.042582
-60.183185 -69.157010 10.642488 -38.802059
-44.428888 -57.289218 3.727680 -39.299774
-58.231340 -63.198645 9.884922 -36.428995
-67.774101 -68.407468 17.080688 -40.854471
-61.824188 -63.279771 11.016483 -37.531188
-59.349836 -69.420421 15.403606 -38.631077
-43.939584 -53.050456 2.952938 -37.100124
-58.924794 -61.258865 13.686712 -36.055098
-62.748200 -48.443188 9.699415 -41.529784
-61.493467 -51.436525 12.332163 -43.069879
-60.114057 -66.085459 14.783514 -37.859855
-57.359329 -61.130410 12.747874 -35.546922
-56.192747 -46.266863 -0.539528 -36.124519
-36.173990 -34.290150 -5.245952 -27.204742
-60.357635 -48.828631 5.743435 -37.984542
-78.363426 -59.163943 7.442963 -41.258211
-61.948325 -49.188715 6.678045 -39.478600
-61.046001 -50.717717 12.198225 -42.596980
-62.277437 -66.217006 11.998154 -38.548333
-59.855703 -67.275099 14.908298 -38.139241
-62.258953 -68.519259 12.437407 -39.233464
-61.293111 -69.601819 15.059512 -39.268479
-50.229952 -62.296890 10.029527 -33.758053
-58.192207 -65.822898 14.003329 -37.204531
-64.305987 -70.897446 12.493759 -40.561030
-62.951291 -66.574202 11.841387 -38.857648
-61.124437 -69.475723 15.003945 -39.180048
-60.615597 -69.636235 15.039688 -39.075550
-60.665110 -40.326320 3.543505 -36.918962
-61.499159 -52.287533 8.221995 -40.568691
-62.353574 -71.300279 13.983986 -40.096156
-59.883291 -67.857029 12.576908 -38.322096
-73.541380 -54.201803 5.176376 -38.322955
-65.978908 -61.479367 10.262687 -46.278777
-61.997837 -49.783050 6.946619 -39.717892
-60.876299 -45.670194 7.986994 -39.116777
-61.848856 -42.381820 -4.842463 -39.276048
-71.633337 -48.179546 5.633980 -45.319560
-56.898688 -43.877777 3.534626 -34.424798
-64.499802 -47.815586 4.833018 -40.188810
-60.185237 -45.352006 5.370579 -37.402229
-61.306241 -47.042826 8.348515 -39.732129
-69.773192 -71.691671 9.873076 -42.439459
-82.439091 -62.675681 9.406306 -43.534432
-77.698838 -59.121672 6.163742 -41.046153
-59.641740 -36.290273 2.761891 -36.282875
-74.737185 -67.822496 8.030149 -42.767904
-76.047918 -51.715722 9.438773 -38.329092
-72.643361 -70.781537 8.989256 -43.027469
-70.788440 -74.178274 10.975696 -43.490014
-76.387322 -61.324950 10.923965 -41.313681
-78.266967 -64.854763 10.285069 -42.936519
-73.642231 -59.079110 9.949752 -39.816402
-77.920511 -64.850254 10.439274 -42.831229
-76.779121 -55.813516 10.799823 -51.660817
-85.199566 -66.207463 13.495211 -59.644202
-75.330299 -67.682726 7.537588 -42.903908
-78.987192 -67.825292 9.395343 -44.043745
-79.412883 -55.728117 9.584618 -52.744054
-66.046711 -44.194132 7.419172 -42.271402
-73.071640 -59.914477 8.210779 -39.895835
-85.408618 -60.604934 10.253703 -57.335451
-74.251993 -67.819180 9.054467 -42.621352
-79.180668 -63.512321 6.569421 -42.807897
-66.198210 -41.059932 3.036158 -40.805974
-51.775071 -33.236673 -6.151390 -31.679480
-74.683368 -67.234401 7.218189 -42.575331
-75.520417 -56.148007 9.002120 -39.500527
-79.059520 -61.203802 8.690296 -42.078997
-91.354156 -66.733368 16.308135 -47.426257
-81.336116 -53.495054 6.308877 -52.539186
-85.854392 -42.342311 4.835786 -38.459011
-75.953742 -50.420873 7.201741 -48.946702
-73.347823 -48.933784 7.423539 -47.244837
-67.177752 -45.792052 16.111752 -33.890941
-65.564007 -50.243652 11.295918 -44.746313
-96.706186 -46.986235 3.783727 -43.107726
-106.233822 -69.979350 -3.971504 -70.044617
-98.827234 -48.478051 0.863989 -44.191586
-74.743524 -49.495158 7.022877 -48.073172
-103.108578 -71.989683 9.293535 -68.940938
-110.190400 -72.504015 2.895176 -72.795210
-109.209502 -82.775471 10.737266 -74.241061
-94.657870 -48.414775 1.505064 -42.921793
-105.126753 -73.961374 10.222005 -70.747486
-102.830553 -69.108155 6.756885 -67.932360
-107.161862 -70.200891 2.372743 -70.283809
-101.139069 -63.380922 2.144882 -49.355997
-76.217169 -52.164652 8.686370 -49.993084
-103.032341 -69.952008 8.184831 -68.533660
-45.339348 -31.167709 7.869154 -28.892022
-85.537616 -59.049826 9.137259 -56.649403
-91.190357 -75.551614 15.132156 -65.130142
-74.406916 -46.898836 -2.941213 -46.962867
-101.668729 -56.304884 -2.860807 -47.392084
-89.538687 -59.930458 7.091583 -58.763954
-50.225788 -36.102754 8.872365 -32.480627
-89.643464 -71.974082 10.697753 -61.017407
-88.890290 -61.031688 8.921029 -58.891147
-76.820774 -52.142677 8.292866 -50.016483
-110.379359 -56.127265 11.193255 -49.951987
-116.540777 -69.892061 15.646353 -55.929852
-112.727061 -94.789528 18.713242 -82.526321
-103.767700 -84.057240 10.577418 -70.894729
-117.665091 -88.554518 13.189769 -81.263433
-111.244665 -83.190692 11.483837 -75.923734
-101.363728 -86.950232 16.386602 -73.554365
-117.963736 -79.667579 3.134221 -77.973699
-89.935292 -66.277604 0.512115 -57.598241
-102.671397 -75.263695 3.141074 -67.025867
-113.921601 -58.602797 21.378242 -51.757319
-116.702618 -76.211321 24.598607 -57.874182
-117.595918 -73.998478 20.384958 -57.478319
-108.250238 -49.578529 14.503336 -47.348630
-119.114018 -72.453339 26.287990 -57.470207
-119.064522 -71.585879 21.773143 -57.195120
-113.992106 -67.547745 10.414156 -54.461955
-118.683005 -77.646441 21.039894 -58.898834
-79.813732 -51.305377 4.739868 -50.939607
-123.670050 -90.175509 27.556696 -64.153668
-116.915925 -84.181020 28.694465 -60.329083
-145.287571 -90.108381 42.609183 -70.618786
-107.037159 -73.027710 8.349428 -71.611537
-108.562017 -76.811576 1.001797 -71.048825
-119.801045 -86.508812 12.902548 -82.646816
-113.805240 -55.602370 22.665867 -50.822283
-121.278483 -84.099145 31.298703 -61.613289
-116.347233 -74.573002 31.357639 -57.276070
-116.282362 -62.752753 20.616935 -53.710534
-112.452604 -55.653607 15.517297 -50.431863
-113.593417 -62.975878 16.767590 -52.970789
-112.338353 -57.509223 11.884367 -50.954273
-115.431319 -64.154570 13.244193 -53.875767
-110.048330 -61.553565 12.456105 -51.480569
-112.804768 -56.117477 19.133191 -50.676673
-111.095658 -52.890254 16.666712 -49.195774
-109.162467 -50.154720 17.511953 -47.795156
-114.422414 -58.067519 18.112301 -51.746980
-123.524417 -80.161917 33.854508 -61.105900
-115.571077 -68.053666 28.016207 -55.087423
-122.091408 -74.857408 31.271826 -59.084645
-114.368766 -63.003020 24.325692 -53.211536
-116.941964 -60.588684 24.346562 -53.259194
-119.714413 -69.080654 27.457078 -56.638520
-123.828866 -103.959687 34.460147 -68.336566
-78.191785 -50.627842 5.299798 -50.562477
-116.008251 -55.073641 23.659734 -51.324568
-115.086496 -59.483173 24.859695 -52.370901
-126.142582 -80.437561 33.712558 -61.974043
-117.192528 -64.318977 28.053761 -54.453452
-118.801590 -59.752958 26.216514 -53.566364
-123.958050 -71.230025 31.227894 -58.556422
-116.732236 -62.674810 24.084559 -53.822114
-108.297294 -47.239854 17.889280 -46.661144
-108.259256 -51.422138 18.588524 -47.904418
-112.563962 -54.652243 19.438001 -50.164861
-111.754632 -51.915287 19.530828 -49.100976
-112.178529 -56.253333 21.686683 -50.529559
-104.478957 -46.631472 15.036463 -45.333129
-108.844979 -51.611732 17.478468 -48.137013
-99.128796 -44.934579 15.100112 -43.219013
-111.991756 -55.398564 15.671693 -50.217096
-121.088015 -82.035037 6.838143 -81.418513
-113.700204 -74.680084 -1.017532 -75.168262
-98.301662 -45.390243 1.150632 -43.107572
-97.162647 -44.573487 0.321414 -42.520840
-78.089372 -51.232557 6.417064 -50.200111
-94.282608 -45.330423 1.406651 -41.883909
-98.790898 -51.003052 -0.275185 -44.938185
-80.333130 -36.709692 -2.734851 -35.112847
-105.841184 -48.388536 0.501042 -46.268916
-89.828681 -41.597698 0.113842 -39.427914
-94.597062 -40.631991 13.106217 -40.568716
-108.707418 -49.133659 14.462555 -47.352323
-112.009084 -64.166500 9.476950 -52.852675
-97.593850 -63.852064 3.919199 -63.864859
-87.902020 -56.127095 -0.942171 -56.522997
-83.805176 -41.373203 -2.348839 -37.553514
-90.904788 -58.355628 1.614730 -58.720497
-74.926781 -46.785643 1.253617 -47.114661
-94.602715 -61.157670 -2.187176 -61.460840
-96.710111 -62.563613 -1.517024 -62.948033
-93.708035 -44.509978 0.988229 -41.465404
-90.866324 -43.021973 -0.340017 -40.166489
-91.320827 -43.945243 1.882502 -40.579821
-88.734708 -43.304472 3.177123 -39.611754
-87.370959 -40.040797 -1.356884 -38.223527
-89.163239 -41.259169 0.912701 -39.126722
-78.629149 -36.960974 0.250691 -34.677037
-87.519249 -41.939105 1.701454 -38.837506
-86.849443 -55.411728 -1.690459 -55.737910
-80.034113 -32.226259 -2.852679 -33.678112
-99.113485 -46.684301 -2.221113 -43.739336
-94.119415 -41.789071 -2.082220 -40.772546
-93.566824 -43.225334 -0.735584 -41.037648
-90.318239 -40.977478 -1.148250 -39.388715
-90.483057 -43.063159 8.921228 -40.063865
-69.332990 -47.718547 8.491214 -45.190818
-101.132070 -67.663674 6.357649 -66.969000
-94.990894 -61.114640 0.164904 -61.566154
-98.238211 -42.766978 13.250807 -42.301557
-104.960856 -46.610019 16.156889 -45.471262
-95.422904 -64.001920 6.924738 -62.998783
-113.032292 -76.508327 7.092378 -75.699344
-111.601749 -52.937998 20.889903 -49.361924
-113.443665 -52.491286 20.849222 -49.780485
-101.861774 -43.909820 16.298049 -43.731478
-100.885112 -43.094965 15.673581 -43.194023
-129.820552 -67.345842 29.279751 -59.149918
-128.694017 -118.202858 45.698034 -74.069063
-119.641472 -54.119415 23.602194 -52.128266
-130.463869 -86.851551 36.210190 -65.194626
-113.131628 -48.954252 19.367246 -48.625764
-115.781399 -49.530321 20.357572 -49.593516
-120.353831 -63.118888 30.698533 -55.041816
-123.925672 21.529549 67.460596 -30.718837
-122.637149 -49.250609 17.933368 -51.566327
-126.955942 -59.839728 22.593554 -56.038701
-106.642697 -46.207532 16.821258 -45.855069
-99.783822 -42.636054 14.655797 -42.725963
-94.791731 -40.180591 14.954151 -40.491696
-85.840420 -36.349296 12.566247 -36.656915
-80.850640 -29.856009 8.494362 -33.211995
-89.418944 -39.197817 8.912190 -38.585028
-83.191931 -35.487036 6.745814 -35.603690
-86.172846 -59.909736 9.257531 -57.398048
-99.942961 -41.843213 13.039675 -42.535852
-94.051900 -37.376156 10.196775 -39.428417
-93.715957 -39.361432 13.523665 -39.923217
-74.443291 -31.608411 9.215422 -31.815510
-130.688494 -55.132967 25.884477 -55.746438
-82.807207 -35.398981 2.796442 -35.461856
-113.549426 -49.490762 16.507048 -48.912056
-104.768587 -43.965293 13.930367 -44.620164
-97.859418 -37.281060 6.894176 -40.542143
-86.940971 -33.313779 3.993071 -36.076425
-88.082298 -34.232380 6.030894 -36.694403
-73.700243 -31.475970 7.461530 -31.552864
-86.553349 -36.816510 9.914648 -37.010958
-84.520008 -34.675796 8.854789 -35.758741
-77.413345 -57.096911 11.243278 -52.508228
-76.850848 -52.201954 8.047210 -50.198296
-86.725664 -34.406271 7.748211 -36.339580
-93.997558 -39.143933 12.003983 -39.942447
-74.098189 -30.263283 7.010439 -31.308442
-84.536030 -33.971724 10.803335 -35.552326
-70.253971 -17.200879 6.578265 -26.236455
-78.715916 -24.281442 6.928136 -30.899207
-80.942751 -51.030228 0.769685 -51.411679
-43.238636 -24.171765 1.632512 -24.418048
-81.855490 -51.696294 -0.578145 -52.085509
-74.586547 -49.422087 -6.885971 -48.045129
-66.426477 -40.895203 2.232435 -41.049035
-73.565472 -47.566644 5.416528 -46.855544
-74.378746 -46.622244 2.253214 -46.817841
-61.661883 -38.408063 -4.330554 -37.968850
-78.691158 -36.002833 -0.810675 -34.408197
-73.201876 -32.923324 -1.077672 -31.837560
-71.746967 -36.057777 3.017391 -32.341423
-71.973071 -34.277373 0.561793 -31.875133
-69.416215 -43.162578 -2.725873 -43.247034
-80.927029 -33.614635 -5.066927 -34.362499
-62.758347 -12.214618 1.335945 -22.491889
-74.818294 -34.596718 -3.293697 -32.824504
-72.748361 -35.966677 0.746492 -32.614511
-84.683138 -41.561572 2.587949 -37.873413
-78.461716 -40.782317 2.194743 -35.773210
-79.770728 -51.096646 3.856553 -50.982650
-74.039541 -33.940167 -2.364033 -32.393912
-79.096696 -35.872857 -3.995129 -34.490866
-84.542556 -38.867393 -0.246232 -37.022985
-79.460346 -38.305574 1.206410 -35.329776
-88.481204 -59.548566 7.360146 -58.226786
-75.168057 -47.911213 4.106703 -47.695998
-83.707117 -53.776914 3.734505 -53.734458
-86.040413 -54.674614 0.116012 -55.098338
-85.132994 -54.017076 -0.290510 -54.440103
-87.819413 -57.980540 -6.048934 -57.233271
-94.832793 -62.190444 -4.725904 -61.971742
-93.458018 -46.839547 -4.610144 -42.089269
-72.515405 -33.335628 -4.229043 -31.755310
-87.357081 -37.871119 -3.976562 -37.568460
-97.924590 -63.417712 2.477433 -63.719096
-76.553451 -42.894609 3.265461 -35.834418
-81.826634 -51.719032 1.097588 -52.086746
-75.183094 -48.571429 5.411180 -48.019298
-76.850916 -50.669153 6.385095 -49.577918
-66.766125 -41.012902 1.475137 -41.270461
-60.816387 -39.178844 6.078509 -38.292368
-69.091121 -46.271772 7.581226 -44.367622
-63.698301 -43.192830 8.024677 -41.034851
-59.135984 -36.731831 4.542067 -36.188824
-65.138011 -31.993512 -1.236361 -29.139457
-61.631238 -23.203987 0.126382 -25.450568
-58.648578 -35.836656 3.760246 -35.746507
-54.417259 -32.499235 3.042440 -32.386694
-65.073724 -40.954908 -2.727163 -39.881168
-63.015937 -38.124434 1.659925 -38.886978
-69.263144 -48.270124 -1.623177 -35.259980
-64.037357 -28.248716 -2.716691 -27.685822
-65.499046 -44.266416 0.067667 -32.929639
-72.764041 -44.595763 2.365334 -35.207941
-54.501510 -47.391309 11.750898 -38.340997
-42.312756 -45.515183 2.963984 -30.531423
-32.167648 -41.489387 1.104341 -27.387952
-31.436574 -32.283833 -1.866327 -21.866601
-46.946742 -44.628580 0.507842 -32.050044
-41.394439 -45.012841 1.515407 -30.841435
-50.984997 -35.462253 -2.195651 -25.934175
-34.523864 -38.289311 1.010635 -25.772236
-62.408367 -37.926181 -0.666487 -30.100364
-53.566152 -25.610514 -5.125606 -23.753000
-61.175461 -42.725289 8.626915 -39.578219
-56.278415 -41.872088 9.780405 -37.034961
-54.065713 -44.813576 2.430014 -33.464368
-55.349041 -49.916176 9.881061 -38.094202
-48.078425 -27.544130 -1.214695 -27.665517
-66.186926 -47.829231 3.384386 -34.204847
-51.785193 -35.192345 2.979290 -30.461886
-44.729646 -40.262489 6.748388 -28.520280
-51.109793 -43.028666 -2.754711 -28.241538
-45.111752 -26.315114 -0.897385 -21.428060
-49.566175 -43.879226 0.895273 -28.033620
-45.045385 -24.961177 -0.347562 -21.001969
-52.994337 -38.152492 1.831780 -31.117727
-52.383619 -37.479615 3.091171 -26.958970
-55.608557 -41.973515 4.539935 -29.274622
-52.069560 -35.316767 -1.091063 -26.215898
-73.506096 -51.104820 9.635046 -37.383275
-39.726956 -23.766030 4.966922 -22.713431
-70.626049 -44.137793 2.665909 -44.094474
-51.138788 -31.097558 1.145042 -29.667605
-55.058941 -35.327686 3.611027 -32.911878
-59.524129 -41.299421 5.968250 -36.955933
-49.230446 -28.010754 -0.687060 -28.420619
-48.232125 -27.311024 -0.446757 -27.599162
-64.116612 -39.198406 -2.191436 -30.994505
-46.323964 -27.279337 -3.583324 -26.678979
-34.869146 -17.925326 1.344030 -18.852318
-50.715055 -29.183177 0.906695 -29.471740
-65.712563 -44.085694 -0.884080 -32.939477
-59.044054 -40.978674 -0.449485 -30.006818
-69.519155 -44.131251 4.658529 -43.678116
-57.405726 -35.865779 -4.930560 -35.103879
-56.167976 -34.499748 4.452020 -33.943609
-50.796426 -29.770127 2.882444 -29.698762
-75.159023 -48.564232 -0.899456 -37.116976
-68.894172 -42.439260 0.923495 -42.761586
-72.350978 -45.019243 -1.496658 -45.303614
-74.052331 -46.284478 1.671583 -46.554499
-73.304402 -46.470612 4.002212 -46.255361
-59.656815 -35.630918 0.593589 -35.944367
-56.468852 -35.917356 -2.539812 -33.669579
-50.784933 -30.774635 -4.372109 -30.161702
-59.335375 -35.512831 1.505199 -35.755333
-40.562441 -22.336323 -2.391115 -22.621329
-59.036508 -35.882449 -2.882868 -35.846608
-52.437984 -32.603730 -5.100556 -31.667299
-46.340007 -27.769914 -4.538147 -27.014200
-64.809679 -39.929041 -2.208004 -39.591895
-48.782984 -27.851707 -1.352389 -28.041876
-52.790027 -19.846076 -1.356521 -21.790831
-45.146304 -13.883600 0.555165 -17.708971
-45.928364 -17.961861 12.843343 -19.167068
-19.222823 -11.546544 -5.623963 -10.156766
-38.282022 -20.298100 -0.938891 -20.926124
-53.123589 -30.854003 -1.131988 -31.161349
-87.870769 -18.836870 11.747869 -32.012292
-60.818571 -37.444541 0.144057 -36.608082
-45.896277 -26.071830 1.845228 -26.221674
-53.083361 -32.812636 1.889026 -31.149275
-51.493094 -32.832879 0.995892 -29.915304
-61.859444 -40.132745 4.953687 -30.597657
-50.424849 -32.600924 0.203470 -24.907732
-52.031588 -35.550105 0.835233 -26.274508
-50.677301 -30.983886 -0.884127 -24.498356
-53.967976 -33.832159 1.400551 -26.340041
-42.068757 -23.173234 -1.701068 -19.572597
-48.644442 -27.355470 -0.065798 -22.799974
-44.080028 -23.444570 0.265542 -20.257379
-78.910597 -36.548260 5.402388 -34.637657
-53.969746 -31.978363 2.090110 -31.907039
-78.333475 -43.108472 3.262524 -36.432584
-63.006281 -44.393870 5.711628 -32.220045
-54.261333 -32.178118 2.026612 -32.289497
-50.446319 -33.589711 -0.320444 -25.210809
-50.027026 -29.697327 3.405256 -29.424054
-52.353419 -32.620867 0.176228 -30.502558
-48.559488 -29.884091 1.482882 -23.533074
-47.064417 -26.772648 1.038212 -26.988922
-48.030510 -28.170765 0.498766 -22.860383
-47.347279 -26.222700 1.474987 -22.070994
-50.017059 -29.656290 0.068208 -23.902005
-48.943212 -29.770680 -1.130546 -23.614167
-47.193368 -28.625704 -1.228786 -22.745722
-42.981841 -23.663301 0.034346 -19.993542
-44.008265 -24.791419 -1.633212 -20.639905
-47.070350 -26.250346 -0.406111 -21.996209
-47.268467 -26.896441 -1.515405 -27.052753
-23.634939 -27.584605 1.960475 -15.455870
-50.776820 -29.518695 0.757922 -29.365480
-44.854665 -25.216665 1.374269 -25.382680
-54.078405 -18.685821 4.280905 -21.829268
-49.067099 -28.421058 -2.223439 -28.471763
-42.005433 -2.993312 3.669311 -13.499624
-51.196636 -0.984473 18.664224 -15.654333
-36.704309 -18.955088 0.293267 -19.876840
-63.018685 -38.413931 -2.519406 -38.488190
-36.723206 -21.125947 4.400544 -20.260953
-46.890033 -26.767196 2.135491 -26.920887
-57.051591 -34.948057 -3.858138 -34.608127
-56.018348 -35.365095 -5.565580 -34.292748
-53.015638 -20.042890 5.136653 -21.917558
-76.300507 -27.344551 2.054245 -31.093517
-55.447853 -36.834502 -7.279102 -34.650717
-44.497775 -13.584745 -7.857358 -17.424756
-20.007576 -13.427492 -6.228710 -10.959599
-48.412856 -29.715111 -5.062482 -28.715465
-77.073564 -28.197807 7.774793 -31.581411
-52.971057 -18.381067 2.478073 -21.405637
-60.862695 -27.721223 -2.962734 -26.575175
-46.346827 -26.702285 -2.612354 -27.090656
-52.161011 -29.638027 0.129230 -24.539712
-59.752296 -36.759416 -3.574678 -36.533115
-54.067393 -31.936804 1.694426 -32.103939
-56.148748 -34.219312 -3.743206 -33.913890
-43.923503 -24.545283 -1.227110 -24.726308
-46.001316 -26.004135 1.110461 -26.208668
-45.316574 -25.749676 1.971543 -25.818713
-39.455629 -21.123700 -0.396868 -21.924700
-49.595313 -28.599691 -1.375792 -28.789699
-47.572227 -27.054217 0.118025 -27.324406
-55.490097 -33.223180 2.798903 -33.183369
-64.324707 -27.172702 -3.565073 -27.449223
-57.271367 -24.176411 -1.157391 -24.434333
-61.343880 -31.012094 -0.447744 -27.706792
-83.400340 -33.288591 -7.036531 -35.006679
-60.095594 -36.036507 -1.112804 -36.304408
-61.391720 -35.305023 1.856587 -29.009023
-58.044312 -32.175081 0.381959 -27.065818
-69.504931 -21.679520 -2.136359 -27.355335
-66.120598 -30.296552 -3.499811 -28.925145
-57.975604 -26.909551 1.200677 -25.465547
-70.659025 -38.682501 3.438849 -32.802458
-39.920757 -21.641126 -1.290915 -22.824041
-60.435110 -36.315769 0.931824 -36.604054
-69.091211 -42.723065 -1.974013 -42.928242
-55.329333 -34.355511 -4.883853 -33.583657
-35.498658 -18.260553 0.330142 -18.917403
-48.003479 -33.167234 7.923158 -30.055275
-63.064086 -40.004667 5.136978 -39.254459
-58.256959 -34.687250 0.073303 -35.003012
-50.647221 -30.000361 3.047107 -29.849545
-61.561966 -37.079624 0.475258 -37.400999
-63.993343 -8.625934 4.496851 -21.785783
-57.484383 -39.201601 7.924958 -36.682402
-74.211007 -56.625183 11.985649 -50.946182
-71.851285 -48.670279 7.909125 -46.608770
-74.235368 -28.646233 3.663030 -30.864480
-76.067860 -32.185862 7.184670 -32.476117
-61.264520 -20.603364 4.848607 -24.560365
-63.993110 -24.548221 0.869176 -26.562399
-95.885913 -43.318903 9.713158 -41.761445
-119.936440 -62.540035 23.030495 -54.742942
-109.623722 -50.153765 12.696241 -47.933246
-102.459890 -43.637888 8.855755 -43.829333
-54.791643 -32.345949 -0.898390 -33.104248
-104.457140 -37.501077 6.641738 -42.587465
-64.696160 -30.531625 -2.101958 -28.568335
-98.589338 -36.046061 2.366704 -40.390620
-65.690192 -29.567869 0.504001 -28.577418
-90.736077 -34.600524 3.005713 -37.600980
-78.404071 -31.627703 -3.559509 -33.009532
-76.187033 -31.605452 1.214681 -32.337746
-62.987744 -24.757052 -0.634637 -26.323439
-61.588701 -25.618084 0.172501 -26.162036
-63.413302 -24.956842 3.794788 -26.511043
-57.263144 -22.207525 2.675811 -23.841201
-54.004104 -18.063678 4.804730 -21.620335
-65.393196 -23.665206 3.060264 -26.717520
-77.993495 -30.440357 12.867578 -32.530156
-57.454729 0.798026 3.998659 -16.997011
-63.399242 -39.574206 4.203533 -39.188369
-61.638253 -41.180069 7.353568 -39.143234
-60.542722 -28.660997 -2.901983 -26.761116
-62.271286 -27.163613 0.227384 -26.830470
-58.065586 -25.930726 -0.207961 -25.198894
-76.433992 -29.787260 1.502855 -31.866375
-64.045890 -25.365770 1.613618 -26.823498
-55.336543 -23.625728 -2.155708 -23.688681
-94.174887 -45.157110 30.497216 -41.799599
-83.643641 -44.998807 28.561465 -38.592734
-99.583078 -61.232728 42.027738 -48.244742
-99.339227 -52.515612 33.717076 -45.556452
-125.307892 -53.823379 33.966331 -53.739381
-93.749494 -48.901604 38.998702 -42.795329
-20.400999 -8.938162 3.408922 -8.801748
-94.916269 -59.843984 50.801463 -46.428076
-93.641524 -55.094864 24.352922 -44.620916
-83.336928 -49.962258 27.164702 -39.989756
-100.650391 -53.040669 21.590041 -46.107318
-83.525464 -47.327228 27.410379 -39.255808
-81.163952 -60.819123 27.128583 -42.594923
-75.361358 -58.909897 28.042698 -40.281376
-98.094760 -50.599640 25.091155 -44.608320
-93.912185 -47.471657 26.456519 -42.415152
-75.173233 -64.665103 25.587234 -41.951501
-80.096977 -68.971838 23.472358 -44.720645
-78.872636 -66.573130 25.533483 -43.633730
-79.515465 -62.612665 26.467442 -42.638439
-70.074552 -48.338356 8.560886 -46.158783
-68.018609 -46.208789 7.941348 -44.061102
-79.639628 -68.180218 20.750303 -44.345954
-72.917472 -65.300093 19.794859 -41.465269
-100.280396 -78.571934 15.270494 -71.189382
-83.377043 -65.255132 15.500870 -44.589652
-87.593037 -72.400194 21.688128 -47.997969
-76.950692 -61.146435 15.661175 -41.429138
-86.479540 -67.342751 18.277930 -46.146687
-81.280761 -68.857710 20.934574 -45.041541
-81.879512 -70.257883 22.312769 -45.641219
-75.109847 -66.906501 22.052706 -42.604904
-83.861780 -71.001726 22.445007 -46.459052
-91.833547 -75.203966 23.690823 -50.111254
-86.447574 -70.004181 20.011420 -46.935526
-85.725030 -71.874028 21.174641 -47.279717
-84.195448 -67.077815 25.264454 -45.381979
-91.050123 -75.301665 22.939789 -49.905536
-103.361189 -87.088812 17.990724 -76.005161
-84.705011 -65.153644 13.250192 -58.898971
-87.134061 -69.764514 19.349705 -47.069573
-82.249807 -65.751347 18.318267 -44.400346
-89.597350 -73.412755 20.493797 -48.903032
-83.519394 -68.802472 19.910267 -45.696560
-89.908948 -74.483183 22.833919 -49.317639
-88.111767 -74.055179 22.345979 -48.650084
-86.956675 -62.950013 25.957121 -44.972006
-86.093317 -66.607632 25.635298 -45.810285
-97.221116 -64.839177 23.111116 -48.618088
-88.084327 -59.441518 25.922580 -44.257754
-93.932828 -62.193810 24.253719 -46.837991
-94.922827 -58.801637 23.790219 -46.117339
-95.373704 -52.348813 24.518616 -44.316755
-106.368305 -45.497832 19.950022 -45.559841
-99.806851 -61.616443 22.152405 -48.426988
-90.119783 -52.710306 25.422003 -42.849027
-91.834455 -50.560481 25.360927 -42.718481
-104.416270 -65.858972 20.290053 -51.082573
-159.737577 -60.776217 51.180690 -66.154138
-145.916132 -109.671556 77.473247 -76.676306
-62.301112 -42.886804 7.381364 -40.029234
-216.747469 -207.575584 38.378825 -174.532623
-105.487744 -45.360748 27.266078 -45.254548
-116.224691 -56.384664 34.372266 -51.782807
-114.954340 -49.745908 65.280807 -49.410074
-113.438748 -36.235061 28.761278 -44.902142
-93.370318 -60.087567 -0.693451 -60.511666
-156.453692 -144.807331 28.095653 -122.699360
-101.533507 -48.317521 22.735950 -44.955309
-103.972738 -54.898503 19.170753 -47.661372
-105.075378 -28.065331 20.231677 -39.942213
-82.821967 -62.295439 12.323507 -56.953784
-96.473915 -55.967363 23.174248 -45.732384
-98.349086 -57.762468 22.407311 -46.833466
-99.443862 -54.502789 22.046718 -46.183995
-102.489671 -61.045345 20.526891 -49.060505
-96.038239 -68.069507 23.409710 -49.232324
-90.597571 -66.060357 24.632707 -46.997378
-98.735941 -68.454584 23.120168 -50.157158
-99.087394 -64.810410 22.768644 -49.169341
-125.782443 -54.779359 23.413444 -54.168541
-108.360486 -61.988657 9.793268 -51.104743
-92.172570 -63.245630 8.730253 -61.354999
-112.486021 33.327503 35.083860 -23.747555
-106.631997 -55.776539 15.958126 -48.722561
-106.187113 -61.251047 17.905790 -50.231448
-146.296731 -78.293261 36.246030 -67.376998
-133.722094 -49.126006 15.930126 -54.854430
-149.994881 -50.743280 17.389838 -60.221448
-113.965167 -58.319583 13.501504 -51.685425
-93.991426 -55.162204 6.063409 -44.746089
-96.721416 -66.455669 10.895959 -48.953126
-109.319961 -72.330739 20.354203 -54.495210
-103.486494 -67.635266 21.233019 -51.336528
-105.565472 -64.839192 18.755857 -51.121399
-107.596853 -71.872196 19.773633 -53.840715
-109.159695 -82.799340 22.199421 -57.587710
-96.570971 -73.513196 23.631085 -51.025250
-101.426096 -70.426180 22.259682 -51.555683
-97.543272 -71.614792 23.277154 -50.747419
-104.417151 -61.477528 19.512959 -49.768404
-101.013478 -58.896373 21.316142 -47.972955
-94.474313 -78.298707 22.135577 -51.831906
-100.590687 -80.732076 22.768967 -54.396829
-97.992729 -76.920491 23.580742 -52.473966
-97.811579 -79.746305 23.461169 -53.267365
-98.007269 -80.131060 21.744702 -53.441499
-107.106549 -82.217337 22.332598 -56.797166
-98.332541 -80.144220 22.071598 -53.543028
-104.392981 -85.198722 21.718928 -56.877511
-53.118315 -153.319830 83.687836 -61.931444
-83.832278 -68.341108 14.675577 -59.933697
-101.720452 -75.068988 8.684747 -53.036832
-99.804298 -75.916610 19.553002 -52.716272
-97.239688 -76.188865 16.250615 -52.028566
-86.547604 -66.610654 17.925841 -45.947477
-106.186603 -78.875149 18.803826 -55.518526
-93.454237 -75.143493 19.363454 -50.579319
-116.757759 -220.365951 62.374869 -101.137113
-97.766849 -80.566235 16.646297 -70.936091
-90.187066 -66.142544 18.695431 -46.898883
-89.798488 -72.730332 15.188526 -64.311172
-92.992143 -74.705924 19.858087 -50.309420
-91.223351 -73.858867 20.998830 -49.524665
-95.725632 -72.179921 23.155688 -50.371666
-85.466165 -70.032512 24.827696 -46.649603
-91.379631 -71.889271 24.505439 -48.980670
-88.400219 -71.333613 24.426191 -47.920149
-91.651475 -68.567985 24.693954 -48.065838
-90.408218 -69.853769 24.215378 -48.078596
-94.931006 -77.861972 16.181302 -68.586234
-90.625420 -69.846227 13.783541 -63.440369
-90.922566 -68.566397 17.545459 -47.846689
-91.499146 -71.607820 18.511071 -48.932090
-84.098854 -71.227789 23.713909 -46.597993
-86.177618 -71.990682 23.638598 -47.450490
-108.037154 -135.244608 44.201772 -72.984529
-101.775109 -124.960253 44.744686 -68.020609
-111.056702 -173.072500 52.545082 -85.238761
-79.560658 -63.947016 13.835644 -56.294463
-107.127640 -131.364428 41.696249 -71.547621
-104.215216 -121.724505 42.919718 -67.781916
-106.610509 -129.087998 43.548248 -70.709552
-106.546552 -127.910644 42.106211 -70.337159
-106.564451 -131.163060 41.656884 -71.318253
-105.954821 -131.755895 42.009947 -71.313215
-106.092896 -126.087436 42.336808 -69.654099
-107.143928 -134.898185 44.110127 -72.612634
-106.579267 -142.331748 44.458403 -74.673304
-110.894805 -149.449121 48.145775 -78.103178
-108.229988 -159.437034 44.975379 -80.300107
-111.623802 -159.566838 48.359741 -81.357192
-104.742949 -171.680569 51.558334 -82.927055
-96.399198 -160.683687 51.330537 -77.124866
-106.212485 -171.632333 58.555084 -83.353445
-108.334947 -92.099074 18.829066 -80.252457
-105.484278 -150.416176 46.091263 -76.770136
-108.255919 -142.952373 44.770595 -75.362488
-162.890348 -215.963504 22.741755 -155.402826
-145.291091 -205.744273 12.435944 -143.695450
-106.995893 -140.219272 42.208800 -74.164550
-107.073337 -135.407156 42.189497 -72.744148
-106.404350 -133.926738 43.477236 -72.099327
-107.312629 -129.609936 43.181026 -71.076769
-105.815705 -131.575416 41.542392 -71.217336
-106.829217 -130.907424 42.495440 -71.320992
-106.814645 -126.382568 42.571924 -69.959164
-107.238596 -130.663151 41.932460 -71.370524
-107.066571 -134.010114 43.910643 -72.323005
-105.220438 -139.950123 45.014480 -73.551168
-105.440326 -141.663843 42.639956 -74.131251
-108.446050 -145.044664 41.944242 -76.047214
-106.281003 -135.262341 42.236889 -72.463003
-106.607706 -130.956963 41.659628 -71.269401
-104.679848 -147.811918 47.942365 -75.747530
-117.100111 -154.939340 52.309085 -81.611835
-106.368394 -146.083738 44.469116 -75.735640
-111.924276 -153.810846 46.517376 -79.720537
-167.130433 -124.687350 75.722711 -87.545335
-110.053269 -87.100482 70.623777 -59.146125
-142.035790 -149.288398 64.848800 -87.397256
-125.551964 -131.610423 60.476910 -77.148716
-147.159023 -164.766450 69.309696 -93.577642
-123.477794 -124.810650 53.143700 -74.486533
-108.235077 -149.071950 46.502860 -77.192108
-76.035108 -114.792477 54.090616 -57.248276
-123.699722 -103.857473 58.569591 -68.267158
-106.731232 -112.400069 21.851449 -88.115885
-103.684741 -148.578776 44.832956 -75.679055
-84.835738 -125.858960 55.282746 -63.208409
-100.588652 -141.856553 45.612639 -72.733562
-93.598938 -137.471529 47.986816 -69.321140
-98.881638 -135.543122 45.858300 -70.327428
-101.773030 -139.898781 44.318938 -72.501543
-103.234275 -129.272114 42.498375 -69.751917
-104.278843 -139.681772 43.634111 -73.188185
-106.057443 -126.807384 41.823453 -69.859448
-101.665119 -117.524294 42.990089 -65.756824
-76.956382 -105.891398 51.607095 -54.854334
-91.862001 -106.174627 52.276930 -59.410988
-88.930163 -115.470910 55.748203 -61.320322
-114.074910 -140.863447 54.481771 -76.481507
-92.705117 -132.554189 52.494507 -67.577792
-102.735208 -125.365632 48.208575 -68.430252
-91.158939 -79.404010 66.075630 -51.168885
-74.252688 -76.210376 59.361347 -45.138919
-102.151512 -143.256369 50.787840 -73.622364
-101.276680 -143.871058 45.825540 -73.544322
-70.268895 -99.542096 62.882555 -50.943298
-82.277055 -92.651335 65.524198 -52.478517
-84.080839 -120.926558 48.729397 -61.502219
-85.487496 -136.038905 48.061587 -66.457920
-86.253650 -133.086273 51.740579 -65.801977
-95.853706 -142.982502 46.501892 -71.650862
-88.616504 -138.356964 48.199894 -68.092040
-95.553271 -134.188309 47.058441 -68.922474
-92.819006 -137.917009 48.901587 -69.220804
-94.678089 -143.224353 47.625805 -71.370733
-98.976381 -129.056284 47.514099 -68.409799
-89.857090 -130.125541 50.420689 -65.994789
-104.991995 -126.270015 42.162542 -69.378603
-100.382105 -116.975513 45.597560 -65.207285
-104.720468 -123.549948 42.296675 -68.481125
-105.677903 -123.960302 42.288409 -68.891461
-106.886263 -130.233938 44.440648 -71.136060
-106.406837 -125.158073 43.239236 -69.469473
-108.475404 -138.037480 45.099076 -73.953865
-107.980865 -156.834170 46.218354 -79.444510
-106.228400 -129.775711 44.929684 -70.801233
-105.139778 -131.562071 46.682639 -71.010555
-107.040094 -189.180397 53.323054 -88.866147
-95.340045 -80.660526 16.988249 -69.988405
-98.863223 -124.587701 45.429193 -67.035277
-101.388662 -131.137799 44.568389 -69.757938
-103.312111 -127.215558 43.252501 -69.158300
-104.261950 -122.256330 42.171611 -67.955484
-102.880070 -121.767213 42.828154 -67.394185
-103.496645 -119.918266 42.576362 -67.024473
-97.763988 -111.582197 42.893847 -62.803855
-102.559050 -119.487692 42.905916 -66.614023
-103.381149 -125.100142 45.638814 -68.544387
-99.101269 -116.495365 43.457766 -64.678990
-108.095129 -158.421593 49.799333 -79.955017
-99.368817 -135.260194 43.641291 -70.388703
-99.641900 -164.620528 45.554234 -79.278729
-102.994395 -145.524747 47.308473 -74.555743
-99.953900 -116.788798 43.879341 -65.022809
-103.218012 -120.614353 43.711545 -67.149710
-100.439159 -125.801065 46.760310 -67.872067
-95.590202 -119.925814 44.546985 -64.654805
-102.332489 -119.729552 42.847481 -66.618612
-101.640612 -116.727319 42.695856 -65.510379
-100.705180 -116.790516 43.612821 -65.248709
-100.494872 -116.062639 43.019322 -64.967253
-98.914882 -112.381883 43.246961 -63.389030
-101.577074 -117.193275 43.477779 -65.631105
-78.962250 -127.363731 56.110105 -61.897794
-74.916188 -122.011172 55.782182 -59.078208
-79.496840 -128.516820 56.546548 -62.404098
-83.166096 -133.502449 51.751059 -65.000564
-97.297939 -124.097553 51.893796 -66.418647
-94.024281 -126.788436 48.165583 -66.243815
-100.746419 -121.318866 43.963441 -66.619585
-99.057653 -114.239286 44.560140 -63.989082
-104.781751 -98.269152 20.418583 -81.710429
-56.035198 -43.688695 90.072961 -29.917168
-78.347736 -127.356388 51.804149 -61.711237
-85.706753 -132.601743 51.940418 -65.492549
-103.014924 -108.163139 21.166320 -84.829924
-57.438267 -63.400617 75.897297 -36.251665
-76.508532 -111.325448 53.935637 -56.350194
-74.867337 -94.677732 57.856994 -50.863520
-77.268805 -119.443595 55.680664 -59.013720
-81.503617 -126.554448 49.916702 -62.417419
-142.396278 -136.609692 25.340753 -111.728341
-107.829617 -115.078827 21.981005 -89.766053
-107.289798 -108.607770 21.755352 -86.763178
-123.569064 -126.661972 24.459464 -101.253873
-132.607717 -186.398280 32.179410 -95.701799
-176.554739 -217.494502 53.536500 -118.214772
-117.487029 -212.271911 29.755316 -98.927682
-146.627647 -168.169209 37.497338 -94.439057
-148.456311 -168.439176 41.405027 -95.068646
-127.446831 -187.608600 33.535797 -94.516629
-76.364874 -97.699909 -1.413648 -63.827618
-125.877260 -149.130962 20.656596 -108.998786
-131.341546 -149.912865 25.423895 -114.279640
-96.265252 -92.860408 19.484053 -75.621753
-123.075848 -134.582885 24.429048 -104.394019
-115.230880 -119.958436 23.208454 -94.889512
-115.169114 -158.330526 20.183534 -82.049892
-192.884690 -175.931695 74.247400 -110.644915
-110.324466 -111.956565 22.234133 -89.892654
-79.018367 -59.317919 2.858132 -50.018206
-127.196014 -155.560069 38.400446 -84.826825
-160.054257 -134.020154 45.105007 -88.222323
-148.218226 -95.850730 127.890638 -73.220687
-114.211290 -116.825908 22.965876 -93.126146
-80.342302 -187.387272 20.659569 -80.318872
-138.880107 -172.520156 30.395993 -93.420079
-117.428750 -182.725130 26.705139 -90.046164
-138.618952 -159.197981 41.937386 -89.345080
-111.047138 -148.120181 17.118190 -105.019224
-59.203102 -92.209966 2.188297 -64.092536
-142.532391 -203.754089 41.319975 -103.885944
-116.140490 -208.439321 27.670698 -97.373943
-146.120480 -183.993620 39.451934 -99.034230
-123.959748 -182.091786 29.754663 -91.815460
-131.195481 -175.441887 19.078945 -124.877456
-106.079679 -151.556341 10.976105 -104.501526
-120.080323 -184.355111 32.129900 -91.330630
-107.056025 -208.464033 37.326462 -94.656017
-104.367768 -140.964610 15.785470 -99.151009
-123.544945 -172.768373 14.040232 -120.586386
-112.903134 -206.669203 21.277703 -95.871701
-124.017901 -159.956615 20.490455 -115.462593
-101.072678 -128.067934 18.423817 -92.345352
-114.160046 -144.995997 20.412888 -104.730641
-133.847280 -168.709138 22.859135 -123.291829
-123.526077 -178.340023 9.181186 -122.840620
-62.814841 -97.401115 1.774598 -70.044865
-94.954455 -125.871730 16.120132 -88.687501
-79.927203 -116.645690 8.314623 -81.508656
-123.116765 -172.626152 13.831932 -120.295264
-64.637375 -98.172964 5.070897 -66.609072
-56.562369 -80.539676 10.094365 -54.415168
-46.307283 -73.892372 3.578633 -52.485329
-72.314811 -95.739510 13.899878 -66.400896
-85.687341 -122.632880 6.185774 -85.881100
-126.206822 -175.659253 14.717994 -122.932098
-115.418439 -210.519913 25.425840 -97.781506
-94.546600 -124.707321 16.022583 -88.205252
-127.196812 -150.347077 15.732019 -111.234071
-117.649752 -134.206953 23.191889 -102.060268
-150.712822 -165.180281 28.925974 -128.924331
-141.470165 -180.238039 23.292006 -131.355977
-106.346111 -147.818211 13.952887 -102.764244
-101.114964 -144.321395 11.146030 -99.084235
-99.162557 -132.550941 15.893394 -93.419708
-99.465584 -140.374073 12.303384 -96.706385
-133.178871 -168.301426 22.642938 -122.844372
-97.469949 -138.432098 11.305705 -95.178768
-106.321285 -152.944508 30.679938 -77.779738
-102.480842 -142.508287 25.964108 -73.496739
-79.672494 -125.225839 16.828253 -61.469500
-131.538045 -172.548810 20.811458 -123.642366
-109.068008 -148.572680 30.402522 -77.292206
-112.032743 -145.977717 32.236544 -77.403138
-104.013807 -135.067773 24.035511 -71.724474
-96.564825 -130.495054 20.965482 -68.117964
-109.344622 -174.892853 33.706496 -85.271242
-111.136512 -184.286950 28.148559 -88.627039
-108.815690 -166.372288 32.927094 -82.556394
-109.498157 -162.878588 33.673054 -81.713024
-116.226329 -184.368464 28.775727 -90.178438
-114.646311 -175.798225 25.585860 -87.133361
-111.487819 -173.804040 35.208679 -85.587558
-106.207748 -172.196675 32.383889 -83.521327
-144.607761 -200.434046 -2.061324 -140.603432
-121.073676 -177.422140 -3.681022 -121.584880
-119.032557 -230.898145 33.311821 -104.979210
-119.236589 -198.837543 33.263353 -95.422240
-108.813108 -101.462864 -16.399818 -82.376188
-121.602275 -247.134500 3.746123 -110.621032
-123.291136 -166.028947 -8.900983 -115.585108
-118.232481 -152.933199 -10.853589 -105.903920
-121.440059 -238.850435 -10.006542 -108.087148
-115.767277 -240.556374 -11.380957 -106.897095
-135.787536 -132.071347 -12.292493 -100.970508
-122.356376 -155.243804 -5.717060 -106.926640
-233.298170 -333.495344 -3.612962 -234.512355
-155.827167 -223.729694 8.729229 -155.654634
-112.294399 -212.378334 34.314792 -97.401820
-121.481765 -243.664875 40.017830 -109.543992
-115.225327 -202.998800 32.771292 -95.467238
-120.906015 -187.303353 31.124474 -92.462810
-114.852958 -160.883946 13.432647 -111.992800
-100.994602 -139.156996 0.310095 -94.536879
-116.232678 -257.541910 11.465822 -112.132376
-111.413838 -264.790201 34.084426 -112.861212
-129.557970 -239.820905 1.495299 -110.813663
-126.119469 -256.977082 -5.846111 -114.928965
-114.443396 -100.090934 -15.937118 -84.189370
-129.927566 -231.347849 0.721669 -108.382625
-129.403265 -248.303636 -6.026708 -113.312070
-122.037601 -239.713161 -15.963042 -108.525229
-117.384635 -120.961600 -9.121125 -88.050939
-121.525038 -178.379593 2.324467 -122.184974
-113.381499 -150.798775 -1.541755 -101.991679
-114.460771 -137.009209 -4.096261 -93.321642
-117.915128 -173.021601 3.708811 -118.456637
-127.409338 -178.544967 0.795774 -121.508884
-114.029539 -236.009346 25.862128 -105.011665
-83.084244 -219.557188 -6.292032 -90.792430
-116.338349 -209.711305 31.712128 -97.814896
-116.691701 -216.696826 33.053280 -100.016558
-113.186025 -204.095964 32.909895 -95.184597
-119.636171 -198.369260 34.374278 -95.401629
-119.834989 -215.709646 33.645136 -100.663390
-113.334036 -215.603280 30.420910 -98.681195
-113.467980 -186.374731 28.201897 -89.952813
-116.042835 -195.873547 32.600522 -93.574915
-110.799743 -184.373266 30.854729 -88.551903
-108.469121 -184.616087 29.827352 -87.925562
-114.310964 -151.247392 30.440897 -79.667507
-106.144820 -146.735866 31.440935 -75.864206
-115.472448 -199.451168 33.679672 -94.477085
-111.070138 -189.279774 30.624235 -90.104973
-118.374746 -146.963977 30.468078 -79.601617
-99.530427 -137.084693 29.289427 -70.984536
-113.167127 -140.718498 29.693571 -76.165688
-102.163934 -135.348588 16.664738 -95.870971
-110.400290 -188.944846 31.440164 -89.803541
-112.849762 -195.042905 33.116970 -92.367800
-111.657437 -178.696070 33.054972 -87.106052
-114.401224 -195.876737 31.662259 -93.083388
-111.694050 -187.476478 31.901100 -89.751158
-111.735804 -187.931557 32.701839 -89.900208
-111.127670 -170.105124 32.132515 -84.369838
-114.349266 -184.333116 30.452916 -89.604715
-110.734810 -207.732990 33.081191 -95.540340
-117.071648 -197.507317 33.056995 -94.373690
-113.814949 -201.580306 33.600595 -94.618577
-112.953564 -195.396702 32.849697 -92.505080
-114.320634 -215.806285 32.987156 -99.038076
-113.059340 -210.953791 31.252418 -97.203939
-114.237342 -204.689154 34.154570 -95.677949
-112.446619 -194.986959 31.784513 -92.230074
-111.135559 -231.063285 27.615878 -102.659653
-108.629985 -211.216456 1.637062 -95.953932
-114.886765 -232.591251 28.074585 -104.243405
-108.949021 -227.917454 8.246024 -101.059942
-122.299034 -236.360049 -16.235598 -107.597725
-122.573306 -237.535462 -17.522461 -108.032630
-119.290684 -172.127383 -4.150215 -117.152844
-96.992686 -141.132861 0.460460 -94.525179
-122.178217 -232.421604 -9.766673 -106.379946
-119.631145 -241.851984 -15.318265 -108.444938
-140.586053 -242.225887 -4.464138 -114.843582
-120.115601 -246.782402 -12.170491 -110.069401
-120.997744 -125.764374 -4.542086 -86.817933
-121.116533 -240.181520 -11.187823 -108.389416
-107.162466 -143.147132 2.493445 -97.332383
-88.673249 -129.617636 7.549265 -87.187372
-106.901041 -158.151561 2.052167 -107.501590
-156.316065 -220.152490 13.880731 -154.350072
-96.593986 -179.060034 10.000702 -82.696206
-118.706290 -164.062293 14.916205 -114.458433
-100.756066 -148.932344 -4.309836 -101.531732
-75.136252 -109.365422 8.809520 -73.519475
-118.391819 -236.266178 -12.664248 -106.397399
-122.463464 -239.180645 -15.327992 -108.493233
-110.403752 -241.678251 -12.002545 -105.624601
-99.366515 -86.824753 9.324757 -67.996772
-118.351607 -242.324149 -14.647005 -108.202727
-122.881562 -242.910971 -16.388145 -109.737760
-87.573347 -131.545898 -0.148375 -88.594827
-130.133922 -149.631947 10.623425 -104.016399
-117.327777 -170.846881 -6.663225 -117.240920
-113.888487 -153.307645 -0.971972 -103.317304
-110.291691 -162.588221 -3.202341 -110.763898
-112.933633 -214.011823 0.426309 -98.083637
-106.168802 -207.238782 -0.547476 -94.022275
-109.084725 -223.416899 18.456099 -99.750487
-102.991076 -214.171674 7.406995 -95.148825
-100.055320 -219.872545 12.211685 -95.978360
-108.927250 -218.194836 28.406544 -98.136626
-109.510454 -219.923350 27.538167 -98.830141
-109.104459 -219.493366 29.045133 -98.579347
-110.919694 -212.971508 31.763455 -97.167361
-112.340066 -211.200515 33.756523 -97.062174
-111.145213 -204.397264 32.738307 -94.662743
-113.277417 -206.186131 33.784135 -95.839065
-111.386835 -196.547919 32.252203 -92.380426
-112.597333 -207.960623 32.754688 -96.167387
-112.282576 -206.522498 31.324576 -95.641522
-116.310086 -193.140155 29.066573 -92.835072
-112.462068 -186.900618 32.989657 -89.808806
-118.070494 -177.959459 30.055751 -88.808986
-114.924494 -180.271100 32.616218 -88.558678
-119.518619 -164.257016 28.720549 -85.132690
-116.685085 -174.936119 29.664772 -87.486361
-123.349627 -163.565798 18.717687 -116.713722
-124.393208 -168.422702 17.278775 -119.166288
-102.934147 -149.747822 8.206402 -103.783235
-112.935697 -159.085804 12.817300 -110.319779
-91.990758 -133.274598 9.244673 -93.142476
-106.110480 -153.271763 9.454858 -104.980549
-128.273550 -169.880517 12.316027 -120.414134
-95.857882 -135.580688 11.882710 -94.083326
-101.522497 -146.385799 9.814539 -100.129348
-113.274698 -164.608784 7.987114 -112.801466
-129.060152 -162.541925 26.153372 -87.480623
-136.739824 -174.554176 22.635660 -126.933082
-125.796959 -154.603898 22.807349 -113.942573
-112.257653 -142.026967 19.928140 -102.928888
-116.623001 -141.924797 29.319334 -77.564339
-124.517216 -159.605362 20.889506 -115.510794
-126.552373 -157.860653 22.374140 -115.624958
-105.741232 -133.074426 19.265887 -96.412403
-110.691651 -158.677239 32.123698 -80.810667
-113.976969 -165.609220 32.480839 -83.875857
-121.845870 -151.886602 28.403118 -82.119741
-111.527893 -148.156666 32.191114 -77.905368
-117.930589 -159.352177 16.890403 -112.623040
-77.495363 -117.149696 3.496009 -83.898843
-126.415872 -177.771995 13.399892 -123.906162
-107.602200 -152.725691 11.713417 -105.942013
-97.444158 -136.330228 12.744096 -94.958834
-115.780668 -138.639505 22.068837 -103.209862
-119.183138 -168.197974 12.747686 -116.800774
-107.425455 -152.173893 11.994008 -105.096652
-108.969656 -158.341139 8.313276 -108.327102
-115.271962 -164.578213 11.140798 -113.608284
-114.806894 -150.303209 18.635824 -107.498070
-112.474000 -156.105848 14.425068 -108.828260
-112.899043 -207.711738 29.293995 -96.183234
-75.995652 -100.891592 13.778568 -70.366423
-79.186494 -119.817931 2.239584 -83.327653
-107.077096 -150.962886 12.561753 -104.406234
-104.472908 -211.743551 27.219460 -94.864938
-98.264062 -223.821965 35.606805 -96.625808
-92.227740 -172.598869 23.358924 -79.447983
63.278183 -110.920551 0.212550 -14.292710
-144.397496 -173.387564 26.263847 -129.689029
-79.113352 -53.254649 102.537048 -39.710400
-122.413966 -161.503353 28.192111 -85.175196
-218.753924 -224.217046 40.408421 -182.073701
-39.506401 -161.417217 23.975481 -60.277085
-70.418289 -36.098251 21.416796 -31.954962
-150.839734 -180.666383 27.300205 -135.465479
-133.822518 -72.427168 64.072080 -61.874906
-91.166536 -92.200340 19.113839 -73.067374
-151.194748 -151.413902 28.798526 -123.277210
-79.585950 -84.206483 17.388470 -65.051432
-173.531509 -90.629858 78.634509 -79.248410
-89.084306 -166.420840 21.624630 -76.651544
-97.924025 -229.254063 35.940995 -98.153426
-88.772838 -176.578393 20.856694 -79.605369
-79.947804 -84.581474 17.421773 -67.672125
-142.203839 -198.312944 15.330063 -139.165063
-89.802992 -126.785981 11.845503 -86.928801
-143.350075 -205.089544 10.647708 -142.455284
-115.724542 -162.947411 13.100221 -113.089570
-106.119910 -210.100052 42.248954 -94.865989
-27.532159 -47.897017 -2.094201 -33.557308
-17.712550 -181.024969 15.837208 -59.621256
9.159856 -194.200677 58.778957 -55.512246
0.607277 -171.013032 -6.934148 -51.121726
-59.617532 -154.283884 11.146972 -64.170425
-167.993744 -237.223615 13.360411 -166.488661
-209.254604 -224.362154 38.870814 -178.290333
-83.153008 -192.379204 -8.832566 -82.659664
-87.868211 -147.022971 22.067635 -70.467355
-55.496076 -176.244019 22.329083 -69.522029
-109.776142 -150.676976 15.248664 -105.843314
-11.455135 -26.511543 -0.738506 -21.386013
-173.453374 -249.229117 7.923102 -173.649377
-133.458680 -285.572576 96.141615 -125.709377
-146.936870 -193.042928 22.361616 -138.756608
-41.058523 -225.434520 77.498188 -79.947913
-63.741857 -73.600799 14.943652 -53.403897
-138.843613 -175.617644 23.767368 -132.255904
-64.297408 -217.119287 13.571051 -84.425009
-65.237114 -85.225803 13.137127 -62.864635
-91.198058 -117.186160 16.641337 -84.387515
-124.936979 -144.003720 24.289825 -109.082030
-57.249690 -84.857708 7.571814 -56.033876
-10.780503 -17.163601 5.897312 -14.473391
-13.987451 -17.703849 6.628512 -15.066600
-19.319166 -30.952976 6.261404 -21.255494
-333.668927 -366.081691 59.053087 -290.269474
-82.471042 -112.218563 13.785752 -79.390090
-35.314623 -51.543729 8.056945 -45.844808
-169.054767 -242.685019 7.716300 -169.249178
-193.354390 -197.960466 36.273158 -160.350989
-182.100771 -203.519865 34.234436 -157.945288
-193.692767 -200.677209 36.412693 -161.626859
-236.750859 -265.713463 42.715257 -207.310918
-234.215337 -253.418798 43.000532 -200.990785
-55.622043 -172.364254 30.936198 -68.395889
-108.617638 -128.249565 -21.468842 -95.479882
-61.299943 -77.018914 -13.311824 -57.727160
-200.206451 -218.813298 37.397213 -172.014075
-74.927351 -104.751225 11.576847 -80.919880
-75.765266 -170.585100 22.970809 -73.905110
-65.420756 -88.287739 12.389978 -71.242447
-57.047466 -157.672178 21.217277 -64.415893
-80.078109 -171.875104 33.182098 -75.585964
-163.479885 -197.281607 28.898693 -147.790581
-71.470080 -178.301562 31.197074 -74.931493
-50.466757 -163.830730 29.668170 -64.289246
-129.667330 -163.457856 22.291416 -121.215465
-150.215312 -195.596260 22.917880 -141.508416
-105.522240 -181.432921 34.219441 -86.086548
-130.793120 -178.524807 13.305120 -123.974963
-130.473004 -161.667147 23.131747 -119.994840
-149.460437 -187.972246 25.077604 -137.947274
-128.323591 -178.641739 14.663199 -125.135694
-135.298046 -180.016969 16.080794 -127.654226
-127.632965 -153.971436 23.647253 -114.454486
-140.241618 -169.450086 25.472713 -126.270454
-140.000286 -166.934069 25.843673 -125.104256
-140.485647 -174.251913 24.484821 -128.414750
-128.745935 -157.673294 23.313384 -116.879408
-139.736502 -173.432927 23.774854 -128.624442
-90.944075 -131.710812 9.256000 -94.426281
-106.173155 -146.032232 14.583915 -106.184264
-96.060522 -142.572301 3.896843 -100.689851
-131.836313 -171.286137 15.314142 -122.068437
-150.991418 -204.845806 19.371831 -145.626158
-189.639823 -218.891211 34.440776 -167.833759
-121.992044 -150.420259 22.146651 -110.734978
-114.899553 -140.088962 21.479344 -103.485119
-130.563901 -172.239147 19.812354 -123.204582
-115.843385 -151.988799 18.628291 -110.775507
-127.956065 -160.547041 22.269911 -118.957075
-118.457328 -164.608782 8.037534 -116.892658
-119.349354 -163.217144 29.371838 -84.769949
-122.288302 -173.140652 25.938600 -88.628686
-122.103943 -152.813268 29.723367 -82.475163
-126.592081 -157.168900 25.520525 -85.128294
-114.132871 -200.654031 30.251101 -94.436070
-113.614405 -202.836930 32.244321 -94.935400
-117.384625 -201.732691 27.235818 -95.735195
-125.651536 -184.031205 23.493337 -92.904822
-111.559880 -215.179660 32.395713 -98.021862
-107.696200 -218.023776 29.339643 -97.715993
-109.065448 -214.220200 31.988858 -96.985694
-110.314636 -216.808633 32.632006 -98.136980
-108.889088 -222.535784 25.015008 -99.427462
-101.271123 -216.905940 18.354929 -95.453119
-108.909028 -226.751788 23.086336 -100.698245
-104.491959 -216.335371 22.072673 -96.248199
-109.579944 -213.304821 4.253774 -96.865430
-107.876720 -226.336626 14.497623 -100.264004
-101.312184 -207.815003 1.534153 -92.738156
-107.069662 -214.820451 11.953940 -96.567034
-114.508683 -244.339342 -6.868155 -107.654408
-119.772004 -244.008899 -13.560330 -109.134271
-113.081620 -240.819058 -6.247882 -106.170203
-83.268162 -87.761828 17.933154 -68.410885
-123.452281 -247.512336 -13.290557 -111.289385
-126.191309 -252.060923 -8.299842 -113.475670
-71.119614 -85.005015 15.385691 -62.012010
-94.574457 -137.410298 8.440849 -93.738180
-143.461271 -189.068488 21.247872 -135.918967
-132.129499 -192.553365 4.446299 -132.611789
-130.193213 -190.663975 -0.118053 -130.993798
-109.108948 -216.591852 4.853745 -97.710240
-72.856862 -105.880661 8.937929 -71.109794
-117.880118 -218.691483 -4.878805 -100.971481
-25.313818 -35.318706 7.716836 -22.359779
-111.168996 -207.130134 -6.982272 -95.489739
-110.588202 -209.109415 1.147404 -95.909285
-113.479207 -218.759291 1.240524 -99.671549
-95.713337 -142.778302 1.287538 -96.391189
-95.597739 -140.268381 6.786187 -95.385537
-113.220118 -240.151747 -3.148499 -106.011560
-108.967961 -160.923082 2.662115 -109.524696
-124.132818 -253.381661 -7.555302 -113.254344
-128.880070 -263.595349 -1.314360 -117.742626
-116.684055 -237.082891 -3.369470 -106.130084
-100.693107 -149.180561 3.416827 -101.210856
-105.410794 -154.017141 6.882012 -105.351011
-106.022997 -151.101320 10.975197 -104.159766
-143.840785 -183.853369 23.448424 -133.843288
-118.627265 -174.158292 3.317438 -119.169510
-107.858328 -209.190292 13.551083 -95.114586
-105.620386 -209.456878 25.026586 -94.523179
-107.454482 -215.864370 31.797851 -96.995656
-108.104550 -217.052325 28.879588 -97.547063
-102.541259 -214.517281 13.355022 -95.117562
-110.334657 -217.240760 13.247753 -98.272625
-105.558592 -214.428277 24.582359 -95.996061
-107.965120 -218.869066 29.632689 -98.050256
-109.250625 -217.407520 31.598021 -97.997443
-110.724484 -211.391037 32.151665 -96.634656
-121.152870 -193.947636 25.503831 -94.530152
-139.348880 -208.783890 2.918279 -104.439831
-113.157209 -218.923190 28.563869 -99.624120
-111.461339 -213.191911 29.996834 -97.395975
-114.398891 -208.311065 28.768647 -96.812987
-115.960952 -213.533448 27.484679 -98.848320
-117.985396 -197.442443 28.711321 -94.628352
-121.777224 -203.353554 22.695358 -97.539233
-122.709897 -198.994616 24.091868 -96.511354
-122.070451 -213.002064 19.986127 -100.521755
-126.990925 -188.731319 22.020113 -94.716673
-126.175672 -205.340939 15.906633 -99.454983
-111.109630 -225.728224 25.634552 -101.051356
-115.125869 -221.182495 24.157996 -100.892509
-119.409502 -216.242908 22.858154 -100.695723
-113.916518 -216.046795 26.624367 -98.988994
-111.907621 -209.792497 3.166685 -96.510035
-110.953624 -203.820274 7.736486 -94.432169
-108.454912 -229.030654 25.455314 -101.245670
-108.300596 -219.905187 31.099661 -98.461735
-106.979806 -222.295978 30.091324 -98.782735
-106.106267 -221.119746 29.486956 -98.167804
-110.813932 -222.941213 29.314060 -100.126544
-108.466851 -216.466826 30.852631 -97.480103
-115.427118 -212.156281 -2.371004 -98.275020
-100.085291 -209.386281 -5.077455 -92.841472
-111.794245 -211.286449 6.789186 -96.924208
-108.477229 -209.134860 4.975109 -95.283627
-125.139387 -253.271248 -5.287859 -113.523191
-158.799864 -204.433364 24.755358 -148.843783
-112.466574 -164.861517 5.228803 -112.686259
-127.087620 -185.294298 5.111571 -127.428220
-125.784770 -251.246130 -0.719787 -113.109270
-122.841910 -249.393012 -4.212739 -111.670477
-127.961943 -258.150590 -3.570213 -115.833760
-123.661945 -250.652889 -0.177162 -112.294450
-113.882088 -167.005981 4.843460 -114.196539
-125.566729 -182.807357 5.900802 -125.741638
-102.228220 -148.310478 8.448743 -101.382142
-109.330853 -160.660724 4.837976 -109.600894
-55.779910 -70.059195 12.579387 -49.129451
-70.723591 -87.164959 14.935417 -62.758014
-121.128285 -215.158551 -1.816470 -100.886051
-115.950436 -211.616572 -3.503655 -98.270102
-113.431049 -212.456236 6.149901 -97.766185
-108.070858 -206.221517 0.364972 -94.287713
-127.252476 -251.012623 -1.377699 -113.479530
-153.601321 -205.866467 20.751660 -147.250957
-119.993646 -175.940809 3.724899 -120.505806
-153.706649 -183.215575 27.868508 -137.765239
-132.561738 -266.242210 4.654771 -119.641184
-151.556812 -206.419570 18.787696 -146.735987
-126.081701 -180.456400 10.311342 -124.984096
-128.250259 -187.212630 4.339454 -128.720838
-139.219463 -193.107183 15.653128 -135.839383
-127.937944 -181.119479 12.248002 -126.027616
-116.485749 -167.876005 9.143758 -115.658287
-82.584348 -99.114684 17.072395 -72.700516
-113.962485 -212.168680 12.280577 -97.839350
-115.902834 -205.781827 1.164474 -96.505398
-105.820227 -215.216552 27.095200 -96.311034
-101.376140 -247.400366 27.940274 -104.632952
-113.387511 -215.804179 15.919774 -98.757507
-110.895451 -215.587585 21.306601 -97.944911
-106.079782 -222.667185 29.459590 -98.624090
-110.035701 -219.526108 24.330470 -98.868543
-122.928017 -216.189662 13.611068 -101.735304
-129.279901 -201.610298 16.858538 -99.267060
-130.806538 -219.795008 11.809530 -105.180464
-115.470973 -144.327081 20.771772 -105.360265
-108.247362 -227.528250 29.261395 -100.732684
-104.012496 -232.429145 29.083705 -100.932493
-104.012540 -227.668127 27.488116 -99.504200
-108.766873 -237.660593 26.009143 -103.928240
-109.791564 -235.706060 22.618612 -103.649287
-112.693038 -223.830140 23.566012 -100.956954
-145.444795 -188.042746 22.884294 -136.308103
-129.538019 -159.707001 23.221517 -117.745658
-96.111803 -163.275897 50.438484 -77.816310
-143.751816 -164.966729 27.285080 -126.239515
-102.027235 -190.316876 49.734377 -87.703233
-87.166613 -183.803155 43.035957 -81.290930
-92.706391 -186.063076 46.750752 -83.630840
-74.974332 -169.207496 30.676092 -73.254548
-83.267896 -155.008875 60.913654 -71.483031
-94.260779 -164.244163 41.657152 -77.551483
-95.535148 -180.430146 45.791357 -82.789588
-141.062483 -174.248335 18.363564 -127.284993
-140.513437 -173.800824 24.626136 -128.223474
-137.594197 -196.521195 10.875273 -100.234617
-160.191233 -220.157754 18.134344 -155.192736
-115.374974 -133.158958 22.725643 -100.508955
-131.538689 -166.385354 22.402209 -121.332407
-143.783959 -176.006435 25.481836 -130.544707
-123.733350 -168.029094 16.918866 -120.219446
-105.195089 -179.198225 36.338009 -85.317994
-132.964504 -162.117433 24.081950 -120.162807
-132.179461 -177.348295 19.587587 -92.858327
-132.319344 -160.268056 24.220062 -119.096414
-154.062771 -181.496889 28.313414 -137.162452
-125.701368 -154.980985 22.660319 -114.809474
-128.447689 -158.636687 22.966545 -117.992347
-88.728895 -172.996231 38.881122 -78.517538
-137.344997 -179.699222 13.635240 -129.603968
-145.423866 -190.762053 17.566139 -136.014007
-92.958449 -157.160126 51.768361 -75.035572
-95.297380 -184.992910 42.268279 -84.087087
-90.370881 -187.433656 41.636463 -83.341361
-85.394607 -182.968900 28.625792 -80.509052
-83.787174 -189.455473 32.878782 -81.972794
-67.530315 -172.292675 33.297201 -71.946897
-80.176586 -181.280233 38.093465 -78.437046
-3.837292 -153.724584 36.730608 -47.268563
-116.845005 -278.990282 -4.658806 -118.750586
-34.600481 -167.531401 19.920024 -60.639564
-64.946031 -174.159339 29.179104 -71.731611
-7.059612 -160.793922 28.962556 -50.356060
-55.615812 -167.857296 29.092113 -67.041932
42.116244 -164.939342 5.987686 -36.846929
-74.462826 -178.702396 17.384757 -75.949567
-154.946943 -210.060483 19.720594 -149.629669
-37.033727 -206.570033 55.522388 -73.081128
-52.990593 -277.665589 98.857156 -99.196854
-168.392536 -229.118678 20.316343 -163.188120
-124.674124 -149.188495 23.747631 -110.942457
-170.364758 -178.537029 32.400811 -142.655963
-6.409411 -4.096419 4.958960 -4.140810
-14.044636 -21.882494 6.014363 -18.025996
-124.041567 -180.100215 7.209863 -124.295347
-33.647269 -202.859266 67.850477 -70.951961
-51.109726 -203.318198 64.666423 -76.328377
-67.648326 -92.390255 12.313407 -63.050054
-149.753531 -178.868218 -27.383266 -134.136079
-118.008833 -184.472697 -3.668548 -90.744459
-125.837913 -179.779941 -10.831352 -125.071762
-170.447420 -224.413998 24.295793 -162.098577
-79.520094 -178.164535 38.369539 -77.305388
-87.751383 -188.524053 42.912725 -82.882631
-85.812564 -164.246053 21.720923 -75.017585
-74.012455 -198.833353 5.971878 -81.853742
-86.784567 -277.730955 1.386466 -109.354657
-91.450078 -121.072964 -15.544874 -85.356449
-30.719173 -211.166301 60.135332 -72.565642
-194.854796 -278.615990 7.958633 -195.235445
-88.788229 -235.723340 102.845682 -97.353471
-2.204849 -205.536710 68.307218 -62.322468
-21.916076 -32.945771 6.756843 -22.030959
-37.138898 -51.224736 9.314310 -32.827360
-93.266068 -134.664948 9.363479 -91.847010
-69.248311 -93.800378 12.751217 -64.338222
-213.825579 -166.408329 107.672021 -114.070172
-67.958133 -102.439811 5.769398 -67.931494
-144.850344 -175.435631 95.571835 -96.085792
-67.727255 -99.039627 8.534081 -66.079598
-131.194839 -179.299237 76.836516 -93.148223
-83.948372 -118.182247 11.609211 -80.939769
-119.666049 -182.002135 63.160980 -90.500455
-118.998552 -172.531244 53.734012 -87.458939
-118.238388 -183.659168 60.850608 -90.569267
-117.195382 -173.087552 0.916605 -117.935022
-114.836175 -167.696163 59.044992 -84.759701
-116.316500 -169.212880 55.398319 -85.658814
-93.919830 -154.830914 54.791583 -74.625223
-103.258896 -156.035828 51.452601 -77.788417
-96.529888 -159.526901 51.374435 -76.817037
-105.479792 -155.992874 50.150758 -78.441800
-86.624484 -150.209005 46.322049 -71.050047
-158.878623 -214.032254 20.617009 -152.932796
-125.077247 -85.284124 56.474375 -63.108411
-145.715909 -199.144005 17.960283 -141.093206
-126.206261 -171.379273 16.414848 -120.171877
-84.409018 -153.452261 52.911612 -71.358384
-131.660862 -169.746364 18.492928 -120.560435
-85.813474 -150.900150 65.218591 -71.014087
-111.015668 -154.198447 48.187610 -79.564234
-109.522734 -161.469561 54.466456 -81.297688
-90.399755 -150.262538 41.048268 -72.198688
-77.386148 -146.264408 35.455045 -67.095167
-115.251434 -158.609389 15.081979 -111.218519
-141.194372 -175.375760 23.933267 -128.089442
-93.118033 -146.461591 43.231463 -71.873887
-106.297293 -142.672942 43.339194 -74.691070
-102.635594 -147.220645 45.780895 -74.956872
-89.038067 -146.353625 38.977277 -70.617508
-123.730305 -161.288632 19.551472 -115.054124
-154.437287 -176.774454 28.622385 -134.312084
-150.253004 -203.641592 19.253627 -144.903716
-136.753004 -216.996511 16.228105 -106.124855
-97.250935 -147.929801 43.361838 -73.554221
-116.386267 -152.833510 51.709016 -80.765933
-155.522118 -202.261836 23.620957 -146.542336
-100.781357 -91.634723 19.293137 -76.907949
-100.186300 -140.432173 42.134178 -72.185542
-94.557257 -147.106517 42.582839 -72.499132
-98.717949 -144.687584 42.300018 -73.021660
-92.298149 -143.681608 39.506879 -70.793927
-113.239088 -161.770865 47.309832 -82.502986
-114.545780 -160.920680 51.926160 -82.639938
-107.532697 -151.843811 46.722798 -77.812952
-110.202714 -159.275510 50.039937 -80.843467
-120.889316 -167.595456 52.167250 -86.545432
-125.959079 -184.939618 59.915347 -93.269609
-93.641483 -146.587317 46.341172 -72.068640
-105.581936 -145.153704 44.332185 -75.220692
-73.847527 -88.198114 16.081116 -63.915660
-17.807534 -25.214418 6.892265 -18.683019
-140.654011 -192.116882 72.192635 -99.831268
-137.534397 -197.587677 96.486030 -100.536622
-111.463082 -133.636191 21.467674 -99.035574
-205.630412 -139.300672 103.347888 -103.479325
-186.153656 -179.741047 104.224780 -109.768411
-36.805202 -59.357841 4.495013 -40.617906
-157.349317 -198.058432 88.318581 -106.622325
-154.011759 -159.346659 91.657069 -94.007525
-47.711135 -50.501972 12.120227 -41.117347
-110.245088 -133.034223 21.242252 -98.181160
-20.604294 -35.450006 4.827633 -25.954954
-175.178278 -163.450744 83.752615 -101.588707
-124.755513 -165.056480 62.543620 -86.943598
-140.681462 -144.406135 73.534516 -85.526279
-119.737619 -165.269845 51.980067 -85.502239
-128.392671 -181.455777 59.926842 -92.954534
-114.768619 -157.328406 47.945000 -81.629107
-110.062698 -149.885454 43.574081 -77.984446
-99.720031 -144.520602 45.147792 -73.272190
-106.321622 -135.539091 41.494354 -72.558214
-196.299470 -139.788833 95.968189 -100.826491
-138.663300 -134.038615 26.308166 -110.640218
-143.746215 -179.086573 71.606282 -96.849836
-123.714544 -152.621747 56.703743 -82.900887
-166.223811 -96.613373 77.699189 -78.851155
-146.746210 -134.191494 26.285879 -114.164830
-158.895083 -136.441303 91.514412 -88.600916
-146.057226 -130.037144 65.595619 -82.828311
-84.674763 -80.140712 17.464214 -65.263322
-106.696498 -102.660567 21.147843 -84.007630
-98.182195 -75.288676 14.250908 -68.940738
-55.066799 -43.343165 10.687294 -37.963444
-126.429319 -151.710012 61.433161 -83.441799
-115.599156 -146.240598 50.929319 -78.551926
-111.236004 -148.521878 44.581294 -77.927365
-108.278741 -146.401747 42.913473 -76.404146
-129.145844 -173.702504 59.849027 -90.854504
-128.216390 -163.750877 58.952416 -87.590180
-113.465656 -159.024478 46.478637 -81.747040
-116.468712 -159.312347 51.618204 -82.734318
-113.841821 -156.975583 46.996098 -81.245221
-109.895964 -154.106117 46.625503 -79.200624
-100.895775 -141.046779 41.676138 -72.582766
-105.740350 -135.868121 42.752473 -72.482541
-104.919881 -138.799912 45.090590 -73.115938
-103.479314 -138.138627 41.703225 -72.485382
-107.177300 -135.384594 41.752414 -72.768568
-105.055472 -139.792899 42.965270 -73.454511
-105.824068 -137.629660 42.605567 -73.036118
-106.477395 -133.963786 41.886721 -72.132354
-106.187272 -140.523156 44.735621 -74.013129
-107.005105 -134.225639 43.123408 -72.369223
-105.824762 -139.640595 44.731691 -73.639607
-102.582034 -141.266242 44.349261 -73.154483
-101.867733 -144.446600 47.614641 -73.894300
-104.359235 -142.275922 46.258816 -73.990547
-105.249556 -155.414201 49.835801 -78.199127
-165.366779 -203.377197 28.316171 -150.851682
-85.017651 -185.791136 49.381091 -81.242636
-125.034674 -105.849702 20.901190 -93.062869
-100.090569 -178.350292 59.847091 -83.532258
-179.235806 -222.521547 29.761255 -165.050856
-126.083441 -175.746963 14.398464 -122.969705
-186.718068 -125.193033 38.057624 -93.573330
-104.153991 -138.293587 43.252781 -72.734273
-101.529573 -140.689264 42.873529 -72.665651
-95.482821 -150.299891 52.570881 -73.734814
-105.215449 -147.334303 48.714276 -75.764926
-102.839564 -150.509116 46.345947 -76.004604
-97.299282 -143.890286 44.119111 -72.356870
-105.359434 -140.529434 43.141870 -73.766660
-102.381925 -146.002551 43.639255 -74.515343
-102.890246 -145.431770 45.355830 -74.496605
-104.366780 -142.683881 43.571196 -74.115199
-106.460754 -160.860065 57.228393 -80.196246
-136.423651 -171.529329 22.828571 -124.539197
-182.307494 -240.877149 25.028808 -174.085502
-142.605300 -174.082628 25.415979 -129.239671
-122.518308 -78.787183 13.851099 -60.391647
-148.536923 -93.847636 24.257159 -72.715368
-116.795482 -92.169754 20.167740 -62.689571
-101.109752 -83.039368 21.719231 -55.244736
-117.984482 -88.915046 20.039557 -62.069858
-105.940010 -74.054518 22.018581 -53.998358
-107.211692 -79.235500 21.937483 -55.934158
-113.778070 -87.924221 20.197301 -60.510688
-111.149003 -92.085223 21.919829 -60.970268
-112.342286 -90.303033 20.693776 -60.793596
-115.325775 -92.357656 22.345936 -62.305029
-112.090802 -87.750474 22.184893 -59.952383
-95.997629 -65.912248 8.669885 -64.057124
-112.264816 -123.921433 22.651235 -95.329556
-109.286682 -86.938188 21.939529 -58.867461
-126.434649 -77.918543 22.056290 -61.305958
-118.321275 -85.462905 12.760535 -81.644476
-113.768756 -59.970158 16.302886 -52.121674
-102.047074 -80.664582 21.428655 -54.813497
-107.005264 -78.234181 21.263825 -55.571834
-84.457421 -68.347808 14.573450 -60.202790
-102.829747 -249.898429 66.130240 -105.818453
-101.813406 -82.883217 16.748408 -73.623558
-144.529014 -102.509762 12.142925 -99.899704
-102.913651 -81.875470 21.509519 -55.436736
-104.136931 -84.724682 23.051440 -56.658484
-102.848273 -77.444336 22.682908 -54.087783
-111.404569 -83.270010 20.275453 -58.402373
-114.754994 -90.836113 23.771616 -61.677332
-108.682219 -87.720678 23.146808 -58.920869
-107.689287 -87.953517 21.278877 -58.692841
-102.017029 -83.010351 23.302227 -55.508214
-105.082161 -85.368752 21.279215 -57.135274
-110.729004 -90.441802 22.783577 -60.351242
-114.958545 -84.762272 20.174136 -59.916245
-112.014827 -80.044056 20.235721 -57.617665
-111.623067 -80.107826 21.629692 -57.519268
-117.818382 -82.936066 21.665877 -60.226334
-105.718020 -76.134407 21.438547 -54.555728
-109.514621 -79.555554 20.474127 -56.721053
-108.856429 -75.201024 21.597472 -55.217236
-105.714075 -70.272814 20.275487 -52.796067
-106.863106 -63.489717 15.401207 -51.105847
-108.056668 -74.209294 18.827242 -54.679788
-88.354909 -61.015608 9.090844 -58.716279
-102.947851 -62.353204 10.196806 -49.590317
-111.633341 -76.637264 21.000729 -56.481181
-111.314173 -75.699775 20.187931 -56.104184
-103.477015 -70.317098 16.497660 -52.138234
-105.433160 -71.970894 15.217704 -53.221216
-119.312963 -82.540057 9.562995 -80.750285
-90.070278 -61.904446 7.282576 -58.979783
-97.385148 -67.350252 9.124511 -65.411206
-97.767217 -67.284177 9.017304 -65.281534
-117.735056 -84.967165 20.712281 -60.810666
-111.252015 -76.433473 19.678755 -56.305646
-109.267142 -73.251269 18.428131 -54.755523
-113.134971 -79.625681 21.352954 -57.828196
-113.685022 -84.331330 21.840228 -59.404906
-113.853176 -80.429862 20.083001 -58.284911
-116.879455 -85.338480 20.639003 -60.665381
-124.225616 -92.012558 22.783175 -64.871452
-115.500547 -80.584801 21.526734 -58.825605
-112.439466 -77.665268 19.668692 -57.031420
-106.278181 -80.771069 22.090882 -56.114775
-100.586689 -73.502673 16.712248 -52.226809
-103.200238 -79.546729 10.336822 -69.968721
-103.840642 -77.304591 13.138574 -71.518915
-116.638856 -102.169924 16.703559 -85.396822
-92.462493 -65.586531 8.799506 -61.327321
-111.112806 -92.729659 13.970372 -79.118842
-97.046924 -85.564251 9.583073 -68.484783
-88.286102 -67.131156 10.423535 -59.820412
-113.381948 -102.390583 14.487545 -82.571726
-101.688949 -70.376669 9.484220 -68.238467
-114.483499 -82.294311 3.702518 -75.598175
-120.587366 -86.430904 22.157317 -62.105481
-116.105571 -81.497565 21.263629 -59.280941
-99.463788 -85.643560 20.770701 -55.532204
-109.050451 -82.395791 20.850668 -57.433873
-118.146736 -85.665660 21.789704 -61.143719
-116.649624 -88.730874 21.907100 -61.614150
-122.381766 -88.195403 21.444746 -63.173151
-115.203886 -81.175969 20.158415 -58.913957
-128.401581 -101.025733 20.904766 -68.828194
-115.406751 -91.985478 21.407489 -62.217669
-124.490457 -97.411177 20.235740 -66.570490
-119.933494 -93.532565 22.161195 -64.039818
-188.541299 -229.850372 32.053972 -172.067590
-146.538725 -214.998649 42.201370 -108.461212
-130.614967 -91.964357 26.769994 -66.773797
-113.582922 -72.339376 22.779689 -55.776689
-102.754019 -83.040222 16.648319 -74.060617
-150.198156 -99.132913 28.851528 -74.799321
-123.129413 -93.647512 22.773552 -65.033078
-114.856501 -86.073402 22.960824 -60.278971
-128.267017 -99.566216 22.120049 -68.349970
-117.530207 -93.957514 21.900857 -63.446316
-128.465377 -99.434010 22.971827 -68.369816
-120.179788 -95.494149 20.332022 -64.702181
-128.310083 -98.405453 20.654930 -68.014661
-124.862817 -94.019166 20.493215 -65.664595
-121.331838 -83.360448 23.186062 -61.407686
-137.238341 -97.878093 23.704444 -70.534930
-133.460413 -103.670903 22.199217 -71.139395
-123.389356 -97.978621 20.928629 -66.410393
-146.648290 -163.975270 42.869660 -93.187068
-148.794797 -157.783465 38.380668 -91.973478
-146.239731 -136.803616 40.894215 -84.913004
-145.598986 -135.029833 51.520238 -84.188646
-131.152508 -158.215052 35.285410 -86.810268
-117.192017 -94.011857 18.010016 -84.766592
-149.570302 -125.715121 23.776014 -111.746887
-162.043599 -104.863176 34.061085 -80.072033
-126.705783 -82.070462 28.361691 -62.632873
-20.415257 -7.561644 -1.148381 -14.205770
-137.346941 -105.870335 26.217927 -72.965183
-132.203206 -102.635798 21.421876 -70.451701
-123.805715 -98.154164 22.787119 -66.587964
-137.185199 -106.086771 23.002532 -72.981591
-135.097274 -103.612717 22.292413 -71.612997
-128.040935 -95.751302 23.059395 -67.137671
-121.627601 -89.374963 22.264743 -63.300769
-124.878926 -91.817633 22.822800 -65.008968
-121.132472 -89.780905 20.486606 -63.274013
-120.970021 -89.981944 22.129163 -63.285589
-123.552142 -90.892973 22.381175 -64.333534
-119.272068 -85.730028 21.028508 -61.500629
-125.833886 -91.241434 22.634158 -65.122596
-117.506155 -82.316336 20.778816 -59.946747
-118.151468 -81.951333 23.632947 -60.030840
-127.590611 -88.646363 29.081211 -64.871092
-123.541662 -89.439919 22.545911 -63.894474
-119.276297 -85.579081 22.160810 -61.456614
-122.048900 -85.404591 22.187562 -62.236047
-118.492803 -80.751609 25.432849 -59.773324
-97.355283 -82.588490 0.383811 -62.957606
-89.417071 -58.213573 -4.377946 -58.280090
-123.629353 -84.967099 23.505415 -62.578936
-125.478062 -90.113109 22.452217 -64.677351
-144.387715 -127.396380 24.397564 -109.366521
-97.532325 -77.721070 12.933923 -67.942921
-124.576195 -86.857151 23.082282 -63.430004
-125.617180 -88.342514 22.268520 -64.187908
-134.478431 -102.457030 17.091305 -95.667302
-102.090733 -92.248812 14.458791 -74.646886
-131.489155 -98.980378 21.676843 -69.140860
-132.154934 -100.427693 23.522826 -69.774788
-128.741875 -93.667074 22.718419 -66.722685
-127.240756 -92.897177 23.004613 -66.041380
-128.344791 -96.535822 23.935079 -67.464184
-123.982023 -91.014529 21.495716 -64.498966
-127.768125 -96.618560 23.768853 -67.316006
-127.240904 -95.391747 23.170706 -66.789796
-133.195130 -98.188575 26.305696 -69.415111
-181.337189 -109.490747 46.192902 -87.248381
-140.442695 -103.512001 24.746753 -73.186409
-166.921356 -124.481153 38.498503 -87.420753
-120.961105 -218.370752 11.561960 -101.799557
-139.351853 -131.910264 54.959476 -81.378635
-126.404305 -121.150192 34.256534 -74.266349
-143.900707 -115.535360 20.951041 -105.086829
-125.356827 -154.590688 45.667857 -83.984254
-130.026563 -157.306000 23.895075 -116.880624
-146.703238 -91.265343 24.773738 -71.390574
-127.167601 -119.568071 23.922687 -99.787532
-147.447570 -108.175898 29.802141 -76.687040
-166.366003 -116.714474 37.435174 -84.924143
-141.260742 -108.802632 26.547795 -75.019012
-151.781712 -114.082109 30.753794 -79.759146
-133.797226 -104.288548 24.335754 -71.425732
-154.434308 -124.013229 34.543343 -83.534261
-144.411880 -109.141496 25.372316 -76.066013
-152.922424 -109.791206 30.410064 -78.814089
-139.963690 -106.791636 25.657328 -74.026598
-137.523402 -105.970131 24.941995 -73.048060
-147.260947 -309.156449 30.841226 -136.925219
-124.633123 -143.179349 51.920297 -80.343742
-156.145268 -152.877490 29.230843 -126.010026
-154.037831 -193.467819 25.723487 -142.197078
-100.956888 -83.849528 17.196765 -73.706333
-72.983823 -46.111346 -3.540408 -47.843721
-138.090323 -137.745742 26.568317 -112.050946
-134.690255 -115.708181 22.177456 -100.426205
-154.930172 -115.950504 31.457689 -81.264203
-155.840756 -120.583403 33.543293 -82.927248
-139.331937 -107.906474 24.185341 -74.171523
-145.646735 -111.143597 27.470423 -77.037100
-137.523489 -104.318879 23.516994 -72.552710
-136.498038 -106.782517 27.630179 -72.984166
-128.950243 -95.457431 23.436608 -67.322302
-130.485725 -96.590397 24.178669 -68.122837
-132.055510 -97.264886 23.963920 -68.796119
-134.504739 -99.838181 23.434816 -70.302876
-122.815820 -76.517437 27.871026 -59.799977
-130.174070 -88.485542 25.008080 -65.597884
-123.020803 -99.428634 32.893344 -66.734831
-155.036391 -115.389415 17.035860 -109.767047
-129.381506 -99.937594 28.257289 -68.795730
-106.903327 -103.693462 18.432038 -82.537299
-120.748209 -57.675992 36.912318 -53.527260
-128.940173 -83.148847 22.027935 -63.626706
-130.127797 -116.159317 23.147469 -99.604166
-131.022560 -108.625202 20.769389 -96.214302
-134.673741 -111.693763 27.070868 -73.910251
-134.069564 -106.255383 19.173986 -96.553796
-140.309705 -101.439028 13.765752 -97.689706
-152.191828 -107.362358 11.727638 -105.149682
-142.699125 -116.476036 29.461110 -77.752548
-112.602780 -77.731458 24.383697 -57.100271
-137.166673 -102.669720 26.356533 -71.950918
-139.960115 -106.887783 28.663246 -74.054369
-133.940334 -101.699679 26.326430 -70.692004
-138.888453 -106.597176 28.692701 -73.645689
-136.725837 -107.380220 27.907376 -73.231817
-131.234148 -102.112875 24.594526 -70.004107
-135.377947 -108.131958 26.538562 -73.052971
-135.508998 -106.501391 25.887248 -72.603117
-142.235088 -100.676124 18.667635 -72.873364
-133.319981 -97.041793 22.779311 -69.108532
-120.515664 -83.132603 9.005519 -81.681948
-131.334676 -108.354837 17.570467 -94.305955
-135.468986 -85.848032 47.981462 -66.395106
-150.294021 -106.476966 12.175778 -103.988213
-141.795669 -118.158841 41.022918 -77.986353
-115.267196 -97.680827 33.585404 -63.884407
-127.270069 -87.418385 8.458170 -86.276152
-130.132436 -109.201636 16.343042 -93.033464
-147.631755 -120.081949 43.439198 -80.314111
-109.065596 -75.125416 8.929631 -73.427431
-142.241451 -118.587387 28.101237 -78.248651
-141.347077 -106.697864 28.571810 -74.413482
-137.877285 -115.976028 24.242471 -76.155994
-139.168595 -113.395619 28.363552 -75.769264
-140.191888 -112.830364 29.714932 -75.906676
-137.570838 -106.434476 28.666362 -73.201594
-140.836690 -112.877701 28.156146 -76.114317
-133.512660 -97.802544 19.476484 -69.394561
-140.428986 -112.932289 26.622067 -76.008382
-134.268227 -107.295304 20.885773 -72.469059
-150.773101 -121.974551 35.981316 -81.824296
-152.987611 -116.891226 34.785548 -80.963651
-68.117573 -72.329902 -5.281044 -51.970790
-143.535785 -111.744275 30.692992 -76.584018
-79.327752 -73.860218 13.496653 -59.702755
-143.644992 -123.676760 38.593961 -80.196526
-45.471285 -51.508419 -1.006538 -35.460194
-121.330461 -114.877975 20.844737 -95.634210
-131.638209 -116.105400 23.020656 -100.217344
-140.413018 -153.959344 27.240456 -119.856909
-123.967479 -107.184459 17.034120 -89.872143
-142.118960 -123.338256 19.408159 -104.448861
-145.535246 -159.204430 28.093682 -124.219842
-131.855685 -177.191750 18.516521 -126.025819
-87.598513 -66.205322 -10.948448 -59.232721
-146.810593 -128.110207 19.726411 -107.673746
-133.422646 -141.601736 26.184602 -111.709413
-131.912100 -150.594954 25.463344 -114.849777
-139.859095 -141.080286 26.973730 -114.196712
-147.336729 -137.550794 26.868254 -115.856618
-143.769309 -116.677053 29.280660 -78.133909
-145.395383 -114.056426 28.938846 -77.835543
-145.202209 -109.703661 26.999056 -76.471761
-138.779432 -111.353810 30.288384 -75.039973
-153.079096 -130.285379 35.201517 -85.009342
-140.545411 -109.741717 25.121359 -75.086139
-142.423341 -116.422472 27.199051 -77.653744
-141.693087 -111.292046 26.030781 -75.895540
-117.360720 -101.097204 13.399224 -82.814604
-162.159705 -110.980383 6.357655 -110.900900
-110.736356 -97.113694 11.181417 -78.007570
-141.381047 -111.225594 5.249571 -95.330294
-82.434534 -71.970050 -8.988524 -56.876930
-73.706071 -70.390455 -5.785353 -53.243710
-123.229451 -178.523991 7.604022 -122.569583
-134.700989 -182.445990 18.050383 -129.438828
-100.876506 -92.866906 -2.790354 -66.124469
-135.460501 -192.135505 11.998954 -133.691457
-160.909885 -211.600735 23.262131 -152.761725
-100.094074 -164.956470 57.385445 -79.515163
-143.133498 -191.910609 19.734824 -136.979916
-71.821788 -158.574565 50.222627 -69.118906
-162.171353 -211.258099 24.229478 -153.139665
-81.682567 -157.069184 57.317938 -71.625525
-179.900621 -223.980090 29.658204 -165.964994
-143.904622 -196.914386 17.630748 -139.417208
-120.133010 -191.332393 21.441011 -93.439621
-139.483190 -180.550674 7.542498 -123.909975
-71.610856 -161.028449 57.261775 -69.791792
-145.646282 -188.164973 22.327138 -135.325759
-129.950658 -174.771396 18.268776 -124.212451
-123.064775 -159.118790 20.210936 -114.622144
-74.225040 -298.676151 64.145283 -111.870357
-160.842629 -195.416432 27.656981 -144.714498
-131.231374 -178.315983 17.443089 -126.246936
-164.984019 -194.084684 30.016806 -147.061145
-153.590344 -192.348443 25.373996 -140.491888
-127.157431 -162.128441 20.920521 -116.703783
-155.838313 -202.329525 23.775745 -146.711832
-203.261232 -236.252343 36.279521 -180.954945
-147.937356 -189.751989 23.673410 -138.096042
-203.710260 -221.927229 37.904763 -174.924621
-165.378119 -210.624622 26.305826 -154.221973
-150.914233 -201.854555 20.673880 -144.446154
-146.743216 -187.822533 23.664513 -136.774745
-168.457138 -197.310922 30.684724 -149.874516
-115.210172 -164.392297 10.868280 -113.626633
-146.748603 -188.207076 23.530912 -136.947138
-8.528262 -22.457378 -0.145931 -9.295692
-142.150395 -125.150103 24.554302 -110.449268
-151.284908 -185.263326 26.576134 -139.091617
-93.377463 -176.169730 72.092776 -80.864158
-137.572216 -152.947351 26.713569 -118.203863
-193.763945 -218.406985 35.658684 -169.375868
-103.186548 -153.425830 2.436960 -104.259632
-190.195298 -218.515404 34.853672 -167.741893
-93.685620 -99.805257 19.675741 -79.017590
-150.936012 -129.529600 24.728671 -113.999739
-85.164584 -118.811155 12.283778 -81.712528
-77.188634 -103.470620 13.531355 -74.617944
-105.869241 -128.524723 20.272651 -94.637402
-63.356724 -95.630869 6.173373 -62.788372
-108.300823 -145.365105 16.539772 -102.651054
-88.923557 -122.613195 13.150573 -85.444792
-44.336084 -71.632748 1.434626 -50.557465
-45.500467 -72.074422 3.841553 -52.572778
-82.302321 -123.509548 4.307952 -82.422918
-67.538758 -98.142937 8.982242 -67.423680
-209.289407 -420.884177 188.117338 -189.052075
-51.289725 -186.526465 110.032857 -71.344857
-69.702133 -169.622412 95.439405 -71.797364
-119.170970 -223.463637 120.141108 -102.790382
-28.149586 -49.224213 -1.360482 -31.380820
-10.775999 -25.467966 -0.832937 -14.431037
-75.206502 -184.476846 82.607237 -77.905005
-53.594949 -176.374224 74.122585 -68.990752
-93.317580 -134.428363 9.810827 -91.699358
-72.054746 -103.303650 10.233586 -69.535266
-75.745346 -109.541687 9.400038 -73.827815
-50.937430 -75.847277 7.589114 -50.036467
-111.048570 -164.210774 2.692513 -111.635174
-172.470288 -224.175908 111.052086 -118.993859
-67.991841 -94.771508 11.186340 -67.008381
-88.869267 -132.226858 5.031256 -88.888507
-27.289697 -48.254272 -0.204985 -36.055002
-61.515476 -91.475198 7.423986 -60.239898
-76.915069 -112.743159 8.153073 -75.680977
-12.592492 -27.905478 -0.931649 -17.376253
-154.414244 -276.226053 116.763210 -129.192089
-152.000025 -215.522851 89.482472 -110.256863
-117.803156 -180.411614 72.537736 -89.464431
-71.914193 -172.181972 81.935231 -73.228849
-112.554899 -175.828485 68.294141 -86.515015
-74.995812 -185.457520 76.065986 -78.135999
-125.147441 -190.503760 68.113167 -94.695360
-170.680694 -349.018791 144.272102 -155.909846
-87.846849 -165.116643 69.932830 -75.889047
-98.278079 -183.586408 80.807368 -84.559346
-130.601967 -184.364516 12.722550 -128.529490
-73.918421 -182.031351 67.603463 -76.784932
-147.957425 -201.556355 18.458114 -143.076292
-130.608452 -182.216453 14.442595 -127.622472
-124.132965 -177.953294 9.981355 -123.100079
-136.806877 -192.630800 13.306530 -134.613630
-129.006437 -158.551558 32.314507 -86.267398
-126.635007 -195.102439 33.366835 -96.521234
-123.257711 -168.963836 16.020910 -118.939193
-119.443555 -172.531446 8.567412 -118.835286
-94.686192 -77.876264 12.434799 -65.793056
-144.474588 -177.074679 15.306640 -124.805018
-69.693292 -165.763990 75.021476 -70.637185
-53.515307 -173.068451 66.271211 -67.975127
-53.295661 -169.107874 56.362006 -66.721061
-86.815193 -170.474160 58.829636 -77.186806
-148.427516 -206.655206 15.511156 -145.424447
-137.302313 -196.788186 9.720500 -136.579782
-72.185671 -177.608207 58.730870 -74.938163
-78.394600 -153.816286 44.620368 -69.663266
-73.114895 -160.386954 41.536183 -70.050555
-125.970975 -180.713065 9.802448 -125.036093
-117.443105 -169.349484 8.974144 -116.660718
-110.326146 -160.441777 7.515398 -109.280273
-130.752646 -217.114331 26.134510 -104.360093
-125.147317 -189.758489 29.876242 -94.471742
-142.220538 -195.594084 16.936992 -138.137040
-136.571843 -181.540224 19.153695 -128.736531
-142.874318 -296.379100 37.443949 -131.776025
-133.708896 -199.225567 20.614531 -99.880339
-71.036706 -168.356788 48.692926 -71.818048
-58.618849 -163.002531 48.261623 -66.486414
-105.863190 -152.894086 9.026168 -104.856184
-72.296466 -160.164289 39.764382 -69.738226
-133.443686 -187.845282 12.461938 -130.155741
-131.538801 -180.748464 11.631910 -124.965604
-109.386037 -183.832388 67.668561 -87.965528
-119.023462 -175.668527 61.674658 -88.407597
-97.809843 -160.678660 59.360099 -77.546551
-83.509664 -159.945652 64.228313 -73.036595
-119.375739 -189.120719 59.111476 -92.548937
-145.200230 -232.316990 89.435112 -113.255166
-90.417592 -174.913270 66.535293 -79.599259
-67.774608 -165.194781 66.173167 -69.890817
-83.560395 -123.342441 7.134079 -82.896235
-39.171235 -54.031416 9.305628 -38.026068
-102.670545 -234.978920 91.083037 -101.294840
-115.841692 -205.396961 73.205323 -96.371596
-69.917692 -106.570000 3.324835 -70.112135
-5.652837 -18.309913 -0.382545 -13.423513
-108.859503 -160.219431 5.026202 -109.092597
-123.743692 -214.479638 97.098395 -101.466999
-163.994366 -245.121297 112.798058 -122.734699
-123.576667 -192.968351 76.585637 -94.963506
-63.759084 -231.590115 39.186907 -88.604760
-3.360578 -180.336879 76.797984 -55.109237
-109.461065 -133.827780 20.757961 -98.236921
-24.442370 -40.405617 5.602224 -23.385940
-33.399790 -56.158162 -2.185549 -33.495467
-142.291516 -207.337443 2.389395 -143.063288
20.468332 -118.728703 69.414126 -29.478111
-50.616855 -210.423886 61.732667 -78.312222
-9.636265 -219.495910 71.873720 -68.739652
-20.955713 -270.541716 65.600082 -87.449229
-1.620913 -218.669311 62.533297 -66.087067
-77.770958 -223.185250 34.459694 -90.286863
-65.014701 -229.391107 59.899934 -88.321742
-64.667210 -215.751615 57.693801 -84.125648
-94.308128 -114.627922 18.623095 -83.819094
-13.405235 -29.273435 0.070016 -19.984595
-32.280979 -52.025370 5.139509 -34.695266
-140.275814 -143.040558 27.203345 -115.147616
-65.315675 -96.873556 7.546565 -64.066953
-52.612792 -78.044168 7.783449 -52.136444
-103.733172 -240.518539 60.295878 -103.275513
9.137488 9.757419 2.724910 6.778166
-100.078388 -144.392877 9.543902 -98.761393
-41.799622 -48.638585 11.097637 -35.289495
-45.014361 -245.680231 65.409626 -87.208377
-82.574007 -203.002477 26.841171 -85.672945
-90.360528 -250.615750 57.614139 -102.292883
-63.685719 -221.184917 47.738336 -85.461191
-80.371365 -303.372357 109.449314 -115.123117
-31.140967 -279.731831 75.177146 -93.261839
-37.566898 -183.110608 76.439317 -66.203252
-68.236271 -281.071070 46.006348 -104.792202
-75.787445 -233.030214 34.182043 -92.645298
-66.157468 -218.140225 47.320016 -85.289308
-84.357489 -223.783508 12.167571 -92.442299
-80.529430 -176.438260 25.721254 -77.090307
-50.972358 -216.142290 14.028177 -80.134394
-80.269822 -170.286666 13.460910 -75.166946
-80.527483 -187.860639 19.297896 -80.516437
-97.944302 -207.065010 41.263604 -91.502794
-63.097921 -220.073853 19.854905 -84.951532
-86.300853 -104.929418 -17.604749 -76.251369
-99.950627 -178.704021 51.486251 -83.596395
-120.044423 -190.526399 61.010482 -93.171247
-106.930616 -201.875342 54.034800 -92.641787
-92.730724 -193.031390 46.090906 -85.728634
-112.583628 -173.313677 56.814045 -85.769191
-100.827581 -188.461921 50.444635 -86.786850
-93.698371 -175.316551 45.875065 -80.704477
-104.213812 -192.951124 52.672282 -89.149481
-82.512961 -160.683287 62.535724 -72.958874
-109.922246 -179.944536 55.205805 -86.960035
-104.181296 -167.794689 52.425858 -81.592795
-110.816220 -181.851766 56.185602 -87.800396
-100.925189 -200.194710 50.486073 -90.335970
-95.240446 -202.715320 46.131868 -89.386730
-15.388199 -179.657354 49.365341 -58.513666
-9.819279 -21.434060 -3.638600 -14.867988
-83.565248 -199.069557 0.631486 -84.790441
-68.024063 -227.522553 0.428222 -88.663985
-58.642366 -215.975711 7.882983 -82.385423
-53.417306 -246.346849 23.853312 -89.929246
-91.246730 -194.682387 40.722727 -85.778735
-83.368127 -182.232534 35.131626 -79.680198
-96.439588 -208.368823 9.923475 -91.442523
-82.149155 -186.560254 22.107717 -80.612823
-89.809293 -212.754444 -0.798911 -90.769121
-104.064986 -196.456446 1.571421 -90.156429
-124.632574 -221.610148 17.165488 -103.872816
-138.987999 -180.516764 21.839371 -130.417376
-126.469579 -165.398105 19.994557 -118.771437
-158.064179 -193.338570 27.568793 -143.842429
-100.825528 -129.799498 17.775938 -93.128271
-133.200790 -121.994480 50.341057 -76.558581
-130.297227 -156.513566 24.174462 -116.637730
-136.607918 -178.786128 21.068161 -128.683265
-106.643273 -231.191994 29.137317 -101.350580
-105.844538 -250.128823 22.231319 -106.792008
-114.605312 -230.340251 20.422420 -103.483669
-101.938860 -238.548541 16.922323 -102.146220
-119.140478 -223.465300 19.003375 -102.781733
-114.556092 -236.574734 12.557652 -105.339248
-122.479746 -221.699276 17.336329 -103.253706
-138.713216 -312.326140 -9.727596 -135.311807
-131.298978 -188.686676 9.275378 -130.634763
-138.135735 -178.969745 21.920514 -129.928604
-119.399212 -203.962423 3.947059 -97.008490
-113.946979 -208.542061 6.115400 -96.746712
-140.756950 -267.512578 3.817051 -122.480858
-190.107285 -248.475667 27.047035 -180.558706
-104.358531 -144.863359 13.691014 -101.122667
-156.249833 -270.316441 2.292706 -127.969882
-158.140977 -217.440351 18.010708 -154.025829
-142.509331 -263.302887 5.401912 -121.743666
-114.401345 -157.768813 14.858268 -110.499201
-125.955032 -174.921128 14.789227 -122.808006
-123.605936 -232.099704 -5.584027 -106.711692
-182.598477 -207.494796 33.636799 -160.129723
-56.208966 -207.645240 25.489152 -79.156262
-107.380598 -201.112414 15.813388 -92.547904
-101.426155 -232.231488 29.146741 -100.097293
-101.275156 -226.921305 31.628155 -98.458938
-75.030081 -206.785491 27.388979 -84.544672
-110.578459 -205.857121 10.214892 -94.930674
-104.529011 -201.973448 22.997664 -91.950738
-89.438477 -205.083233 19.852386 -88.356513
-123.297611 -168.690434 16.251679 -118.819815
-164.047668 -217.746155 22.746881 -156.641984
-125.927142 -218.450923 -0.657058 -103.313420
-130.242038 -246.288801 -6.579701 -112.959252
-142.940619 -184.579702 22.660129 -133.802311
-162.547713 -284.522673 3.552937 -134.121116
-131.689499 -180.886117 16.383306 -127.636650
-146.254534 -193.372088 21.294584 -138.898037
-99.546413 -112.989200 20.379046 -86.162138
-135.067313 -169.940772 23.099401 -124.330254
-119.831055 -198.049816 13.374693 -95.364261
-138.780581 -221.065032 -2.037884 -107.953684
-112.233550 -202.052476 17.177522 -94.285808
-102.284306 -206.006138 15.006282 -92.487133
-111.259746 -250.831854 7.687364 -108.627480
-118.865645 -230.943818 9.659500 -104.942839
-106.916989 -249.553566 12.286565 -106.941167
-120.076193 -229.294652 8.902846 -104.811254
-98.669241 -203.962967 25.045039 -90.789662
-101.110718 -223.474333 27.479414 -97.375515
-106.653450 -242.963960 26.743917 -104.885223
-99.498669 -234.290455 30.995731 -100.136737
-123.253659 -226.265523 13.778213 -104.855755
-121.093971 -229.069182 13.182082 -105.048946
-130.009943 -234.318245 10.038434 -109.298456
-108.923873 -140.898860 18.556121 -101.151755
-117.612148 -224.460312 5.214083 -102.621738
-127.364150 -234.500921 8.414722 -108.559521
-108.210965 -136.418413 19.510940 -99.176370
-141.078957 -183.816880 21.866750 -132.685574
-111.640051 -165.593088 48.869208 -83.169942
-116.850385 -206.677031 47.360062 -97.058225
-119.062610 -238.229276 7.214486 -107.187566
-103.926046 -235.628116 -0.870782 -101.866249
-136.364237 -272.108590 -1.243215 -122.541848
-114.300736 -236.758141 11.569350 -105.317663
-111.992001 -236.912611 8.760454 -104.671384
-105.083083 -244.357901 5.836238 -104.832295
-112.564347 -229.207278 3.672840 -102.531487
-95.899940 -252.730138 16.077775 -104.589023
-94.908429 -211.821971 16.209950 -92.019120
-63.766036 -205.642767 27.746388 -80.822641
-142.534365 -195.078066 17.591948 -138.027298
-190.732973 -257.734639 22.948097 -184.702537
-81.622358 -207.244121 19.873535 -86.659944
-29.732224 -202.300136 11.805435 -69.609708
-123.689226 -269.413229 23.053764 -117.930737
-113.473564 -250.783207 9.806033 -109.277031
-123.691898 -123.805488 24.286872 -100.104764
-127.653310 -176.361689 15.520896 -124.405461
-86.293928 -220.072251 21.354676 -91.909854
-102.211489 -205.790210 20.895848 -92.400510
-145.624630 -195.342467 19.965115 -139.445986
-169.975636 -284.646225 3.550033 -136.386558
-139.833423 -189.456580 18.455341 -134.550967
-156.091975 -188.544048 27.764957 -141.011936
-179.956515 -224.122004 29.653381 -166.046267
-179.081816 -237.110194 24.507287 -171.124915
-175.541544 -210.697406 30.870652 -158.533694
-162.271691 -200.650251 27.627208 -148.713075
-164.701761 -191.733913 30.261219 -145.958786
-120.854678 -206.404811 19.938663 -98.177847
-176.511422 -204.808033 32.186181 -156.437079
-102.228877 -206.378626 26.600020 -92.582251
-92.090822 -211.893163 24.873866 -91.195196
-189.969571 -220.396627 34.288468 -168.670374
-167.903894 -199.418595 30.130441 -150.557261
-179.615696 -211.528615 32.177795 -160.604137
-158.936198 -195.024478 26.099739 -143.248909
-151.211167 -181.161663 27.359340 -135.827111
-191.029785 -236.162846 31.612224 -175.781838
-178.946007 -236.326451 24.764176 -170.744990
-187.904218 -216.402804 34.125296 -166.149935
-178.583633 -212.976353 31.574416 -160.777500
-173.553594 -199.904020 31.869476 -153.155736
-213.289674 -232.741346 39.171795 -184.100184
-179.716894 -200.126333 33.154284 -154.710028
-182.949264 -197.795069 33.652650 -154.860383
-190.653923 -224.187116 33.953778 -170.554066
-190.339846 -230.106356 32.734941 -172.934005
-197.859833 -241.511621 33.359229 -180.874654
-173.632040 -216.884276 28.650124 -160.315048
-129.907369 -249.329713 25.287466 -113.771125
-167.024471 -224.955883 21.427251 -160.919235
-203.484374 -278.830399 21.449146 -198.951253
-196.664563 -261.033992 25.964458 -188.589236
-109.910433 -229.859038 17.397723 -101.930841
-196.569545 -260.687034 26.058273 -188.406364
-111.144230 -262.499253 18.976944 -112.093045
-112.176029 -259.030893 28.743418 -111.362076
-112.714617 -258.007160 7.748358 -111.216533
-127.333646 -265.447678 19.154667 -117.834397
-157.647730 -222.430256 13.353203 -155.933516
-96.893614 -110.474833 19.917378 -83.500248
-165.249972 -238.998215 -2.920884 -166.112615
-73.341429 -236.061762 15.664518 -92.820957
-190.220612 -261.943670 -19.610694 -186.289750
-183.656754 -256.554833 -16.230120 -181.263665
-139.019784 -174.255557 23.798836 -128.711981
-106.785207 -149.633781 12.931424 -103.926516
-134.394370 -190.536341 69.763091 -97.479213
-109.783846 -204.750489 55.805760 -94.360301
-136.547641 -231.851880 67.183945 -110.519856
-119.210442 -221.155036 60.029388 -102.109643
-135.183310 -249.561402 64.381040 -115.423413
-101.993603 -238.308900 42.412346 -102.090751
-81.531290 -228.009071 29.529859 -92.862108
-98.898192 -230.281474 52.545027 -98.753900
-85.744494 -220.058316 31.304520 -91.740843
-72.676583 -226.170078 39.485572 -89.653998
-44.835202 -218.085852 25.867535 -78.876316
-1.248609 -128.298354 83.841371 -38.864089
-142.113296 -216.538075 70.714164 -107.595411
-119.478287 -210.434372 59.658018 -98.973798
-100.115627 -230.281603 37.361268 -99.119169
-130.129880 -248.617763 57.051094 -113.624293
-109.531158 -141.117549 18.810341 -101.561433
-180.113405 -216.848255 31.431645 -163.037850
-138.122276 -182.419365 57.733376 -96.162492
-143.187935 -195.137795 63.745372 -101.497719
-125.569159 -172.753996 52.517611 -89.496946
-91.453922 -110.272639 18.327190 -80.909571
-115.140945 -157.636704 53.916267 -81.833294
-113.466111 -178.735658 55.381437 -87.660531
-110.480775 -229.903279 48.153478 -102.115216
-99.432304 -212.734017 43.797788 -93.649896
-63.729281 -222.540196 11.890894 -85.880843
-78.130123 -210.241480 19.163259 -86.511481
-113.149813 -187.547225 56.511021 -90.209111
-122.396277 -177.815555 56.289061 -90.063550
-109.387210 -214.273185 52.061588 -97.098119
-98.497210 -204.237087 46.443142 -90.820289
-86.363827 -205.655404 29.440860 -87.605769
-99.510242 -217.036640 43.221669 -94.964065
-44.078610 -220.592517 30.237826 -79.401338
-29.348834 -191.425699 50.025869 -66.232360
-61.121603 -224.695317 37.762005 -85.745076
-49.519272 -249.005770 31.273697 -89.557512
6.793137 0.584925 -2.182741 2.213418
-45.492586 -218.993660 67.636764 -79.345874
-75.457038 -222.864789 36.076791 -89.496548
-79.816554 -224.277331 34.047801 -91.228166
-65.054589 -149.166439 62.050568 -64.266308
-75.639321 -218.755634 35.132285 -88.318486
-92.308982 -113.473686 16.845113 -84.675298
-85.600137 -127.898796 4.493660 -85.710468
-108.541584 -145.144113 16.893434 -103.194250
-0.300145 2.070756 3.972020 -3.144196
-109.286838 -148.249366 16.017690 -104.220299
-110.433798 -137.216785 20.316714 -100.145220
-47.208112 -75.626136 -0.609644 -52.634839
-81.065960 -98.856833 16.625033 -74.497053
-122.980082 -158.002542 20.700193 -114.113491
-116.516016 -134.873594 22.857596 -101.740892
-91.224935 -108.968207 18.460699 -80.159007
-94.938883 -113.266145 19.015412 -85.406880
-60.700777 -219.473823 32.454720 -84.052380
-100.977117 -230.765063 51.197566 -99.522654
-114.386024 -150.806284 18.367994 -108.278400
-81.349752 -261.935239 29.977097 -102.985497
-80.205165 -119.343760 -6.077490 -87.168206
-106.694568 -147.784048 -14.286093 -104.413811
-179.390187 -238.040016 24.412615 -171.580738
-92.951682 -374.376460 33.969438 -140.198443
-20.435624 -231.986772 -4.700116 -75.726719
-89.736723 -238.587345 39.712773 -98.497220
-119.761130 -162.495053 16.861138 -114.637094
-115.091295 -254.379478 34.132681 -110.841232
-118.682195 -143.773209 22.234834 -106.609371
-100.576473 -102.167247 20.643180 -84.507346
-87.891319 -238.984028 26.839643 -98.062604
-214.935860 -302.236103 15.221153 -213.582268
-105.084419 -225.114164 25.706650 -99.059575
-187.147017 -247.406005 25.558472 -178.813361
-112.882983 -236.394019 72.354992 -104.783101
-43.916849 -212.938044 61.567429 -77.056468
-153.887887 -148.957425 28.700500 -123.645689
-207.588627 -243.183075 36.657436 -185.710467
-122.962239 -295.897295 3.809433 -125.657860
-158.900521 -213.462039 21.107555 -152.599337
-118.066534 -157.772311 17.848999 -112.622850
-163.785451 -194.088224 29.759427 -146.843360
-170.867969 -161.291482 30.888876 -135.659713
-144.899302 -121.632397 23.194443 -108.008419
-142.193387 -137.524949 26.907391 -114.012795
-135.841878 -118.592270 23.298746 -103.392471
-175.723843 -230.603070 25.200747 -166.914153
-102.704860 -152.178189 -3.051307 -107.590702
-140.336354 -133.092699 26.245842 -110.947130
-190.317602 -165.549231 30.753257 -145.657029
-215.212007 -281.681373 29.751465 -205.015609
-179.769692 -234.331595 26.265589 -170.192687
-138.898928 -145.329370 27.186252 -115.468866
-221.902417 -299.460269 25.889702 -215.317238
-194.635392 -201.634256 36.164885 -162.762147
-205.095339 -241.667410 36.119338 -183.968079
-199.659534 -200.165396 36.625078 -164.256707
-181.248460 -166.826355 31.661485 -142.600661
-109.801662 -211.495480 62.263248 -96.389143
-109.235187 -210.803518 63.453262 -96.011612
-176.033790 -157.354735 29.861269 -136.236773
-175.840539 -193.510168 33.021741 -151.682301
-214.524688 -290.033172 24.767017 -208.325127
-155.016925 -205.074247 22.288606 -147.427273
-146.149185 -244.394537 55.372646 -117.163116
-242.614263 -266.275894 43.906848 -210.169846
-132.905248 -230.918734 52.880789 -109.147195
-142.851042 -254.323214 63.033125 -119.152277
-134.171805 -241.654551 51.967060 -112.747907
-368.898785 -308.174585 162.299940 -203.122011
-120.988801 -223.326000 55.824882 -103.294440
-264.019106 -272.870792 47.621236 -221.894849
-169.948587 -155.229418 29.705743 -132.796029
-179.802305 -193.865482 57.880488 -112.100336
-132.941143 -254.583578 63.282389 -116.257416
-208.316793 -252.324948 110.098865 -138.192522
-151.297902 -178.087235 84.861237 -98.815541
-195.125062 -188.230336 35.196102 -157.265499
-167.654400 -267.607503 83.202805 -130.578571
-117.040830 -130.022545 23.401134 -102.033272
-188.820591 -196.514758 78.551208 -115.600605
-160.255468 -169.914465 58.104559 -99.050980
-139.928739 -246.239756 60.585321 -115.850549
-142.387330 -235.672192 70.665137 -113.417857
-103.554213 -233.229346 41.712979 -101.035068
-143.492028 -239.409160 54.196296 -114.870356
-111.988198 -230.828109 46.602859 -102.844892
-116.596376 -231.963690 50.277999 -104.568020
-125.329806 -243.030352 55.977087 -110.508047
-131.921016 -238.218078 54.921230 -111.041728
-114.683306 -239.284104 48.350806 -106.190223
-119.008912 -234.136963 47.882837 -105.943762
-118.785035 -93.976061 17.516812 -86.458215
-138.062235 -171.018074 50.541220 -92.724093
-169.167350 -186.814393 61.551651 -106.794523
-172.510264 -175.703035 55.146856 -104.463990
-170.392172 -231.118991 85.156866 -120.453349
-163.483657 -176.067128 66.786162 -101.865236
-214.285778 -279.612665 29.921834 -203.829176
-153.217207 -218.570676 -10.627011 -153.014115
-139.154595 -177.098028 23.054337 -129.264793
-158.962239 -195.078178 27.516228 -144.977418
-171.141726 -247.117345 -3.281612 -172.188842
-140.365199 -193.300484 16.690224 -136.378036
-144.597102 -195.288066 19.144299 -139.019580
-177.142818 -253.092160 9.366596 -177.038182
-186.233023 -260.164826 16.329869 -183.856251
-192.792608 -266.372577 19.149400 -189.217055
-169.806873 -245.044926 -4.143827 -170.581599
-171.573735 -233.876719 20.169715 -167.970146
-250.025393 -330.804144 31.600917 -239.537561
-180.323581 -298.646667 44.642637 -143.691075
-163.858403 -232.613895 11.828123 -165.001934
-124.495567 -269.217292 22.813424 -118.113858
-163.536468 -201.430011 27.990427 -149.776184
-184.659678 -223.940772 29.562197 -165.662495
-191.231240 -244.489993 29.237968 -179.361397
-188.074302 -233.498057 29.226122 -171.435720
-196.153268 -226.326807 35.370677 -173.237011
-193.058932 -212.956822 35.759165 -166.018642
-188.857211 -221.584711 33.719671 -167.917998
-179.176899 -207.056579 28.058637 -154.701536
-189.085153 -212.426525 34.846448 -164.977613
-213.739107 -233.346737 39.249011 -184.157204
-184.122129 -203.177061 34.303539 -159.008908
-216.140920 -229.244493 39.781991 -183.442077
-183.229310 -202.192262 29.303807 -153.922606
-181.942924 -193.421404 34.172044 -154.396614
-202.093651 -243.945329 34.541874 -183.700318
-174.393933 -217.424634 28.842623 -160.880144
-185.161935 -238.069518 28.016373 -174.104532
-197.115915 -261.096796 26.226318 -188.836874
-184.105002 -204.755498 29.713108 -155.785255
-215.533944 -232.674066 39.624065 -184.843831
-192.146817 -211.057737 32.137849 -162.281806
-196.511499 -218.330732 36.195727 -169.573047
-206.573547 -252.230701 34.539446 -189.093122
-169.568061 -206.262197 29.460306 -154.132886
-188.958550 -218.085168 34.232667 -168.034362
-241.263007 -246.967888 43.706558 -201.472214
-226.292370 -229.552031 41.141933 -187.836542
-179.537496 -194.340026 33.730334 -153.320567
-183.473419 -197.178223 34.397556 -157.155338
-211.119094 -219.161247 38.890455 -177.075902
-183.883538 -200.109884 34.395703 -157.658255
-202.570210 -216.500594 37.541450 -172.364039
-188.725261 -226.714866 31.267936 -168.916564
-189.970928 -219.876585 31.675338 -165.777608
-213.780342 -289.297120 24.487624 -207.723259
-201.095696 -272.075096 23.052576 -193.864062
-183.362231 -252.446952 19.308108 -179.837438
-269.059105 -345.893903 38.054038 -254.832221
-189.788745 -248.149012 26.203071 -178.924437
-175.960667 -220.464069 28.749677 -162.865499
-198.503653 -277.851094 16.160621 -196.474438
-239.182877 -319.683712 28.859560 -231.214876
-248.343090 -333.752061 28.667944 -240.971428
-253.018187 -267.630767 45.918634 -215.061333
-160.773064 -150.645946 16.006011 -120.460139
-112.159561 -74.415114 -4.201379 -74.556989
-180.592363 -255.079315 13.295886 -179.335046
-297.248194 -338.742174 51.818440 -263.664689
-150.252162 -168.101679 28.706271 -129.915504
-160.270357 -197.704183 27.466172 -146.629890
-152.109597 -151.013768 28.813066 -123.517673
-148.079233 -166.141664 28.283344 -128.255195
-154.999219 -165.545941 29.766370 -131.099190
-89.449924 -73.503238 -6.762882 -61.603944
-146.615935 -137.165763 26.833470 -115.505816
-157.294383 -140.103668 27.013814 -121.537216
-231.858159 -242.150701 42.433956 -195.411531
-163.497931 -196.803679 29.023308 -147.574671
-155.879676 -143.488251 27.828055 -122.012184
-158.648196 -170.134872 30.460240 -134.584264
-201.608897 -264.706865 27.813271 -192.223657
-289.654797 -352.129448 46.787945 -266.120756
-156.623393 -200.723412 24.868432 -146.332383
-158.539921 -184.781397 29.335132 -141.824841
-194.754985 -251.157475 28.863772 -183.668850
-191.988309 -247.151583 28.700744 -180.815701
-215.146908 -283.383560 28.830478 -205.779505
-210.856638 -277.741786 28.382866 -201.597935
-206.117018 -231.230187 37.620566 -180.062694
-185.611460 -205.891636 34.485934 -161.207173
-186.694434 -225.779699 29.679069 -167.089852
-184.229957 -225.768314 31.151827 -168.547322
-220.808007 -269.268634 36.648088 -202.264780
-290.919225 -328.061454 51.137820 -256.525410
-197.287412 -225.931836 35.755873 -174.109558
-175.670057 -191.609650 33.053321 -150.537363
-230.602905 -262.179959 41.229011 -203.408328
-200.734555 -241.971130 34.392655 -182.316179
-207.387107 -229.070218 38.073065 -179.687603
-188.930401 -210.560006 34.962234 -164.117349
-203.398788 -235.309830 36.428660 -180.635222
-184.832631 -200.842475 34.563377 -158.298679
-185.993331 -199.984389 34.800970 -158.896807
-212.975010 -226.814586 39.256416 -181.086880
-187.518497 -233.490460 30.677336 -173.183193
-185.990307 -233.354991 29.968729 -172.397818
-202.659499 -261.043965 29.903781 -191.165372
-202.244189 -269.811975 25.735437 -194.680679
-211.354641 -236.676635 38.492920 -184.820305
-186.571466 -205.646795 34.714781 -161.408066
-208.942107 -227.178968 38.496791 -179.545099
-209.568894 -235.302754 38.159389 -183.230431
-213.246463 -233.517251 39.133090 -184.064480
-188.232212 -201.996501 35.175415 -160.251381
-209.885147 -242.663840 37.458794 -186.466910
-200.669510 -278.293868 18.565669 -197.593803
-132.110017 -127.708871 25.314178 -108.643205
-198.482961 -274.642879 18.944493 -194.000928
-192.049343 -252.585438 26.426845 -182.031684
-191.978409 -263.403210 20.369627 -187.663577
-168.713699 -172.797089 31.972493 -139.609743
-131.686384 -130.133181 25.561472 -106.058809
-142.813289 -137.809879 26.969404 -114.031504
-136.608404 -136.795026 26.518813 -110.910484
-175.113120 -173.325010 32.587706 -142.481335
-181.165838 -176.790789 33.291492 -146.501411
-96.688616 -252.016019 56.392501 -104.611391
-230.093651 -239.044714 42.094019 -193.376530
-241.803111 -248.487604 43.918851 -202.264415
-284.980883 -281.997065 50.230233 -234.567895
-174.708320 -323.637547 116.084009 -149.503760
-267.627644 -272.823183 48.047123 -223.400141
-185.913593 -254.697731 54.307098 -132.183397
-146.972807 -141.626640 27.618361 -117.327375
-112.014510 -121.078114 22.755667 -101.026436
-182.462900 -179.628948 33.659519 -148.654036
-272.658653 -271.105897 48.422258 -225.067417
-181.078491 -165.241095 100.028133 -103.895876
-130.156515 -138.214124 25.791260 -116.912346
-254.826027 -256.367507 45.754103 -211.098545
-178.686031 -143.608260 68.431973 -96.688287
-160.170770 -164.024392 46.443995 -97.258549
-246.024749 -200.748937 86.076465 -134.032106
-193.678654 -175.094993 76.955670 -110.632094
-248.651964 -253.421155 44.940481 -207.229646
-305.631342 -296.947314 52.934690 -249.576945
-204.662039 -214.109621 37.929059 -173.020280
-139.373645 -247.614577 50.762373 -116.096467
-412.634879 -388.221835 68.160235 -333.010613
-370.193833 -353.321672 62.388886 -300.480932
-197.020348 -204.803668 36.656096 -165.029798
-288.043463 -288.823421 51.000514 -238.783064
-267.135106 -260.436816 46.905892 -218.012120
-180.234432 -203.737978 33.366616 -158.433164
-212.325515 -207.726469 38.236582 -172.735029
-236.802382 -244.012111 43.118322 -198.279452
-207.639366 -209.611705 38.039911 -171.580858
-162.399641 -163.139197 30.675910 -133.050875
-222.884974 -225.447645 40.581706 -184.642801
-191.392631 -211.999670 35.459903 -165.746390
-216.351054 -203.678461 37.786459 -172.716078
-203.459099 -198.452804 36.735316 -165.112599
-194.777819 -204.799183 36.275086 -164.140431
-174.712878 -232.788583 23.433018 -167.437647
-189.649373 -260.647379 20.111500 -185.440245
-194.744205 -256.342653 26.843296 -185.770342
-162.847897 -211.074890 24.731799 -153.796002
-166.663012 -169.076170 31.466604 -137.792371
-247.476104 -261.450811 45.068028 -210.057956
-190.302083 -186.966609 34.945703 -154.611018
-148.072888 -131.892686 25.787429 -113.688741
-132.949279 -130.135880 25.669113 -107.179084
-186.072214 -171.138101 32.482133 -146.183086
-103.208896 -98.216762 20.539950 -84.165903
-193.487035 -199.724456 36.001683 -161.434289
-233.398319 -243.794063 42.662287 -196.770649
-227.833889 -260.513772 40.707906 -201.471770
-201.089474 -207.509032 37.276545 -167.875138
-232.069032 -231.143738 41.843605 -190.886015
-247.082510 -237.725260 43.325358 -199.980027
-226.851824 -238.643164 41.564926 -191.877364
-127.596766 -138.433915 25.384591 -108.216237
-141.532331 -121.401592 23.584509 -107.312604
89.239066 43.843082 41.454094 39.924644
-104.339459 -98.566027 20.577409 -84.809621
-96.064434 -89.290194 18.943711 -81.588576
-197.185514 -232.358885 35.160146 -176.549908
-186.058592 -221.094292 33.019229 -167.185729
-157.160858 -195.955157 26.638466 -144.647306
-262.826681 -283.624167 47.527809 -225.857687
-264.567163 -326.513760 42.190413 -244.587466
-281.204100 -340.414414 45.939413 -257.594639
-150.753610 -181.408533 27.279022 -137.807017
-179.424668 -197.918499 33.859244 -155.040690
-216.807366 -224.641439 40.161406 -181.435333
-224.097767 -230.630270 41.465460 -186.862715
-184.932795 -197.961044 35.104977 -156.885072
-158.377256 -164.806816 30.925578 -131.383382
-192.993322 -196.001082 36.423150 -159.131378
-257.692652 -283.420648 46.424112 -223.660330
-228.449479 -238.159206 42.058645 -192.089847
-254.577145 -271.067443 46.291475 -217.062080
-177.667280 -197.459011 33.464629 -153.616868
-236.003810 -246.957000 43.262525 -199.024983
-173.474721 -213.665269 29.442614 -158.872332
-185.017880 -201.253209 34.947167 -158.433733
-204.380449 -224.529985 37.942641 -176.241840
-174.549377 -199.248293 32.459363 -153.092217
-226.800500 -232.623242 41.937164 -188.814299
-185.504685 -205.448708 34.663491 -160.393322
-169.080246 -180.002094 32.634739 -142.417104
-150.161073 -200.914352 20.585963 -143.725065
-166.380413 -192.683698 30.827720 -147.131775
-149.327837 -187.699554 25.042691 -137.803655
-138.834500 -160.575956 26.425281 -122.693373
-187.996004 -209.780024 35.090242 -163.125391
-195.453683 -220.675351 35.892913 -171.033023
-170.937373 -183.378167 32.865455 -145.091537
-180.578457 -202.544062 33.737038 -157.036660
-128.755333 -161.274809 22.584806 -118.717890
-200.767642 -254.882153 30.998076 -187.765157
-218.276936 -243.864997 39.933134 -190.264283
-223.409556 -248.590838 40.844028 -194.422864
-266.705204 -319.780371 44.576270 -242.748760
-84.136501 -126.318287 3.298726 -93.030457
-195.614040 -228.210978 35.116962 -174.222337
-174.413066 -201.086862 32.193923 -154.370326
-156.744227 -139.948425 27.135425 -120.698713
-186.357912 -165.270109 31.105500 -143.836105
-160.571289 -135.144022 25.290810 -120.323250
-155.242073 -131.422624 24.882957 -116.661549
-182.315038 -159.382402 29.819877 -139.751640
-175.514178 -150.264981 27.914111 -133.066099
-180.928188 -246.055628 20.818091 -175.557305
-92.644326 -117.817409 17.448917 -84.312828
-134.065693 -175.431673 1.857212 -125.698248
-129.610186 -182.331947 13.256208 -129.004290
-157.894472 -140.925018 27.278787 -121.689859
-138.799494 -115.800736 22.184653 -103.298699
-140.436809 -121.084866 23.631855 -106.045160
-102.055481 -99.642770 20.691639 -86.565308
-112.374919 -103.673598 21.490004 -89.660071
-159.405754 -143.951953 27.923553 -123.487333
-165.444874 -149.095853 28.797293 -128.159813
-159.634793 -135.511894 25.560468 -120.078439
-268.366311 -286.543293 48.568968 -229.387028
-51.313207 -74.638563 8.888523 -57.721127
-151.861213 -174.912449 28.577745 -136.101929
-193.369994 -230.749835 34.061645 -174.281446
-174.102879 -170.625871 32.338403 -140.849090
-139.640281 -120.587247 23.553831 -105.412281
-136.644461 -148.344712 26.760994 -118.289734
-127.197529 -142.277525 25.120718 -114.701698
-109.037611 -107.249030 21.869477 -91.825888
-114.105148 -107.708984 21.962121 -90.351274
-60.990019 -81.970798 11.878810 -60.992556
-103.804010 -94.990614 20.071941 -81.823178
-106.060179 -112.864784 19.801348 -89.590484
-113.327967 -117.940662 22.836346 -94.500194
-63.527089 -88.627150 10.904168 -63.333720
-173.288413 -159.229842 30.602173 -135.705222
-348.922416 -506.568575 253.711774 -256.647297
-124.912109 -159.068413 21.622060 -115.779963
-298.529260 -298.171941 52.735199 -247.007629
-154.727391 -175.214056 29.464863 -135.663050
-50.504012 -80.032074 2.836170 -50.684670
-89.935228 -88.143751 18.859027 -70.731021
-208.432515 -256.947013 34.599501 -191.563689
-242.575664 -294.160785 40.513499 -221.652988
-245.495692 -267.922859 44.519002 -212.010694
-191.299388 -232.512535 32.889265 -174.133358
-198.400728 -222.691438 36.675899 -172.951062
-152.547497 -195.120981 24.452508 -142.309160
-173.250610 -207.810394 30.743189 -156.215694
-163.356975 -201.377226 27.963399 -149.450538
-214.578619 -253.564010 37.500168 -192.939388
-200.987257 -232.762165 36.070137 -178.502629
-181.031856 -216.456541 31.884166 -163.236042
-184.567642 -223.287838 31.862848 -167.627515
-140.358045 -182.303346 21.949952 -131.102876
-148.030404 -189.651530 23.749856 -137.936468
-160.548103 -196.902633 27.757509 -145.636974
-164.653627 -167.688369 31.856494 -135.187381
-158.630988 -192.139862 28.024175 -143.596372
-172.941945 -207.071531 30.597120 -155.897991
-160.299642 -188.865162 29.200958 -142.620635
-171.294194 -198.813420 31.373877 -151.712159
-160.747487 -193.062369 28.668497 -144.869159
-144.146656 -176.320381 25.555891 -130.835353
-146.929162 -186.597119 24.180349 -136.330417
-161.415603 -199.472542 27.572467 -147.833522
-130.128072 -173.471376 18.999359 -123.740058
-160.364012 -197.491121 27.607622 -146.556085
-150.568208 -190.816768 24.883701 -140.345584
-216.704632 -250.493819 38.740189 -192.471407
-196.230661 -222.940771 35.915776 -172.286603
-165.259790 -194.422606 30.157335 -147.316684
-203.300445 -231.544471 37.153096 -178.776729
-178.151412 -216.323965 30.956198 -161.870518
-194.741461 -217.402375 36.190815 -169.213758
-208.897143 -241.778616 37.445799 -185.519664
-215.049412 -239.994044 39.457315 -187.237917
-178.805133 -210.827939 32.177249 -159.848003
-155.724889 -187.024135 28.022964 -140.519040
-201.064119 -218.247012 37.458626 -172.257774
-144.427010 -185.611650 23.179818 -135.217355
-169.571462 -190.324803 31.866171 -147.319043
-128.518369 -149.986110 24.535310 -113.177395
-165.186405 -181.833176 31.349067 -141.934551
-146.407176 -133.008338 26.026217 -113.546010
-141.169184 -138.396736 26.829210 -113.620214
-126.943355 -112.272913 21.667596 -96.769087
-90.990290 -84.686658 17.287548 -71.006757
-167.736049 -136.986502 23.463752 -124.322402
-143.542238 -137.232591 38.805676 -84.232449
-146.310116 -127.048443 24.560529 -110.993640
-144.321998 -143.497618 28.321107 -116.851157
-137.436916 -121.937054 22.212018 -104.913573
-117.456309 -107.474394 21.620698 -90.364428
-135.901185 -144.577733 26.581538 -113.837568
-155.852061 -170.895610 29.758940 -133.482409
-143.157263 -137.274786 26.792041 -113.977380
-156.046960 -130.387136 23.913310 -115.930048
-154.494685 -187.820283 27.179322 -139.155066
-142.159203 -179.232237 23.937130 -131.222052
-153.912852 -131.800085 23.990718 -114.908599
-149.938832 -127.163937 22.518232 -110.860322
-150.602945 -152.523416 28.604410 -122.816452
-145.342574 -156.625520 28.119292 -122.932359
-152.306000 -136.542586 25.903668 -116.513790
-162.171559 -140.631419 26.156618 -122.332169
-126.404748 -116.242527 22.013268 -96.536348
-116.993888 -110.863030 20.104467 -90.010203
-167.166802 -144.226175 49.751299 -93.417893
-127.394614 -121.540368 22.770369 -101.197123
-126.573372 -111.219577 19.627673 -95.820359
-142.380285 -109.915961 18.185440 -101.984646
-150.491128 -136.022522 24.718945 -116.744472
-128.480417 -124.963885 24.704992 -103.773174
-141.648846 -121.064334 34.100153 -78.813954
-109.800162 -115.693967 28.623714 -67.648239
-129.520723 -124.405947 24.079885 -103.488934
-141.387131 -119.722840 30.064674 -78.332991
-137.851421 -116.602963 28.729107 -76.336315
-134.301713 -120.014752 22.864359 -102.829440
-138.342699 -114.021842 26.961220 -75.709362
-145.017563 -131.331900 25.660040 -112.236294
-151.040343 -119.112959 28.632682 -81.045991
-136.616276 -106.356499 21.831737 -72.891832
-137.642823 -119.664798 28.581228 -77.192286
-113.925044 -105.799320 21.662344 -88.405509
-144.622888 -119.214163 18.202412 -103.874695
-131.199369 -111.538700 18.261968 -95.220721
-153.147092 -141.577238 53.499341 -88.417299
-107.725246 -74.067613 8.795317 -72.408590
-149.569114 -106.085267 65.890414 -76.696314
-152.169209 -126.643874 52.226109 -83.643925
-160.931687 -145.861222 28.098335 -125.074888
-142.031016 -117.563774 28.262484 -77.878437
-135.292558 -109.964385 20.268251 -98.399963
-148.589100 -140.503095 27.354450 -117.625806
-142.888230 -117.492363 27.713472 -78.114178
-145.671038 -117.885272 27.926403 -79.066893
-158.491607 -121.690051 30.527452 -84.054497
-129.576953 -117.147295 23.393381 -99.796651
-147.918170 -132.797387 25.663190 -114.022904
-132.545970 -119.147311 23.460416 -101.855890
-144.081967 -130.011013 25.472569 -111.318458
-130.760386 -127.195124 25.056183 -105.305423
-137.093339 -115.144884 17.593517 -98.641550
-116.544240 -108.743394 22.149387 -90.744585
-134.474415 -108.471106 17.948311 -96.316331
-132.724830 -124.286792 24.703935 -104.108380
-214.939191 -130.184075 63.102905 -103.536980
-149.985132 -95.480235 43.190493 -73.639610
-117.394140 -110.961590 22.515011 -92.038402
-139.597990 -133.861600 26.244385 -111.027580
-141.721035 -134.290437 26.922446 -111.549817
-102.457434 -89.868504 18.833960 -76.835049
-147.245511 -146.198738 28.746694 -118.870567
-105.983251 -104.867869 21.952655 -84.316868
-18.239641 -20.507746 7.284625 -16.555680
-72.693895 -85.500678 15.887513 -62.473958
-115.572798 -114.789539 23.676877 -93.056332
-124.879163 -112.504862 22.639129 -95.847050
-148.497166 -147.313811 28.975427 -120.367824
-115.900111 -113.630960 23.559087 -91.926882
-141.444534 -128.139823 25.204738 -109.414490
-132.775229 -123.235879 24.503169 -103.702048
-146.711096 -136.013499 26.611658 -114.940136
-107.239530 -97.081783 20.161187 -81.921502
-150.294687 -139.363752 26.359262 -118.135500
-128.527965 -118.271725 22.989799 -99.867733
-116.291391 -115.495640 23.746826 -93.726387
-131.140824 -132.189615 26.299097 -106.153752
-143.516638 -145.905629 27.666690 -117.752552
-161.667193 -129.393447 22.680477 -118.429431
-116.816705 -119.179429 23.325933 -95.261859
-159.960217 -162.389340 31.085802 -131.021568
-140.880146 -133.169365 26.150213 -111.289163
-150.598732 -150.214926 29.391327 -121.859234
-178.131074 -172.501490 33.250684 -142.945465
-128.870162 -118.874551 23.397868 -100.412758
-125.778607 -124.269923 25.206022 -100.471759
-128.876266 -119.367616 23.734732 -100.526031
-138.024295 -137.402303 27.287756 -111.259856
-130.650069 -120.567140 24.041449 -101.752674
-119.028211 -118.616149 24.257528 -95.583119
-103.348450 -103.434027 21.685289 -82.291339
-139.925249 -139.225793 27.575615 -113.465321
-154.385298 -151.790638 29.761776 -124.141301
-170.102086 -172.120523 32.690615 -139.421479
-84.946055 -84.373304 18.721495 -67.666324
-155.565614 -156.998708 30.319831 -126.862711
-121.599812 -122.116657 24.749037 -97.880655
-115.416572 -115.286445 23.682501 -92.383302
-132.098958 -135.130759 26.590780 -109.681305
-125.075608 -125.012789 25.234606 -100.567800
-114.091838 -112.165621 23.317667 -90.479354
-148.041811 -146.709726 28.875794 -119.607872
-120.171527 -120.197017 24.466631 -96.457454
-132.155372 -129.795314 26.150626 -105.551970
-111.104727 -106.704436 21.826051 -87.552434
-122.944194 -122.156105 24.803742 -98.429646
-190.386611 -182.712448 34.451365 -152.795548
-61.012833 -59.816535 14.562519 -47.149454
-129.599753 -127.330563 25.715842 -103.433189
-117.733401 -117.118022 23.944123 -94.192456
-124.395601 -124.713251 24.965509 -100.332813
-68.997893 -68.538465 15.903495 -54.057681
-76.773029 -75.888538 17.014975 -59.891048
-107.991542 -106.823740 21.779149 -86.205893
-71.719382 -69.205156 15.865486 -57.756379
-106.323454 -104.499974 21.643216 -84.638917
-124.226876 -103.362598 20.136925 -91.160550
-78.216489 -77.825776 17.238005 -61.254233
-90.690152 -92.295700 19.219966 -72.781020
-118.754896 -87.589211 14.280268 -82.635652
-89.648055 -86.789895 19.004454 -72.413540
-315.468723 -288.094529 51.686580 -249.777647
-155.372305 -156.894364 29.972254 -126.954932
-252.872169 -124.480469 118.239153 -113.205792
-171.000077 -165.079828 31.729237 -137.035017
-93.119787 -91.461210 19.538106 -73.303608
-50.154939 -37.932122 9.783641 -42.298240
38.888000 38.696048 0.027445 38.197793
-18.365430 -24.565477 7.331239 -24.037593
-223.687593 -177.081894 28.642868 -164.451376
-138.020909 -104.421166 17.209812 -97.804975
-149.026767 -122.134075 22.520182 -110.049113
-103.752516 -104.210463 21.254846 -83.305700
-129.596668 -126.510808 25.115088 -103.589887
-110.023176 -111.315829 22.345390 -88.950196
-85.289607 -83.354756 18.087730 -67.972467
-155.951560 -120.985516 20.274737 -112.402829
-105.259447 -88.238056 18.092866 -78.936054
-130.707882 -121.740575 24.507042 -102.013399
-93.590565 -96.148166 19.582713 -75.765178
-101.548674 -92.629193 19.467577 -77.647067
-124.603531 -118.047668 23.827665 -97.904156
-115.660746 -109.206864 22.336662 -90.482992
24.170259 24.028832 0.419863 23.684588
-122.220260 -104.215807 36.423497 -67.930820
-115.634899 -109.121856 22.219022 -90.520023
-121.382874 -89.768872 14.356052 -84.790611
-124.578730 -118.516335 23.751426 -98.242379
-112.670576 -102.872225 21.160948 -86.627291
-179.930703 -155.707284 29.063468 -137.159134
-110.509285 -99.579166 37.130533 -63.026535
-151.694528 -133.189352 25.740487 -115.823747
-84.440353 -73.253595 15.980871 -61.808690
-277.934715 -257.759388 46.703009 -221.346880
-98.411244 -110.384782 42.421247 -62.638808
-129.089513 -127.479340 25.139417 -103.810540
-119.321503 -117.839812 23.573882 -95.651701
-151.472545 -131.987776 25.432916 -115.216494
-74.378469 -74.788216 16.448527 -58.583792
-135.956590 -136.351460 26.441932 -110.430289
-89.285603 -85.561287 18.310387 -69.506877
-109.618789 -110.347473 22.228644 -88.352247
-93.650182 -87.210943 18.631199 -72.027265
-127.987397 -126.346690 24.996824 -102.819761
-87.243316 -87.774913 18.576129 -69.425148
-107.282185 -108.543200 21.882765 -86.621406
-78.846556 -79.402245 17.192180 -62.385020
-47.138102 -45.415534 11.841486 -36.257867
-78.846556 -79.402245 17.192180 -62.385020
-92.735392 -97.145770 19.621341 -76.167795
-92.353838 -92.245859 19.331764 -73.512032
-67.295395 -67.646800 15.272535 -52.618457
-98.502431 -90.420784 19.117752 -75.440454
-73.324465 -73.461546 16.251013 -57.587555
-107.132671 -101.177873 21.003385 -83.516540
-104.505549 -87.879451 18.000510 -76.890596
-73.950197 -73.346027 16.270763 -59.014316
-90.794174 -105.886785 28.613244 -59.004288
-88.611775 -87.294320 18.565796 -71.826623
-93.132543 -92.828258 19.374756 -75.110613
-108.878371 -111.876747 22.130191 -89.172676
-103.578990 -103.519406 21.047330 -83.057130
-69.087496 -86.312720 14.462306 -61.316742
-76.531858 -100.976214 14.040181 -70.631670
-104.383987 -103.881675 21.156980 -83.533079
-87.836556 -100.538529 18.443858 -75.197423
-109.606837 -117.177184 22.348894 -91.341366
-44.400708 -80.338914 26.409550 -37.421887
-94.000079 -96.684008 19.689948 -76.127772
-87.659409 -107.147348 17.519539 -80.354421
-97.887040 -105.488638 20.409078 -82.117667
-112.976463 -116.959123 22.829501 -93.844930
-76.935174 -78.312812 16.851340 -61.204917
-81.088615 -84.752943 17.349194 -65.118873
-79.695798 -83.459676 17.086582 -63.965935
-70.996026 -73.367611 15.927302 -56.638868
-77.811114 -85.250832 15.884708 -63.304616
-79.608558 -84.679740 17.117479 -64.456947
-59.404344 -90.450465 16.491361 -44.956442
-78.470490 -98.385175 15.666204 -70.356269
-73.684075 -80.784489 14.714254 -59.358039
-71.273979 -75.757615 12.460940 -54.892297
-97.554344 -103.978624 20.332405 -80.730716
-41.704621 -52.365764 -0.333977 -35.048716
-82.988296 -84.731666 17.857628 -66.464696
-83.290965 -87.022265 17.786808 -67.046048
-80.892570 -84.074167 17.325044 -64.769082
-73.819679 -71.830076 10.008361 -52.515470
-110.691197 -113.554897 22.382819 -90.290014
-82.243239 -105.069504 20.302415 -56.193823
-112.271539 -124.980783 22.615938 -95.755681
-89.302465 -90.114353 18.686353 -70.910652
-110.623101 -104.572585 21.519736 -86.448589
-114.487853 -111.046939 22.458020 -90.846559
-100.783550 -104.256093 20.830732 -82.183301
-79.005685 -80.639319 16.909854 -62.513371
-97.634244 -86.379680 18.294117 -73.376101
-115.696654 -113.336088 22.883124 -92.219026
-87.899938 -77.062434 16.738325 -65.353956
-108.973272 -106.819893 21.800976 -86.667084
-87.093185 -75.194054 12.998585 -61.568720
-102.357485 -88.459665 18.425575 -76.234881
-62.467004 -122.085871 32.287523 -55.365862
-85.485873 -78.020854 17.083307 -64.729661
-85.685649 -95.874046 21.707713 -54.467909
-107.506111 -94.863555 19.638115 -81.102448
-96.524944 -84.921066 18.016796 -72.294224
-98.568178 -85.504027 17.990269 -73.404729
-92.914474 -77.712231 13.334928 -65.335047
-94.728345 -81.387613 17.248730 -70.051941
-92.012997 -75.518164 12.059982 -63.683889
-88.540231 -77.134685 13.185205 -62.841926
-92.917534 -122.611279 21.952509 -64.658644
-78.499981 -51.616492 6.125027 -50.676641
-84.745051 -101.428908 13.990194 -55.852188
-53.545680 -80.692339 31.665121 -40.271406
-85.591323 -116.440609 15.542741 -60.609580
-85.129367 -90.039269 18.246673 -69.659193
-111.116196 -102.068888 21.021666 -85.659854
-77.798284 -84.505299 19.226186 -48.691075
-114.528027 -113.727029 22.711906 -92.013146
-62.330202 -73.422132 14.173858 -55.551907
-81.371097 -86.321084 17.634144 -66.484839
-76.131736 -79.539512 14.653841 -59.514267
-74.184615 -86.406993 14.481630 -61.986040
-75.178107 -90.399299 20.474380 -49.673222
-78.922970 -88.061905 12.458610 -62.525410
-78.550733 -96.994366 15.409782 -68.993555
-64.563720 -83.700094 13.106657 -58.773490
-67.749176 -82.657521 12.109034 -57.234040
-72.216888 -77.966828 14.374038 -57.469067
-62.016339 -66.482285 7.204072 -46.017018
-62.514239 -89.170144 19.249689 -45.505315
-51.893747 -88.408096 14.894117 -42.090553
-91.668350 -100.775847 19.276948 -76.765253
-86.469886 -90.673773 18.452056 -70.491233
-79.442830 -80.678301 15.113833 -61.387649
-76.026294 -79.086069 14.905438 -59.479444
-76.148372 -79.962039 15.428299 -60.244412
-69.055101 -71.278765 9.519318 -50.259303
-76.553303 -94.165349 16.469104 -51.215595
-72.398393 -73.981638 15.560080 -56.762129
-74.403133 -70.980020 14.304017 -55.553183
-80.316478 -79.814186 15.461458 -61.633461
-68.294912 -76.362504 15.244657 -56.275727
-79.149271 -95.115284 16.156616 -68.577679
-65.282257 -84.985105 18.359329 -45.080209
-61.734949 -77.042028 10.894506 -52.484432
-66.818257 -71.548509 9.629495 -49.789901
-59.318931 -68.987939 8.838521 -47.099977
-63.943555 -88.506782 17.620229 -45.735101
-66.931980 -85.354870 14.955018 -45.686055
-66.373583 -69.517371 8.869640 -48.242403
-76.896811 -77.234534 13.379072 -57.969229
-68.695044 -73.783424 11.575450 -52.667812
-70.072340 -77.252580 10.924032 -54.161429
-80.468213 -98.700636 21.553744 -53.750655
-75.872492 -87.635572 20.489907 -49.052419
-76.816496 -95.428728 19.997615 -51.673567
-76.417238 -86.734425 16.992098 -48.945499
-80.326327 -87.817252 24.208497 -50.443074
-81.099381 -105.082862 20.806256 -55.854673
-79.487513 -101.535117 17.002168 -54.306789
-78.555951 -99.101829 18.701517 -53.297334
-98.090145 -83.947337 14.982780 -70.325533
-96.614091 -81.886877 14.310246 -68.709620
-84.931751 -79.864919 20.000197 -49.439001
-83.012671 -93.315648 24.565054 -52.898495
-91.099387 -72.054510 10.222059 -61.641152
-90.196503 -74.824325 11.865641 -62.438914
-86.984896 -66.768810 8.587400 -57.744817
-90.649409 -73.988043 12.255111 -62.791747
-75.545154 -50.936670 7.627341 -49.144897
-85.400785 -94.114854 15.913370 -53.854692
-93.389828 -76.447172 14.114849 -65.848689
-93.318771 -77.905717 12.334107 -64.967115
-91.232024 -73.362954 10.749748 -62.168192
-105.497731 -91.131044 18.591932 -78.004074
-125.455001 -100.751503 18.882930 -91.133059
-116.082904 -99.540054 32.679607 -64.686887
-105.913451 -92.842554 29.485880 -59.626801
-113.695487 -99.726211 34.136406 -64.026509
-116.876889 -89.949674 16.317945 -82.842402
-114.839708 -81.115215 23.634430 -58.786477
-119.347556 -99.545589 19.609375 -88.056930
-105.172251 -99.539357 58.566595 -61.413482
-96.518355 -91.740204 24.395775 -56.477568
-104.188872 -97.760547 34.004414 -60.584826
-92.893508 -77.435209 12.326761 -64.646711
-82.578616 -66.974908 14.353233 -58.630205
-100.617220 -111.091439 24.758174 -63.512598
-109.191754 -112.505133 36.039626 -66.509066
-108.298032 -100.164447 20.054626 -82.662480
-98.794663 -86.468388 16.663585 -72.354094
-106.059025 -125.661444 37.474125 -69.516141
-91.667429 -102.337923 30.800133 -58.201606
-94.909993 -80.753693 14.276966 -67.571403
-103.607719 -90.929409 18.964809 -77.804703
-40.750060 -50.718057 10.536932 -34.914131
-131.429155 -69.533240 32.502544 -60.288718
-289.654200 -222.053076 129.098935 -153.512183
42.362543 -32.995047 64.237991 2.810249
-122.571380 -103.340178 20.413324 -90.991000
-118.190405 -99.441779 18.630035 -86.242539
-107.553138 -74.449123 35.495996 -54.600678
-122.229186 -100.061641 19.279227 -89.219054
-119.679779 -103.023455 37.851315 -66.810970
-232.269963 -127.044948 69.746036 -107.794473
-126.631936 -96.982818 16.527602 -89.355044
-137.834946 -101.008012 15.042276 -96.314488
-131.224639 -104.559803 18.238542 -94.029847
-129.988610 -95.141574 14.521933 -90.524041
-139.405661 -112.348970 20.661249 -101.839270
-94.184969 -82.611102 17.676192 -71.120945
-140.386784 -116.226845 21.909773 -103.945661
-123.074760 -96.936282 17.811782 -88.502926
-278.984591 -177.780646 99.599950 -137.029571
-131.456039 -95.584497 40.677699 -68.112161
-153.184162 -119.722364 20.631410 -110.608435
-147.457368 -119.862523 22.143274 -108.289725
-139.031334 -162.305803 26.216878 -122.749970
-143.088426 -105.620996 12.623894 -98.671549
-84.511922 -53.853861 -2.086374 -54.129702
-123.482987 -92.713118 15.627636 -86.756957
-111.140803 -89.563101 17.514943 -80.328556
-130.852523 -98.671124 16.463731 -92.378887
-95.991072 -71.492006 13.027645 -66.341610
-113.405308 -82.476254 12.978873 -78.296316
-123.143669 -90.793714 14.538654 -85.818450
-142.890686 -107.667510 17.215425 -101.315117
-128.447556 -97.418285 16.458283 -90.914531
-123.741101 -95.681313 17.077942 -88.205638
-130.830130 -92.912598 12.045727 -90.016457
-118.734654 -83.773818 20.136128 -60.752542
-148.745437 -143.481832 50.054383 -87.668181
-101.080198 -82.832469 28.769383 -55.173800
-121.028365 -95.910806 17.946507 -87.146604
-113.104812 -84.905727 14.783965 -79.127689
-120.414467 -121.079934 42.843862 -72.448320
-129.005349 -114.095388 42.080656 -72.930221
-128.780340 -87.392921 33.832367 -64.851978
-113.400041 -79.074803 33.016167 -57.742453
-133.361805 -94.127735 39.583604 -68.246862
-97.103207 -110.875487 19.946478 -83.452167
-50.244989 -29.990390 3.770884 -31.144491
-88.192295 -64.099985 11.526543 -59.927123
-112.976921 -105.262927 23.796253 -65.471954
-144.507520 -109.889760 14.834014 -100.863349
-110.091643 -23.894950 -7.662217 -40.195978
-128.858656 -84.542867 34.055835 -64.020457
-117.602203 -115.618615 24.768484 -69.966245
-118.550224 -90.823915 19.506117 -62.812242
-113.215942 -83.382032 20.875702 -58.979392
-118.726933 -100.245096 19.465556 -65.691609
-119.320767 -78.991011 21.156086 -59.493533
-112.462089 -80.488904 24.023499 -57.885298
-113.777803 -89.411650 17.535476 -60.956836
-126.922004 -93.684695 21.941354 -66.182010
-118.417560 -82.931974 21.322479 -60.404860
-117.743154 -86.001083 13.640246 -81.514953
-122.104470 -93.608749 16.504567 -86.626974
-126.970022 -98.211725 17.392401 -90.620900
-113.698311 -94.042641 32.007521 -62.322286
-107.257472 -95.550045 31.958957 -60.842255
-112.624378 -95.777870 30.583878 -62.520674
-108.962311 -90.620765 32.993984 -59.874923
-85.906961 -66.273346 8.949046 -57.191157
-81.616730 -61.072058 11.984042 -55.973850
-123.800758 -103.238066 20.375533 -91.318855
-121.610423 -98.151389 29.451355 -65.928544
-107.845618 -80.469355 26.022892 -56.494492
-95.211110 -78.857934 35.861401 -52.220713
-119.294960 -84.554830 21.935110 -61.154937
-121.375055 -90.200324 14.891402 -84.799697
-127.488885 -95.176258 15.595382 -89.506410
-118.031158 -88.564790 15.149630 -82.734575
-133.713799 -96.639844 13.536625 -92.835701
-118.181687 -92.664994 17.102535 -84.651824
-118.658041 -90.528786 16.024683 -83.850608
-120.718129 -92.388567 16.406140 -85.484505
-72.253210 -51.593375 10.014707 -48.373024
-129.006060 -93.291736 35.735280 -66.689339
-55.975213 -51.148808 -0.519065 -39.033335
-134.064070 -92.552292 28.990379 -67.984908
-86.772542 -67.690398 7.385048 -57.135606
-103.783484 -79.704887 14.822766 -73.149349
-98.214239 -81.994909 17.146908 -71.658768
-111.668975 -90.788468 18.029087 -80.957525
-83.805751 -65.195397 11.779611 -57.286242
-93.231048 -76.850834 11.738782 -64.364463
-126.478664 -103.249941 19.827997 -92.512309
-117.754723 -92.698498 17.411155 -84.363421
-100.202012 -89.819605 19.056705 -75.783226
-130.003813 -108.228323 21.059690 -96.069479
-119.037733 -82.288730 17.133566 -60.397939
-115.585219 -63.060198 16.252764 -53.593625
-118.611719 -94.770569 17.500977 -84.948755
-116.948179 -84.972963 12.449402 -80.154600
-119.441520 -78.549123 21.217483 -59.397193
-116.714601 -81.561733 19.616788 -59.482900
-121.846177 -90.215467 14.686517 -85.043576
-124.821082 -90.073612 13.158693 -86.226650
-123.519285 -108.400764 29.774910 -69.576015
-133.450648 -105.824830 31.589698 -71.782643
-132.860105 -116.282062 44.315387 -74.742650
-58.183749 -36.310748 4.924591 -36.371282
-120.893372 -85.030741 20.477965 -61.777234
-64.755115 -80.298403 9.179455 -54.235080
-72.960930 -46.968823 5.415719 -46.698255
-102.360374 -93.299280 34.275618 -58.697896
-121.980993 -101.244268 31.326655 -66.967578
-109.238816 -110.884461 28.132701 -66.036983
-110.446110 -89.745734 25.878762 -60.057553
-114.744328 -77.957232 30.209979 -57.810468
-121.233061 -94.053469 24.598495 -64.585959
-119.599557 -76.379266 24.585405 -58.793647
-119.041879 -78.375476 21.170619 -59.225206
-120.570928 -80.174599 23.474302 -60.223658
-116.455092 -69.068932 19.255069 -55.657207
-118.040746 -76.041841 20.994988 -58.224776
-115.289589 -86.045916 35.338963 -60.400651
-114.106532 -84.302477 28.429268 -59.522703
-112.760434 -68.155691 16.735636 -54.274838
-117.288036 -68.295074 20.426237 -55.674933
-179.087541 -81.649813 17.280079 -78.221206
-101.198711 -67.221945 6.058587 -66.686530
-144.977378 -105.411033 14.750141 -101.200406
-133.789094 -93.812813 37.461989 -68.280572
-57.885152 -59.118574 1.720140 -42.524006
-90.041700 -58.627028 4.919590 -58.445740
-89.915400 -59.096887 5.850067 -58.554943
-120.569068 -87.403984 34.858664 -62.391916
-110.533413 -83.584696 33.715250 -58.235433
-107.362656 -82.770529 24.128523 -57.039955
-125.228909 -92.784151 32.325446 -65.403918
-120.372350 -78.357205 29.842895 -59.618866
-115.417994 -67.138308 23.327571 -54.766891
-115.147538 -72.012590 26.652761 -56.148038
-117.700024 -71.275329 18.154220 -56.692606
-116.978279 -65.073567 18.969444 -54.615554
-121.830943 -87.912302 26.872986 -62.922973
-119.475959 -81.785320 27.452197 -60.378384
-115.667271 -79.910126 23.307212 -58.673219
-116.355653 -71.079682 21.831437 -56.230600
-117.344743 -69.282789 19.453941 -55.988259
-118.033333 -73.655942 21.065044 -57.506782
-108.770777 -79.815416 12.608935 -74.581001
-114.797282 -72.131905 13.436441 -56.078756
-117.227248 -98.295353 19.646739 -86.527405
-102.599039 -84.652164 10.197396 -70.051795
-117.441272 -76.592317 18.595588 -58.210077
-112.409251 -60.884956 14.507999 -51.988262
-101.147162 -72.741838 11.098096 -68.438246
-113.620002 -91.430259 15.054459 -80.166864
-98.853122 -91.047417 14.570616 -72.090818
-107.120158 -90.668901 18.642431 -79.068182
-94.938384 -77.883161 9.463445 -64.236382
-97.282637 -84.895758 18.078709 -72.503634
-87.252643 -66.739909 13.300632 -60.662903
-101.241883 -86.691197 15.250961 -72.686333
-106.093042 -79.920293 14.305224 -74.132641
-87.340258 -65.725159 10.273140 -58.665505
-95.954314 -66.632471 9.553522 -64.273421
-49.624476 -35.672217 8.785742 -32.729410
-76.426312 -52.352026 8.449813 -50.074373
-86.403189 -58.591375 8.308463 -56.759064
-76.287413 -51.617514 8.146343 -49.571468
-100.202879 -68.490667 8.542302 -66.833015
-116.760321 -79.094372 18.143958 -58.756408
-111.659213 -67.487442 14.859840 -53.743997
-97.191717 -81.823491 11.917405 -67.500766
-109.333149 -94.536006 17.508670 -79.959743
-117.005665 -85.805247 13.159193 -80.580406
-114.034897 -70.203179 16.142514 -55.271423
-117.114128 -85.727658 13.091693 -80.606945
-103.689863 -78.830006 13.194215 -71.629206
-96.193595 -84.966884 17.912642 -71.600327
-129.473557 -107.780064 20.933851 -95.682482
-97.953572 -73.794507 13.784383 -68.031640
-98.807066 -84.008900 17.610088 -72.819199
-85.013942 -58.600647 7.539321 -55.478622
-83.476193 -58.361365 9.526090 -55.578295
-86.733742 -66.334728 11.193979 -58.854333
-83.099394 -63.879025 7.052173 -54.339684
-71.861215 -50.155710 9.022402 -47.269349
-81.778649 -62.630938 8.883869 -54.233920
-83.750649 -82.535885 15.646038 -49.885960
-74.788340 -65.386912 10.713567 -42.052576
-82.655562 -75.947499 13.717942 -47.580918
-80.809608 -76.778749 13.150623 -47.276507
-88.753503 -63.428109 10.667808 -59.971247
-92.751413 -67.586380 11.753747 -63.404613
-75.522545 -76.656918 13.773997 -45.653839
-73.269790 -72.178362 9.395071 -43.634445
-82.206048 -57.758103 8.654168 -54.006812
-75.139097 -51.342044 8.531734 -49.119049
-79.559697 -55.553783 9.273696 -52.789328
-73.003689 -49.911922 8.232702 -47.652079
-78.506963 -54.016408 8.904498 -51.530044
-89.251297 -61.220502 8.627104 -59.214037
-79.447494 -68.634313 14.788021 -57.492231
-80.895598 -75.406904 16.337207 -46.890751
-89.651341 -65.693572 11.863794 -61.266948
-70.110731 -53.399198 11.592639 -48.295879
-71.390600 -49.500139 8.762013 -46.796394
-81.845295 -66.634429 16.436130 -44.543917
-83.649206 -69.728241 12.838986 -46.013234
-79.782212 -70.028737 10.463121 -44.943285
-77.303369 -66.590207 8.797098 -43.168073
-81.716960 -72.025783 11.251249 -46.122823
-78.969718 -72.794182 10.141970 -45.529170
-77.744907 -74.005725 9.666585 -45.525190
-71.722425 -77.419951 13.348013 -44.742713
-72.299812 -72.988037 9.164505 -43.586355
-73.695574 -77.140331 12.178081 -45.250772
-72.340687 -67.744264 7.838277 -42.025485
-73.565236 -54.433914 9.989355 -48.864940
-61.933919 -43.903815 4.978191 -38.328381
-62.808423 -55.639224 9.179017 -42.558779
-62.551095 -50.894240 6.474718 -39.930634
-69.887421 -70.633689 9.812936 -42.156333
-68.922838 -70.440916 9.606827 -41.809126
-62.205741 -54.428027 6.913856 -40.518611
-71.956505 -59.188753 13.397798 -51.084571
-65.905447 -76.220239 14.328303 -42.637706
-63.617169 -69.314798 11.680837 -39.879590
-65.154344 -72.655005 13.511189 -41.342805
-62.312252 -71.573110 14.203219 -40.165609
-62.915073 -54.099723 7.300998 -41.086529
-67.389973 -74.106317 3.830224 -52.076064
-65.563347 -73.603297 13.226272 -41.749993
-64.883208 -75.659521 15.383861 -42.162819
-63.819515 -77.671839 12.180787 -42.447406
-64.432837 -73.422390 13.787520 -41.356568
-67.871487 -79.679096 13.358329 -44.265175
-65.849697 -76.736674 14.962905 -42.775911
-61.148907 -39.432495 5.930945 -38.243344
-71.723167 -77.863878 12.687531 -44.876113
-66.472460 -80.351897 13.950843 -44.047307
-60.707899 -52.931480 6.550839 -39.212666
-74.104658 -87.495413 16.121937 -48.480021
-69.593989 -75.528292 11.794055 -43.536684
-63.209439 -50.460163 7.274375 -40.702236
-75.886899 -86.753746 19.129810 -48.792193
-62.378098 -59.728026 9.513356 -43.700333
-61.905453 -56.533897 8.197333 -41.670988
-70.336643 -56.652676 9.795259 -47.147520
-63.942628 -60.239246 8.848561 -44.040980
-66.357464 -77.221442 14.061004 -43.073672
-66.311997 -80.243127 15.381696 -43.966537
-57.703936 -38.101165 6.894417 -36.203992
-65.913156 -81.125047 15.381993 -44.111461
-67.327915 -77.532809 13.933905 -43.458217
-69.618044 -89.138852 16.570340 -47.627069
-70.599333 -81.063653 10.247488 -45.498896
-61.243499 -65.125727 6.025436 -44.247683
-67.176510 -79.538189 15.367332 -44.014410
-65.447676 -83.090870 17.381962 -44.561564
-59.916467 -41.761755 8.536313 -38.707118
-75.703433 -82.567026 15.220158 -47.481138
-65.768692 -60.625953 5.603165 -42.761723
-61.878025 -59.589116 8.108496 -42.449212
-70.358914 -81.706776 11.752561 -45.619707
-68.405966 -76.809522 10.589689 -43.564647
-63.615587 -64.542896 9.015202 -45.467669
-62.718344 -59.934649 8.446923 -43.144389
-82.098086 -79.200679 15.601729 -48.389630
-75.729837 -78.831786 13.142287 -46.368487
-80.086642 -83.405396 16.233541 -49.047611
-73.955163 -80.767894 16.070465 -46.416917
-83.675500 -62.921627 7.121485 -54.677971
-84.219321 -63.634549 7.673417 -55.309194
-85.289585 -89.955843 15.966371 -52.573628
-85.217390 -87.014470 16.255131 -51.669558
-86.336098 -67.032403 9.837055 -57.980911
-86.456008 -63.703265 11.442772 -58.517008
-75.556120 -52.892986 9.263703 -49.976449
-83.827336 -61.177177 10.485806 -56.156292
-87.835962 -101.661247 17.670085 -56.849163
-83.814093 -81.037938 13.906530 -49.455609
-82.948112 -80.653568 13.974753 -49.080504
-81.703811 -88.116894 19.600845 -50.946212
-76.760198 -91.329641 18.232648 -50.426952
-69.415236 -79.819183 14.145742 -44.770326
-85.431044 -81.140421 14.691840 -49.971440
-85.677146 -83.850429 13.664552 -50.858273
-77.130209 -80.335864 17.474233 -47.239822
-81.659466 -79.435286 19.036490 -48.328426
-88.272324 -70.490779 9.731308 -59.491679
-91.374720 -70.059793 9.362481 -61.174787
-88.919129 -70.914169 10.708397 -60.462228
-85.533109 -65.693838 9.460297 -57.156402
-86.418503 -69.583934 10.542002 -58.720371
-88.760951 -69.281303 12.048786 -60.899862
-87.862007 -67.861985 11.772272 -60.029335
-73.115882 -49.936302 8.205397 -47.701212
-85.109377 -88.325969 15.776551 -52.030604
-86.904565 -95.306625 14.145534 -54.663357
-84.935866 -82.164866 16.005270 -50.130220
-90.706248 -88.907418 18.115736 -53.884100
-86.766769 -83.711884 16.666046 -51.143596
-79.357063 -83.681803 23.391584 -48.911660
-74.617246 -90.032343 17.665567 -49.394876
-65.100503 -83.789347 13.654444 -44.666955
-69.786951 -59.014613 13.628600 -50.133137
-75.066654 -97.221116 18.046499 -51.686331
-76.344872 -90.077387 17.394150 -49.926678
-77.748918 -91.426369 18.399442 -50.752586
-56.459577 -41.445813 9.558260 -37.120613
-72.322505 -76.310826 8.576131 -53.117023
-68.803971 -68.921654 7.456846 -48.013160
-65.672458 -66.663518 11.009516 -48.411238
-70.953070 -82.984221 15.399726 -46.181187
-75.712867 -80.473927 14.301905 -46.856038
-67.506871 -68.850355 7.618003 -47.639596
-78.770574 -75.826401 12.837538 -57.805411
-68.100321 -81.017068 5.545360 -55.837614
-67.383200 -78.031094 17.148748 -43.624288
-76.665269 -100.534842 24.817850 -53.160033
-43.570517 -46.118707 -1.243734 -32.326857
-63.017377 -91.620154 16.670088 -46.391259
-63.584285 -85.307830 16.714897 -44.667635
-56.043261 -65.399620 13.203133 -46.634168
-61.878209 -94.818612 16.638023 -47.009046
-64.331699 -85.669373 16.377183 -45.000322
-67.709408 -83.328414 15.858534 -45.311346
-68.814490 -77.551583 22.210617 -43.909822
-65.060927 -84.734476 18.425400 -44.938621
-72.793748 -91.510441 13.997799 -49.291257
-49.991663 -60.130782 11.839071 -41.742637
-57.745278 -76.107119 6.499728 -40.155719
-70.166601 -92.950614 15.754396 -48.935165
-73.254196 -76.835670 4.063858 -51.976132
-72.152174 -88.574405 14.630646 -48.217974
-66.973701 -93.695434 5.325163 -48.200741
-49.187964 -68.265204 0.266647 -43.795775
-49.799693 -74.427341 4.049866 -47.677269
-56.763059 -80.064790 3.674218 -52.116924
-53.534944 -81.281500 3.805638 -52.334532
-54.153813 -82.303207 6.360044 -40.937106
-58.962625 -87.315209 4.198828 -57.100591
-58.568270 -86.826869 7.328898 -56.906847
-57.322323 -81.194317 7.968780 -53.403967
-54.553398 -81.019759 7.173447 -52.754003
-55.548162 -79.188975 7.279512 -51.693776
-47.362328 -72.075948 5.771939 -45.650792
-55.259444 -79.852870 7.763473 -52.269224
-58.006831 -82.682021 9.432636 -54.676744
-52.177183 -75.246384 3.548550 -48.448049
-50.608624 -72.158909 1.473360 -46.436345
-51.701472 -78.018158 3.581795 -50.150097
-52.921423 -80.494930 5.148897 -51.812951
-51.375309 -79.628226 4.498892 -51.196891
-60.149912 -86.914671 8.979967 -57.622705
-53.725518 -70.432884 8.180176 -37.247521
-47.226932 -68.372445 2.263023 -43.628289
-50.321030 -70.780437 7.246552 -45.812729
-51.273502 -75.953163 6.714134 -49.050620
-51.626596 -70.215023 8.052354 -45.992037
-53.169343 -75.100693 7.663423 -48.777910
-56.867198 -75.375716 11.712647 -51.240359
-60.151491 -80.620256 0.559494 -51.651815
-46.901654 -72.670810 3.358625 -46.201245
-58.091187 -78.215071 9.517996 -40.891877
-51.691553 -70.082913 6.068243 -36.532340
-52.927604 -75.711756 7.344007 -49.320258
-52.750746 -73.302936 2.171779 -47.939571
-51.667655 -73.648654 2.781273 -47.620110
-42.927558 -65.175112 2.269560 -41.317369
-53.157479 -65.476409 7.266427 -35.590166
-44.992193 -66.959811 1.967747 -42.547980
-66.557216 -87.407361 10.508288 -46.189373
-58.060120 -94.498924 4.894453 -45.767713
-59.644207 -69.958585 -4.006976 -48.865188
-52.856354 -47.374706 10.774244 -36.903053
-55.586492 -40.418811 -4.912648 -33.878256
-59.345017 -85.468781 9.137948 -43.444139
-66.343691 -82.517363 7.265196 -44.658316
-68.017032 -82.779300 16.103475 -45.238900
-60.105226 -88.029130 13.602148 -44.440307
-55.543299 -34.029714 4.010167 -33.610511
-69.405454 -90.001532 14.239849 -47.822096
-66.766413 -80.122762 15.974684 -44.066752
-66.446153 -82.473530 16.587471 -44.675905
-65.118552 -81.235648 16.724226 -43.906260
-62.415121 -86.201399 16.051425 -44.584956
-72.634186 -98.849811 24.968640 -51.445199
-65.719322 -51.728555 11.823416 -45.348519
-66.922046 -88.444220 16.596955 -46.609880
-67.122187 -56.468828 6.938549 -43.612383
-69.909145 -84.321578 20.621252 -46.269217
-74.836965 -97.701163 25.770047 -51.761438
-53.809093 -57.721322 9.794814 -40.164159
-64.788769 -68.579156 14.620099 -51.463297
-51.693653 -58.116466 12.503981 -41.649768
-53.603075 -75.481396 11.021598 -38.725341
-51.429175 -76.174329 5.588759 -38.281051
-54.592923 -83.368632 8.737863 -41.388467
-55.606954 -75.667056 10.274418 -39.382203
-40.520365 -56.273943 4.021219 -35.398219
-66.355088 -80.359434 17.001762 -44.014357
-64.862672 -84.024905 16.132758 -44.666273
-49.547854 -48.741203 5.505637 -32.168822
-50.625837 -35.668237 0.466261 -29.263216
-63.230940 -73.316633 16.300957 -40.964272
-64.050034 -73.739123 15.150622 -41.336747
-65.061810 -77.889275 18.186498 -42.885326
-65.264733 -76.805321 17.061732 -42.621016
-63.340172 -80.451434 16.802790 -43.137482
-59.360574 -74.134206 17.268765 -40.048434
-65.537527 -86.617041 19.585790 -45.646370
-44.423759 -34.463756 -2.471601 -26.671724
-42.536159 -52.954238 10.137389 -35.400446
-43.037841 -66.103018 3.514124 -41.434539
-46.238810 -67.097194 3.047354 -42.344026
-48.327136 -65.148806 1.743442 -42.452937
-46.321584 -47.528716 3.606612 -30.802313
-59.557031 -55.002425 3.294283 -38.112594
-48.098818 -54.962894 10.659034 -37.985130
-47.175408 -53.221876 7.370631 -34.695688
-52.295127 -64.158699 11.127328 -43.832799
-56.177784 -69.797529 11.245467 -47.652386
-47.740887 -70.611020 3.698024 -45.204860
-53.916974 -72.103326 4.086943 -37.806090
-53.291722 -67.237741 7.999460 -36.158839
-56.147541 -74.144576 8.782946 -39.087635
-43.904596 -55.062223 -3.172861 -36.717966
-43.775812 -58.663627 -1.463321 -38.315036
-39.959791 -47.896762 -4.875379 -32.490186
-44.124697 -55.976645 -3.729823 -37.433281
-51.204772 -63.257119 7.780687 -34.338568
-54.148260 -70.705143 7.892213 -37.456021
-51.160425 -67.633416 6.994712 -35.638152
-52.058390 -66.705969 5.715096 -35.629308
-54.175973 -75.203822 7.964545 -38.813939
-51.974738 -68.961877 5.299815 -36.280985
-51.343338 -68.680467 5.798670 -36.007141
-52.684810 -70.369283 5.574975 -36.916228
-52.807358 -72.681993 7.467231 -47.357800
-51.534548 -65.744279 9.342011 -35.183648
-52.981550 -68.672131 8.366450 -36.496104
-54.689892 -73.832339 8.038410 -38.556669
-52.897423 -74.861889 5.695249 -38.327794
-50.373491 -70.586656 6.678309 -45.800801
-47.954396 -68.236085 0.639417 -44.668736
-51.151678 -69.973762 0.291509 -45.864412
-45.046054 -69.242052 2.697117 -43.891595
-52.954351 -67.200044 7.198387 -36.046318
-53.258517 -67.089354 -3.364220 -45.908500
-49.130631 -78.735883 -0.688767 -38.359954
-43.222695 -63.846887 1.310416 -41.149036
-53.249397 -70.915810 -2.794764 -47.367651
-54.240971 -76.802102 8.240841 -39.312922
-53.712896 -75.246260 6.042292 -38.687747
-52.278291 -74.620871 5.529314 -38.069749
-52.829569 -74.399006 6.854262 -48.520761
-49.355192 -68.639031 6.853294 -44.371271
-54.900051 -76.234576 8.651945 -50.029487
-49.367084 -49.330805 12.210358 -37.461147
-55.292974 -95.993398 10.638113 -45.385912
-50.264931 -91.523591 7.533898 -42.536557
-52.543666 -70.454026 9.353170 -46.436730
-57.327606 -90.593639 4.968032 -44.376373
-54.108842 -88.745606 6.708874 -42.856334
-50.622012 -81.543178 0.379313 -39.649557
-66.963866 -110.835521 -7.309613 -53.339816
-50.029281 -79.380004 2.053180 -38.822785
-52.541783 -88.211499 4.349089 -42.225984
-48.835675 -75.210334 0.634931 -37.213803
-51.045726 -83.522838 -2.408581 -40.370569
-55.080803 -82.235205 3.838771 -41.194803
-52.980796 -70.410823 5.531205 -37.017486
-50.696199 -79.053463 1.791638 -38.924899
-54.557573 -83.660235 3.047008 -41.465342
-58.099426 -62.321970 13.810532 -46.608687
-50.179412 -88.558997 11.974618 -41.621523
-53.255650 -83.149700 7.687920 -40.921605
-56.457729 -79.574113 6.511975 -40.809552
-57.534664 -62.111120 13.718062 -46.282203
-47.022589 -46.290724 11.767781 -34.914051
-53.001325 -77.200683 3.107953 -39.060602
-54.118185 -76.034965 2.522584 -39.045945
-51.368074 -78.706079 1.908238 -39.022246
-48.368909 -72.486490 -0.508682 -36.256620
-45.052267 -68.313229 -0.942501 -34.009649
-48.589388 -75.266612 1.762066 -37.156800
-47.450358 -74.728376 1.328101 -36.653620
-48.242717 -75.171034 1.091347 -37.024125
-49.211565 -75.184264 0.788873 -37.318749
-48.708048 -78.309773 1.631970 -38.105346
-49.252552 -70.533089 -2.061696 -35.935692
-51.814440 -75.989699 -1.161930 -38.341242
-51.033098 -75.736478 -0.963715 -38.030873
-48.008816 -68.111215 8.198923 -43.972971
-44.557795 -68.348802 0.901039 -42.680330
-46.669670 -69.544317 -3.717694 -44.085159
-31.080426 -29.112237 -6.850927 -19.722612
-47.525990 -74.344710 -1.801946 -36.561210
-41.005081 -62.278962 1.475298 -38.745321
-56.281967 -95.766389 3.799160 -45.614507
-43.672897 -66.611434 -0.739003 -41.522166
-45.274676 -61.165966 -4.392080 -38.736150
-43.095011 -51.725188 -0.558346 -31.926959
-36.247684 -53.641395 -5.644868 -33.328959
-48.618300 -60.475744 -1.991747 -39.007732
-44.771738 -56.492075 -4.664533 -35.946048
-45.682611 -54.581933 -0.779168 -34.346435
-40.772168 -53.545545 -8.747433 -34.705704
-40.389962 -54.517229 -8.437390 -35.310025
-46.240818 -56.814086 -2.503405 -36.017672
-46.339163 -71.933264 -0.321195 -44.855650
-50.586957 -71.994985 -6.130416 -46.301425
-50.187899 -77.362536 0.014446 -48.812608
-40.524199 -56.343661 -7.802664 -36.131525
-44.040126 -58.976949 9.567265 -38.647207
-37.794187 -29.459521 4.719612 -21.540379
-45.366362 -81.699969 4.530957 -38.119899
-44.590489 -67.807117 -1.785276 -42.160286
-46.242314 -83.310605 3.365043 -38.865876
-39.935496 -84.751140 -4.676836 -37.405991
-46.644274 -62.504852 -4.286569 -39.808976
-42.617313 -60.550835 -7.532721 -38.810906
-46.510457 -56.778617 -1.090999 -35.937563
-44.196512 -58.966352 -5.270201 -37.592429
-47.188926 -60.319471 -2.728616 -38.277816
-47.628392 -60.818544 -7.449171 -40.063783
-46.540788 -57.103166 -1.123955 -36.580662
-45.089700 -58.191790 -3.784618 -37.397694
-45.058712 -60.896322 -5.585477 -38.666874
-49.184540 -70.677719 -6.932577 -45.863734
-48.151627 -58.617849 -2.045878 -38.466709
-46.241829 -62.318385 -4.754070 -39.814895
-38.721312 -50.753951 -7.775358 -32.631911
-53.533355 -87.073827 2.991051 -42.182155
-49.657674 -68.483671 -8.639376 -45.177077
-52.259659 -89.451390 1.691680 -42.513314
-63.770676 -100.683916 14.600218 -49.336377
-49.595610 -69.678752 8.967190 -45.464695
-50.239809 -75.280775 -4.040240 -48.225936
-46.032311 -92.264770 -1.382898 -41.489124
-50.179690 -83.261989 2.521863 -40.032504
-53.541814 -83.353764 3.067047 -41.068673
-49.994343 -82.741593 0.023800 -39.820781
-51.147827 -89.289971 2.928851 -42.131339
-56.421759 -94.560746 4.140791 -45.294752
-54.861189 -86.894275 3.643520 -42.526639
-54.434860 -87.990631 4.314409 -42.727647
-52.551414 -83.715918 3.259333 -40.880200
-54.628276 -91.709136 6.168003 -43.901224
-70.081472 -123.635542 17.810086 -58.115104
-55.365434 -90.410167 4.951854 -43.732680
-55.619589 -87.192737 4.240823 -42.843698
-51.227258 -91.188744 4.553142 -42.724801
-53.318324 -90.210521 3.348948 -43.058654
-55.052166 -94.107284 4.652202 -44.747835
-68.156363 -104.264905 0.566919 -67.944024
-51.197215 -76.163431 -4.026757 -38.208194
-50.073425 -82.494958 -3.913120 -39.770515
-52.973891 -92.127511 0.303033 -43.530421
-53.610128 -95.356796 4.963764 -44.690077
-55.456627 -101.285718 -0.832132 -47.022703
-52.811863 -87.172071 -2.616616 -41.995180
-58.769510 -96.537763 6.067733 -46.592182
-59.862400 -101.147554 8.555970 -48.302986
-57.455956 -94.119796 5.607613 -45.472726
-54.414161 -88.180828 3.764679 -42.778497
-70.690511 -110.047019 18.166210 -54.221259
-42.557243 -41.762255 -4.985980 -28.223935
-57.003080 -107.024791 11.723728 -49.208361
-58.056352 -99.889128 8.899088 -47.383644
-46.644019 -96.024720 8.811512 -42.800622
-54.525805 -94.034572 5.276731 -44.568113
-53.728186 -92.241234 5.547380 -43.790826
-52.114009 -100.319396 1.775903 -45.730022
-54.983290 -98.359001 2.882865 -46.002687
-50.997033 -75.842838 6.302498 -48.644027
-57.279435 -82.027058 8.869861 -41.791948
-58.958737 -86.202493 -0.676556 -55.177101
-55.948403 -89.893870 6.733532 -43.752682
-56.914625 -88.842350 1.354227 -57.280338
-56.223202 -93.752311 -2.282724 -44.992654
-46.530242 -67.409382 5.825790 -42.911802
-48.324785 -84.062292 2.413878 -39.716123
-53.153444 -71.947980 12.449933 -37.530427
-52.517307 -90.513431 2.110146 -42.909221
-60.178041 -96.140491 6.274501 -46.895560
-42.807887 -52.355754 -10.419905 -35.867782
-47.525291 -64.453241 -5.949095 -41.267955
-46.452044 -93.395406 -0.954239 -41.954235
-66.394103 -128.487203 -12.591418 -58.464392
-50.357987 -71.299463 -7.639644 -46.652670
-49.755503 -79.866246 -7.835247 -38.886525
-49.865060 -60.472011 -2.771218 -39.999680
-53.179513 -75.273654 -7.013862 -48.807531
-66.544115 -108.361251 12.675924 -52.471610
-54.410684 -77.655213 2.656378 -48.966170
-41.251416 -53.285825 9.998424 -35.252827
-59.311962 -110.324404 5.440568 -50.890910
-60.519296 -89.301718 6.732491 -58.227337
-54.507240 -92.662881 -1.079134 -44.151036
-56.406172 -84.570344 4.856156 -54.455711
-63.301901 -93.848539 7.212659 -61.591958
-59.550542 -110.728698 0.546555 -51.083772
-62.569027 -91.396719 8.157392 -60.207181
-59.746830 -85.544252 4.094190 -54.895775
-50.114512 -71.208823 8.869317 -46.432887
-57.014563 -83.864698 0.240796 -53.229199
-36.583859 -54.626025 -5.992074 -33.883948
-56.191482 -98.942579 -6.319012 -46.540218
-58.798237 -99.057119 5.986483 -47.356607
-65.425963 -99.880588 3.625738 -65.190765
-65.454062 -100.707223 1.306687 -65.872378
-49.348917 -50.634561 -8.002267 -35.716632
-54.724908 -80.504314 -6.602309 -52.236528
-65.077467 -94.009881 -2.667829 -60.719143
-60.166093 -87.213360 7.106724 -56.906686
-55.935576 -86.979209 -2.897188 -55.971514
-57.686289 -77.706921 -10.784133 -52.527672
-69.210879 -96.262651 11.291929 -65.582014
-66.853654 -94.966747 8.730057 -63.028035
-60.696760 -86.460532 4.425773 -55.632161
-58.242761 -80.675929 8.572914 -53.019503
-56.881832 -82.821876 8.410524 -54.269110
-58.123324 -86.139030 6.367727 -56.069424
-65.940125 -99.431575 0.859911 -64.468809
-67.240205 -103.272638 -0.619600 -67.240205
-51.615467 -81.593403 0.667408 -51.901877
-58.982814 -99.156320 6.829215 -47.441740
-62.016117 -93.655123 5.033261 -60.850243
-69.001086 -102.881788 6.483013 -68.282054
-75.931393 -114.157238 4.403879 -75.931393
-70.567900 -105.692279 5.660064 -69.607885
-73.785638 -110.212959 5.816812 -73.384248
-69.851074 -104.511167 5.999956 -69.325995
-62.231630 -93.425844 6.306715 -61.449154
-78.401357 -118.128622 3.295256 -78.661470
-63.112606 -90.834004 9.290426 -60.727872
-61.035860 -89.991405 7.808305 -59.498946
-73.503342 -110.660687 4.446289 -72.964977
-41.791488 -58.385013 -7.163723 -37.946329
-60.823232 -87.085668 9.480719 -58.185995
-61.038283 -88.956203 8.543828 -59.063552
-61.896908 -92.041124 6.812404 -60.181121
-63.819526 -96.690269 -1.503446 -62.741262
-53.414826 -78.047810 8.319959 -51.260567
-59.250331 -84.576905 9.559972 -56.465939
-44.068028 -95.510175 11.261594 -41.873461
-58.649246 -100.031837 7.897764 -47.604325
-70.745885 -105.255426 6.152594 -69.418836
-62.380747 -96.528524 0.660172 -62.433545
-68.886892 -105.547439 0.731114 -69.108522
-71.761176 -109.079862 -0.092003 -71.409699
-50.708033 -100.606996 5.912704 -45.394509
-43.861637 -94.351620 4.352240 -41.463977
-57.830459 -101.048055 1.732237 -47.663554
-59.041616 -104.441575 3.060491 -49.044957
-54.884297 -79.025314 8.834349 -51.878449
-56.013762 -81.686461 8.450310 -53.887787
-51.445022 -70.899566 5.037409 -44.763181
-59.569532 -86.613577 6.831590 -56.382886
-43.053863 -116.639933 9.013806 -47.908139
-58.984157 -109.942655 5.641084 -50.678044
-56.265131 -78.181433 2.590313 -50.937909
-61.757425 -93.280797 5.737406 -60.818721
-60.245685 -86.105124 2.760180 -56.264575
-54.030705 -81.268763 3.974041 -52.571470
-60.100233 -85.475085 3.943029 -55.920617
-56.110002 -84.088429 5.638391 -54.535221
-62.015542 -92.473845 6.436277 -60.638813
-59.517727 -86.159175 8.892087 -57.245553
-63.460910 -81.924195 7.699162 -53.838204
-58.378067 -77.851995 4.869388 -50.752143
-60.664242 -82.137512 3.328796 -53.890761
-57.778664 -81.231160 3.107915 -53.088484
-61.221194 -81.990528 6.102577 -53.071422
-59.074553 -80.048348 3.102535 -52.624108
-57.076558 -77.192114 2.687474 -50.374980
-56.485421 -78.454002 2.626420 -51.248411
-46.961702 -49.848999 -4.690414 -35.021571
-69.494601 -80.792817 10.659425 -55.634763
-67.136073 -99.668470 8.726892 -50.041363
-69.994839 -99.254118 17.489219 -50.774687
-61.815887 -98.236151 17.257380 -48.015611
-63.976728 -88.668663 17.397870 -45.793617
-63.465337 -90.753732 16.223670 -46.265721
-59.869379 -94.121237 13.183019 -46.197185
-58.992891 -94.722811 19.167892 -46.114711
-59.879002 -95.284303 14.648760 -46.548991
-63.800859 -96.793126 15.379473 -48.178195
-76.578930 -103.248904 13.240851 -71.618162
-65.369813 -93.316008 14.106141 -47.605746
-66.367681 -84.536241 2.645458 -56.196011
-61.935276 -89.076459 12.389001 -45.303520
-73.100743 -94.429228 14.097009 -50.258991
-71.367663 -95.194099 13.104100 -66.038707
-50.687479 -57.963271 12.499888 -41.650115
-45.136550 -56.382274 -4.457043 -37.695345
-60.221058 -72.056066 7.069413 -47.091820
-74.902638 -117.475538 18.895869 -57.713453
-62.294700 -105.459102 6.295451 -50.326141
-72.415945 -93.131843 14.272118 -65.840191
-87.331283 -106.550869 17.464076 -77.534261
-67.412839 -81.011921 10.757434 -55.440948
-67.880281 -84.751745 14.286396 -60.164801
-72.339823 -92.292456 14.456218 -65.218189
-65.328109 -106.801354 12.787164 -51.638839
-85.607450 -108.156706 16.424027 -77.486687
-81.565616 -97.121668 17.008899 -71.135442
-70.031602 -87.696659 14.520753 -61.992521
-69.414870 -82.930957 15.118391 -60.050754
-66.329629 -90.141625 11.750305 -61.224497
-62.070733 -86.775348 5.827386 -56.381764
-69.923999 -98.439127 10.752443 -66.795286
-57.310450 -85.241715 7.314881 -56.027524
-74.030344 -99.381984 12.452482 -68.085184
-67.119580 -91.045019 6.772745 -59.690442
-63.107987 -89.902859 3.177535 -58.813447
-61.001606 -84.404128 3.752745 -55.449260
-59.993180 -83.591942 3.188809 -54.744460
-61.472900 -87.448444 6.034503 -56.866169
-60.650557 -88.554801 4.034978 -57.911233
-60.344858 -90.187286 6.834272 -59.287425
-58.342075 -83.300388 4.129361 -54.290641
-61.316619 -91.131203 3.965029 -59.315314
-60.847401 -89.976438 3.705022 -58.733731
-57.189858 -84.702956 3.606644 -55.060115
-61.750962 -91.719005 5.632410 -60.197099
-59.637726 -87.546562 3.313248 -57.139164
-58.480585 -86.697958 7.471375 -56.764969
-59.085738 -88.379975 5.803473 -57.482426
-60.748892 -89.459553 7.892980 -59.154663
-60.622105 -89.429547 7.778059 -59.088499
-60.830335 -90.116690 4.092102 -58.880917
-61.742949 -90.610191 3.596874 -58.992860
-58.825769 -88.629126 5.962278 -57.499553
-65.586193 -97.049588 7.411107 -64.387232
-63.035214 -95.062871 4.149867 -61.683312
-61.144618 -92.793941 5.149394 -60.254197
-63.286387 -95.102126 6.119688 -62.191122
-63.899025 -96.173280 5.041162 -62.928295
-86.117394 -120.699774 11.879298 -82.984807
-72.468307 -107.775385 6.522790 -71.431649
-62.589773 -93.750186 4.198395 -61.081169
-67.393617 -89.271343 12.902316 -61.865080
-62.237373 -88.298343 9.983758 -59.285832
-64.225523 -89.151319 4.425631 -58.434233
-61.829856 -91.319202 4.244244 -59.465699
-61.092278 -88.564034 4.802841 -57.665273
-77.986887 -104.365857 13.669006 -72.684113
-81.327892 -111.113806 13.067018 -76.931835
-55.806444 -68.157246 12.852868 -48.098750
-74.068389 -103.160490 11.557011 -70.527301
-78.081300 -94.006135 16.321713 -68.363602
-78.842684 -104.492642 14.128119 -73.091918
-77.366409 -99.682237 14.843753 -70.446145
-78.362970 -97.368446 15.827741 -69.894034
-81.577829 -110.175517 13.643621 -76.635740
-74.162910 -99.431534 13.210034 -69.000890
-85.341756 -102.278045 17.487598 -74.893155
-68.541259 -95.898771 10.976941 -64.825504
-70.000098 -85.066071 15.007044 -61.186282
-61.680688 -82.178386 12.124231 -56.472916
-66.219250 -91.943252 11.171932 -62.495964
-85.759631 -107.105216 16.740164 -77.104565
-81.109943 -108.105356 14.146389 -75.570694
-65.287536 -98.474798 5.498594 -64.861901
-74.623559 -104.507953 10.764136 -70.612485
-70.750170 -101.751242 9.527207 -68.537983
-87.716970 -115.996520 15.161087 -81.673875
-79.902617 -104.741044 14.616691 -73.649622
-84.100176 -102.338835 17.048065 -74.398638
-95.267536 -124.184677 16.589963 -88.302494
-81.745694 -109.951185 13.833614 -76.614688
-67.749024 -87.675242 13.549768 -61.337568
-63.953762 -89.891068 10.498076 -60.678084
-88.172478 -111.920806 16.633277 -80.151963
-80.022705 -106.793236 13.981643 -74.563036
-71.914604 -102.843936 9.758889 -68.941550
-86.275218 -114.534517 14.841837 -80.453875
-67.196811 -98.152928 5.808283 -64.288553
-65.043731 -98.939831 4.355324 -64.955210
-65.639842 -98.293317 6.285853 -64.933813
-61.569469 -93.786727 4.773059 -61.321314
-64.258777 -95.500635 4.375382 -62.050657
-63.321273 -96.664131 4.128339 -63.271203
-70.153172 -104.715153 6.263293 -69.390820
-68.478192 -104.858856 1.543745 -68.478192
-73.530448 -109.814066 5.738414 -72.577291
-66.845195 -95.797331 9.637569 -64.389723
-73.122497 -109.786281 5.114221 -72.925021
-74.607138 -112.696475 1.964784 -74.090286
-62.601520 -92.868141 7.316288 -61.369701
-75.214750 -113.463755 3.801163 -75.075023
-70.653004 -107.988221 0.813752 -70.653004
-62.493273 -88.615726 4.967209 -57.311247
-67.873781 -102.679700 2.785349 -66.954715
-78.597208 -118.440979 3.194559 -78.597208
-63.808644 -94.861981 7.087889 -62.717999
-61.459748 -92.093295 6.537444 -60.562495
-61.391515 -88.732320 8.670104 -58.551481
-73.252107 -106.578262 0.206253 -69.735414
-74.253962 -110.813431 5.895199 -73.834152
-77.199273 -116.339270 3.570824 -77.199273
-79.552839 -119.376900 3.527932 -79.057900
-77.842866 -117.300938 -0.836419 -77.350704
-66.494531 -101.832651 0.237646 -66.214108
-77.354805 -116.182246 4.340404 -77.354805
-73.906291 -111.581096 3.917693 -74.011202
-76.339157 -114.613042 4.606343 -76.312272
-78.206622 -118.107187 1.936031 -77.986350
-83.614729 -125.054230 4.088219 -83.614729
-65.503823 -96.931891 7.409803 -64.303325
-76.505979 -111.128934 8.790477 -74.914741
-60.882478 -88.730153 8.541193 -58.607495
-71.395672 -105.276003 7.502696 -70.297814
-64.842805 -96.613032 1.178964 -62.451784
-68.605114 -104.534824 3.156596 -68.811398
-60.882138 -91.823550 1.040146 -58.991792
-86.752296 -129.771652 3.264313 -87.080583
-67.549715 -143.027960 -14.191229 -63.173303
-138.654245 -120.659039 -23.564550 -105.098667
-43.958478 -52.965708 -11.047647 -36.527054
-65.880778 -89.750799 8.385307 -59.383409
-67.067140 -97.355662 6.896082 -64.034522
-69.372236 -101.766138 8.030460 -67.967931
-9.926832 -12.552482 -5.888944 -6.743794
-40.542811 -29.398882 -8.157319 -26.688534
-61.903909 -90.702576 8.213321 -60.163970
-78.008915 -118.228839 -0.235273 -78.008915
-60.171162 -90.719861 3.161344 -58.403944
-65.303300 -94.592743 3.984526 -61.347032
-64.443692 -98.117161 -1.213868 -63.536321
-66.798458 -101.250090 1.423014 -65.806145
-62.603039 -91.346808 8.478037 -60.729615
-70.620471 -99.925938 10.507945 -67.718078
-61.974345 -95.889369 1.231574 -61.974345
-59.914213 -91.342822 4.922809 -59.596019
-72.169597 -108.747147 -2.700082 -71.312820
-82.495830 -121.439682 7.128931 -81.530267
-57.509581 -89.667126 1.362269 -57.877896
-71.203621 -102.222947 9.644794 -68.931550
-67.377665 -98.972837 7.961719 -65.951930
-67.420470 -72.125624 15.340598 -54.670412
-115.949518 -254.829632 -20.734941 -111.233745
SCALARS strain float 4
LOOKUP_TABLE table3
0.000392 -0.001275 0.000425 0.000000
-0.000167 -0.000431 0.000402 0.000000
-0.000100 -0.001934 0.001606 0.000000
0.000499 -0.001875 0.000426 0.000000
0.000891 -0.003534 -0.001758 0.000000
0.000009 -0.000307 -0.000006 0.000000
0.000269 -0.001254 0.000551 0.000000
-0.000062 -0.000328 0.000446 0.000000
0.000106 -0.000141 0.000374 0.000000
-0.000077 -0.000197 0.000178 0.000000
-0.001307 0.000266 0.000525 0.000000
0.000032 -0.000101 0.000019 0.000000
-0.000040 -0.000102 0.000155 0.000000
-0.000120 -0.000069 0.000121 0.000000
0.000031 -0.000419 0.000003 0.000000
-0.000062 -0.000000 -0.000010 0.000000
-0.000033 -0.000083 -0.000003 0.000000
-0.000047 -0.000023 -0.000007 0.000000
-0.001277 0.000722 0.000272 0.000000
-0.000018 -0.000379 -0.000219 0.000000
-0.000021 -0.002592 -0.000459 0.000000
0.000000 -0.003905 -0.000607 0.000000
0.000005 -0.000364 0.000020 0.000000
0.001300 -0.003358 0.000941 0.000000
-0.000052 -0.000325 -0.000068 0.000000
-0.000032 -0.000141 -0.000153 0.000000
0.000029 -0.000319 0.000031 0.000000
-0.000213 -0.000314 0.000089 0.000000
0.000709 -0.001147 0.000897 0.000000
0.000000 -0.000410 -0.000042 0.000000
0.002121 -0.003626 0.007430 0.000000
0.000008 -0.000674 -0.000042 0.000000
-0.000067 -0.000300 -0.000128 0.000000
0.002312 -0.005371 -0.003205 0.000000
0.000019 -0.000345 -0.000035 0.000000
0.001178 -0.002135 -0.002435 0.000000
0.000026 -0.000335 -0.000019 0.000000
0.000078 -0.000910 -0.000849 0.000000
0.000009 -0.000220 -0.000094 0.000000
0.000073 -0.000260 -0.000124 0.000000
-0.000174 -0.000055 -0.000086 0.000000
0.000741 -0.001127 0.000625 0.000000
0.000011 -0.000092 0.000061 0.000000
-0.000027 -0.000133 -0.000149 0.000000
0.000348 -0.000463 -0.000550 0.000000
0.002257 -0.002227 0.007765 0.000000
0.000021 -0.000297 0.000069 0.000000
0.002681 -0.003100 -0.000023 0.000000
0.001375 -0.001325 0.002736 0.000000
0.000042 -0.000362 0.000031 0.000000
0.000061 -0.000129 0.000044 0.000000
-0.000011 -0.000260 0.000063 0.000000
-0.000016 -0.000345 0.000108 0.000000
0.000017 -0.000309 0.000070 0.000000
0.000082 -0.000394 -0.000322 0.000000
0.000110 -0.000153 -0.000353 0.000000
-0.000028 -0.000105 -0.000174 0.000000
-0.000609 0.000231 -0.000521 0.000000
0.000025 -0.000087 0.000009 0.000000
-0.000037 -0.000133 -0.000162 0.000000
-0.000022 -0.000048 0.000058 0.000000
-0.000709 -0.002462 0.004473 0.000000
-0.000018 -0.000208 -0.000120 0.000000
-0.000013 -0.000265 0.000061 0.000000
-0.000082 -0.000106 0.000159 0.000000
0.001002 -0.002290 0.004469 0.000000
-0.000135 -0.000183 0.000201 0.000000
-0.000088 0.000024 0.000041 0.000000
-0.000362 0.000198 -0.000019 0.000000
0.000010 -0.000386 -0.000033 0.000000
0.000105 -0.003280 0.000218 0.000000
-0.000641 0.000270 0.003442 0.000000
-0.000061 -0.000027 0.000139 0.000000
-0.000832 0.000186 0.002946 0.000000
-0.000128 -0.000072 0.000122 0.000000
0.001180 -0.003875 0.005075 0.000000
-0.000428 0.000008 0.000055 0.000000
-0.000258 -0.000068 0.000020 0.000000
-0.000043 -0.000074 0.000028 0.000000
-0.000022 -0.000042 -0.000019 0.000000
-0.000162 -0.000268 0.000117 0.000000
0.000032 -0.000616 -0.000042 0.000000
-0.000211 -0.000857 -0.001142 0.000000
0.000001 -0.002836 -0.002200 0.000000
-0.000205 -0.001825 0.000284 0.000000
-0.000514 -0.001571 -0.000368 0.000000
-0.000051 -0.000550 -0.000144 0.000000
-0.000050 -0.000496 -0.000158 0.000000
-0.000097 -0.000243 -0.000016 0.000000
0.000181 -0.001766 0.000011 0.000000
-0.000049 -0.000372 0.000007 0.000000
-0.000627 -0.002093 -0.000877 0.000000
-0.000190 -0.003251 0.002211 0.000000
-0.000066 -0.000473 -0.000280 0.000000
0.000811 -0.003959 -0.000050 0.000000
-0.000158 -0.002122 0.000136 0.000000
-0.000091 -0.002687 -0.001071 0.000000
-0.000108 -0.000418 -0.000055 0.000000
-0.000882 -0.001371 0.001130 0.000000
0.000512 -0.002361 0.001067 0.000000
0.000000 -0.002406 0.001010 0.000000
0.001063 -0.003602 0.003505 0.000000
0.000113 -0.002879 0.000600 0.000000
0.001564 -0.003604 0.001952 0.000000
0.000041 -0.000452 -0.000062 0.000000
-0.000289 -0.001954 0.001993 0.000000
0.000062 -0.000513 -0.000307 0.000000
-0.000181 -0.002284 0.001658 0.000000
-0.000501 -0.001423 0.000341 0.000000
-0.000048 -0.000358 -0.000132 0.000000
-0.000265 -0.001920 0.000907 0.000000
-0.000107 -0.002630 -0.000452 0.000000
-0.000920 -0.000605 0.001342 0.000000
-0.000092 -0.000470 -0.000064 0.000000
0.000003 -0.000390 -0.000036 0.000000
-0.000204 -0.002749 0.000473 0.000000
-0.000007 -0.000392 -0.000003 0.000000
-0.000005 -0.000452 -0.000145 0.000000
-0.000097 -0.000388 0.000195 0.000000
-0.000057 -0.000282 -0.000071 0.000000
-0.000041 -0.000414 0.000097 0.000000
-0.000128 -0.000108 0.000181 0.000000
0.002244 -0.003208 0.008506 0.000000
0.000013 -0.000299 0.000051 0.000000
0.001490 -0.002432 0.007067 0.000000
-0.000050 -0.000325 -0.000050 0.000000
0.000064 -0.000351 0.000042 0.000000
0.000211 -0.000593 0.001639 0.000000
0.000017 -0.000381 0.000014 0.000000
0.000048 -0.000187 0.000154 0.000000
0.000021 -0.000332 -0.000024 0.000000
-0.000006 -0.000279 0.000036 0.000000
0.000373 -0.002872 -0.000172 0.000000
-0.000016 -0.000384 0.000056 0.000000
-0.000015 -0.000414 0.000148 0.000000
0.000486 -0.002367 -0.000040 0.000000
0.003145 -0.005580 -0.001946 0.000000
-0.000023 -0.000338 0.000204 0.000000
-0.000389 -0.001351 -0.000561 0.000000
-0.000047 -0.000277 0.000025 0.000000
-0.000478 -0.000489 -0.000972 0.000000
-0.000033 -0.000309 -0.000018 0.000000
0.001943 -0.002882 -0.003520 0.000000
-0.000025 -0.000261 0.000009 0.000000
-0.000007 -0.000195 0.000060 0.000000
0.000032 -0.000369 0.000015 0.000000
0.001144 -0.002217 -0.001932 0.000000
-0.000027 -0.000182 0.000055 0.000000
-0.000370 -0.000630 0.000193 0.000000
-0.001086 -0.001128 0.000153 0.000000
0.000034 -0.000241 -0.000223 0.000000
0.000287 -0.001642 -0.001189 0.000000
0.000014 -0.000307 -0.000010 0.000000
-0.000005 -0.000113 0.000011 0.000000
-0.000018 -0.000195 0.000030 0.000000
-0.000026 -0.000189 0.000021 0.000000
0.000025 -0.000279 0.000006 0.000000
0.003318 -0.002225 -0.000294 0.000000
-0.000359 -0.000393 -0.000043 0.000000
0.001772 -0.001695 0.001620 0.000000
0.000909 -0.002179 0.000360 0.000000
0.000520 -0.000647 0.000328 0.000000
0.000148 -0.000914 -0.000311 0.000000
0.000016 -0.001578 -0.000437 0.000000
-0.000571 -0.000531 0.000094 0.000000
-0.000002 -0.000080 -0.000002 0.000000
0.000056 -0.000227 0.000003 0.000000
-0.000039 -0.000182 -0.000021 0.000000
0.000092 -0.000480 -0.000058 0.000000
0.001110 -0.000910 0.000287 0.000000
0.000008 -0.000076 -0.000021 0.000000
0.000046 -0.000083 -0.000040 0.000000
0.000080 -0.000123 -0.000342 0.000000
0.000034 -0.000121 0.000077 0.000000
0.000017 -0.000075 -0.000023 0.000000
0.000001 -0.000054 -0.000008 0.000000
0.000015 -0.000056 -0.000017 0.000000
-0.000030 -0.000146 0.000128 0.000000
0.000416 -0.000468 -0.000573 0.000000
0.000014 -0.000043 -0.000015 0.000000
0.001451 -0.002963 -0.001314 0.000000
0.000129 -0.000181 -0.000086 0.000000
-0.000275 -0.001013 -0.001419 0.000000
0.000615 -0.001549 -0.003188 0.000000
0.000378 -0.000521 -0.000386 0.000000
0.000052 -0.000131 0.000078 0.000000
0.000929 -0.001056 -0.001501 0.000000
0.000039 -0.000131 -0.000045 0.000000
0.000032 -0.000115 0.000261 0.000000
0.000007 -0.000042 0.000012 0.000000
0.000009 -0.000145 0.000005 0.000000
-0.000014 -0.000008 0.000034 0.000000
0.000435 -0.001411 -0.002077 0.000000
-0.000026 -0.000117 -0.000046 0.000000
0.000001 -0.000089 0.000024 0.000000
0.000571 -0.000660 -0.001198 0.000000
0.001124 -0.003299 0.004726 0.000000
0.000012 -0.000059 0.000031 0.000000
0.000716 -0.001597 -0.002682 0.000000
-0.000027 -0.000287 -0.000129 0.000000
-0.000021 -0.000216 0.000023 0.000000
0.000019 -0.000117 -0.000025 0.000000
0.000025 -0.000356 0.000024 0.000000
0.000916 -0.001724 -0.000891 0.000000
0.002604 -0.003766 0.002187 0.000000
-0.000031 -0.000236 0.000057 0.000000
0.001523 -0.002545 0.001863 0.000000
0.000042 -0.000435 0.000031 0.000000
0.000034 -0.000327 0.000060 0.000000
0.000040 -0.000388 0.000014 0.000000
0.000038 -0.000333 0.000056 0.000000
-0.000027 -0.000253 0.000004 0.000000
0.000030 -0.000148 0.000032 0.000000
-0.000039 -0.000347 -0.000079 0.000000
-0.000256 -0.000940 0.000019 0.000000
-0.000085 -0.000247 0.000167 0.000000
0.000030 -0.000251 0.000041 0.000000
-0.000050 -0.000291 0.000130 0.000000
0.000513 -0.001479 0.004337 0.000000
0.001752 -0.003019 0.001406 0.000000
0.000663 -0.002482 0.003432 0.000000
0.000330 -0.001779 0.002213 0.000000
0.000182 -0.001045 0.001038 0.000000
0.003641 -0.004339 0.005745 0.000000
-0.000087 -0.000133 0.000145 0.000000
-0.000076 -0.000183 0.000232 0.000000
-0.000530 0.000299 0.003459 0.000000
-0.000209 -0.001557 0.000171 0.000000
-0.000003 -0.000126 0.000107 0.000000
0.000201 -0.000621 0.001881 0.000000
-0.000062 -0.000142 0.000138 0.000000
0.000778 -0.002175 0.002200 0.000000
-0.000023 -0.000152 0.000040 0.000000
-0.000034 -0.000173 0.000041 0.000000
0.000316 -0.000856 0.000226 0.000000
0.000444 -0.001287 0.001149 0.000000
0.001339 -0.002020 0.000981 0.000000
0.000080 -0.000131 -0.000057 0.000000
-0.000018 -0.000041 0.000082 0.000000
-0.000051 -0.000022 0.000135 0.000000
0.000252 -0.000580 0.000740 0.000000
0.000376 -0.001028 0.001668 0.000000
0.000366 -0.000759 0.002433 0.000000
0.000050 -0.000361 0.000710 0.000000
-0.000163 -0.000259 0.000494 0.000000
-0.000024 -0.000045 0.000056 0.000000
-0.000006 -0.000165 0.000217 0.000000
-0.000076 -0.000155 0.000116 0.000000
-0.000118 -0.000171 0.001187 0.000000
-0.000006 -0.000095 0.000192 0.000000
-0.000020 -0.000084 0.000119 0.000000
-0.000076 -0.000141 0.000120 0.000000
-0.000019 -0.000051 0.000133 0.000000
-0.000014 -0.000097 0.000099 0.000000
0.000033 -0.000448 0.001729 0.000000
0.000103 -0.000142 0.000400 0.000000
-0.000039 -0.000042 0.000060 0.000000
-0.000658 0.000161 0.000640 0.000000
-0.000012 -0.000046 -0.000009 0.000000
0.000121 -0.000434 0.002798 0.000000
0.000044 -0.000117 0.000126 0.000000
-0.000622 0.000611 0.005150 0.000000
-0.000079 -0.000070 0.000023 0.000000
-0.000062 -0.000041 0.000117 0.000000
-0.000012 -0.000047 0.000090 0.000000
-0.000045 -0.000030 0.000033 0.000000
-0.000089 -0.000056 -0.000084 0.000000
-0.000045 -0.000060 0.000220 0.000000
0.002926 -0.004250 0.001901 0.000000
-0.000159 -0.000018 0.000319 0.000000
-0.000124 -0.000178 0.000342 0.000000
-0.000041 -0.000168 0.000346 0.000000
-0.000037 -0.000131 0.000161 0.000000
0.000407 -0.000497 0.001262 0.000000
-0.000136 -0.000183 0.000253 0.000000
-0.000075 -0.000003 0.000001 0.000000
-0.000423 0.000150 -0.000016 0.000000
-0.000560 0.000293 -0.000114 0.000000
-0.000365 0.000249 0.000004 0.000000
-0.000058 0.000006 0.000011 0.000000
-0.000029 -0.000180 0.000031 0.000000
-0.000031 -0.000037 -0.000012 0.000000
-0.000187 -0.000089 -0.000081 0.000000
-0.000138 -0.000292 -0.000034 0.000000
-0.000065 0.000011 -0.000017 0.000000
-0.000080 -0.000102 0.000014 0.000000
-0.000051 0.000006 -0.000020 0.000000
-0.000028 -0.000016 -0.000012 0.000000
-0.000038 -0.000106 0.000053 0.000000
-0.000126 -0.000095 0.000174 0.000000
-0.000350 -0.000196 0.000166 0.000000
-0.000040 -0.000132 0.000085 0.000000
-0.000045 -0.000069 0.000035 0.000000
-0.000071 -0.000071 0.000047 0.000000
-0.000053 -0.000025 0.000043 0.000000
-0.000031 -0.000000 0.000001 0.000000
-0.000052 -0.000034 0.000052 0.000000
-0.000376 0.000131 0.000001 0.000000
-0.000739 -0.000063 0.001388 0.000000
-0.000151 -0.000004 0.000066 0.000000
-0.000603 0.000010 0.000386 0.000000
-0.000136 -0.000053 0.000107 0.000000
-0.000063 -0.000010 0.000095 0.000000
-0.001336 0.001197 0.001249 0.000000
-0.000859 -0.000055 -0.000306 0.000000
0.002692 -0.004461 0.003064 0.000000
0.000220 -0.002938 0.000607 0.000000
-0.000072 -0.000195 0.000241 0.000000
-0.000178 -0.000092 0.000149 0.000000
-0.000167 -0.000079 0.000128 0.000000
-0.001107 -0.000176 0.001024 0.000000
-0.000834 0.000621 -0.000223 0.000000
-0.000161 -0.000039 0.000157 0.000000
-0.000520 0.000180 0.000096 0.000000
-0.000131 -0.000050 0.000077 0.000000
-0.000061 -0.000216 0.000257 0.000000
-0.000043 -0.000205 0.000209 0.000000
-0.001612 0.000777 0.004327 0.000000
0.000268 -0.001950 0.002709 0.000000
-0.000002 -0.000363 0.000133 0.000000
0.000205 -0.002449 0.002467 0.000000
-0.000065 -0.000188 0.000223 0.000000
-0.000621 -0.000400 0.004297 0.000000
0.000064 -0.001842 0.005448 0.000000
-0.000055 -0.000284 0.000135 0.000000
-0.000179 -0.000920 0.000780 0.000000
-0.000086 -0.000247 0.000189 0.000000
-0.000161 -0.000082 0.000134 0.000000
-0.000131 -0.000073 0.000108 0.000000
-0.000904 -0.000155 0.002271 0.000000
-0.000167 -0.000083 0.000114 0.000000
-0.000142 -0.000010 0.000002 0.000000
-0.000517 -0.000279 0.000290 0.000000
-0.000078 -0.000521 0.000528 0.000000
-0.000469 -0.000485 0.000523 0.000000
-0.000568 -0.000093 0.000101 0.000000
-0.000271 -0.000910 0.002521 0.000000
-0.000088 -0.000086 0.000073 0.000000
-0.000058 -0.000102 0.000097 0.000000
-0.000045 -0.000078 0.000018 0.000000
-0.000060 -0.000013 0.000019 0.000000
-0.000040 -0.000109 0.000049 0.000000
-0.000044 -0.000086 0.000026 0.000000
-0.000038 -0.000965 0.000122 0.000000
-0.000053 -0.000445 -0.000193 0.000000
-0.000015 -0.000980 -0.000054 0.000000
-0.000001 -0.002492 -0.000875 0.000000
-0.000118 -0.000456 -0.000118 0.000000
-0.000828 -0.001771 -0.000578 0.000000
-0.000217 -0.001973 0.000307 0.000000
-0.000128 -0.002843 -0.000491 0.000000
0.000200 -0.003254 0.001397 0.000000
-0.000062 -0.000423 -0.000204 0.000000
-0.000127 -0.002162 0.000164 0.000000
-0.000008 -0.000505 -0.000227 0.000000
-0.000608 -0.000809 0.000687 0.000000
0.000028 -0.000682 0.000269 0.000000
-0.000022 -0.000435 0.000185 0.000000
0.000000 -0.002572 -0.001613 0.000000
-0.000000 -0.000587 0.000224 0.000000
0.000332 -0.002885 0.000010 0.000000
-0.000012 -0.000626 0.000239 0.000000
-0.000712 -0.000747 -0.000221 0.000000
0.000336 -0.002553 -0.000810 0.000000
0.000211 -0.002589 -0.001557 0.000000
-0.000107 -0.002056 -0.000435 0.000000
-0.000401 -0.002062 -0.000039 0.000000
-0.000507 -0.001323 -0.000317 0.000000
-0.000018 -0.000381 -0.000177 0.000000
-0.000044 -0.000376 -0.000233 0.000000
0.000195 -0.002825 -0.001296 0.000000
-0.000531 -0.000424 -0.000121 0.000000
-0.000050 -0.001920 0.000222 0.000000
-0.000078 -0.000377 -0.000262 0.000000
-0.000332 -0.001644 0.000266 0.000000
-0.000073 -0.000310 -0.000137 0.000000
-0.000004 -0.000400 -0.000025 0.000000
0.000449 -0.002718 -0.000359 0.000000
-0.000047 -0.000282 0.000009 0.000000
-0.000100 -0.001808 0.000302 0.000000
0.001260 -0.003644 0.001401 0.000000
-0.000045 -0.000362 -0.000212 0.000000
0.000592 -0.002577 0.000294 0.000000
0.000384 -0.002234 0.003171 0.000000
-0.000629 -0.001337 0.000305 0.000000
-0.000269 -0.001897 0.001457 0.000000
-0.000097 -0.000370 0.000203 0.000000
0.000654 -0.003115 0.000436 0.000000
0.000637 -0.001809 0.000004 0.000000
-0.000091 -0.000371 0.000086 0.000000
-0.000057 -0.000406 0.000026 0.000000
-0.000067 -0.000361 0.000073 0.000000
-0.000083 -0.000458 0.000071 0.000000
-0.000262 -0.001791 0.000321 0.000000
-0.000493 -0.001683 0.000170 0.000000
-0.000061 -0.002087 0.000356 0.000000
0.000000 -0.002697 -0.000320 0.000000
-0.000050 -0.002071 0.000688 0.000000
-0.000051 -0.000332 -0.000094 0.000000
-0.000051 -0.000415 0.000020 0.000000
-0.000503 -0.000066 0.000739 0.000000
0.000002 -0.002250 0.000053 0.000000
-0.000293 -0.001874 0.000474 0.000000
0.000036 -0.000556 -0.000006 0.000000
-0.000197 -0.001951 0.000186 0.000000
-0.000200 -0.002346 0.001441 0.000000
-0.000007 -0.002793 -0.000416 0.000000
0.000000 -0.002675 -0.000286 0.000000
0.000260 -0.002476 -0.000616 0.000000
-0.000086 -0.000353 0.000055 0.000000
0.000000 -0.002929 -0.000439 0.000000
0.001075 -0.004516 -0.000641 0.000000
0.000622 -0.003404 -0.000042 0.000000
0.001121 -0.003058 -0.000728 0.000000
0.000112 -0.003022 0.000014 0.000000
-0.000052 -0.003917 0.002801 0.000000
-0.000065 -0.000400 0.000006 0.000000
-0.000091 -0.000455 0.000067 0.000000
-0.000103 -0.000396 0.000079 0.000000
-0.000067 -0.000397 0.000108 0.000000
-0.000106 -0.002470 -0.000060 0.000000
-0.000083 -0.000457 0.000009 0.000000
-0.000187 -0.002694 0.001106 0.000000
-0.000700 -0.001972 0.000573 0.000000
-0.000015 -0.000563 0.000117 0.000000
-0.000536 -0.001731 0.001189 0.000000
0.000021 -0.003194 -0.000452 0.000000
-0.000025 -0.000318 0.000141 0.000000
-0.000028 -0.000354 0.000108 0.000000
-0.000037 -0.000287 0.000091 0.000000
0.000052 -0.002778 0.000544 0.000000
0.000003 -0.000541 0.000024 0.000000
0.000137 -0.003408 0.002645 0.000000
0.001199 -0.003662 0.000116 0.000000
0.001778 -0.004247 0.001012 0.000000
-0.000948 -0.000712 -0.000177 0.000000
-0.000423 -0.002299 0.000937 0.000000
-0.000052 -0.000584 -0.000171 0.000000
-0.000179 -0.001966 -0.000037 0.000000
0.000505 -0.002739 -0.000426 0.000000
0.003848 -0.006552 -0.000363 0.000000
0.000088 -0.003144 0.000679 0.000000
0.000291 -0.002796 0.003028 0.000000
-0.000063 -0.000137 0.000351 0.000000
-0.000130 -0.000392 0.000133 0.000000
-0.000061 -0.000203 -0.000055 0.000000
0.001459 -0.004049 0.005511 0.000000
-0.000057 -0.000343 -0.000006 0.000000
-0.000060 -0.000333 0.000006 0.000000
-0.000045 -0.000355 -0.000039 0.000000
-0.000041 -0.000389 0.000039 0.000000
-0.000072 -0.000269 -0.000012 0.000000
-0.000029 -0.000396 -0.000069 0.000000
0.004405 -0.006110 0.002375 0.000000
-0.000059 -0.000324 0.000269 0.000000
-0.000072 -0.000353 0.000034 0.000000
-0.000028 -0.000477 0.000050 0.000000
0.000124 -0.003987 -0.001297 0.000000
0.000037 -0.000475 -0.000166 0.000000
0.000090 -0.000472 0.000044 0.000000
-0.000129 -0.000393 -0.000098 0.000000
-0.000085 -0.000463 0.000003 0.000000
0.003141 -0.007522 -0.001258 0.000000
-0.000002 -0.000500 0.000009 0.000000
-0.000033 -0.000504 0.000221 0.000000
-0.000087 -0.000356 0.000094 0.000000
-0.000178 -0.000322 0.000068 0.000000
-0.000076 -0.000414 0.000003 0.000000
0.001269 -0.003562 0.000834 0.000000
0.000132 -0.000491 0.000181 0.000000
-0.000138 -0.000304 0.000367 0.000000
0.000602 -0.003553 0.000835 0.000000
-0.000125 -0.002711 -0.000291 0.000000
0.000013 -0.000337 0.000226 0.000000
-0.000009 -0.000384 -0.000121 0.000000
0.000032 -0.000343 0.000202 0.000000
0.000019 -0.000409 -0.000010 0.000000
0.000002 -0.000428 -0.000076 0.000000
0.000048 -0.000331 0.000157 0.000000
0.000067 -0.000323 0.000101 0.000000
0.000001 -0.000382 -0.000072 0.000000
0.001061 -0.002176 0.001972 0.000000
0.000002 -0.000393 0.000004 0.000000
0.000036 -0.000368 0.000028 0.000000
0.006103 -0.008243 0.008381 0.000000
0.000009 -0.000384 0.000019 0.000000
-0.000091 -0.000359 -0.000061 0.000000
-0.000003 -0.000387 0.000010 0.000000
-0.000061 -0.000320 0.000190 0.000000
-0.000001 -0.000364 -0.000061 0.000000
-0.000069 -0.000307 0.000206 0.000000
-0.000062 -0.000337 -0.000004 0.000000
-0.000041 -0.000341 -0.000064 0.000000
-0.000065 -0.001535 0.001171 0.000000
0.000003 -0.001333 0.000258 0.000000
0.000042 -0.000527 0.000060 0.000000
-0.000050 -0.000289 0.000181 0.000000
-0.000021 -0.000316 0.000026 0.000000
-0.000165 -0.000158 0.000034 0.000000
0.004126 -0.005354 0.005709 0.000000
-0.000646 -0.000730 -0.000277 0.000000
0.000962 -0.002203 0.003345 0.000000
0.000008 -0.000406 0.000017 0.000000
-0.000062 -0.001413 -0.000110 0.000000
-0.000494 -0.000833 -0.000400 0.000000
-0.000035 -0.000254 -0.000111 0.000000
-0.000102 -0.000206 0.000111 0.000000
-0.000005 -0.000206 0.000027 0.000000
0.000028 -0.000372 0.000020 0.000000
0.000023 -0.000366 -0.000100 0.000000
0.000031 -0.000439 -0.000032 0.000000
0.000342 -0.001404 0.001312 0.000000
-0.000044 -0.000386 0.000012 0.000000
0.000023 -0.000277 0.000204 0.000000
-0.000353 -0.000827 -0.001197 0.000000
0.000194 -0.002402 -0.000699 0.000000
0.001302 -0.002208 0.000385 0.000000
-0.000056 -0.000260 0.000013 0.000000
-0.000013 -0.000198 0.000028 0.000000
0.003193 -0.004108 0.003271 0.000000
-0.000076 -0.000208 0.000237 0.000000
0.001430 -0.002948 -0.000932 0.000000
0.000391 -0.001275 -0.001089 0.000000
-0.000011 -0.000217 0.000198 0.000000
0.000044 -0.000355 0.000039 0.000000
0.000004 -0.000388 0.000012 0.000000
0.000032 -0.000374 0.000020 0.000000
0.000016 -0.000376 0.000019 0.000000
0.000023 -0.000383 0.000008 0.000000
0.000008 -0.000385 0.000003 0.000000
0.001524 -0.002791 0.001658 0.000000
-0.000005 -0.000323 -0.000022 0.000000
0.000047 -0.000360 0.000040 0.000000
0.000035 -0.000307 0.000092 0.000000
0.000025 -0.000385 0.000006 0.000000
0.000050 -0.000408 -0.000003 0.000000
0.000056 -0.000310 0.000067 0.000000
-0.001378 0.000059 0.007544 0.000000
0.000062 -0.000292 0.000074 0.000000
-0.000256 -0.000576 -0.000246 0.000000
0.000048 -0.000267 0.000045 0.000000
0.000090 -0.000419 0.000143 0.000000
0.000025 -0.000898 0.000566 0.000000
-0.000912 -0.000359 0.000110 0.000000
0.000042 -0.000362 -0.000048 0.000000
0.000004 -0.000298 -0.000187 0.000000
-0.000046 -0.000337 -0.000121 0.000000
-0.000033 -0.000183 -0.000004 0.000000
-0.000007 -0.000285 0.000013 0.000000
0.000016 -0.000324 -0.000085 0.000000
0.000020 -0.000345 -0.000036 0.000000
-0.000312 -0.000521 -0.000289 0.000000
-0.000015 -0.000307 -0.000038 0.000000
-0.000009 -0.000328 -0.000172 0.000000
-0.000217 -0.000574 -0.000294 0.000000
0.000003 -0.000292 0.000002 0.000000
0.000810 -0.002547 0.000484 0.000000
-0.000609 -0.001147 0.000501 0.000000
0.000717 -0.002162 0.000321 0.000000
0.000007 -0.000397 0.000225 0.000000
0.000018 -0.000428 0.000157 0.000000
-0.000244 -0.001893 0.001203 0.000000
-0.000080 -0.000239 -0.000070 0.000000
0.001953 -0.004139 -0.003670 0.000000
-0.000501 -0.002121 0.001187 0.000000
-0.000309 -0.001318 -0.000140 0.000000
-0.000078 -0.000282 0.000070 0.000000
-0.000030 -0.000391 -0.000218 0.000000
0.000013 -0.000314 -0.000018 0.000000
-0.000571 -0.001060 -0.000373 0.000000
0.001545 -0.003433 0.002167 0.000000
0.002092 -0.004054 0.000364 0.000000
-0.000030 -0.000404 -0.000195 0.000000
0.000633 -0.001824 0.000502 0.000000
0.000594 -0.002526 0.000149 0.000000
0.000002 -0.000373 -0.000041 0.000000
0.000027 -0.000397 -0.000007 0.000000
-0.000033 -0.000272 0.000030 0.000000
-0.000018 -0.000269 0.000002 0.000000
-0.000013 -0.000390 -0.000109 0.000000
-0.000500 -0.001333 -0.000371 0.000000
0.000029 -0.000405 0.000041 0.000000
-0.000082 -0.000228 -0.000047 0.000000
-0.000657 -0.001341 -0.000077 0.000000
-0.000411 -0.000449 0.000068 0.000000
0.000562 -0.002704 -0.000774 0.000000
-0.000000 -0.000307 0.000008 0.000000
0.000027 -0.000389 0.000038 0.000000
-0.000074 -0.000436 0.000238 0.000000
0.000032 -0.000372 0.000011 0.000000
0.000042 -0.000373 0.000012 0.000000
0.000015 -0.000336 0.000017 0.000000
-0.000018 -0.000274 0.000014 0.000000
0.000044 -0.000373 0.000016 0.000000
0.000030 -0.000368 0.000018 0.000000
0.000038 -0.000382 0.000019 0.000000
0.000044 -0.000378 0.000019 0.000000
0.000551 -0.001132 -0.003500 0.000000
0.000043 -0.000377 0.000019 0.000000
0.000037 -0.000365 0.000029 0.000000
0.000452 -0.002461 -0.000506 0.000000
-0.000025 -0.000248 0.000028 0.000000
-0.000011 -0.000218 0.000038 0.000000
-0.000247 -0.000776 -0.000227 0.000000
0.000038 -0.000371 0.000011 0.000000
0.000053 -0.000251 -0.000028 0.000000
0.000037 -0.000354 -0.000005 0.000000
0.000045 -0.000373 0.000019 0.000000
0.000191 -0.002056 0.000821 0.000000
-0.000378 -0.000581 0.000172 0.000000
0.000024 -0.000354 -0.000046 0.000000
0.000022 -0.000329 0.000035 0.000000
-0.000625 -0.000527 0.000115 0.000000
0.000054 -0.000324 0.000067 0.000000
0.000053 -0.000391 0.000011 0.000000
-0.000025 -0.000280 0.000088 0.000000
0.001018 -0.001805 0.001046 0.000000
-0.000037 -0.000180 0.000000 0.000000
-0.000032 -0.000186 -0.000021 0.000000
0.000314 -0.001047 -0.002910 0.000000
0.000018 -0.000325 0.000058 0.000000
0.000800 -0.000936 -0.000252 0.000000
-0.000027 -0.000166 -0.000053 0.000000
0.000657 -0.002626 0.003208 0.000000
0.000000 -0.000309 -0.000063 0.000000
0.000369 -0.001973 -0.000043 0.000000
0.000031 -0.000278 0.000001 0.000000
0.000037 -0.000353 -0.000034 0.000000
-0.000458 -0.000614 0.000601 0.000000
-0.000038 -0.000189 0.000225 0.000000
0.000127 -0.001106 0.004049 0.000000
0.000454 -0.001777 -0.000047 0.000000
-0.000035 -0.000150 0.000067 0.000000
0.000331 -0.001733 -0.000182 0.000000
-0.000028 -0.000144 0.000080 0.000000
-0.000054 -0.000144 0.000189 0.000000
-0.000008 -0.000070 -0.000057 0.000000
0.000024 -0.000088 -0.000006 0.000000
-0.000020 -0.000201 0.000042 0.000000
-0.000091 -0.001108 -0.000123 0.000000
0.000024 -0.001342 -0.000559 0.000000
-0.000018 -0.000222 0.000024 0.000000
0.000156 -0.000496 0.000522 0.000000
-0.000047 -0.000154 0.000077 0.000000
-0.000001 -0.000184 -0.000017 0.000000
0.000585 -0.001711 0.000385 0.000000
0.000004 -0.000208 -0.000056 0.000000
-0.000000 -0.000142 -0.000021 0.000000
0.000866 -0.001718 0.001424 0.000000
0.000105 -0.000185 0.000044 0.000000
0.000513 -0.001381 0.001139 0.000000
0.000372 -0.001259 0.000135 0.000000
0.000917 -0.002034 -0.000920 0.000000
-0.000060 -0.000103 -0.000121 0.000000
-0.000016 -0.000149 -0.000027 0.000000
-0.000002 -0.000166 -0.000049 0.000000
0.000104 -0.000163 -0.000063 0.000000
0.000002 -0.000195 -0.000089 0.000000
-0.000034 -0.000353 -0.000815 0.000000
-0.000014 -0.000124 0.000003 0.000000
0.000016 -0.000164 0.000086 0.000000
0.000199 -0.000698 0.000008 0.000000
-0.000020 -0.000148 -0.000096 0.000000
0.000554 -0.001326 -0.000619 0.000000
0.000263 -0.001413 0.000738 0.000000
0.000034 -0.000190 0.000047 0.000000
-0.000199 -0.000498 -0.000440 0.000000
0.000609 -0.000982 0.000005 0.000000
0.000965 -0.001426 0.001992 0.000000
0.000872 -0.003070 0.000438 0.000000
-0.000351 -0.000330 0.000137 0.000000
-0.000397 -0.000744 0.000453 0.000000
0.000028 -0.000116 -0.000006 0.000000
0.001220 -0.002462 0.001081 0.000000
0.000003 -0.000191 -0.000094 0.000000
0.000359 -0.001282 -0.000943 0.000000
-0.000113 -0.000409 -0.000018 0.000000
0.000044 -0.000131 0.000015 0.000000
-0.000271 -0.000354 0.000079 0.000000
-0.000129 -0.000627 -0.000325 0.000000
0.000008 -0.000148 0.000063 0.000000
-0.000015 -0.000164 -0.000053 0.000000
-0.000116 -0.000412 -0.000085 0.000000
0.000188 -0.001138 -0.000915 0.000000
-0.000034 -0.000510 0.000147 0.000000
0.000036 -0.000107 -0.000037 0.000000
0.000053 -0.000113 -0.000023 0.000000
0.000664 -0.000921 -0.000082 0.000000
-0.000024 -0.000217 -0.000141 0.000000
0.000339 -0.000694 -0.000124 0.000000
-0.000003 -0.000070 -0.000022 0.000000
0.000038 -0.000119 -0.000051 0.000000
0.000014 -0.000067 0.000017 0.000000
0.000436 -0.000506 0.000340 0.000000
0.000350 -0.000400 0.000068 0.000000
0.000024 -0.000116 0.000082 0.000000
0.000352 -0.000419 -0.000013 0.000000
0.000605 -0.000743 0.000191 0.000000
0.000013 -0.000037 -0.000045 0.000000
0.000228 -0.000324 0.000213 0.000000
0.000013 -0.000027 0.000042 0.000000
0.000088 -0.000308 -0.000097 0.000000
0.000014 -0.000068 0.000016 0.000000
0.000098 -0.000183 -0.000001 0.000000
0.000059 -0.000130 -0.000082 0.000000
0.000192 -0.000482 0.000013 0.000000
0.000013 -0.000021 0.000005 0.000000
0.000032 -0.000251 0.000013 0.000000
0.000027 -0.000164 0.000053 0.000000
0.001807 -0.001457 -0.000745 0.000000
0.000032 -0.000073 0.000083 0.000000
-0.000041 -0.000141 -0.000112 0.000000
0.000195 -0.000191 -0.000075 0.000000
0.001018 -0.001021 0.000741 0.000000
0.000031 -0.000047 0.000010 0.000000
0.000099 -0.000206 -0.000127 0.000000
0.001333 -0.001251 0.000835 0.000000
0.001228 -0.001176 0.000785 0.000000
0.000016 -0.000043 -0.000008 0.000000
0.000019 -0.000039 0.000003 0.000000
0.001540 -0.001562 0.002338 0.000000
0.000386 -0.000513 -0.000404 0.000000
0.000010 -0.000043 -0.000010 0.000000
0.000005 -0.000049 0.000018 0.000000
0.000262 -0.000426 -0.000251 0.000000
0.000927 -0.001312 0.000599 0.000000
0.002172 -0.002498 -0.002154 0.000000
0.000003 -0.000053 -0.000008 0.000000
-0.000016 -0.000412 0.000286 0.000000
0.002241 -0.002197 0.003115 0.000000
0.000271 -0.000467 -0.000188 0.000000
0.000006 -0.000141 -0.000010 0.000000
-0.000009 -0.000138 -0.000007 0.000000
0.000015 -0.000135 0.000007 0.000000
0.000009 -0.000132 0.000000 0.000000
0.000002 -0.000153 -0.000023 0.000000
-0.000042 -0.000110 -0.000075 0.000000
-0.000014 -0.000167 -0.000065 0.000000
-0.000013 -0.000182 -0.000087 0.000000
0.002634 -0.002790 -0.001445 0.000000
0.002827 -0.003337 0.000843 0.000000
0.001096 -0.001619 0.001924 0.000000
0.000015 -0.000054 -0.000009 0.000000
0.000083 -0.000199 0.000132 0.000000
0.000056 -0.000122 0.000047 0.000000
0.000047 -0.000155 0.000216 0.000000
0.000058 -0.000117 -0.000007 0.000000
0.000166 -0.000198 -0.000155 0.000000
-0.000002 -0.000079 -0.000071 0.000000
0.000033 -0.000099 0.000011 0.000000
0.000017 -0.000310 -0.000034 0.000000
0.000055 -0.000112 0.000001 0.000000
0.000019 -0.000035 -0.000012 0.000000
-0.000008 -0.000093 0.000062 0.000000
0.000010 -0.000037 0.000038 0.000000
-0.000007 -0.000107 0.000019 0.000000
0.000051 -0.000102 -0.000012 0.000000
0.000355 -0.000583 -0.000117 0.000000
0.000681 -0.000840 0.000674 0.000000
0.001263 -0.001753 0.000088 0.000000
0.000500 -0.000577 0.000125 0.000000
0.000372 -0.000195 -0.000026 0.000000
0.000007 -0.000102 -0.000001 0.000000
0.000531 -0.000624 -0.000041 0.000000
0.000022 -0.000176 0.000146 0.000000
0.000018 -0.000036 -0.000011 0.000000
0.000007 -0.000065 -0.000024 0.000000
0.000025 -0.000024 -0.000047 0.000000
0.000016 -0.000048 -0.000031 0.000000
0.000019 -0.000323 0.000073 0.000000
0.000013 -0.000057 -0.000036 0.000000
0.000072 -0.000114 -0.000123 0.000000
0.002674 -0.003025 0.002641 0.000000
0.000073 -0.000112 -0.000138 0.000000
0.000795 -0.001114 0.000641 0.000000
0.001904 -0.002468 0.000307 0.000000
0.000076 -0.000144 0.000015 0.000000
0.000002 -0.000064 0.000035 0.000000
0.001359 -0.000993 0.000304 0.000000
0.000014 -0.000079 -0.000027 0.000000
0.002650 -0.002798 0.001950 0.000000
0.000060 -0.000149 -0.000064 0.000000
0.000034 -0.000027 -0.000029 0.000000
0.000030 -0.000201 0.000320 0.000000
0.000034 -0.000052 -0.000020 0.000000
0.000086 -0.000159 -0.000008 0.000000
-0.000059 -0.000119 0.000086 0.000000
-0.000005 -0.000071 -0.000010 0.000000
0.000008 -0.000058 0.000035 0.000000
0.000038 -0.000136 -0.000034 0.000000
0.000016 -0.000078 0.000048 0.000000
0.000042 -0.000093 0.000056 0.000000
0.000020 -0.000112 -0.000006 0.000000
0.000066 -0.000130 -0.000041 0.000000
0.000135 -0.000168 0.000047 0.000000
0.002520 -0.003006 0.003179 0.000000
0.000068 -0.000204 0.000236 0.000000
0.000163 -0.000193 -0.000022 0.000000
0.000702 -0.000669 -0.000625 0.000000
0.000148 -0.000223 -0.000211 0.000000
0.000208 -0.000227 -0.000219 0.000000
0.000051 -0.000111 0.000023 0.000000
0.000085 -0.000144 0.000036 0.000000
0.000027 -0.000074 -0.000086 0.000000
0.000016 -0.000125 -0.000135 0.000000
0.001125 -0.001620 0.000910 0.000000
0.000054 -0.000085 -0.000032 0.000000
0.003767 -0.003910 -0.001358 0.000000
0.000109 -0.000133 -0.000013 0.000000
0.000150 -0.000860 0.000452 0.000000
0.003783 -0.004225 0.001910 0.000000
0.000570 -0.001387 -0.003127 0.000000
0.001412 -0.002231 0.000664 0.000000
-0.000027 -0.000164 -0.000012 0.000000
0.000074 -0.000876 0.000521 0.000000
0.000080 -0.001453 -0.000975 0.000000
0.000011 -0.000298 0.000093 0.000000
0.000017 -0.000133 -0.000074 0.000000
-0.000018 -0.000120 -0.000141 0.000000
0.000057 -0.000111 0.000026 0.000000
0.000116 -0.000173 -0.000103 0.000000
0.000008 -0.000119 -0.000045 0.000000
0.000051 -0.000122 -0.000333 0.000000
0.002626 -0.001097 0.005872 0.000000
0.000124 -0.000209 0.000007 0.000000
0.001847 -0.002602 0.008146 0.000000
0.000114 -0.000175 -0.000216 0.000000
-0.000019 -0.000140 0.000149 0.000000
0.000166 -0.000940 -0.000297 0.000000
0.000032 -0.000174 0.000199 0.000000
0.000135 -0.000245 0.000203 0.000000
0.000019 -0.000096 0.000236 0.000000
0.000016 -0.000262 0.000132 0.000000
0.000049 -0.000149 0.000202 0.000000
0.000024 -0.000363 -0.000059 0.000000
-0.000675 -0.000200 0.000205 0.000000
0.000196 -0.001899 0.004620 0.000000
0.000913 -0.003170 0.002618 0.000000
0.000097 -0.000181 -0.000262 0.000000
0.000898 -0.001884 -0.001242 0.000000
-0.000040 -0.000273 0.000063 0.000000
0.000942 -0.001998 0.000596 0.000000
0.000023 -0.000313 0.000059 0.000000
0.000866 -0.002472 -0.001101 0.000000
0.002529 -0.003605 0.008374 0.000000
0.000047 -0.000152 0.000201 0.000000
0.000671 -0.001927 0.001785 0.000000
0.001447 -0.002375 -0.000539 0.000000
-0.000057 -0.000143 0.000261 0.000000
0.000808 -0.001957 -0.002794 0.000000
-0.000004 -0.001229 -0.000661 0.000000
-0.000024 -0.001038 -0.002570 0.000000
-0.000011 -0.001282 -0.000585 0.000000
0.002308 -0.004925 0.007405 0.000000
0.000047 -0.000344 0.000051 0.000000
0.001062 -0.002233 0.002703 0.000000
0.000026 -0.000310 0.000060 0.000000
0.000026 -0.000316 0.000069 0.000000
-0.000059 -0.000248 0.000093 0.000000
-0.000004 -0.000267 0.000069 0.000000
-0.000042 -0.000242 -0.000056 0.000000
0.000885 -0.001895 0.003871 0.000000
0.000023 -0.000175 0.000049 0.000000
-0.000028 -0.000156 -0.000142 0.000000
0.001111 -0.002403 -0.000122 0.000000
-0.000024 -0.000143 -0.000142 0.000000
0.000009 -0.000217 -0.000050 0.000000
0.000010 -0.000144 0.000047 0.000000
0.000312 -0.000990 0.000557 0.000000
-0.000019 -0.000158 0.000045 0.000000
0.000815 -0.001211 0.001075 0.000000
0.003533 -0.004801 0.005227 0.000000
0.003407 -0.005458 0.003977 0.000000
-0.000001 -0.000183 0.000045 0.000000
-0.000004 -0.000182 0.000047 0.000000
0.004307 -0.005391 0.001789 0.000000
-0.000028 -0.000211 0.000062 0.000000
-0.000099 -0.000253 0.000166 0.000000
0.000007 -0.000352 0.000202 0.000000
0.001159 -0.002284 0.001328 0.000000
-0.000119 -0.000178 0.000048 0.000000
0.002849 -0.004651 0.004004 0.000000
0.004868 -0.005881 0.005174 0.000000
-0.000067 -0.000196 0.000111 0.000000
-0.000033 -0.000189 0.000024 0.000000
0.000369 -0.001833 0.002457 0.000000
-0.000057 -0.000139 0.000127 0.000000
-0.000105 -0.001012 0.000653 0.000000
0.001240 -0.002503 0.003415 0.000000
0.000087 -0.001342 0.000798 0.000000
0.001577 -0.002734 0.005227 0.000000
0.001718 -0.002807 0.004807 0.000000
0.002096 -0.003560 0.004991 0.000000
0.002690 -0.004040 0.001448 0.000000
-0.000089 -0.000163 0.000159 0.000000
-0.000145 -0.000219 0.000237 0.000000
-0.000493 -0.001936 0.002043 0.000000
-0.000313 -0.001222 0.000352 0.000000
-0.000125 -0.000200 0.000195 0.000000
-0.000504 -0.000747 0.001506 0.000000
-0.000138 -0.000190 0.000238 0.000000
-0.000111 -0.000090 0.000217 0.000000
-0.000159 -0.000149 0.000247 0.000000
-0.000099 -0.000127 0.000100 0.000000
-0.000529 -0.000615 0.001433 0.000000
-0.000154 -0.001320 0.001059 0.000000
-0.000099 -0.000141 0.000154 0.000000
-0.000793 -0.000285 0.003769 0.000000
-0.000052 -0.000216 0.000145 0.000000
-0.000605 -0.000778 0.001685 0.000000
-0.000058 -0.000163 0.000329 0.000000
-0.000052 -0.000116 0.000123 0.000000
-0.000122 -0.000137 0.000177 0.000000
-0.000066 -0.000144 0.000136 0.000000
-0.000012 -0.000122 0.000111 0.000000
-0.000120 -0.000136 0.000049 0.000000
-0.000033 -0.000139 0.000141 0.000000
-0.000090 -0.000123 0.000100 0.000000
-0.000606 -0.000421 0.002936 0.000000
-0.000102 -0.000110 0.000262 0.000000
-0.000012 -0.000111 0.000157 0.000000
0.000152 -0.001251 0.001236 0.000000
-0.000054 -0.000112 0.000406 0.000000
-0.000021 -0.000130 0.000174 0.000000
0.000147 0.000410 0.001112 0.000000
-0.000020 -0.000109 0.000179 0.000000
-0.000037 -0.000013 0.000249 0.000000
0.000340 -0.001076 0.001819 0.000000
0.000998 -0.001849 0.003056 0.000000
-0.000034 -0.000099 0.000128 0.000000
-0.000026 -0.000137 0.000136 0.000000
-0.000079 -0.000105 0.000140 0.000000
-0.000006 -0.000208 0.000067 0.000000
-0.000108 -0.000118 0.000156 0.000000
-0.000128 -0.000128 0.000212 0.000000
0.002888 -0.005139 0.007178 0.000000
-0.000182 -0.000580 -0.000343 0.000000
-0.000076 -0.000104 0.000175 0.000000
0.000704 -0.001450 0.002552 0.000000
-0.000000 -0.000142 0.000058 0.000000
-0.000035 -0.000183 0.000026 0.000000
-0.000018 -0.000190 0.000050 0.000000
0.000453 -0.001290 0.000892 0.000000
-0.000024 -0.000315 -0.000096 0.000000
0.000339 -0.001053 0.001789 0.000000
-0.000298 -0.000519 0.000304 0.000000
0.000690 -0.001438 0.001302 0.000000
-0.000011 -0.000178 0.000045 0.000000
0.000051 -0.000876 0.000413 0.000000
0.000320 -0.001197 0.001415 0.000000
0.000570 -0.001295 0.003250 0.000000
0.000026 -0.000144 0.000092 0.000000
0.000427 -0.001031 0.001199 0.000000
-0.000194 -0.000266 -0.000243 0.000000
0.000842 -0.001306 0.002388 0.000000
0.000641 -0.000945 0.004827 0.000000
-0.000016 -0.000077 0.000040 0.000000
-0.000010 -0.000156 0.000049 0.000000
0.000006 -0.000143 0.000049 0.000000
0.000004 -0.000209 0.000069 0.000000
0.000209 -0.000683 0.000063 0.000000
-0.000022 -0.000086 0.000045 0.000000
0.000990 -0.001013 0.000998 0.000000
-0.000016 -0.000077 0.000045 0.000000
0.000019 -0.000071 -0.000014 0.000000
0.001266 -0.001818 0.000902 0.000000
-0.000006 -0.000088 0.000017 0.000000
-0.000032 -0.000076 0.000031 0.000000
0.000725 -0.000797 0.003340 0.000000
0.000011 -0.000076 0.000005 0.000000
-0.000019 -0.000052 0.000070 0.000000
0.000009 -0.000091 0.000003 0.000000
0.000031 0.000020 0.000322 0.000000
-0.000018 -0.000083 0.000040 0.000000
-0.000013 -0.000064 0.000035 0.000000
0.000543 -0.000596 0.002852 0.000000
-0.000043 -0.000266 0.001407 0.000000
0.000297 -0.000502 0.002698 0.000000
-0.000421 0.000246 0.002867 0.000000
0.000468 -0.001002 0.004757 0.000000
0.001092 -0.001249 0.004893 0.000000
-0.000113 0.000015 0.000215 0.000000
-0.000039 -0.000087 0.000141 0.000000
0.000477 -0.000632 0.004657 0.000000
0.000332 -0.000571 0.003329 0.000000
0.000118 -0.000373 0.000579 0.000000
-0.000122 -0.000304 0.000475 0.000000
-0.000122 -0.000019 0.000320 0.000000
-0.000022 -0.000037 0.000060 0.000000
0.000094 -0.000198 0.001583 0.000000
-0.000033 -0.000046 0.000069 0.000000
-0.000104 -0.000182 0.001120 0.000000
-0.000021 -0.000029 0.000066 0.000000
-0.000064 0.000045 0.000344 0.000000
-0.000204 0.000046 0.000667 0.000000
0.000043 -0.000311 0.001183 0.000000
-0.000205 -0.000261 0.000580 0.000000
-0.000052 0.000017 0.000127 0.000000
0.000166 -0.000209 0.001146 0.000000
0.000968 -0.001790 0.006678 0.000000
0.000725 -0.001179 0.002766 0.000000
-0.000045 -0.000061 0.000105 0.000000
-0.000089 -0.000426 0.002157 0.000000
0.000652 -0.001141 0.002721 0.000000
0.000829 -0.001623 0.002563 0.000000
0.000004 -0.000147 0.000152 0.000000
-0.000065 -0.000801 0.002942 0.000000
-0.000018 -0.000120 0.000103 0.000000
-0.000024 -0.000134 0.000211 0.000000
-0.000007 -0.000118 0.000251 0.000000
-0.000057 -0.000033 0.000087 0.000000
0.000422 -0.000213 0.002878 0.000000
-0.000290 -0.000053 0.001220 0.000000
-0.000111 -0.000066 0.000194 0.000000
-0.000066 -0.000153 0.000202 0.000000
0.000037 -0.000112 0.000226 0.000000
-0.000427 0.000288 0.001070 0.000000
-0.000084 -0.000176 0.000248 0.000000
-0.002009 0.001241 0.004611 0.000000
-0.000055 -0.000031 0.000097 0.000000
-0.000077 -0.000181 0.000231 0.000000
-0.000028 -0.000027 0.000119 0.000000
-0.000036 -0.000066 0.000263 0.000000
-0.000156 -0.000045 0.000168 0.000000
-0.000009 -0.000020 0.000122 0.000000
-0.000058 -0.000006 0.000115 0.000000
-0.000086 -0.000138 0.000881 0.000000
-0.000320 0.000196 0.000684 0.000000
-0.000054 -0.000013 0.000083 0.000000
-0.000441 -0.000509 0.002301 0.000000
-0.000011 -0.000049 0.000112 0.000000
-0.000339 -0.000054 0.003100 0.000000
-0.000625 -0.000467 0.001565 0.000000
-0.000200 0.000104 0.001012 0.000000
-0.000132 0.000052 0.000576 0.000000
-0.000052 -0.000124 0.000369 0.000000
-0.000072 -0.000042 0.000289 0.000000
-0.000008 -0.000234 0.000133 0.000000
-0.000044 -0.000056 0.000159 0.000000
-0.000044 -0.000073 0.000184 0.000000
-0.000344 -0.000173 0.000217 0.000000
-0.000225 -0.000215 0.000168 0.000000
-0.000137 -0.000262 0.000383 0.000000
-0.000180 0.000080 0.002251 0.000000
-0.000178 -0.000062 0.001169 0.000000
-0.000087 -0.000091 0.000127 0.000000
-0.000086 -0.000053 0.000142 0.000000
-0.000088 -0.000037 0.000782 0.000000
-0.000019 -0.000061 0.000141 0.000000
-0.000675 0.000573 0.001939 0.000000
-0.000021 -0.000061 0.000060 0.000000
-0.000148 0.000071 0.000003 0.000000
-0.000109 0.000002 -0.000054 0.000000
-0.000038 -0.000066 -0.000039 0.000000
-0.000042 0.000007 -0.000014 0.000000
-0.000029 -0.000020 -0.000013 0.000000
-0.000033 -0.000004 -0.000004 0.000000
-0.000353 0.000222 0.000026 0.000000
-0.000508 0.000232 0.000113 0.000000
-0.000411 0.000211 0.000024 0.000000
-0.000537 0.000337 0.003455 0.000000
-0.000049 -0.000027 0.000126 0.000000
-0.000076 -0.000017 0.000131 0.000000
-0.000114 0.000006 0.000074 0.000000
-0.000208 0.000029 0.000060 0.000000
-0.000032 -0.000021 0.000077 0.000000
-0.000100 0.000003 0.000015 0.000000
-0.000042 -0.000003 0.000026 0.000000
-0.000250 0.000131 0.000003 0.000000
-0.000033 -0.000009 0.000017 0.000000
-0.000022 -0.000010 0.000000 0.000000
-0.000102 -0.000082 -0.000007 0.000000
-0.000052 -0.000177 0.000008 0.000000
-0.000071 -0.000019 0.000028 0.000000
-0.000116 -0.000072 -0.000146 0.000000
-0.000099 0.000028 -0.000016 0.000000
-0.000331 0.000154 -0.000005 0.000000
-0.000444 0.000407 0.000007 0.000000
-0.000180 -0.000023 -0.000264 0.000000
-0.000046 -0.000002 -0.000003 0.000000
-0.000469 0.000292 0.000157 0.000000
-0.000594 0.000213 -0.000294 0.000000
-0.000046 0.000002 -0.000015 0.000000
-0.000098 -0.000014 -0.000029 0.000000
-0.000073 -0.000031 0.000147 0.000000
-0.000122 0.000084 0.000884 0.000000
-0.000373 0.000164 0.000579 0.000000
-0.000079 -0.000141 0.000256 0.000000
-0.000113 -0.000096 0.000377 0.000000
-0.001134 0.000400 0.003618 0.000000
-0.001664 0.000789 0.003235 0.000000
-0.001514 0.000737 0.003091 0.000000
0.000034 -0.000240 0.000381 0.000000
-0.000087 -0.000026 0.000151 0.000000
-0.000021 -0.000029 0.000075 0.000000
-0.000160 -0.000000 0.000086 0.000000
-0.000483 0.000317 0.001001 0.000000
-0.000705 0.000624 -0.000259 0.000000
-0.000425 0.000079 0.000326 0.000000
-0.000492 0.000257 0.000165 0.000000
-0.000064 0.000002 0.000006 0.000000
-0.000442 0.000023 0.000212 0.000000
-0.000060 -0.000049 0.000164 0.000000
-0.000561 0.000276 -0.000037 0.000000
-0.000106 -0.000003 -0.000015 0.000000
-0.001721 0.000822 0.003244 0.000000
-0.000054 -0.000132 0.000208 0.000000
-0.000135 -0.000015 0.000152 0.000000
-0.000070 -0.000018 0.000122 0.000000
-0.000042 -0.000125 0.000167 0.000000
-0.000074 -0.000153 0.000321 0.000000
-0.000110 -0.000059 0.000098 0.000000
-0.000052 -0.000223 0.000233 0.000000
-0.000091 -0.000060 0.000100 0.000000
-0.001471 0.000501 0.003057 0.000000
-0.001138 0.000959 -0.000378 0.000000
-0.000055 -0.000006 -0.000016 0.000000
-0.000434 0.000145 -0.000003 0.000000
-0.000158 -0.000003 0.000093 0.000000
-0.000491 0.000016 -0.000074 0.000000
-0.000107 -0.000004 -0.000009 0.000000
-0.000619 0.000443 0.000017 0.000000
-0.000455 0.000027 -0.000088 0.000000
-0.000096 -0.000073 0.000113 0.000000
-0.000660 0.000434 -0.000027 0.000000
-0.000072 0.000000 -0.000018 0.000000
-0.000752 0.000254 -0.000474 0.000000
-0.000082 0.000003 0.000011 0.000000
-0.000085 -0.000033 -0.000000 0.000000
-0.000067 -0.000029 0.000010 0.000000
-0.000014 -0.000590 0.000096 0.000000
-0.000533 0.000200 0.000139 0.000000
-0.000312 -0.000308 0.000660 0.000000
-0.000409 -0.000107 0.000080 0.000000
-0.000088 -0.000031 0.000008 0.000000
-0.000037 -0.000038 0.000024 0.000000
-0.000085 -0.000057 -0.000021 0.000000
-0.000035 -0.000066 0.000037 0.000000
-0.000031 -0.000009 0.000016 0.000000
-0.000131 -0.000386 0.000212 0.000000
-0.000017 -0.000050 -0.000025 0.000000
-0.000045 -0.000069 0.000035 0.000000
-0.000034 -0.000038 0.000023 0.000000
-0.000044 -0.000046 0.000037 0.000000
-0.000041 -0.000080 0.000035 0.000000
-0.000040 -0.000066 0.000036 0.000000
-0.000042 -0.000060 0.000030 0.000000
-0.000097 -0.000328 0.000163 0.000000
-0.000008 -0.000087 -0.000018 0.000000
-0.000029 -0.000440 0.000014 0.000000
-0.000118 -0.000223 0.000026 0.000000
-0.000138 -0.000303 -0.000028 0.000000
-0.000106 -0.000279 -0.000015 0.000000
0.000157 -0.000734 -0.000061 0.000000
-0.000122 -0.000271 -0.000006 0.000000
-0.000180 -0.000374 -0.000083 0.000000
-0.000108 -0.000323 -0.000038 0.000000
-0.000029 -0.000113 0.000015 0.000000
-0.000060 -0.000503 0.001005 0.000000
-0.000038 -0.000099 -0.000014 0.000000
-0.000014 -0.000495 -0.000235 0.000000
-0.000031 -0.000119 0.000054 0.000000
-0.000046 -0.000512 -0.000193 0.000000
-0.000009 -0.000210 0.000125 0.000000
-0.000031 -0.000100 0.000002 0.000000
-0.000042 -0.000089 0.000043 0.000000
-0.000037 -0.000060 0.000034 0.000000
-0.000043 -0.000075 0.000048 0.000000
-0.000042 -0.000076 0.000037 0.000000
-0.000041 -0.000086 0.000012 0.000000
0.000080 -0.000501 0.000189 0.000000
-0.000394 -0.000194 0.000298 0.000000
0.000120 -0.001049 0.001064 0.000000
-0.000058 -0.000065 0.000066 0.000000
-0.000437 -0.000116 0.000413 0.000000
-0.000106 -0.000302 -0.000229 0.000000
-0.000332 -0.000431 0.000062 0.000000
-0.000068 -0.000547 0.000480 0.000000
-0.000053 -0.000448 -0.000198 0.000000
-0.000089 -0.000075 0.000065 0.000000
-0.000479 -0.000040 0.000184 0.000000
-0.000062 -0.000094 0.000078 0.000000
-0.000415 -0.000248 0.000401 0.000000
-0.001169 0.000482 0.001377 0.000000
-0.000136 -0.000000 -0.000025 0.000000
-0.000070 -0.000065 0.000031 0.000000
-0.000491 -0.000031 0.000250 0.000000
-0.000131 -0.000236 0.000031 0.000000
-0.000209 -0.000383 -0.000426 0.000000
-0.000065 -0.000006 0.000007 0.000000
-0.000237 -0.000375 0.000534 0.000000
-0.000317 -0.000047 0.000265 0.000000
-0.000428 0.000022 0.000314 0.000000
-0.000045 -0.000046 0.000051 0.000000
-0.000191 -0.000286 0.000048 0.000000
-0.000229 -0.000165 0.000149 0.000000
-0.000399 -0.000012 0.000003 0.000000
-0.000232 -0.000158 0.000114 0.000000
-0.000083 -0.000011 0.000027 0.000000
-0.000106 -0.000016 0.000016 0.000000
-0.000488 -0.000045 -0.000101 0.000000
-0.000560 0.000094 0.000071 0.000000
-0.000430 -0.000142 -0.000151 0.000000
-0.000483 0.000060 0.000092 0.000000
-0.000439 -0.000126 0.000402 0.000000
-0.000171 -0.000016 0.000135 0.000000
-0.000115 0.000003 0.000013 0.000000
-0.001193 0.000527 0.000602 0.000000
-0.000161 -0.000020 0.000094 0.000000
-0.000167 -0.000025 0.000144 0.000000
-0.000087 0.000004 -0.000002 0.000000
-0.000110 -0.000016 0.000017 0.000000
-0.000555 -0.000291 0.000225 0.000000
-0.001609 0.000662 0.004036 0.000000
-0.000733 -0.000829 0.001350 0.000000
-0.000152 -0.000062 0.000111 0.000000
-0.000175 -0.000170 0.000313 0.000000
-0.000156 -0.000018 0.000094 0.000000
-0.000084 -0.000033 0.000160 0.000000
-0.000131 -0.000041 0.000066 0.000000
-0.000770 -0.000074 0.000269 0.000000
-0.001547 0.000675 0.004169 0.000000
-0.001651 0.000789 0.003292 0.000000
-0.000109 -0.000065 0.000079 0.000000
-0.000109 -0.000059 0.000102 0.000000
-0.000037 -0.000296 0.000172 0.000000
-0.000065 -0.000252 0.000161 0.000000
-0.000033 -0.000205 0.000074 0.000000
0.000392 -0.001627 0.004295 0.000000
0.000174 -0.001948 0.003692 0.000000
-0.000017 -0.000336 0.000103 0.000000
0.000800 -0.001654 0.001225 0.000000
0.000236 -0.001715 0.000692 0.000000
-0.000305 -0.000921 0.001233 0.000000
-0.000040 -0.000311 0.000163 0.000000
-0.000065 -0.000184 0.000214 0.000000
-0.000088 -0.000172 0.000222 0.000000
-0.001612 0.000715 0.003782 0.000000
-0.000094 -0.000145 0.000230 0.000000
-0.000057 -0.000226 0.000332 0.000000
-0.000039 -0.000169 0.000297 0.000000
-0.000089 -0.000163 0.000218 0.000000
0.000966 -0.002781 0.005867 0.000000
-0.000021 -0.000282 0.000248 0.000000
0.001612 -0.003138 0.002133 0.000000
-0.000497 -0.001014 0.002135 0.000000
0.000022 -0.000267 0.000107 0.000000
0.000911 -0.002375 0.005743 0.000000
-0.000089 -0.000195 0.000165 0.000000
-0.000026 -0.000304 0.000272 0.000000
0.000135 -0.000579 0.000351 0.000000
-0.000007 -0.000328 0.000203 0.000000
0.002514 -0.003822 0.002009 0.000000
-0.000059 -0.000226 0.000327 0.000000
-0.000079 -0.000277 0.000369 0.000000
-0.000031 -0.000215 0.000265 0.000000
-0.000513 -0.002266 0.002802 0.000000
-0.000112 -0.000064 0.000125 0.000000
-0.000121 -0.000121 0.000145 0.000000
-0.000147 -0.000082 0.000167 0.000000
-0.000134 -0.000047 0.000115 0.000000
-0.000150 -0.000057 0.000115 0.000000
-0.000142 -0.000042 0.000100 0.000000
-0.000155 -0.000085 0.000125 0.000000
-0.000173 -0.000082 0.000132 0.000000
-0.000151 -0.000060 0.000117 0.000000
-0.000141 -0.000052 0.000104 0.000000
-0.000146 -0.000056 0.000109 0.000000
-0.000135 -0.000056 0.000104 0.000000
-0.000868 -0.000250 0.000591 0.000000
-0.000151 -0.000002 0.000079 0.000000
-0.001057 -0.000081 0.001990 0.000000
0.001698 -0.001299 0.005825 0.000000
-0.001129 0.000479 0.001366 0.000000
0.000000 -0.001577 0.007219 0.000000
-0.000140 -0.000083 0.000119 0.000000
0.000649 -0.002666 0.007178 0.000000
-0.000163 -0.000081 0.000132 0.000000
0.000211 -0.001676 0.005764 0.000000
-0.000536 -0.000814 0.001026 0.000000
-0.000068 -0.001855 0.004267 0.000000
-0.000156 -0.000086 0.000175 0.000000
-0.000161 -0.000092 0.000127 0.000000
0.000412 -0.000529 0.000670 0.000000
0.000015 -0.000332 0.000359 0.000000
-0.000207 -0.001236 0.000560 0.000000
0.000003 -0.000242 0.000301 0.000000
-0.000234 -0.002238 0.002023 0.000000
0.004127 -0.005667 0.000849 0.000000
-0.000112 -0.000185 0.000232 0.000000
-0.000079 -0.000191 0.000233 0.000000
0.000032 -0.000349 0.000182 0.000000
-0.000007 -0.000282 0.000161 0.000000
-0.000279 -0.003616 0.003628 0.000000
0.001088 -0.001825 -0.003022 0.000000
0.000412 -0.002898 0.000763 0.000000
-0.000006 -0.000366 0.000107 0.000000
-0.000026 -0.000318 0.000269 0.000000
0.001239 -0.002347 0.000019 0.000000
0.001242 -0.003583 0.001919 0.000000
-0.000061 -0.000287 0.000107 0.000000
-0.000071 -0.000407 0.000419 0.000000
-0.000038 -0.000331 0.000298 0.000000
-0.000032 -0.000347 0.000253 0.000000
0.000083 -0.000319 0.000263 0.000000
0.001156 -0.003361 0.002026 0.000000
0.001434 -0.003191 0.004942 0.000000
0.000037 -0.000343 0.000255 0.000000
0.000009 -0.000350 0.000109 0.000000
0.000202 -0.002255 0.006763 0.000000
-0.000060 -0.000317 0.000269 0.000000
-0.000297 -0.001106 0.001879 0.000000
0.000009 -0.000324 0.000143 0.000000
0.000775 -0.003703 0.002398 0.000000
0.000004 -0.000404 0.000067 0.000000
0.000797 -0.002786 0.006955 0.000000
0.001513 -0.001374 -0.001055 0.000000
-0.000756 -0.001188 0.003627 0.000000
0.000440 -0.001637 0.002145 0.000000
0.000443 -0.002594 0.004651 0.000000
-0.000853 -0.000766 0.003842 0.000000
0.000069 -0.001939 0.002278 0.000000
0.000296 -0.002322 0.003936 0.000000
-0.000000 -0.001587 0.010022 0.000000
0.000016 -0.002144 0.003173 0.000000
-0.000447 -0.000833 0.001184 0.000000
0.000225 -0.001897 0.003687 0.000000
-0.000169 -0.000016 0.000242 0.000000
-0.000914 -0.000731 0.001912 0.000000
-0.001214 -0.000860 0.010702 0.000000
-0.000755 -0.000705 0.000934 0.000000
-0.000184 -0.000122 0.000361 0.000000
-0.000387 -0.001005 0.002699 0.000000
-0.000842 -0.000384 0.000739 0.000000
0.000192 -0.001167 0.011326 0.000000
-0.000446 -0.000698 0.001631 0.000000
-0.000141 -0.000073 0.000109 0.000000
0.000106 -0.001106 0.000479 0.000000
-0.000066 -0.000125 0.000086 0.000000
-0.000338 -0.000382 0.000185 0.000000
0.000000 -0.000836 0.000738 0.000000
-0.000000 -0.001394 0.005614 0.000000
-0.000265 -0.000805 0.002423 0.000000
-0.000487 -0.000760 0.003957 0.000000
-0.000565 -0.000184 0.000316 0.000000
-0.000764 -0.000536 0.001067 0.000000
-0.000130 -0.000095 0.000128 0.000000
-0.000111 -0.000124 0.000225 0.000000
-0.001106 -0.000101 0.002691 0.000000
-0.000146 -0.000063 0.000098 0.000000
-0.000689 -0.000318 0.000547 0.000000
-0.000125 -0.000094 0.000178 0.000000
-0.000626 -0.000430 0.000627 0.000000
-0.000668 -0.000317 0.000625 0.000000
-0.000751 0.000037 0.000812 0.000000
-0.000471 -0.000315 0.000581 0.000000
-0.000385 -0.000230 0.000249 0.000000
0.000000 -0.000934 0.001826 0.000000
-0.000091 -0.000077 0.000069 0.000000
-0.000342 -0.000816 0.001744 0.000000
-0.000058 -0.000094 0.000090 0.000000
-0.000021 -0.000133 0.000085 0.000000
-0.000046 -0.000116 0.000083 0.000000
-0.000072 -0.000838 0.000637 0.000000
-0.000021 -0.000725 0.000052 0.000000
-0.000043 -0.000078 0.000030 0.000000
0.000188 -0.001121 0.001046 0.000000
-0.000037 -0.000117 0.000079 0.000000
-0.000057 -0.000094 0.000083 0.000000
-0.000041 -0.000084 0.000039 0.000000
-0.000046 -0.000071 0.000038 0.000000
-0.000118 -0.000723 -0.000108 0.000000
-0.000044 -0.000078 0.000032 0.000000
-0.000026 -0.000101 0.000004 0.000000
0.000059 -0.000589 -0.000191 0.000000
-0.000012 -0.000674 0.000270 0.000000
0.000090 -0.000784 0.000105 0.000000
-0.000201 -0.000489 0.000237 0.000000
-0.000018 -0.000928 0.000220 0.000000
-0.000148 -0.000587 0.000099 0.000000
-0.000042 -0.000683 0.000272 0.000000
-0.000047 -0.000142 0.000084 0.000000
-0.000128 -0.000922 0.000001 0.000000
-0.000183 -0.000344 -0.000071 0.000000
0.000000 -0.000693 -0.002636 0.000000
-0.000050 -0.000127 0.000088 0.000000
-0.000274 -0.000366 0.000300 0.000000
0.000000 -0.000777 0.000037 0.000000
-0.000065 -0.000137 0.000117 0.000000
-0.000092 -0.000854 0.000247 0.000000
-0.000219 -0.000625 0.000413 0.000000
-0.000101 -0.000376 -0.000315 0.000000
-0.000089 -0.000703 0.000321 0.000000
0.000117 -0.000998 0.000230 0.000000
0.000052 -0.001074 0.000189 0.000000
-0.000025 -0.000130 0.000030 0.000000
0.002146 -0.004541 0.001219 0.000000
-0.000005 -0.000536 0.000179 0.000000
-0.000715 -0.001325 0.001162 0.000000
-0.000085 -0.001329 0.001443 0.000000
-0.000573 -0.000756 -0.000417 0.000000
-0.000023 -0.000592 0.000003 0.000000
0.000411 -0.001905 -0.002164 0.000000
-0.000052 -0.000577 -0.000228 0.000000
-0.000000 -0.000425 0.000082 0.000000
0.000044 -0.003990 -0.000394 0.000000
0.000001 -0.000768 -0.000191 0.000000
-0.000040 -0.000541 -0.000064 0.000000
0.000035 -0.003036 -0.001170 0.000000
0.000964 -0.003947 -0.000213 0.000000
0.000823 -0.003850 0.001308 0.000000
-0.000699 -0.002523 0.001208 0.000000
-0.001063 -0.001930 0.000677 0.000000
0.000000 -0.002749 0.001619 0.000000
-0.000883 -0.001879 0.000491 0.000000
0.000023 -0.000563 0.000155 0.000000
-0.000789 -0.000790 -0.000065 0.000000
-0.000842 -0.002488 0.000305 0.000000
-0.000031 -0.000640 -0.000143 0.000000
-0.000074 -0.000515 -0.000015 0.000000
0.002555 -0.005348 0.000015 0.000000
-0.000048 -0.000470 0.000040 0.000000
0.001305 -0.004630 0.000909 0.000000
0.000852 -0.004516 -0.000416 0.000000
-0.000025 -0.000440 -0.000051 0.000000
-0.000935 -0.001721 -0.001624 0.000000
0.000016 -0.000549 0.000147 0.000000
-0.000066 -0.000528 0.000161 0.000000
0.000016 -0.000555 0.000183 0.000000
-0.000040 -0.000457 0.000066 0.000000
-0.000798 -0.001647 0.000066 0.000000
-0.000030 -0.000539 0.000284 0.000000
-0.000299 -0.001536 0.000423 0.000000
0.000067 -0.000827 0.000231 0.000000
0.000389 -0.002230 0.001681 0.000000
-0.000241 -0.002045 0.000329 0.000000
-0.000053 -0.000518 0.000097 0.000000
-0.000021 -0.000495 0.000072 0.000000
-0.000110 -0.001968 0.001207 0.000000
0.000038 -0.000576 0.000207 0.000000
0.000032 -0.000456 0.000004 0.000000
0.002088 -0.004069 -0.003939 0.000000
-0.000055 -0.000392 -0.000109 0.000000
0.002201 -0.004013 -0.004110 0.000000
0.000249 -0.001573 -0.003170 0.000000
0.002391 -0.001688 -0.007586 0.000000
-0.000038 -0.000463 0.000001 0.000000
-0.000907 -0.000323 -0.002037 0.000000
-0.000413 -0.001361 0.000297 0.000000
0.000007 -0.000652 0.000313 0.000000
0.000155 -0.000511 0.000068 0.000000
-0.000523 -0.001284 0.000858 0.000000
-0.000494 -0.001153 0.000331 0.000000
-0.000656 -0.001336 0.000019 0.000000
-0.000622 -0.001291 0.000909 0.000000
-0.000015 -0.000532 0.000208 0.000000
-0.000806 -0.000545 0.001202 0.000000
-0.000599 -0.001296 0.000695 0.000000
0.000351 -0.002455 -0.000681 0.000000
-0.000803 -0.001463 0.001010 0.000000
0.000473 -0.003467 -0.002227 0.000000
0.000442 -0.002605 -0.000344 0.000000
0.001738 -0.004998 -0.000074 0.000000
0.001602 -0.003965 -0.004613 0.000000
-0.000022 -0.000473 0.000012 0.000000
-0.000161 -0.002131 -0.000305 0.000000
0.000441 -0.003002 0.000577 0.000000
-0.000116 -0.000322 0.000145 0.000000
0.001510 -0.004530 0.001368 0.000000
-0.000719 -0.001392 -0.000011 0.000000
-0.000714 -0.001961 0.000836 0.000000
0.000078 -0.002341 -0.000464 0.000000
0.002596 -0.004875 -0.002794 0.000000
-0.000387 -0.001309 -0.000165 0.000000
0.000338 -0.002756 0.000363 0.000000
-0.000613 -0.001540 -0.000215 0.000000
-0.000148 -0.002556 0.000828 0.000000
-0.000140 -0.001253 -0.000738 0.000000
-0.000536 -0.001278 -0.000502 0.000000
-0.000028 -0.000434 0.000161 0.000000
0.000011 -0.001532 -0.001739 0.000000
-0.000082 -0.000316 0.000009 0.000000
0.000203 -0.002455 -0.000704 0.000000
0.000012 -0.000363 0.000027 0.000000
0.000458 -0.002603 -0.000241 0.000000
0.000336 -0.002486 -0.000638 0.000000
0.000477 -0.002638 -0.000385 0.000000
-0.000149 -0.000358 0.000232 0.000000
-0.000120 -0.000321 0.000107 0.000000
0.000483 -0.002600 0.000000 0.000000
0.000534 -0.002747 0.000244 0.000000
-0.000015 -0.000543 0.000006 0.000000
-0.000015 -0.000498 0.000068 0.000000
0.000037 -0.000602 0.000204 0.000000
-0.000675 -0.000995 -0.000245 0.000000
-0.000050 -0.000390 0.000161 0.000000
0.001826 -0.004668 -0.000773 0.000000
0.000045 -0.000482 0.000094 0.000000
0.000013 -0.000480 0.000114 0.000000
0.001199 -0.003877 -0.001682 0.000000
-0.000454 -0.001387 0.000014 0.000000
-0.000279 -0.001486 -0.000241 0.000000
-0.000575 -0.001084 -0.000569 0.000000
0.000060 -0.000740 0.000088 0.000000
0.001341 -0.002918 -0.000222 0.000000
-0.000014 -0.002171 0.001085 0.000000
-0.000523 -0.001394 -0.000146 0.000000
-0.000138 -0.002054 0.001109 0.000000
0.000014 -0.000540 0.000243 0.000000
0.000354 -0.002430 0.000763 0.000000
-0.000257 -0.001848 0.000626 0.000000
-0.000008 -0.000591 0.000316 0.000000
-0.000009 -0.000518 0.000110 0.000000
-0.000693 -0.001142 -0.000366 0.000000
0.000561 -0.002240 -0.000505 0.000000
0.000051 -0.000588 0.000011 0.000000
0.000397 -0.003308 0.000372 0.000000
-0.000615 -0.001188 -0.000042 0.000000
-0.000345 -0.001455 -0.000160 0.000000
-0.000533 -0.001269 -0.000012 0.000000
0.000355 -0.002298 0.000915 0.000000
-0.000333 -0.001626 0.000167 0.000000
-0.000089 -0.001924 0.000474 0.000000
-0.000048 -0.001934 0.000726 0.000000
-0.000080 -0.001810 0.000427 0.000000
-0.000004 -0.001500 0.000682 0.000000
-0.000580 -0.001399 -0.000074 0.000000
0.000053 -0.000730 -0.000015 0.000000
0.000046 -0.002163 0.000742 0.000000
-0.000056 -0.002202 -0.000992 0.000000
0.002012 -0.003361 0.000981 0.000000
-0.000063 -0.000360 -0.000058 0.000000
0.000567 -0.002608 0.003252 0.000000
-0.000027 -0.000433 -0.000172 0.000000
0.001390 -0.003976 0.003286 0.000000
0.000004 -0.000466 -0.000065 0.000000
-0.000056 -0.000390 0.000010 0.000000
0.000647 -0.002438 0.000977 0.000000
-0.000451 -0.001423 -0.000242 0.000000
-0.000036 -0.000394 -0.000259 0.000000
-0.000053 -0.000359 -0.000214 0.000000
-0.000489 -0.001367 -0.000508 0.000000
0.000118 -0.001796 0.000213 0.000000
-0.000053 -0.000371 -0.000254 0.000000
-0.000043 -0.000373 -0.000220 0.000000
0.000325 -0.001998 -0.000445 0.000000
0.002486 -0.004602 -0.000958 0.000000
0.000090 -0.002940 -0.001323 0.000000
-0.000045 -0.000373 -0.000181 0.000000
-0.000062 -0.000355 -0.000226 0.000000
-0.000026 -0.000388 -0.000226 0.000000
-0.000044 -0.000373 -0.000222 0.000000
-0.000049 -0.000346 -0.000121 0.000000
-0.000038 -0.000371 -0.000213 0.000000
-0.000043 -0.000344 -0.000134 0.000000
-0.000048 -0.000367 -0.000124 0.000000
-0.000372 -0.001934 0.000973 0.000000
0.001287 -0.003939 0.002619 0.000000
0.000101 -0.002025 0.002770 0.000000
0.000065 -0.002762 -0.001266 0.000000
0.000600 -0.003320 -0.001399 0.000000
-0.000058 -0.000386 0.000143 0.000000
-0.000424 -0.001710 0.000111 0.000000
0.002254 -0.004834 0.001970 0.000000
-0.000072 -0.000352 0.000068 0.000000
-0.000539 -0.001289 0.000287 0.000000
0.001190 -0.003755 -0.000912 0.000000
-0.000292 -0.001855 0.000987 0.000000
-0.000108 -0.000295 0.000112 0.000000
-0.000170 -0.002108 0.001675 0.000000
-0.000064 -0.000251 -0.000083 0.000000
-0.000647 -0.001289 0.000358 0.000000
-0.000605 -0.001410 0.000327 0.000000
-0.000286 -0.001873 0.000273 0.000000
0.000293 -0.002537 -0.000330 0.000000
-0.000305 -0.001599 0.000255 0.000000
-0.000627 -0.001324 0.000415 0.000000
-0.000122 -0.001823 0.000262 0.000000
-0.000409 -0.001635 0.000489 0.000000
-0.000399 -0.000750 -0.001527 0.000000
-0.000700 -0.001278 0.000395 0.000000
-0.000827 -0.000400 0.000101 0.000000
-0.000552 -0.001178 0.000035 0.000000
0.000294 -0.002028 -0.000050 0.000000
0.000040 -0.002024 0.000980 0.000000
-0.000068 -0.000369 0.000008 0.000000
0.000804 -0.002420 -0.000834 0.000000
-0.000053 -0.000387 0.000053 0.000000
-0.000645 -0.001358 -0.000581 0.000000
-0.000025 -0.000477 0.000002 0.000000
-0.000067 -0.000413 0.000066 0.000000
-0.000104 -0.001985 0.000261 0.000000
-0.000380 -0.001719 0.000568 0.000000
0.001292 -0.004138 0.000759 0.000000
-0.000060 -0.000362 -0.000028 0.000000
-0.000333 -0.001949 0.001497 0.000000
0.000045 -0.002672 0.000163 0.000000
-0.000461 -0.001969 0.001015 0.000000
0.000855 -0.003460 -0.000374 0.000000
0.000371 -0.002900 0.000970 0.000000
0.000862 -0.003459 0.000226 0.000000
-0.000467 -0.001796 0.000174 0.000000
0.000022 -0.000389 -0.000073 0.000000
0.000226 -0.002740 -0.000541 0.000000
-0.000059 -0.000343 -0.000030 0.000000
-0.000070 -0.000361 -0.000025 0.000000
-0.000030 -0.000382 -0.000061 0.000000
-0.000044 -0.000363 -0.000054 0.000000
-0.000060 -0.000377 -0.000008 0.000000
-0.000060 -0.000343 -0.000027 0.000000
0.000189 -0.001534 0.001040 0.000000
-0.000263 -0.002026 -0.000213 0.000000
-0.000253 -0.001388 0.000055 0.000000
-0.000093 -0.003698 -0.001639 0.000000
-0.000040 -0.002052 0.000910 0.000000
-0.000105 -0.002061 0.000690 0.000000
-0.000354 -0.001709 0.000511 0.000000
-0.000092 -0.000614 0.000037 0.000000
-0.000011 -0.001985 0.000631 0.000000
-0.000086 -0.000419 -0.000218 0.000000
0.000173 -0.001939 0.001067 0.000000
-0.000090 -0.000474 -0.000172 0.000000
-0.000089 -0.000443 -0.000251 0.000000
0.000009 -0.000511 -0.000181 0.000000
0.000997 -0.003073 0.001088 0.000000
0.000779 -0.002835 0.000874 0.000000
-0.000003 -0.002493 -0.000884 0.000000
0.000153 -0.001981 -0.000083 0.000000
-0.000071 -0.002138 0.000238 0.000000
-0.000224 -0.002076 0.000101 0.000000
-0.000282 -0.002044 0.000111 0.000000
0.001408 -0.003899 0.000811 0.000000
-0.000140 -0.002230 0.000185 0.000000
0.001238 -0.003862 0.000572 0.000000
-0.000192 -0.002448 0.000758 0.000000
0.000000 -0.003463 -0.001037 0.000000
0.001002 -0.004474 -0.000714 0.000000
-0.000928 -0.001331 -0.001892 0.000000
0.000000 -0.002512 0.000721 0.000000
-0.000181 -0.002170 0.000119 0.000000
0.000000 -0.002361 0.000499 0.000000
0.000000 -0.002279 0.000288 0.000000
-0.000150 -0.002204 -0.000049 0.000000
0.000067 -0.002652 -0.000309 0.000000
-0.000093 -0.002491 -0.000424 0.000000
-0.000044 -0.002559 -0.000402 0.000000
0.000413 -0.003018 -0.000317 0.000000
-0.000177 -0.002226 -0.000079 0.000000
-0.000037 -0.002485 -0.000365 0.000000
-0.000237 -0.002315 -0.000276 0.000000
0.000128 -0.002669 -0.000300 0.000000
0.000818 -0.003558 0.000137 0.000000
0.000000 -0.002634 0.000265 0.000000
-0.000233 -0.002383 -0.000254 0.000000
-0.000389 -0.001886 0.000503 0.000000
0.000560 -0.002990 0.001021 0.000000
-0.000242 -0.002055 0.000681 0.000000
-0.000077 -0.002295 0.000904 0.000000
-0.000385 -0.001827 0.000321 0.000000
0.000000 -0.002391 0.000963 0.000000
-0.000116 -0.000344 0.000142 0.000000
0.000000 -0.002768 -0.000285 0.000000
-0.000116 -0.000401 0.000094 0.000000
-0.000097 -0.000404 0.000134 0.000000
-0.000215 -0.002278 -0.000580 0.000000
0.000802 -0.003508 -0.000644 0.000000
0.000000 -0.002413 -0.000363 0.000000
-0.000266 -0.002051 -0.000527 0.000000
-0.000109 -0.002557 -0.000030 0.000000
-0.000053 -0.002659 0.000798 0.000000
-0.000499 -0.001731 0.000335 0.000000
-0.000223 -0.001883 0.000500 0.000000
-0.000125 -0.002267 -0.000415 0.000000
-0.000093 -0.000358 0.000072 0.000000
0.000024 -0.002057 0.000225 0.000000
-0.000091 -0.000346 0.000116 0.000000
0.000084 -0.002460 -0.000694 0.000000
-0.000074 -0.000381 0.000027 0.000000
-0.000032 -0.000422 0.000150 0.000000
-0.000032 -0.000419 0.000085 0.000000
-0.000051 -0.000446 0.000139 0.000000
0.000200 -0.002543 -0.000923 0.000000
0.000565 -0.003320 0.000447 0.000000
-0.000080 -0.000398 0.000167 0.000000
-0.000119 -0.000468 0.000131 0.000000
-0.000039 -0.000432 0.000150 0.000000
-0.000051 -0.000710 0.000047 0.000000
-0.000109 -0.000440 0.000079 0.000000
-0.000092 -0.003216 0.001509 0.000000
-0.000001 -0.001981 -0.000860 0.000000
-0.000530 -0.001858 -0.000734 0.000000
0.000477 -0.003274 -0.001332 0.000000
-0.000560 -0.002278 0.001170 0.000000
0.001031 -0.003967 -0.000554 0.000000
0.001063 -0.003835 -0.000685 0.000000
-0.000768 -0.000563 0.000244 0.000000
-0.000067 -0.000449 -0.000014 0.000000
-0.000123 -0.000394 0.000065 0.000000
0.000444 -0.002646 0.000868 0.000000
-0.000068 -0.000517 -0.000045 0.000000
0.000533 -0.002945 0.000870 0.000000
0.000325 -0.002745 0.001369 0.000000
-0.000562 -0.002314 0.001089 0.000000
0.000157 -0.002818 0.001665 0.000000
0.001198 -0.004619 0.001218 0.000000
-0.000180 -0.002659 0.001610 0.000000
0.000668 -0.003294 0.000855 0.000000
0.000000 -0.002655 0.001068 0.000000
0.000229 -0.003311 -0.001047 0.000000
-0.000000 -0.003465 -0.000716 0.000000
0.000932 -0.003434 -0.000222 0.000000
-0.000000 -0.003387 0.000349 0.000000
-0.000617 -0.001239 0.001719 0.000000
0.000000 -0.003629 0.000708 0.000000
0.000518 -0.003654 0.001536 0.000000
-0.000559 -0.002167 0.000796 0.000000
-0.000097 -0.002541 0.001553 0.000000
-0.000407 -0.002676 0.001380 0.000000
-0.000687 -0.002108 0.000343 0.000000
-0.000594 -0.002320 0.000371 0.000000
-0.000000 -0.004861 0.002145 0.000000
0.000000 -0.001921 0.001605 0.000000
-0.000610 -0.000921 -0.001467 0.000000
-0.000378 -0.002455 0.000335 0.000000
-0.000064 -0.000496 0.000104 0.000000
-0.000308 -0.001546 0.001046 0.000000
0.000275 -0.003221 0.000984 0.000000
-0.000280 -0.002363 0.000120 0.000000
-0.000059 -0.000446 0.000029 0.000000
-0.000641 -0.002428 0.003390 0.000000
-0.000332 -0.001939 0.001616 0.000000
-0.000902 -0.001312 0.000809 0.000000
0.002664 -0.005617 0.002186 0.000000
0.000164 -0.002189 0.002754 0.000000
-0.000866 -0.001397 0.000947 0.000000
-0.000188 -0.002353 0.003961 0.000000
-0.000076 -0.000395 0.000089 0.000000
0.001087 -0.003362 -0.000371 0.000000
-0.000653 -0.002356 0.004773 0.000000
0.000639 -0.002996 0.003691 0.000000
-0.000939 -0.001270 0.001014 0.000000
0.000167 -0.001412 -0.002396 0.000000
-0.000729 -0.001932 0.001427 0.000000
0.000030 -0.002202 0.001341 0.000000
0.000000 -0.002520 -0.000344 0.000000
0.000850 -0.003754 0.001333 0.000000
0.000000 -0.002893 -0.000402 0.000000
0.001140 -0.002805 0.000543 0.000000
-0.000070 -0.000504 0.000043 0.000000
0.001327 -0.003180 0.000184 0.000000
0.000363 -0.002780 -0.000204 0.000000
-0.000128 -0.000393 0.000121 0.000000
0.000000 -0.003529 0.001218 0.000000
-0.000774 -0.001480 0.001322 0.000000
-0.000055 -0.000366 0.000024 0.000000
-0.000116 -0.000314 0.000030 0.000000
0.000088 -0.002378 0.003095 0.000000
0.000213 -0.002399 0.002429 0.000000
-0.000614 -0.001459 0.000806 0.000000
-0.000111 -0.000339 0.000090 0.000000
0.001872 -0.004925 0.002160 0.000000
-0.000084 -0.000366 0.000113 0.000000
-0.000067 -0.000354 0.000030 0.000000
-0.000093 -0.000375 0.000138 0.000000
0.002636 -0.005356 0.002573 0.000000
0.000051 -0.000588 0.000004 0.000000
-0.000048 -0.000434 0.000168 0.000000
0.000680 -0.002678 0.002808 0.000000
0.002287 -0.003709 -0.002266 0.000000
0.000245 -0.001113 -0.001550 0.000000
-0.001022 -0.000306 0.000620 0.000000
-0.000094 -0.000423 0.000178 0.000000
-0.000073 -0.000447 -0.000106 0.000000
-0.000049 -0.002280 0.001157 0.000000
-0.000635 -0.000935 -0.001275 0.000000
-0.000036 -0.000504 0.000142 0.000000
0.000415 -0.003602 -0.000951 0.000000
0.000074 -0.000510 0.000112 0.000000
-0.000014 -0.000531 0.000201 0.000000
0.003129 -0.006323 0.001886 0.000000
0.000239 -0.003295 0.000440 0.000000
0.000036 -0.000580 0.000053 0.000000
0.000031 -0.000587 0.000042 0.000000
-0.000410 -0.002353 0.001051 0.000000
-0.000525 -0.002049 0.001279 0.000000
0.000624 -0.003866 -0.000320 0.000000
0.000455 -0.004099 -0.000936 0.000000
0.000454 -0.003890 0.000279 0.000000
-0.000011 -0.000352 -0.000002 0.000000
0.000118 -0.003349 0.001152 0.000000
0.000073 -0.000454 -0.000084 0.000000
0.000757 -0.004350 -0.000241 0.000000
0.000046 -0.000477 -0.000187 0.000000
0.000207 -0.000597 -0.000358 0.000000
0.000033 -0.000446 -0.000113 0.000000
0.001625 -0.003727 0.002032 0.000000
0.000019 -0.000475 -0.000373 0.000000
0.003044 -0.006218 0.003364 0.000000
0.000741 -0.003063 0.003769 0.000000
0.000598 -0.003084 0.002391 0.000000
-0.000049 -0.000158 0.003310 0.000000
0.000772 -0.002857 0.003452 0.000000
0.001687 -0.004511 0.004698 0.000000
-0.000094 -0.000356 0.000011 0.000000
-0.000040 -0.000338 0.000096 0.000000
-0.000342 -0.001539 0.001679 0.000000
0.002763 -0.004614 0.003843 0.000000
-0.000075 -0.000346 0.000010 0.000000
-0.000058 -0.000325 0.000019 0.000000
-0.000067 -0.000315 0.000027 0.000000
-0.000057 -0.000338 0.000044 0.000000
-0.000029 -0.000349 0.000106 0.000000
0.000009 -0.000461 -0.000313 0.000000
-0.000117 -0.000316 0.000235 0.000000
0.005331 -0.005647 0.008405 0.000000
-0.000011 -0.000338 0.000117 0.000000
0.000978 -0.002230 -0.001419 0.000000
0.000007 -0.000503 -0.000236 0.000000
-0.000035 -0.000373 0.000010 0.000000
-0.000061 -0.000317 -0.000022 0.000000
-0.000051 -0.000330 0.000141 0.000000
-0.000061 -0.000310 -0.000053 0.000000
-0.000060 -0.000305 0.000008 0.000000
-0.000045 -0.000312 -0.000091 0.000000
-0.000104 -0.000253 0.000074 0.000000
-0.000053 -0.000309 -0.000099 0.000000
-0.000072 -0.000230 -0.000041 0.000000
-0.000457 -0.000930 -0.000206 0.000000
-0.000034 -0.000348 -0.000078 0.000000
-0.000034 -0.000395 -0.000296 0.000000
0.006084 -0.008110 0.008070 0.000000
-0.000069 -0.000273 -0.000046 0.000000
-0.000048 -0.000242 0.000002 0.000000
0.000012 -0.000435 -0.000075 0.000000
-0.000012 -0.000397 -0.000026 0.000000
-0.000024 -0.000455 -0.000217 0.000000
-0.000053 -0.000374 -0.000062 0.000000
0.000009 -0.000444 -0.000119 0.000000
0.000003 -0.000432 -0.000078 0.000000
0.000017 -0.000516 -0.000293 0.000000
0.000010 -0.000441 -0.000170 0.000000
0.000108 -0.000517 -0.000128 0.000000
0.000177 -0.000521 -0.000302 0.000000
0.000046 -0.000452 -0.000109 0.000000
0.000014 -0.000469 -0.000184 0.000000
0.000040 -0.000421 -0.000016 0.000000
0.000024 -0.002978 0.002326 0.000000
0.000073 -0.000448 -0.000039 0.000000
0.000034 -0.000454 -0.000099 0.000000
0.000021 -0.000429 -0.000058 0.000000
0.000023 -0.000410 -0.000016 0.000000
-0.000010 -0.000384 -0.000052 0.000000
-0.000715 -0.000616 -0.000389 0.000000
0.000009 -0.000395 -0.000016 0.000000
0.000096 -0.000476 -0.000232 0.000000
0.000043 -0.000375 0.000235 0.000000
0.000982 -0.002078 0.004694 0.000000
0.001018 -0.004242 0.004395 0.000000
0.000928 -0.002355 0.004263 0.000000
-0.000045 -0.002300 0.001398 0.000000
-0.000045 -0.002719 0.001862 0.000000
-0.000291 -0.002110 0.000712 0.000000
0.000237 -0.002357 0.001111 0.000000
0.001670 -0.005419 0.001447 0.000000
-0.000021 -0.000377 -0.000058 0.000000
0.000040 -0.000415 0.000017 0.000000
-0.000007 -0.000365 -0.000018 0.000000
-0.000819 -0.001855 0.000743 0.000000
-0.000203 -0.002609 0.001778 0.000000
0.000074 -0.003026 0.000305 0.000000
-0.000088 -0.002943 0.001031 0.000000
-0.000114 -0.002336 0.001051 0.000000
-0.000810 -0.001619 0.000349 0.000000
0.000034 -0.003025 0.000349 0.000000
0.000172 -0.003355 0.001652 0.000000
-0.000100 -0.000453 0.000011 0.000000
-0.000100 -0.000409 0.000050 0.000000
-0.000091 -0.000425 -0.000049 0.000000
-0.000090 -0.000424 0.000042 0.000000
-0.000168 -0.000347 0.000172 0.000000
0.000708 -0.002539 0.000706 0.000000
-0.000159 -0.000343 0.000092 0.000000
-0.000188 -0.000243 0.000313 0.000000
-0.000171 -0.000350 0.000005 0.000000
-0.000153 -0.000368 0.000116 0.000000
0.000043 -0.000436 0.000046 0.000000
-0.000363 -0.002961 0.003051 0.000000
0.001071 -0.002962 -0.000363 0.000000
-0.000027 -0.000427 0.000121 0.000000
0.000043 -0.003141 0.001260 0.000000
-0.000044 -0.000404 0.000093 0.000000
-0.000542 -0.001635 0.000581 0.000000
0.001750 -0.004297 -0.001639 0.000000
0.000047 -0.002311 0.001223 0.000000
-0.000417 -0.000982 0.001674 0.000000
-0.000071 -0.000358 0.000093 0.000000
-0.000400 -0.001942 0.001308 0.000000
0.000086 -0.002507 0.001777 0.000000
0.000431 -0.002696 0.000884 0.000000
-0.000148 -0.002111 0.001415 0.000000
-0.000139 -0.000320 0.000293 0.000000
0.000709 -0.002983 0.000605 0.000000
0.000401 -0.002819 -0.000193 0.000000
0.000057 -0.002196 0.001305 0.000000
0.000379 -0.002279 0.002822 0.000000
0.003334 -0.005846 -0.001625 0.000000
-0.000289 -0.001801 0.000670 0.000000
0.000180 -0.002567 0.000826 0.000000
-0.000139 -0.002111 0.001046 0.000000
-0.000477 -0.001991 0.000092 0.000000
0.000756 -0.002954 -0.000100 0.000000
0.003462 -0.005698 -0.000267 0.000000
-0.000053 -0.002075 0.001628 0.000000
-0.000892 -0.001730 0.000429 0.000000
-0.001277 -0.001014 0.002982 0.000000
-0.000550 -0.001326 0.000343 0.000000
0.000008 -0.002082 0.001870 0.000000
-0.000555 -0.001510 0.000652 0.000000
0.000158 -0.002555 0.001213 0.000000
-0.000028 -0.001924 0.002394 0.000000
0.001657 -0.002559 -0.003959 0.000000
0.000068 -0.000358 0.000088 0.000000
0.000028 -0.000346 -0.000055 0.000000
-0.000007 -0.000340 0.000275 0.000000
0.000021 -0.000335 0.000217 0.000000
0.000528 -0.002912 0.002145 0.000000
0.000041 -0.000405 0.000076 0.000000
-0.000508 -0.000981 0.000602 0.000000
-0.000011 -0.000394 -0.000130 0.000000
0.000011 -0.000422 0.000166 0.000000
0.000071 -0.001680 0.001007 0.000000
0.000022 -0.000393 0.000166 0.000000
0.000033 -0.000347 0.000202 0.000000
0.001211 -0.002240 -0.001656 0.000000
0.000018 -0.000316 -0.000295 0.000000
0.001277 -0.002751 -0.002356 0.000000
-0.000263 -0.001404 0.001510 0.000000
0.000014 -0.000351 0.000077 0.000000
0.001671 -0.002253 -0.003292 0.000000
0.000038 -0.000350 -0.000017 0.000000
0.000023 -0.000378 0.000245 0.000000
0.000021 -0.000334 -0.000079 0.000000
-0.000067 -0.000294 -0.000073 0.000000
0.000017 -0.000347 0.000035 0.000000
0.000037 -0.000368 0.000080 0.000000
0.000064 -0.000336 0.000066 0.000000
0.000044 -0.000270 0.000096 0.000000
0.000072 -0.000340 0.000090 0.000000
0.003445 -0.003943 -0.000036 0.000000
0.000050 -0.000307 0.000120 0.000000
0.000050 -0.000968 0.000764 0.000000
0.000025 -0.000166 0.000068 0.000000
0.000041 -0.000277 0.000072 0.000000
0.000050 -0.000426 0.000010 0.000000
0.000038 -0.000254 0.000055 0.000000
0.000172 -0.001138 -0.000310 0.000000
-0.000823 0.000662 0.004432 0.000000
0.000047 -0.000435 -0.000022 0.000000
0.000036 -0.000345 0.000259 0.000000
0.000146 -0.000580 0.000218 0.000000
0.000043 -0.000387 0.000022 0.000000
0.000068 -0.000451 0.000041 0.000000
0.000042 -0.000329 0.000082 0.000000
0.000043 -0.000383 0.000026 0.000000
0.000033 -0.000392 0.000006 0.000000
0.000022 -0.000372 0.000028 0.000000
-0.000012 -0.000303 -0.000041 0.000000
0.000029 -0.000385 0.000007 0.000000
0.000040 -0.000392 0.000009 0.000000
0.000022 -0.000379 0.000015 0.000000
0.000028 -0.000377 0.000013 0.000000
0.000021 -0.000377 0.000020 0.000000
0.000012 -0.000390 -0.000011 0.000000
0.000012 -0.000383 0.000012 0.000000
0.000019 -0.000388 -0.000002 0.000000
0.000548 -0.001798 0.002579 0.000000
0.000731 -0.000788 0.000685 0.000000
0.000205 -0.000132 0.002166 0.000000
0.000021 -0.000397 -0.000017 0.000000
0.000042 -0.000285 0.000054 0.000000
0.000020 -0.000415 -0.000068 0.000000
0.000095 -0.000462 -0.000170 0.000000
0.000149 -0.000507 0.000055 0.000000
0.000129 -0.000515 -0.000173 0.000000
-0.000563 -0.000694 0.000010 0.000000
0.000026 -0.000388 -0.000004 0.000000
0.000027 -0.000394 -0.000002 0.000000
0.000006 -0.000390 -0.000003 0.000000
0.000017 -0.000385 -0.000000 0.000000
0.000004 -0.000394 0.000005 0.000000
0.000019 -0.000429 -0.000049 0.000000
-0.000014 -0.000400 -0.000071 0.000000
-0.000050 -0.000383 -0.000076 0.000000
0.000004 -0.000387 0.000009 0.000000
0.000005 -0.000391 -0.000007 0.000000
-0.000084 -0.000378 0.000051 0.000000
-0.000004 -0.000390 0.000007 0.000000
-0.000020 -0.000389 0.000002 0.000000
-0.000036 -0.000447 0.000183 0.000000
0.005817 -0.008340 0.009141 0.000000
-0.000032 -0.000301 -0.000182 0.000000
-0.000033 -0.000392 0.000025 0.000000
-0.000037 -0.000308 0.000196 0.000000
-0.000032 -0.000315 0.000212 0.000000
-0.000039 -0.000222 0.000052 0.000000
-0.000046 -0.000302 -0.000104 0.000000
-0.000035 -0.000300 -0.000120 0.000000
-0.000030 -0.000355 -0.000086 0.000000
-0.000757 -0.000401 -0.000492 0.000000
-0.000008 -0.000377 0.000024 0.000000
-0.000490 -0.000845 -0.000402 0.000000
0.000004 -0.000438 0.000050 0.000000
-0.000038 -0.000361 0.000034 0.000000
-0.000002 -0.000418 -0.000071 0.000000
-0.000400 -0.000930 -0.001053 0.000000
-0.000111 -0.000995 -0.001342 0.000000
-0.000497 -0.000851 0.000052 0.000000
0.002108 -0.005213 0.002013 0.000000
-0.000022 -0.000205 0.000121 0.000000
-0.000065 -0.000260 -0.000068 0.000000
-0.000012 -0.000322 -0.000085 0.000000
-0.000058 -0.000213 0.000065 0.000000
-0.000041 -0.000229 -0.000037 0.000000
0.000971 -0.002526 0.000734 0.000000
-0.000060 -0.000255 -0.000070 0.000000
-0.000061 -0.000228 0.000011 0.000000
-0.000057 -0.000261 -0.000037 0.000000
0.001252 -0.002401 0.000577 0.000000
-0.000271 -0.001263 -0.000885 0.000000
-0.000038 -0.000257 -0.000102 0.000000
0.000013 -0.000370 -0.000153 0.000000
-0.000035 -0.000381 -0.000030 0.000000
0.000072 -0.002639 -0.000421 0.000000
-0.000382 -0.001290 -0.000017 0.000000
-0.000447 -0.001013 -0.000451 0.000000
-0.000054 -0.000225 -0.000034 0.000000
0.000004 -0.000513 0.000214 0.000000
0.000019 -0.000271 0.000330 0.000000
0.000018 -0.000372 0.000081 0.000000
0.000929 -0.002337 0.001245 0.000000
0.000005 -0.000301 -0.000023 0.000000
0.001095 -0.002486 0.002109 0.000000
0.000050 -0.000594 0.000159 0.000000
0.000013 -0.000361 0.000003 0.000000
0.000007 -0.000367 -0.000017 0.000000
0.002325 -0.003571 0.008292 0.000000
0.002217 -0.003729 0.007876 0.000000
0.000012 -0.000378 0.000019 0.000000
0.000002 -0.000383 0.000011 0.000000
0.000017 -0.000375 0.000027 0.000000
0.000005 -0.000383 0.000018 0.000000
0.000026 -0.000370 0.000028 0.000000
0.000013 -0.000380 0.000024 0.000000
0.000017 -0.000373 0.000022 0.000000
0.000003 -0.000383 0.000017 0.000000
0.000014 -0.000381 0.000017 0.000000
0.000011 -0.000317 0.000009 0.000000
0.000042 -0.000400 0.000012 0.000000
0.000034 -0.000381 0.000014 0.000000
0.000038 -0.000361 0.000031 0.000000
0.000035 -0.000363 0.000030 0.000000
0.000042 -0.000356 0.000037 0.000000
0.000044 -0.000362 0.000035 0.000000
0.000023 -0.000325 0.000055 0.000000
0.000042 -0.000350 0.000043 0.000000
0.000017 -0.000360 0.000011 0.000000
0.000011 -0.000307 0.000057 0.000000
0.000019 -0.000339 0.000008 0.000000
-0.000013 -0.000335 -0.000075 0.000000
0.000013 -0.000314 -0.000022 0.000000
0.000026 -0.000352 0.000028 0.000000
0.001454 -0.002287 0.007148 0.000000
0.001554 -0.002282 0.006508 0.000000
0.000281 -0.001527 0.000123 0.000000
0.000921 -0.002267 0.000197 0.000000
0.001426 -0.003679 0.001124 0.000000
0.000106 -0.001360 0.000361 0.000000
-0.000008 -0.000319 0.000180 0.000000
0.001349 -0.003058 0.000635 0.000000
-0.000052 -0.000341 0.000061 0.000000
0.001645 -0.003616 0.000923 0.000000
-0.000031 -0.000209 0.000203 0.000000
0.000021 -0.000276 -0.000069 0.000000
0.003149 -0.005429 0.001672 0.000000
0.000994 -0.001767 -0.000104 0.000000
0.000003 -0.000268 0.000002 0.000000
-0.000112 -0.001693 0.000918 0.000000
0.000358 -0.001441 0.001358 0.000000
0.000147 -0.000335 -0.000042 0.000000
0.000010 -0.000783 0.002182 0.000000
0.000079 -0.001253 0.000344 0.000000
0.000429 -0.001504 0.004197 0.000000
-0.000027 -0.000259 -0.000031 0.000000
0.000907 -0.002452 0.003557 0.000000
0.000000 -0.000310 0.000016 0.000000
0.002916 -0.004918 0.002227 0.000000
-0.000042 -0.000167 0.000231 0.000000
-0.000021 -0.000173 0.000053 0.000000
0.003968 -0.005391 0.004516 0.000000
-0.000005 -0.000196 -0.000033 0.000000
0.000504 -0.002727 0.002726 0.000000
0.000457 -0.001755 -0.000072 0.000000
0.003943 -0.005152 0.003373 0.000000
-0.000073 -0.000231 -0.000051 0.000000
0.000840 -0.001930 -0.000279 0.000000
-0.000061 -0.000254 -0.000020 0.000000
0.004689 -0.005838 0.005054 0.000000
0.000022 -0.000312 0.000080 0.000000
0.000025 -0.000334 0.000043 0.000000
-0.000059 -0.000209 0.000010 0.000000
-0.000047 -0.000197 0.000067 0.000000
0.000043 -0.000342 0.000050 0.000000
0.000039 -0.000355 0.000037 0.000000
0.000002 -0.000288 0.000090 0.000000
0.000038 -0.000347 0.000043 0.000000
0.000039 -0.000329 0.000059 0.000000
0.001092 -0.002054 0.001481 0.000000
0.000039 -0.000325 0.000061 0.000000
0.000046 -0.000352 0.000042 0.000000
-0.000014 -0.000113 0.000431 0.000000
-0.000025 -0.000222 0.000092 0.000000
0.000037 -0.000318 0.000067 0.000000
0.001594 -0.003191 0.001998 0.000000
0.000013 -0.000304 0.000064 0.000000
0.005531 -0.006409 0.006866 0.000000
-0.000133 -0.000966 -0.001896 0.000000
-0.000021 -0.000222 0.000175 0.000000
0.005493 -0.007046 0.006499 0.000000
-0.000045 -0.000226 0.000062 0.000000
0.000396 -0.001288 -0.003500 0.000000
0.001438 -0.002027 0.001244 0.000000
0.000959 -0.002593 0.000688 0.000000
0.000402 -0.001609 -0.002934 0.000000
-0.000071 -0.000416 0.000309 0.000000
0.000323 -0.001511 -0.003000 0.000000
0.000045 -0.000347 0.000050 0.000000
-0.001349 0.001521 0.008026 0.000000
0.000008 -0.000267 0.000093 0.000000
0.000032 -0.000304 0.000075 0.000000
0.000035 -0.000320 0.000068 0.000000
0.000030 -0.000320 0.000059 0.000000
0.000047 -0.000362 0.000182 0.000000
0.000049 -0.000392 0.000037 0.000000
0.000050 -0.000358 0.000088 0.000000
0.000050 -0.000356 0.000053 0.000000
0.000077 -0.000399 0.000271 0.000000
0.000056 -0.000362 0.000128 0.000000
0.000097 -0.000448 0.000069 0.000000
0.000043 -0.000383 0.000024 0.000000
0.000023 -0.000228 -0.000081 0.000000
0.000031 -0.000299 0.000038 0.000000
0.000044 -0.000241 0.000028 0.000000
0.000422 -0.001503 0.002664 0.000000
0.002775 -0.003771 -0.001284 0.000000
0.000139 -0.003099 -0.000213 0.000000
0.003200 -0.003971 0.000129 0.000000
0.003379 -0.004749 -0.000797 0.000000
0.003794 -0.004795 -0.000635 0.000000
0.003237 -0.003591 -0.000126 0.000000
0.000073 -0.000353 0.000057 0.000000
0.000028 -0.000344 -0.000081 0.000000
0.000055 -0.000323 0.000051 0.000000
0.000836 -0.002014 -0.001661 0.000000
0.000054 -0.000371 0.000055 0.000000
0.000053 -0.000292 0.000090 0.000000
0.000026 -0.000344 0.000161 0.000000
0.000008 -0.000355 0.000133 0.000000
0.000033 -0.000346 -0.000078 0.000000
-0.000268 -0.000182 -0.001244 0.000000
0.000045 -0.000360 -0.000064 0.000000
0.000033 -0.000348 -0.000073 0.000000
0.000020 -0.000327 -0.000095 0.000000
0.000016 -0.000310 -0.000129 0.000000
0.000044 -0.000360 -0.000055 0.000000
-0.000013 -0.000312 -0.000100 0.000000
0.000068 -0.000376 -0.000004 0.000000
0.000013 -0.000343 -0.000089 0.000000
-0.000048 -0.000150 0.000143 0.000000
0.000053 -0.000271 0.000083 0.000000
-0.000063 -0.000272 -0.000141 0.000000
0.000000 -0.000311 -0.000079 0.000000
0.000029 -0.000346 0.000005 0.000000
0.000400 -0.001739 -0.002492 0.000000
-0.000047 -0.000267 0.000070 0.000000
0.000288 -0.001284 -0.003181 0.000000
0.000414 -0.002339 0.000200 0.000000
0.000359 -0.001494 -0.003005 0.000000
0.001929 -0.003551 -0.000066 0.000000
0.003582 -0.004394 -0.001519 0.000000
0.000035 -0.000367 -0.000028 0.000000
-0.000112 -0.000125 0.000246 0.000000
0.000875 -0.002398 -0.001854 0.000000
-0.000080 -0.000281 0.000406 0.000000
0.001083 -0.002812 -0.000815 0.000000
0.000898 -0.002006 -0.000637 0.000000
-0.000058 -0.000133 -0.000035 0.000000
-0.000257 -0.000582 -0.000239 0.000000
-0.000033 -0.000142 0.000240 0.000000
-0.000044 -0.000126 0.000072 0.000000
-0.000040 -0.000175 0.000235 0.000000
-0.000036 -0.000200 0.000122 0.000000
-0.000022 -0.000161 0.000209 0.000000
-0.000053 -0.000147 0.000045 0.000000
-0.000216 -0.000498 -0.000532 0.000000
0.000006 -0.000279 0.000021 0.000000
-0.000003 -0.001124 -0.000543 0.000000
-0.000048 -0.000150 0.000069 0.000000
-0.000080 -0.000117 -0.000023 0.000000
0.000013 -0.000268 -0.000016 0.000000
-0.000403 -0.000405 -0.000022 0.000000
-0.000018 -0.000251 -0.000161 0.000000
0.000008 -0.000269 0.000022 0.000000
-0.000009 -0.000238 -0.000011 0.000000
0.000008 -0.000306 -0.000023 0.000000
-0.000358 -0.000358 0.000480 0.000000
-0.000016 -0.000210 0.000039 0.000000
-0.000052 -0.000165 0.000046 0.000000
-0.000002 -0.000240 0.000029 0.000000
-0.000013 -0.000219 0.000034 0.000000
-0.000270 -0.001215 -0.000355 0.000000
-0.000005 -0.000244 0.000019 0.000000
-0.000000 -0.000252 0.000020 0.000000
0.000002 -0.000297 -0.000070 0.000000
0.000007 -0.000279 0.000010 0.000000
0.000021 -0.000336 -0.000047 0.000000
-0.000297 -0.000501 -0.000221 0.000000
0.000001 -0.000290 -0.000157 0.000000
-0.000282 -0.000501 -0.000228 0.000000
-0.000248 -0.000522 -0.000288 0.000000
0.000010 -0.000285 0.000005 0.000000
-0.000002 -0.000326 -0.000081 0.000000
0.000012 -0.000300 -0.000003 0.000000
0.000016 -0.000345 -0.000067 0.000000
0.000006 -0.000273 0.000005 0.000000
0.000005 -0.000295 -0.000010 0.000000
0.000008 -0.000283 0.000001 0.000000
0.000007 -0.000304 -0.000023 0.000000
0.000076 -0.000348 -0.000044 0.000000
-0.000013 -0.000252 0.000034 0.000000
-0.000007 -0.000214 -0.000004 0.000000
0.000017 -0.000346 -0.000030 0.000000
0.000014 -0.000310 -0.000006 0.000000
0.000017 -0.000328 -0.000025 0.000000
0.000019 -0.000324 -0.000035 0.000000
0.000018 -0.000319 -0.000017 0.000000
0.000002 -0.000301 -0.000029 0.000000
0.000020 -0.000354 -0.000056 0.000000
0.000010 -0.000355 0.000065 0.000000
-0.000015 -0.000306 -0.000013 0.000000
0.000001 -0.000294 -0.000011 0.000000
0.000011 -0.000320 0.000003 0.000000
0.000049 -0.000352 -0.000028 0.000000
0.000002 -0.000292 -0.000011 0.000000
-0.000240 -0.000643 -0.000181 0.000000
-0.000095 -0.000836 -0.000404 0.000000
0.000555 -0.002281 0.000905 0.000000
-0.000250 -0.000622 -0.000376 0.000000
-0.000199 -0.000802 -0.000221 0.000000
-0.000011 -0.000322 0.000087 0.000000
0.000726 -0.001614 -0.000141 0.000000
-0.000283 -0.000571 -0.000196 0.000000
0.000760 -0.001702 0.000093 0.000000
0.000585 -0.001564 0.001054 0.000000
0.000216 -0.001709 0.000419 0.000000
0.000248 -0.000964 -0.000139 0.000000
0.000258 -0.001704 0.000098 0.000000
0.000875 -0.002002 -0.000340 0.000000
-0.000006 -0.000291 0.000200 0.000000
-0.000012 -0.000310 0.000022 0.000000
-0.000014 -0.000274 0.000048 0.000000
0.000248 -0.001548 0.000844 0.000000
-0.000185 -0.001755 0.000519 0.000000
-0.000100 -0.000256 -0.000029 0.000000
-0.000147 -0.001269 0.000291 0.000000
0.000647 -0.001848 0.000690 0.000000
-0.000072 -0.000199 -0.000173 0.000000
-0.000071 -0.000237 -0.000028 0.000000
0.000096 -0.001422 -0.000606 0.000000
-0.000064 -0.000360 0.000118 0.000000
-0.000108 -0.000260 0.000034 0.000000
0.000282 -0.001611 0.000435 0.000000
-0.000071 -0.000284 0.000058 0.000000
-0.000034 -0.000323 0.000200 0.000000
-0.000083 -0.000309 -0.000016 0.000000
-0.000033 -0.000246 0.000250 0.000000
0.000572 -0.002032 -0.000170 0.000000
-0.000633 -0.001173 0.000042 0.000000
-0.000081 -0.000291 0.000169 0.000000
-0.000137 -0.000291 0.000146 0.000000
-0.000125 -0.000283 0.000112 0.000000
0.000442 -0.002588 0.000903 0.000000
-0.000200 -0.002080 0.000025 0.000000
0.000688 -0.002669 0.000418 0.000000
0.000535 -0.002309 0.000209 0.000000
0.000333 -0.002316 0.000433 0.000000
-0.000637 -0.001316 0.000354 0.000000
0.000237 -0.002659 -0.001491 0.000000
-0.000048 -0.000342 -0.000098 0.000000
0.000126 -0.002181 0.000439 0.000000
0.000778 -0.002597 0.000943 0.000000
-0.000251 -0.001999 0.000483 0.000000
0.001298 -0.003601 0.003513 0.000000
0.000241 -0.002140 0.000160 0.000000
0.000727 -0.002896 0.001480 0.000000
-0.000038 -0.000355 -0.000139 0.000000
-0.000014 -0.000353 -0.000263 0.000000
-0.000092 -0.000327 -0.000100 0.000000
0.000109 -0.002727 -0.001584 0.000000
-0.000001 -0.000294 -0.000010 0.000000
0.000691 -0.002241 -0.000447 0.000000
-0.000181 -0.002317 -0.000943 0.000000
0.001931 -0.004117 -0.002513 0.000000
-0.000226 -0.002068 0.000005 0.000000
-0.000147 -0.002346 -0.000943 0.000000
-0.000087 -0.000299 -0.000082 0.000000
0.000005 -0.000320 -0.000070 0.000000
0.000009 -0.000374 -0.000087 0.000000
0.000010 -0.000314 -0.000048 0.000000
0.000003 -0.000326 -0.000078 0.000000
0.000414 -0.002361 0.000019 0.000000
0.000396 -0.002226 0.000238 0.000000
-0.000007 -0.000285 0.000000 0.000000
0.000012 -0.000314 -0.000013 0.000000
0.000003 -0.000296 -0.000009 0.000000
0.000008 -0.000337 -0.000087 0.000000
0.000018 -0.000338 -0.000043 0.000000
-0.000004 -0.000229 0.000017 0.000000
0.000862 -0.002050 -0.000795 0.000000
0.000005 -0.000290 -0.000011 0.000000
0.000005 -0.000261 0.000014 0.000000
0.000014 -0.000323 0.000001 0.000000
-0.000000 -0.000295 -0.000008 0.000000
0.000078 -0.001477 -0.000167 0.000000
0.001410 -0.002720 -0.003081 0.000000
0.000006 -0.000276 -0.000004 0.000000
0.000767 -0.002076 -0.001636 0.000000
0.000026 -0.000356 0.000009 0.000000
0.000026 -0.000343 0.000021 0.000000
-0.000012 -0.000296 0.000016 0.000000
0.000021 -0.000340 0.000014 0.000000
0.000023 -0.000389 -0.000006 0.000000
0.000022 -0.000355 0.000015 0.000000
-0.000026 -0.000290 0.000017 0.000000
-0.000078 -0.000274 -0.000044 0.000000
-0.000013 -0.000282 0.000015 0.000000
-0.000019 -0.000282 0.000017 0.000000
0.000858 -0.002004 -0.000139 0.000000
0.000002 -0.000304 -0.000002 0.000000
-0.000241 -0.001412 -0.000648 0.000000
0.001338 -0.002456 -0.001192 0.000000
-0.000083 -0.001920 -0.000379 0.000000
0.000756 -0.002914 -0.000436 0.000000
-0.000532 -0.001015 -0.000458 0.000000
0.000558 -0.002909 -0.000149 0.000000
0.000317 -0.001882 -0.000668 0.000000
0.000304 -0.002254 -0.000594 0.000000
-0.000034 -0.000311 -0.000100 0.000000
-0.000075 -0.000295 -0.000113 0.000000
-0.000065 -0.000288 -0.000086 0.000000
-0.000055 -0.000244 0.000009 0.000000
0.000012 -0.000402 -0.000047 0.000000
0.000030 -0.000417 0.000029 0.000000
-0.000019 -0.000347 -0.000090 0.000000
-0.000017 -0.000317 -0.000013 0.000000
-0.000033 -0.000276 0.000032 0.000000
-0.000051 -0.000307 -0.000046 0.000000
0.000042 -0.000371 0.000013 0.000000
-0.000272 -0.001044 -0.000210 0.000000
0.000027 -0.000393 0.000040 0.000000
0.000038 -0.000378 0.000019 0.000000
-0.000057 -0.000331 -0.000016 0.000000
0.000007 -0.000366 0.000012 0.000000
0.000030 -0.000395 0.000013 0.000000
0.000038 -0.000394 0.000020 0.000000
0.000001 -0.000364 0.000007 0.000000
-0.000071 -0.001142 -0.000925 0.000000
0.000372 -0.001750 -0.002375 0.000000
-0.000187 -0.001239 -0.000267 0.000000
0.000003 -0.000361 0.000002 0.000000
-0.000382 -0.000575 0.000168 0.000000
-0.000367 -0.000457 -0.000600 0.000000
0.000012 -0.000317 0.000021 0.000000
0.000015 -0.000353 0.000020 0.000000
0.000017 -0.000369 0.000020 0.000000
0.000032 -0.000383 0.000029 0.000000
0.000030 -0.000406 0.000043 0.000000
0.000037 -0.000397 0.000033 0.000000
0.000042 -0.000383 0.000021 0.000000
0.000036 -0.000391 0.000032 0.000000
0.000041 -0.000379 0.000019 0.000000
0.000037 -0.000372 0.000016 0.000000
0.000038 -0.000362 0.000032 0.000000
0.000005 -0.000324 0.000048 0.000000
0.000025 -0.000355 0.000023 0.000000
0.000012 -0.000367 0.000026 0.000000
0.000024 -0.000364 0.000017 0.000000
0.000040 -0.000378 0.000018 0.000000
-0.000007 -0.000283 0.000003 0.000000
0.000022 -0.000347 -0.000060 0.000000
0.000004 -0.000325 -0.000046 0.000000
0.000027 -0.000353 -0.000011 0.000000
-0.000009 -0.000247 0.000113 0.000000
0.000005 -0.000313 -0.000003 0.000000
0.000006 -0.000309 0.000004 0.000000
0.000011 -0.000310 -0.000026 0.000000
0.000021 -0.000343 -0.000082 0.000000
0.000045 -0.000377 0.000021 0.000000
0.000045 -0.000371 0.000015 0.000000
0.000036 -0.000365 0.000001 0.000000
0.000032 -0.000354 0.000010 0.000000
0.000033 -0.000373 0.000019 0.000000
0.000041 -0.000378 0.000018 0.000000
0.000035 -0.000373 0.000019 0.000000
0.000011 -0.000316 0.000043 0.000000
0.000021 -0.000336 0.000045 0.000000
-0.000008 -0.000298 0.000013 0.000000
0.001491 -0.002569 -0.003407 0.000000
-0.000010 -0.000270 0.000014 0.000000
-0.000010 -0.000150 -0.000124 0.000000
0.000634 -0.001943 -0.001351 0.000000
0.000877 -0.002232 -0.002004 0.000000
0.001188 -0.002212 -0.003040 0.000000
-0.000041 -0.000211 0.000027 0.000000
-0.000033 -0.000172 -0.000000 0.000000
-0.000033 -0.000135 -0.000126 0.000000
0.000003 -0.000316 0.000065 0.000000
0.000042 -0.000368 0.000006 0.000000
0.000018 -0.000334 0.000056 0.000000
0.002130 -0.002845 -0.002757 0.000000
-0.000030 -0.000263 0.000055 0.000000
0.001404 -0.002394 -0.003165 0.000000
-0.000005 -0.000330 0.000144 0.000000
0.001510 -0.002524 -0.003298 0.000000
-0.000035 -0.000146 -0.000083 0.000000
0.001770 -0.002995 -0.003196 0.000000
-0.000014 -0.000177 -0.000048 0.000000
-0.000004 -0.000230 0.000032 0.000000
-0.000029 -0.000168 -0.000051 0.000000
-0.000001 -0.000241 0.000021 0.000000
-0.000022 -0.000174 -0.000013 0.000000
-0.000017 -0.000159 -0.000082 0.000000
-0.000031 -0.000184 0.000034 0.000000
-0.000012 -0.000220 0.000032 0.000000
0.000027 -0.000421 0.000188 0.000000
-0.000002 -0.000298 0.000063 0.000000
0.002280 -0.003113 -0.002559 0.000000
-0.000003 -0.000304 0.000086 0.000000
-0.000031 -0.000176 -0.000105 0.000000
-0.000092 -0.000177 -0.000340 0.000000
0.000101 -0.000332 -0.000233 0.000000
0.000045 -0.000364 -0.000025 0.000000
0.000771 -0.002896 -0.000337 0.000000
0.000006 -0.000364 -0.000076 0.000000
0.000031 -0.000318 0.000137 0.000000
0.000028 -0.000388 -0.000036 0.000000
0.000411 -0.003509 0.001352 0.000000
0.000014 -0.000373 0.000011 0.000000
-0.000411 -0.000616 0.000713 0.000000
-0.000024 -0.000234 -0.000029 0.000000
-0.000008 -0.000283 -0.000058 0.000000
0.000024 -0.000326 -0.000043 0.000000
-0.000619 -0.000553 0.000096 0.000000
-0.000404 -0.000586 0.000096 0.000000
0.000268 -0.002768 0.000008 0.000000
0.000013 -0.000317 -0.000073 0.000000
-0.000481 -0.000687 0.000173 0.000000
-0.000651 -0.000518 0.000051 0.000000
-0.000433 -0.000663 -0.000124 0.000000
0.000265 -0.000993 -0.000276 0.000000
0.000391 -0.002318 0.001355 0.000000
-0.000557 -0.000658 0.000054 0.000000
0.000068 -0.000317 0.000011 0.000000
0.000388 -0.002460 0.000708 0.000000
0.000051 -0.000293 0.000070 0.000000
0.000650 -0.002725 0.000157 0.000000
0.000058 -0.000253 -0.000086 0.000000
0.000023 -0.000238 0.000050 0.000000
0.000001 -0.000194 0.000089 0.000000
0.000247 -0.000929 0.000197 0.000000
0.000027 -0.000246 0.000049 0.000000
0.000097 -0.000992 -0.000161 0.000000
0.000001 -0.000218 0.000097 0.000000
0.000689 -0.001383 0.000089 0.000000
-0.000048 -0.001425 -0.000176 0.000000
0.000222 -0.001166 -0.000587 0.000000
0.000021 -0.000219 0.000051 0.000000
0.000208 -0.000811 0.000313 0.000000
0.000058 -0.000275 -0.000092 0.000000
0.000042 -0.000231 0.000020 0.000000
0.000403 -0.001262 -0.001011 0.000000
0.000483 -0.001466 -0.000845 0.000000
0.000053 -0.000278 -0.000020 0.000000
0.000049 -0.000197 -0.000010 0.000000
0.000059 -0.000288 0.000017 0.000000
0.000060 -0.000291 -0.000108 0.000000
0.000071 -0.000300 -0.000046 0.000000
0.000061 -0.000267 -0.000070 0.000000
0.000057 -0.000304 -0.000134 0.000000
0.000055 -0.000259 -0.000070 0.000000
0.000057 -0.000272 -0.000128 0.000000
-0.000182 -0.000554 -0.000729 0.000000
0.000024 -0.000214 -0.000126 0.000000
0.000352 -0.001282 -0.001380 0.000000
0.000025 -0.000205 -0.000168 0.000000
0.001192 -0.001931 0.001146 0.000000
0.000829 -0.001634 -0.002090 0.000000
0.000732 -0.003026 -0.000890 0.000000
0.000299 -0.001381 0.000161 0.000000
-0.000032 -0.000232 -0.000227 0.000000
0.000002 -0.000166 -0.000191 0.000000
0.000005 -0.000395 -0.000454 0.000000
-0.000036 -0.000173 0.000050 0.000000
-0.000016 -0.000200 0.000038 0.000000
-0.000064 -0.000133 -0.000161 0.000000
0.000780 -0.001476 -0.002250 0.000000
-0.000054 -0.000203 -0.000266 0.000000
-0.000020 -0.000256 -0.000192 0.000000
0.000035 -0.000310 -0.000196 0.000000
0.002591 -0.002744 -0.000749 0.000000
-0.000909 0.000470 -0.000792 0.000000
0.000130 -0.001428 -0.001464 0.000000
0.001298 -0.002731 -0.001935 0.000000
-0.000042 -0.000158 -0.000151 0.000000
0.000027 -0.000108 -0.000298 0.000000
-0.000051 -0.000148 -0.000091 0.000000
-0.000039 -0.000165 -0.000044 0.000000
-0.000036 -0.000192 -0.000043 0.000000
-0.000037 -0.000171 -0.000012 0.000000
-0.000042 -0.000175 -0.000053 0.000000
-0.000028 -0.000187 0.000022 0.000000
-0.000028 -0.000178 -0.000004 0.000000
-0.000006 -0.000232 0.000030 0.000000
-0.000060 -0.000173 0.000026 0.000000
-0.000007 -0.000232 0.000001 0.000000
0.000004 -0.000248 -0.000022 0.000000
-0.000035 -0.000190 0.000023 0.000000
-0.000072 -0.001108 -0.000227 0.000000
-0.000029 -0.000210 0.000010 0.000000
-0.000066 -0.000167 -0.000033 0.000000
-0.000037 -0.000202 -0.000005 0.000000
0.000004 -0.000248 -0.000002 0.000000
0.000011 -0.000254 -0.000044 0.000000
-0.000012 -0.000228 -0.000042 0.000000
-0.000007 -0.000239 0.000006 0.000000
0.000010 -0.000269 0.000026 0.000000
0.000014 -0.000273 0.000043 0.000000
0.000085 -0.000244 -0.000021 0.000000
-0.000385 -0.000367 -0.000176 0.000000
0.000030 -0.001396 -0.000723 0.000000
-0.000058 -0.000170 -0.000029 0.000000
-0.000016 -0.000198 -0.000024 0.000000
-0.000125 -0.001494 0.000037 0.000000
0.000010 -0.000250 -0.000112 0.000000
-0.000055 -0.000163 0.000043 0.000000
0.000007 -0.000229 0.000137 0.000000
-0.000038 -0.000184 0.000154 0.000000
-0.000051 -0.000190 0.000288 0.000000
0.000945 -0.002602 0.002000 0.000000
0.001264 -0.001343 -0.000369 0.000000
0.000080 -0.000217 -0.000037 0.000000
0.000114 -0.001366 0.000663 0.000000
-0.000442 -0.000535 0.000357 0.000000
-0.000299 -0.000825 0.000324 0.000000
0.000071 -0.001618 0.000712 0.000000
-0.000426 -0.000661 0.000820 0.000000
-0.000013 -0.000234 -0.000067 0.000000
0.000020 -0.000277 -0.000031 0.000000
0.000300 -0.001981 -0.000016 0.000000
0.000419 -0.001798 -0.000447 0.000000
-0.000015 -0.000257 -0.000009 0.000000
0.000365 -0.001707 -0.000480 0.000000
-0.000055 -0.000129 0.000096 0.000000
-0.000385 -0.000531 0.000425 0.000000
0.000053 -0.000901 0.000241 0.000000
-0.000015 -0.000182 -0.000087 0.000000
-0.000322 -0.000537 0.000318 0.000000
0.000814 -0.001593 0.001201 0.000000
0.000309 -0.001712 -0.000224 0.000000
-0.000123 -0.001155 -0.000372 0.000000
-0.000003 -0.000202 -0.000074 0.000000
0.000009 -0.000232 -0.000033 0.000000
-0.000025 -0.000140 0.000014 0.000000
-0.000039 -0.000177 0.000040 0.000000
-0.000027 -0.000233 0.000056 0.000000
-0.000001 -0.000192 -0.000021 0.000000
-0.000146 -0.001034 -0.000259 0.000000
-0.000046 -0.000193 -0.000030 0.000000
-0.000047 -0.000178 -0.000034 0.000000
0.000064 -0.001913 0.000035 0.000000
-0.000034 -0.000181 0.000041 0.000000
0.000148 -0.001296 0.000614 0.000000
-0.000028 -0.000189 0.000043 0.000000
-0.000057 -0.000156 0.000055 0.000000
-0.000128 -0.001026 0.000693 0.000000
0.000419 -0.001881 0.000018 0.000000
-0.000084 -0.000153 0.000051 0.000000
-0.000242 -0.000730 0.000510 0.000000
-0.000214 -0.000970 0.000503 0.000000
-0.000112 -0.000959 -0.000083 0.000000
0.000273 -0.001331 0.000459 0.000000
0.000871 -0.001850 0.000233 0.000000
0.000847 -0.002121 0.000454 0.000000
0.000722 -0.001777 0.000149 0.000000
-0.000124 -0.000678 -0.000187 0.000000
0.000633 -0.001738 0.000496 0.000000
0.000112 -0.001597 0.000131 0.000000
0.000608 -0.001692 0.000231 0.000000
0.000504 -0.001649 0.001054 0.000000
0.000624 -0.001684 0.000612 0.000000
0.000872 -0.001380 0.000948 0.000000
0.000174 -0.000946 0.001305 0.000000
0.000671 -0.001980 0.000280 0.000000
0.000282 -0.001391 0.000660 0.000000
0.000002 -0.000198 -0.000054 0.000000
0.000008 -0.000232 -0.000032 0.000000
-0.000011 -0.000179 -0.000084 0.000000
0.000029 -0.000224 -0.000103 0.000000
0.000058 -0.000217 -0.000127 0.000000
0.000004 -0.000217 -0.000083 0.000000
-0.000012 -0.000089 0.000199 0.000000
-0.000022 -0.000195 -0.000164 0.000000
-0.000314 -0.000506 0.000006 0.000000
0.000294 -0.000986 0.000571 0.000000
-0.000016 -0.000099 0.000058 0.000000
0.002256 -0.002683 -0.002128 0.000000
-0.000004 -0.000131 0.000095 0.000000
0.002452 -0.003514 -0.001510 0.000000
-0.000013 -0.000196 -0.000105 0.000000
-0.000011 -0.000171 -0.000071 0.000000
-0.000184 -0.000525 0.000304 0.000000
-0.000152 -0.000413 0.000459 0.000000
0.000030 -0.000808 0.000586 0.000000
0.000806 -0.001555 0.000994 0.000000
0.000012 -0.000141 -0.000015 0.000000
-0.000002 -0.000170 -0.000044 0.000000
-0.000021 -0.000161 -0.000075 0.000000
-0.000013 -0.000147 -0.000027 0.000000
-0.000010 -0.000177 -0.000129 0.000000
0.001117 -0.001892 0.001708 0.000000
-0.000162 -0.000603 0.000209 0.000000
-0.000069 -0.000493 0.000165 0.000000
0.000021 -0.000057 -0.000000 0.000000
-0.000015 -0.000110 0.000006 0.000000
0.002458 -0.002821 -0.000076 0.000000
0.000150 -0.001320 0.000859 0.000000
0.000004 -0.000146 -0.000010 0.000000
0.000147 -0.000509 -0.000227 0.000000
-0.000010 -0.000127 0.000008 0.000000
-0.000017 -0.000146 -0.000038 0.000000
0.000012 -0.000156 -0.000001 0.000000
-0.000002 -0.000150 0.000039 0.000000
0.000763 -0.001155 0.000925 0.000000
0.000011 -0.000124 0.000008 0.000000
-0.000026 -0.000160 -0.000024 0.000000
-0.000015 -0.000153 0.000028 0.000000
0.000005 -0.000163 0.000071 0.000000
0.000645 -0.000535 0.002045 0.000000
-0.000067 -0.000135 0.000004 0.000000
-0.000010 -0.000160 -0.000004 0.000000
-0.000015 -0.000158 -0.000009 0.000000
0.000024 -0.000196 0.000121 0.000000
0.000201 -0.000745 0.000200 0.000000
0.000015 -0.000172 -0.000046 0.000000
0.000025 -0.000108 0.000002 0.000000
0.000073 -0.000121 0.000049 0.000000
-0.000003 -0.000166 -0.000027 0.000000
-0.000022 -0.000171 0.000016 0.000000
-0.000054 -0.000404 0.000438 0.000000
-0.000027 -0.000159 -0.000041 0.000000
0.000032 -0.000129 -0.000016 0.000000
0.000007 -0.000102 -0.000090 0.000000
0.000113 -0.001199 0.000212 0.000000
0.000396 -0.001179 -0.000967 0.000000
0.000174 -0.000953 -0.000895 0.000000
-0.000028 -0.000153 0.000024 0.000000
0.000373 -0.001064 -0.001038 0.000000
0.001776 -0.003404 -0.000721 0.000000
0.000008 -0.000201 -0.000055 0.000000
-0.000293 -0.000565 -0.000007 0.000000
0.000414 -0.001238 -0.001079 0.000000
0.000756 -0.002017 -0.000109 0.000000
-0.000090 -0.000781 -0.000409 0.000000
0.000100 -0.000841 -0.000616 0.000000
-0.000136 -0.000668 -0.000192 0.000000
0.000136 -0.000920 -0.000744 0.000000
-0.000163 -0.000699 -0.000129 0.000000
-0.000141 -0.000654 -0.000351 0.000000
-0.000143 -0.000723 -0.000290 0.000000
-0.000264 -0.000626 0.000021 0.000000
-0.000143 -0.000972 0.000060 0.000000
-0.000120 -0.000669 0.000100 0.000000
0.000966 -0.002110 -0.001440 0.000000
0.000336 -0.001269 -0.002666 0.000000
-0.000132 -0.000700 -0.000363 0.000000
0.000586 -0.001175 -0.002976 0.000000
0.000057 -0.000214 -0.000019 0.000000
0.000533 -0.001711 -0.000064 0.000000
0.000024 -0.000226 -0.000141 0.000000
0.000046 -0.000969 -0.000574 0.000000
0.000019 -0.001159 0.000240 0.000000
0.000928 -0.001786 -0.001199 0.000000
0.000077 -0.000246 0.000048 0.000000
0.000484 -0.001662 -0.001243 0.000000
0.000077 -0.000205 -0.000011 0.000000
0.000030 -0.000205 0.000058 0.000000
0.000048 -0.000228 0.000010 0.000000
0.000152 -0.001699 0.000099 0.000000
0.000034 -0.000271 -0.000046 0.000000
0.000747 -0.002053 -0.000759 0.000000
0.000703 -0.001485 0.001353 0.000000
0.000034 -0.000216 0.000015 0.000000
-0.000263 -0.000434 0.000007 0.000000
0.000101 -0.000742 0.000105 0.000000
0.000434 -0.001106 -0.000038 0.000000
0.000902 -0.001242 0.001819 0.000000
0.000132 -0.000778 0.000388 0.000000
-0.000347 -0.000423 0.000177 0.000000
0.000134 -0.000774 0.000313 0.000000
0.000742 -0.001611 -0.000684 0.000000
-0.000403 -0.000284 0.000057 0.000000
0.001104 -0.002269 -0.002410 0.000000
0.000132 -0.000223 0.000016 0.000000
-0.000008 -0.000180 0.000025 0.000000
0.000022 -0.000174 0.000069 0.000000
0.000027 -0.000128 0.000057 0.000000
-0.000002 -0.000588 0.000005 0.000000
0.000348 -0.001493 0.000404 0.000000
-0.000005 -0.000161 0.000052 0.000000
0.001039 -0.002012 -0.000963 0.000000
-0.000305 -0.000422 0.000178 0.000000
-0.000008 -0.000271 0.000049 0.000000
-0.000221 -0.000551 0.000125 0.000000
0.001174 -0.002294 0.000862 0.000000
0.000032 -0.000194 0.000090 0.000000
0.000543 -0.001015 0.000306 0.000000
0.000061 -0.000219 0.000031 0.000000
-0.000008 -0.000593 -0.000287 0.000000
0.000258 -0.000597 -0.000217 0.000000
0.000834 -0.001271 -0.000173 0.000000
0.000039 -0.000105 -0.000017 0.000000
0.000621 -0.001049 0.000465 0.000000
0.000034 -0.000156 0.000065 0.000000
0.000097 -0.000237 0.000066 0.000000
0.000058 -0.000107 0.000024 0.000000
0.000057 -0.000111 -0.000051 0.000000
0.000038 -0.000153 0.000074 0.000000
0.000049 -0.000176 0.000083 0.000000
0.000036 -0.000175 0.000091 0.000000
0.000287 -0.001187 -0.000819 0.000000
0.000243 -0.001087 -0.001152 0.000000
-0.000002 -0.000067 0.000010 0.000000
0.000003 -0.000103 -0.000083 0.000000
0.000139 -0.001297 -0.000514 0.000000
0.000651 -0.000705 -0.002098 0.000000
-0.000013 -0.000108 -0.000024 0.000000
-0.000032 -0.000102 -0.000089 0.000000
-0.000207 -0.000492 -0.000147 0.000000
0.000045 -0.000111 -0.000019 0.000000
0.000003 -0.000106 -0.000058 0.000000
0.000002 -0.000110 -0.000042 0.000000
-0.000018 -0.000157 -0.000097 0.000000
0.000067 -0.000111 -0.000058 0.000000
0.000896 -0.001485 -0.001183 0.000000
0.000032 -0.000098 -0.000005 0.000000
0.000449 -0.000445 -0.002170 0.000000
0.000299 -0.001129 -0.000350 0.000000
-0.000049 -0.000735 -0.000586 0.000000
0.000005 -0.000065 -0.000014 0.000000
-0.000017 -0.000020 -0.000813 0.000000
0.000018 -0.000083 0.000022 0.000000
0.000023 -0.000096 0.000018 0.000000
-0.000001 -0.000110 -0.000025 0.000000
0.000041 -0.000065 0.000041 0.000000
0.000023 -0.000095 0.000016 0.000000
0.000014 -0.000047 0.000028 0.000000
0.000020 -0.000078 0.000021 0.000000
0.000021 -0.000086 0.000019 0.000000
0.000021 -0.000084 0.000024 0.000000
0.000024 -0.000105 0.000012 0.000000
0.000025 -0.000091 0.000020 0.000000
0.000022 -0.000093 0.000019 0.000000
0.000020 -0.000078 0.000017 0.000000
0.000045 -0.000180 -0.000013 0.000000
0.000344 -0.000229 -0.000050 0.000000
0.000084 -0.000169 0.000028 0.000000
0.000485 -0.000827 -0.000274 0.000000
0.000113 -0.000991 -0.000379 0.000000
0.000017 -0.000059 0.000019 0.000000
0.000244 -0.000489 -0.000206 0.000000
0.000018 -0.000065 0.000014 0.000000
0.000038 -0.000076 -0.000045 0.000000
0.000111 -0.000310 0.000280 0.000000
0.000422 -0.000577 0.000195 0.000000
0.000570 -0.001451 -0.000725 0.000000
0.000132 -0.000359 0.000011 0.000000
0.000073 -0.000110 0.000562 0.000000
0.000680 -0.000808 -0.000360 0.000000
0.000785 -0.001089 -0.000176 0.000000
0.000023 -0.000080 0.000095 0.000000
0.000176 -0.000330 0.000076 0.000000
0.000116 -0.000341 -0.000051 0.000000
-0.000008 -0.000074 0.000132 0.000000
0.000031 -0.000095 -0.000042 0.000000
0.000039 -0.000139 -0.000081 0.000000
0.000634 -0.000758 -0.001228 0.000000
0.000083 -0.000142 -0.000079 0.000000
0.000039 -0.000208 -0.000102 0.000000
0.000029 -0.000117 -0.000062 0.000000
0.000534 -0.000789 0.000453 0.000000
0.000347 -0.000443 0.000090 0.000000
0.000130 -0.000389 -0.000045 0.000000
0.000151 -0.000430 -0.000064 0.000000
0.000055 -0.000164 -0.000017 0.000000
0.000016 -0.000053 0.000067 0.000000
0.000450 -0.000485 0.000735 0.000000
0.000072 -0.000113 0.000167 0.000000
0.000102 -0.000123 0.000028 0.000000
0.000217 -0.000398 0.000011 0.000000
0.000241 -0.000242 0.000415 0.000000
0.000177 -0.000164 -0.000034 0.000000
0.000352 -0.000327 0.000161 0.000000
-0.000017 -0.000096 0.000023 0.000000
0.000103 -0.000107 0.000036 0.000000
0.000477 -0.000493 0.000068 0.000000
0.000297 -0.000315 0.000220 0.000000
0.000476 -0.000464 0.000090 0.000000
0.000452 -0.000431 0.000047 0.000000
0.000012 -0.000027 0.000012 0.000000
0.000543 -0.000534 -0.000055 0.000000
0.000155 -0.000503 -0.000012 0.000000
0.000316 -0.000518 -0.000271 0.000000
0.000009 -0.000071 -0.000028 0.000000
0.000051 -0.000158 -0.000208 0.000000
0.000313 -0.000399 0.000316 0.000000
0.000013 -0.000045 0.000010 0.000000
0.000005 -0.000051 -0.000073 0.000000
0.000011 -0.000071 -0.000028 0.000000
0.000034 -0.000067 -0.000064 0.000000
-0.000002 -0.000014 -0.000007 0.000000
0.000024 -0.000078 0.000053 0.000000
0.000004 -0.000012 -0.000019 0.000000
0.000074 -0.000177 0.000117 0.000000
0.000008 -0.000050 -0.000000 0.000000
0.000098 -0.000181 -0.000030 0.000000
0.000383 -0.000427 0.000309 0.000000
0.000072 -0.000142 0.000087 0.000000
0.000051 -0.000162 0.000145 0.000000
0.000026 -0.000199 0.000019 0.000000
0.000516 -0.000612 0.000372 0.000000
0.000524 -0.000663 0.000395 0.000000
0.000006 -0.000070 0.000063 0.000000
0.000062 -0.000173 0.000231 0.000000
-0.000004 -0.000072 0.000003 0.000000
0.000543 -0.000602 -0.001131 0.000000
-0.000003 -0.000127 0.000063 0.000000
0.000043 -0.000249 0.000123 0.000000
0.000415 -0.000724 -0.000803 0.000000
0.000016 -0.000085 -0.000017 0.000000
0.000015 -0.000067 0.000016 0.000000
0.000312 -0.000485 0.000343 0.000000
0.000774 -0.001117 -0.000156 0.000000
0.000019 -0.000071 0.000013 0.000000
0.000528 -0.000624 0.000365 0.000000
0.000021 -0.000063 -0.000021 0.000000
0.000053 -0.000184 0.000010 0.000000
0.000019 -0.000062 -0.000013 0.000000
-0.000023 -0.000093 -0.000079 0.000000
0.000020 -0.000062 -0.000014 0.000000
0.000029 -0.000109 -0.000009 0.000000
0.000015 -0.000061 0.000022 0.000000
0.000009 -0.000061 0.000043 0.000000
0.000005 -0.000072 -0.000018 0.000000
-0.000022 -0.000131 -0.000083 0.000000
0.000029 -0.000164 0.000051 0.000000
0.000005 -0.000044 0.000012 0.000000
0.000020 -0.000072 0.000010 0.000000
0.000016 -0.000050 -0.000009 0.000000
0.000201 -0.000352 -0.000168 0.000000
0.000019 -0.000066 -0.000017 0.000000
0.000021 -0.000215 -0.000008 0.000000
0.000186 -0.000236 -0.000073 0.000000
0.000127 -0.000296 -0.000042 0.000000
0.000159 -0.000225 -0.000102 0.000000
0.000014 -0.000069 -0.000030 0.000000
0.000546 -0.000524 0.000262 0.000000
0.000269 -0.000267 -0.000052 0.000000
0.000018 -0.000046 -0.000022 0.000000
0.000014 -0.000020 -0.000010 0.000000
-0.000027 -0.000111 -0.000015 0.000000
0.000063 -0.000046 0.000031 0.000000
-0.000009 -0.000086 0.000007 0.000000
-0.000004 -0.000075 0.000025 0.000000
0.000001 -0.000036 0.000002 0.000000
-0.000001 -0.000029 0.000001 0.000000
0.000009 -0.000112 0.000048 0.000000
0.000003 -0.000040 0.000014 0.000000
-0.000001 -0.000021 -0.000013 0.000000
0.000001 -0.000032 0.000005 0.000000
0.000969 -0.001111 -0.000492 0.000000
0.000013 -0.000084 -0.000037 0.000000
0.000142 -0.000149 0.000100 0.000000
0.000044 -0.000155 0.000075 0.000000
-0.000007 -0.000233 0.000192 0.000000
0.000641 -0.000574 -0.000091 0.000000
0.000583 -0.000656 -0.000182 0.000000
0.001816 -0.001885 0.001896 0.000000
0.001132 -0.001511 0.000067 0.000000
0.001518 -0.001534 0.000690 0.000000
0.000005 -0.000186 -0.000062 0.000000
-0.000016 -0.000185 -0.000135 0.000000
0.002466 -0.002670 -0.002415 0.000000
0.000423 -0.001073 0.001699 0.000000
0.002689 -0.002815 -0.000345 0.000000
0.000045 -0.000087 -0.000023 0.000000
0.000005 -0.000039 0.000019 0.000000
0.000659 -0.001147 -0.000012 0.000000
0.002472 -0.002525 -0.004262 0.000000
0.002717 -0.002689 -0.004802 0.000000
0.000015 -0.000060 0.000034 0.000000
0.000012 -0.000059 0.000021 0.000000
0.001879 -0.001922 -0.002724 0.000000
0.000007 -0.000042 0.000018 0.000000
0.000009 -0.000048 0.000029 0.000000
0.000100 -0.000593 0.000215 0.000000
0.000033 -0.000092 0.000039 0.000000
0.000020 -0.000096 -0.000006 0.000000
0.000017 -0.000078 0.000004 0.000000
0.000014 -0.000058 -0.000013 0.000000
0.002970 -0.003270 -0.004032 0.000000
0.000034 -0.000070 0.000062 0.000000
0.003043 -0.003341 -0.000283 0.000000
-0.000009 -0.000119 0.000008 0.000000
0.000700 -0.000972 -0.001519 0.000000
-0.000032 -0.000386 0.000300 0.000000
0.001658 -0.001822 -0.002242 0.000000
0.000022 -0.000086 0.000006 0.000000
0.000566 -0.001233 0.001227 0.000000
0.001318 -0.001465 0.000565 0.000000
0.000020 -0.000141 0.000025 0.000000
0.000841 -0.001264 -0.000793 0.000000
0.001915 -0.002900 -0.001695 0.000000
0.000218 -0.000147 0.000115 0.000000
0.002443 -0.002560 -0.002108 0.000000
0.003066 -0.003388 -0.004575 0.000000
0.000009 -0.000060 0.000020 0.000000
-0.000171 -0.000090 -0.000116 0.000000
0.000014 -0.000062 0.000028 0.000000
0.000004 -0.000086 0.000072 0.000000
0.000016 -0.000066 -0.000029 0.000000
0.000014 -0.000092 -0.000043 0.000000
0.000039 -0.000067 -0.000055 0.000000
0.000017 -0.000075 -0.000023 0.000000
0.000024 -0.000096 -0.000015 0.000000
0.000022 -0.000100 0.000013 0.000000
0.000022 -0.000080 -0.000011 0.000000
0.000021 -0.000086 0.000020 0.000000
0.000228 -0.000448 -0.000402 0.000000
0.000012 -0.000080 -0.000028 0.000000
-0.000076 -0.000092 -0.000184 0.000000
0.000087 -0.000169 -0.000350 0.000000
0.000005 -0.000110 -0.000008 0.000000
0.002257 -0.003397 0.000151 0.000000
-0.000029 -0.000370 -0.000111 0.000000
-0.000081 -0.000331 -0.000048 0.000000
0.000010 -0.000079 -0.000032 0.000000
0.000010 -0.000132 -0.000020 0.000000
-0.000000 -0.000092 -0.000074 0.000000
0.000014 -0.000109 -0.000033 0.000000
0.000027 -0.000170 -0.000029 0.000000
-0.000060 -0.000406 -0.000173 0.000000
0.000001 -0.000184 -0.000073 0.000000
0.000412 -0.001098 -0.000914 0.000000
0.000135 -0.001179 -0.000607 0.000000
0.000026 -0.000174 0.000003 0.000000
-0.000001 -0.000572 -0.000179 0.000000
0.000004 -0.000097 -0.000067 0.000000
-0.000087 -0.000406 -0.000165 0.000000
-0.000005 -0.000137 0.000024 0.000000
0.000081 -0.000579 -0.000060 0.000000
0.000157 -0.000900 0.000475 0.000000
0.000010 -0.000139 0.000002 0.000000
0.002714 -0.002700 0.001471 0.000000
0.002708 -0.003349 0.001078 0.000000
0.000117 -0.000717 0.000124 0.000000
-0.000063 -0.000385 -0.000139 0.000000
0.000273 -0.000659 0.000096 0.000000
0.000010 -0.000132 0.000044 0.000000
0.000389 -0.001124 0.000099 0.000000
0.000719 -0.001720 0.000186 0.000000
0.001346 -0.001987 0.001125 0.000000
0.001507 -0.002180 -0.000010 0.000000
0.000000 -0.000097 -0.000060 0.000000
0.000013 -0.000141 0.000013 0.000000
0.000014 -0.000138 0.000032 0.000000
-0.000008 -0.000113 0.000019 0.000000
-0.000017 -0.000131 -0.000019 0.000000
-0.000316 -0.000123 -0.000010 0.000000
0.001738 -0.002177 0.000890 0.000000
0.000593 -0.001320 0.001998 0.000000
0.000790 -0.001424 0.001788 0.000000
0.000957 -0.001402 0.000182 0.000000
0.000016 -0.000061 -0.000011 0.000000
0.000013 -0.000095 0.000001 0.000000
0.001037 -0.001642 0.000901 0.000000
0.001022 -0.001639 0.000392 0.000000
0.001380 -0.001644 -0.000259 0.000000
0.000732 -0.001550 0.001289 0.000000
0.000021 -0.000119 -0.000028 0.000000
0.000035 -0.000110 0.000062 0.000000
0.000057 -0.000106 -0.000017 0.000000
-0.000005 -0.000101 0.000081 0.000000
0.000045 -0.000106 0.000008 0.000000
0.000078 -0.000171 0.000104 0.000000
0.000093 -0.000148 -0.000031 0.000000
0.000119 -0.000184 0.000012 0.000000
0.000104 -0.000156 -0.000111 0.000000
0.000121 -0.000219 0.000084 0.000000
-0.000009 -0.000054 -0.000145 0.000000
0.000133 -0.000202 -0.000059 0.000000
0.000152 -0.000411 0.000251 0.000000
0.000060 -0.000108 -0.000076 0.000000
0.000164 -0.000213 -0.000027 0.000000
0.000023 -0.000067 -0.000097 0.000000
0.000073 -0.000142 0.000024 0.000000
0.000282 -0.000702 -0.000195 0.000000
0.000118 -0.000166 -0.000246 0.000000
0.000067 -0.000190 0.000153 0.000000
0.000064 -0.000143 0.000031 0.000000
0.000051 -0.000144 0.000089 0.000000
0.000077 -0.000152 -0.000016 0.000000
0.000094 -0.000164 -0.000046 0.000000
0.000018 -0.000053 -0.000113 0.000000
0.000072 -0.000129 -0.000008 0.000000
-0.000020 -0.000273 -0.000025 0.000000
0.000064 -0.000111 -0.000098 0.000000
0.000097 -0.000337 0.000001 0.000000
0.000039 -0.000085 -0.000110 0.000000
0.000012 -0.000055 -0.000059 0.000000
-0.000017 -0.000229 -0.000131 0.000000
0.000056 -0.000106 -0.000017 0.000000
0.000847 -0.000808 0.001600 0.000000
-0.000016 -0.000027 0.000016 0.000000
0.000068 -0.000279 -0.000337 0.000000
0.000171 -0.000241 -0.000242 0.000000
0.000034 -0.000084 -0.000068 0.000000
0.000009 -0.000408 -0.000140 0.000000
0.000234 -0.000686 -0.000376 0.000000
0.000313 -0.000687 -0.000284 0.000000
0.000050 -0.000095 -0.000008 0.000000
0.000016 -0.000104 0.000052 0.000000
-0.000017 -0.000363 0.000125 0.000000
0.000058 -0.000106 -0.000018 0.000000
0.000036 -0.000120 -0.000016 0.000000
0.000010 -0.000106 0.000074 0.000000
0.000025 -0.000092 0.000012 0.000000
0.000053 -0.000131 0.000046 0.000000
0.000191 -0.000923 0.000623 0.000000
0.000012 -0.000050 0.000010 0.000000
0.000039 -0.000182 -0.000037 0.000000
0.000023 -0.000110 0.000024 0.000000
0.000038 -0.000050 0.000082 0.000000
0.000013 -0.000048 -0.000011 0.000000
0.000859 -0.001064 0.000022 0.000000
0.000147 -0.000334 -0.000191 0.000000
0.000069 -0.000229 -0.000031 0.000000
0.000031 -0.000087 -0.000015 0.000000
0.000014 -0.000070 -0.000006 0.000000
0.000019 -0.000092 0.000001 0.000000
0.000031 -0.000092 0.000037 0.000000
0.001484 -0.001252 0.000710 0.000000
0.000091 -0.000475 0.000183 0.000000
0.000260 -0.000604 0.000343 0.000000
0.000034 -0.000433 0.000261 0.000000
0.000038 -0.000092 -0.000004 0.000000
0.001520 -0.001470 0.000574 0.000000
-0.000014 -0.000011 -0.000056 0.000000
0.000020 -0.000307 0.000108 0.000000
0.000047 -0.000375 -0.000057 0.000000
0.000015 -0.000050 -0.000016 0.000000
0.000016 -0.000059 -0.000007 0.000000
0.000269 -0.000483 0.001031 0.000000
-0.000028 0.000019 0.000058 0.000000
0.000027 -0.000270 0.000010 0.000000
0.001142 -0.001095 0.000613 0.000000
0.000184 -0.000322 -0.000188 0.000000
-0.000030 -0.000003 -0.000018 0.000000
0.000009 -0.000050 -0.000123 0.000000
0.000011 -0.000037 -0.000102 0.000000
0.000018 -0.000062 0.000049 0.000000
0.000617 -0.000645 0.000350 0.000000
-0.000031 -0.000001 0.000037 0.000000
0.000730 -0.000750 0.000115 0.000000
0.000011 -0.000032 0.000028 0.000000
0.000006 -0.000021 -0.000001 0.000000
0.000007 -0.000026 0.000026 0.000000
-0.000004 -0.000003 0.000332 0.000000
0.000021 -0.000060 0.000065 0.000000
0.000031 -0.000048 0.000018 0.000000
0.000012 -0.000029 0.000017 0.000000
-0.000017 -0.000004 0.000112 0.000000
0.000558 -0.000574 -0.000011 0.000000
0.000017 -0.000042 0.000026 0.000000
0.000165 -0.000307 -0.000441 0.000000
0.000200 -0.000133 0.000312 0.000000
0.000045 -0.000034 0.000001 0.000000
0.000009 -0.000080 -0.000134 0.000000
0.000532 -0.000575 0.000179 0.000000
0.000102 -0.000117 -0.000127 0.000000
0.000147 -0.000304 -0.000212 0.000000
0.000005 -0.000045 -0.000027 0.000000
-0.000029 -0.000070 -0.000110 0.000000
0.000019 -0.000090 -0.000204 0.000000
0.000573 -0.000574 0.000066 0.000000
0.000047 -0.000109 -0.000003 0.000000
0.000010 -0.000072 -0.000011 0.000000
0.000134 -0.000305 -0.000275 0.000000
0.000158 -0.000320 -0.000242 0.000000
0.000226 -0.000345 -0.000299 0.000000
0.000157 -0.000238 -0.000271 0.000000
0.000814 -0.000818 -0.000443 0.000000
0.000017 -0.000073 -0.000047 0.000000
0.000453 -0.000426 0.000132 0.000000
0.000042 -0.000247 -0.000101 0.000000
0.000090 -0.000476 -0.000248 0.000000
0.000062 -0.000109 -0.000022 0.000000
0.000081 -0.000223 0.000058 0.000000
0.000011 -0.000042 -0.000022 0.000000
0.000070 -0.000398 -0.000378 0.000000
0.000017 -0.000067 -0.000012 0.000000
0.000060 -0.000194 -0.000436 0.000000
0.000151 -0.000216 -0.000256 0.000000
0.000074 -0.000318 -0.000298 0.000000
-0.000013 -0.000038 -0.000027 0.000000
-0.000018 -0.000033 0.000050 0.000000
-0.000017 -0.000025 0.000003 0.000000
0.000220 -0.000700 0.001101 0.000000
0.000172 -0.000713 0.000136 0.000000
0.000950 -0.001147 0.000062 0.000000
0.000295 -0.000306 0.000126 0.000000
0.001121 -0.001636 0.000057 0.000000
0.001509 -0.001858 0.000326 0.000000
0.000019 -0.000059 0.000041 0.000000
0.000032 -0.000112 0.000019 0.000000
0.001097 -0.001291 -0.000603 0.000000
0.001833 -0.001746 -0.000315 0.000000
0.000126 -0.000398 0.000392 0.000000
0.000010 -0.000051 0.000061 0.000000
-0.000031 0.000045 0.000261 0.000000
0.000040 -0.000102 -0.000015 0.000000
0.000176 -0.000186 0.000096 0.000000
0.000004 -0.000041 0.000014 0.000000
0.000084 -0.000179 0.000163 0.000000
0.000016 -0.000043 0.000037 0.000000
-0.000012 -0.000011 -0.000027 0.000000
0.000573 -0.001113 0.000038 0.000000
0.000133 -0.000202 -0.000019 0.000000
0.000883 -0.000912 -0.000295 0.000000
0.000501 -0.000510 -0.000046 0.000000
0.000082 -0.000057 0.000048 0.000000
0.001692 -0.001849 -0.000686 0.000000
0.000012 -0.000033 0.000031 0.000000
0.000002 -0.000051 0.000082 0.000000
0.001682 -0.001672 -0.000616 0.000000
0.000017 -0.000041 0.000028 0.000000
0.002058 -0.002108 -0.001095 0.000000
0.001189 -0.001119 -0.000161 0.000000
0.000933 -0.001029 -0.000176 0.000000
0.000592 -0.000870 -0.000605 0.000000
0.001508 -0.001799 -0.001483 0.000000
0.001037 -0.001347 -0.001225 0.000000
0.000138 -0.000144 -0.000024 0.000000
0.000043 -0.000054 -0.000012 0.000000
0.000033 -0.000171 0.000087 0.000000
0.000038 -0.000029 -0.000023 0.000000
0.000022 -0.000207 0.000051 0.000000
0.000461 -0.001001 -0.000999 0.000000
0.000046 -0.000079 0.000003 0.000000
0.000036 -0.000134 0.000030 0.000000
-0.000011 -0.000117 0.000034 0.000000
0.000089 -0.000140 0.000088 0.000000
0.000001 -0.000038 0.000016 0.000000
-0.000019 -0.000168 0.000364 0.000000
0.001191 -0.001885 -0.002563 0.000000
0.003536 -0.002752 -0.003242 0.000000
0.000654 -0.000835 -0.000957 0.000000
-0.000042 -0.000148 0.000047 0.000000
0.000477 -0.000821 0.000403 0.000000
0.000896 -0.001061 -0.000982 0.000000
0.000859 -0.001242 -0.000897 0.000000
0.000815 -0.000919 -0.000808 0.000000
0.000857 -0.001458 -0.000021 0.000000
0.001032 -0.001154 -0.000492 0.000000
-0.000054 -0.000157 0.000441 0.000000
0.000004 -0.000157 0.000398 0.000000
0.000007 -0.000054 0.000024 0.000000
0.000010 -0.000077 0.000007 0.000000
-0.000146 -0.000145 0.000529 0.000000
0.000052 -0.000117 0.000094 0.000000
0.000172 -0.000047 0.000550 0.000000
-0.000032 -0.000177 0.000215 0.000000
0.000884 -0.000258 -0.000154 0.000000
0.000114 -0.000267 -0.000034 0.000000
-0.000002 -0.000142 0.000065 0.000000
0.001152 -0.001639 -0.000207 0.000000
0.000041 -0.000111 0.000019 0.000000
0.003616 -0.004136 -0.001955 0.000000
0.000087 -0.000117 0.000044 0.000000
0.004611 -0.003793 -0.003181 0.000000
0.001471 -0.001564 -0.000307 0.000000
0.000098 -0.000118 0.000045 0.000000
0.001191 -0.001520 -0.000716 0.000000
0.000047 -0.000090 -0.000025 0.000000
0.000060 -0.000465 0.000058 0.000000
0.000038 -0.000104 0.000028 0.000000
0.000613 -0.000969 -0.000455 0.000000
0.000040 -0.000103 0.000024 0.000000
0.000309 -0.000636 0.000715 0.000000
-0.000006 -0.000047 -0.000017 0.000000
0.000160 -0.000637 0.000056 0.000000
0.001200 -0.001625 0.000135 0.000000
-0.000016 -0.000033 0.000004 0.000000
-0.000005 -0.000035 -0.000026 0.000000
0.001312 -0.001954 0.002038 0.000000
-0.000019 -0.000027 0.000019 0.000000
0.000035 -0.000103 0.000019 0.000000
0.001310 -0.001837 -0.000062 0.000000
0.000016 -0.000091 0.000008 0.000000
0.000038 -0.000098 0.000029 0.000000
0.000020 -0.000082 0.000024 0.000000
0.000052 -0.000655 -0.000021 0.000000
0.000040 -0.000185 0.000220 0.000000
0.000165 -0.000239 0.000069 0.000000
0.000045 -0.000126 0.000054 0.000000
0.000091 -0.000169 -0.000045 0.000000
0.002438 -0.003124 0.002331 0.000000
0.000043 -0.000050 -0.000177 0.000000
-0.000064 -0.000169 -0.000226 0.000000
0.001136 -0.000466 0.002507 0.000000
0.000180 -0.000227 -0.000032 0.000000
0.000080 -0.000162 0.000071 0.000000
0.000090 -0.000164 0.000034 0.000000
0.000128 -0.000185 -0.000012 0.000000
0.000034 -0.000116 0.000019 0.000000
0.000124 -0.000173 -0.000032 0.000000
0.000068 -0.000137 0.000031 0.000000
0.000109 -0.000174 -0.000014 0.000000
0.000072 -0.000146 0.000004 0.000000
0.000114 -0.000166 0.000021 0.000000
0.000050 -0.000110 0.000023 0.000000
0.000056 -0.000128 0.000025 0.000000
0.000060 -0.000127 0.000020 0.000000
0.000075 -0.000145 -0.000000 0.000000
0.000043 -0.000112 0.000018 0.000000
0.000060 -0.000128 0.000018 0.000000
0.000046 -0.000109 0.000038 0.000000
0.000048 -0.000102 0.000011 0.000000
0.000024 -0.000095 0.000040 0.000000
0.004811 -0.004566 -0.001421 0.000000
0.000051 -0.000091 0.000094 0.000000
0.000011 -0.000094 0.000027 0.000000
0.000021 -0.000105 -0.000003 0.000000
0.000054 -0.000126 0.000025 0.000000
0.000028 -0.000098 0.000023 0.000000
0.000015 -0.000095 0.000016 0.000000
0.004743 -0.004044 -0.000821 0.000000
-0.000010 -0.000087 0.000099 0.000000
-0.000015 -0.000020 0.000039 0.000000
0.000025 -0.000119 -0.000013 0.000000
0.000020 -0.000108 -0.000004 0.000000
0.000048 -0.000131 -0.000054 0.000000
0.000018 -0.000112 -0.000001 0.000000
0.000033 -0.000113 0.000015 0.000000
0.000023 -0.000104 -0.000006 0.000000
0.000021 -0.000114 -0.000008 0.000000
0.000035 -0.000106 0.000024 0.000000
0.000085 -0.000158 -0.000028 0.000000
-0.000001 -0.000115 -0.000020 0.000000
0.000021 -0.000117 -0.000015 0.000000
0.000007 -0.000113 -0.000007 0.000000
0.000022 -0.000108 -0.000000 0.000000
0.000011 -0.000117 -0.000017 0.000000
0.004710 -0.005533 0.000431 0.000000
-0.000019 -0.000115 -0.000034 0.000000
0.000002 -0.000128 0.000019 0.000000
-0.000002 -0.000115 -0.000012 0.000000
0.000004 -0.000119 0.000100 0.000000
-0.000006 -0.000116 -0.000049 0.000000
-0.000041 -0.000891 -0.001000 0.000000
-0.000021 -0.000113 -0.000031 0.000000
0.000375 -0.001670 0.000058 0.000000
-0.000023 -0.000118 -0.000087 0.000000
0.000843 -0.001689 -0.002774 0.000000
-0.000025 -0.000116 -0.000057 0.000000
0.000710 -0.001719 -0.002550 0.000000
-0.000012 -0.000124 -0.000102 0.000000
-0.000015 -0.000118 -0.000060 0.000000
0.000042 -0.000145 -0.000083 0.000000
0.000009 -0.000118 -0.000025 0.000000
-0.000010 -0.000115 -0.000030 0.000000
0.000015 -0.000119 -0.000022 0.000000
0.000035 -0.000129 -0.000174 0.000000
0.000135 -0.000200 -0.000149 0.000000
0.000030 -0.000136 -0.000121 0.000000
0.000045 -0.000149 -0.000118 0.000000
-0.000008 -0.001126 -0.001563 0.000000
-0.000100 -0.000261 0.000184 0.000000
-0.000041 -0.000079 -0.000254 0.000000
0.000005 -0.000111 -0.000214 0.000000
0.000380 -0.001711 -0.001644 0.000000
0.001172 -0.002107 -0.000234 0.000000
-0.000371 -0.000885 -0.001353 0.000000
0.000492 -0.001473 -0.001483 0.000000
0.000975 -0.002036 -0.000715 0.000000
0.000311 -0.000170 0.000418 0.000000
0.000187 -0.000249 -0.000297 0.000000
0.000118 -0.000224 -0.000324 0.000000
0.000221 -0.000202 -0.000333 0.000000
0.000140 -0.000199 -0.000078 0.000000
0.000084 -0.000170 -0.000304 0.000000
0.000061 -0.000150 -0.000126 0.000000
0.000081 -0.000166 -0.000133 0.000000
0.000069 -0.000147 -0.000019 0.000000
0.000025 -0.000139 -0.000089 0.000000
0.000058 -0.000153 -0.000084 0.000000
0.000105 -0.000182 -0.000079 0.000000
0.000100 -0.000158 -0.000015 0.000000
0.000067 -0.000154 -0.000051 0.000000
0.000115 -0.000169 -0.000055 0.000000
0.000130 -0.000183 -0.000145 0.000000
0.000143 -0.000199 -0.000126 0.000000
0.002569 -0.001267 0.007333 0.000000
0.000162 -0.000209 -0.000168 0.000000
0.000139 -0.000183 -0.000064 0.000000
0.000100 -0.000173 -0.000026 0.000000
0.000065 -0.000143 0.000075 0.000000
0.000111 -0.000197 0.000061 0.000000
0.000175 -0.000104 -0.000094 0.000000
0.000169 -0.000227 0.000103 0.000000
0.000076 -0.000200 0.000139 0.000000
-0.000084 -0.000139 0.000035 0.000000
0.000093 -0.000200 0.000102 0.000000
0.000130 -0.000232 0.000135 0.000000
0.000068 -0.000205 0.000126 0.000000
0.000090 -0.000241 0.000117 0.000000
0.000096 -0.000188 0.000075 0.000000
0.000047 -0.000199 0.000134 0.000000
0.000084 -0.000171 0.000074 0.000000
0.000089 -0.000191 0.000085 0.000000
0.000086 -0.000179 0.000064 0.000000
0.000080 -0.000188 0.000091 0.000000
0.000665 -0.001268 0.002304 0.000000
-0.000045 -0.000086 0.000051 0.000000
-0.000003 -0.000105 0.000143 0.000000
0.000440 -0.000980 0.000671 0.000000
0.001171 -0.001918 0.000020 0.000000
0.002426 -0.003493 -0.000921 0.000000
-0.000221 -0.000693 0.000795 0.000000
0.001314 -0.001945 0.001619 0.000000
0.002430 -0.002763 -0.001596 0.000000
-0.000011 -0.000160 0.000242 0.000000
0.000637 -0.001157 0.002554 0.000000
0.000131 -0.000161 0.000236 0.000000
0.000047 -0.000151 0.000191 0.000000
0.000707 -0.001587 0.001121 0.000000
0.003303 -0.003124 -0.000059 0.000000
0.000059 -0.000190 0.000239 0.000000
0.000066 -0.000178 0.000234 0.000000
-0.000054 -0.000220 0.000047 0.000000
0.000140 -0.000182 0.000113 0.000000
0.002003 -0.001877 -0.003667 0.000000
-0.000001 -0.000178 0.000153 0.000000
0.000038 -0.000219 0.000103 0.000000
0.000832 -0.001328 -0.000044 0.000000
-0.000001 -0.000142 0.000129 0.000000
0.000070 -0.000104 0.000325 0.000000
0.000021 -0.000138 0.000097 0.000000
-0.000004 -0.000153 0.000093 0.000000
0.000366 -0.001307 0.000553 0.000000
0.000960 -0.001389 0.000987 0.000000
-0.000010 -0.000160 0.000124 0.000000
0.000048 -0.000204 0.000140 0.000000
-0.000796 -0.000479 0.001163 0.000000
0.000466 -0.001682 0.002451 0.000000
0.000017 -0.000186 0.000139 0.000000
0.000838 -0.000915 0.000574 0.000000
0.000061 -0.000183 0.000288 0.000000
0.000028 -0.000174 0.000233 0.000000
0.000014 -0.000127 0.000372 0.000000
-0.001614 -0.000553 0.004769 0.000000
0.001230 -0.002946 0.004078 0.000000
0.000018 -0.000174 0.000172 0.000000
-0.000011 -0.000164 0.000199 0.000000
0.000000 -0.000182 0.000286 0.000000
0.000065 -0.000191 0.000175 0.000000
0.000884 -0.001909 0.002140 0.000000
0.000068 -0.000191 0.000177 0.000000
0.000500 -0.002371 0.003114 0.000000
0.000027 -0.000216 0.000251 0.000000
0.000634 -0.002822 0.003518 0.000000
0.001041 -0.002781 0.003052 0.000000
0.002335 -0.003922 0.007701 0.000000
0.000958 -0.002335 -0.001918 0.000000
0.001013 -0.002425 0.003078 0.000000
0.000844 -0.001900 -0.002277 0.000000
0.002334 -0.003187 0.002667 0.000000
0.000115 -0.001008 0.001396 0.000000
0.002568 -0.004119 0.002743 0.000000
0.001076 -0.002541 0.005748 0.000000
-0.000047 -0.000244 0.000073 0.000000
0.005263 -0.006281 0.000740 0.000000
-0.000081 -0.000217 0.000065 0.000000
0.003040 -0.004669 0.007998 0.000000
-0.000646 -0.000562 0.000410 0.000000
-0.000041 -0.000152 0.000123 0.000000
-0.000882 0.000077 0.000626 0.000000
0.000698 -0.002135 0.001441 0.000000
-0.000612 -0.000491 0.000582 0.000000
0.002355 -0.003362 0.003140 0.000000
0.001243 -0.003227 0.004447 0.000000
0.000144 -0.001598 0.001452 0.000000
0.000042 -0.000222 0.000110 0.000000
0.000776 -0.001143 0.001280 0.000000
-0.000092 -0.000152 0.000067 0.000000
0.002068 -0.003193 0.005761 0.000000
0.000003 -0.000166 0.000118 0.000000
0.000795 -0.001923 0.001669 0.000000
-0.000036 -0.000152 0.000178 0.000000
0.000676 -0.002037 0.000620 0.000000
-0.000025 -0.000149 0.000098 0.000000
-0.000038 -0.000124 0.000084 0.000000
-0.000017 -0.000173 -0.000035 0.000000
0.000018 -0.000214 0.000097 0.000000
-0.000205 -0.000911 -0.001220 0.000000
0.000358 -0.001668 0.000305 0.000000
-0.000085 -0.000101 -0.000001 0.000000
-0.000027 -0.000180 -0.000019 0.000000
-0.000208 -0.000939 -0.000382 0.000000
0.001942 -0.003372 0.002536 0.000000
0.000002 -0.001095 -0.002150 0.000000
-0.000006 -0.000196 0.000100 0.000000
0.000006 -0.000265 -0.000080 0.000000
0.000010 -0.000261 -0.000062 0.000000
-0.000031 -0.000156 0.000027 0.000000
0.000001 -0.000218 0.000166 0.000000
-0.000016 -0.000186 0.000071 0.000000
-0.000005 -0.000211 0.000157 0.000000
0.001826 -0.003397 -0.002400 0.000000
0.000019 -0.000246 -0.000009 0.000000
0.000080 -0.001483 -0.002729 0.000000
0.000009 -0.000259 -0.000045 0.000000
-0.000055 -0.000229 -0.000191 0.000000
-0.000007 -0.000235 -0.000080 0.000000
-0.000048 -0.000335 -0.000295 0.000000
-0.000362 -0.000960 -0.002620 0.000000
-0.000018 -0.000559 -0.001642 0.000000
-0.000024 -0.000230 -0.000125 0.000000
-0.000024 -0.000215 0.000102 0.000000
-0.000376 -0.000525 0.001302 0.000000
0.000308 -0.000984 -0.003613 0.000000
-0.000091 -0.000134 0.000041 0.000000
-0.000077 -0.000149 0.000018 0.000000
0.005626 -0.006738 0.006991 0.000000
0.000319 -0.001724 0.002235 0.000000
0.004350 -0.005639 0.000608 0.000000
0.003488 -0.005726 -0.000346 0.000000
0.002005 -0.003289 0.002741 0.000000
0.000026 -0.000317 0.000065 0.000000
0.001880 -0.004533 0.000944 0.000000
-0.000020 -0.000275 0.000072 0.000000
-0.000059 -0.000256 0.000071 0.000000
0.000010 -0.000300 0.000059 0.000000
0.000010 -0.000302 0.000087 0.000000
-0.000033 -0.000232 0.000112 0.000000
0.000003 -0.000286 0.000095 0.000000
0.000909 -0.001860 -0.000456 0.000000
-0.000018 -0.000249 0.000070 0.000000
-0.000038 -0.000195 0.000009 0.000000
0.000068 -0.000206 -0.000110 0.000000
-0.000022 -0.000209 0.000029 0.000000
-0.000083 -0.000189 0.000036 0.000000
-0.000015 -0.000275 0.000120 0.000000
-0.000019 -0.000250 0.000101 0.000000
-0.000030 -0.000214 0.000070 0.000000
-0.000040 -0.000185 0.000007 0.000000
0.000002 -0.000287 0.000104 0.000000
-0.000025 -0.000279 0.000062 0.000000
-0.000014 -0.000265 0.000113 0.000000
-0.000064 -0.000231 0.000171 0.000000
0.000873 -0.002107 -0.001567 0.000000
0.001553 -0.002775 -0.001509 0.000000
-0.000031 -0.000246 0.000128 0.000000
0.002596 -0.003968 0.001648 0.000000
0.000168 -0.001416 -0.001179 0.000000
0.000076 -0.001499 -0.001588 0.000000
-0.000088 -0.000202 0.000153 0.000000
0.001044 -0.002196 -0.001346 0.000000
-0.000043 -0.000713 -0.000551 0.000000
0.000047 -0.001091 -0.001635 0.000000
-0.000156 -0.000205 -0.000190 0.000000
0.001475 -0.002366 -0.001520 0.000000
-0.000033 -0.000270 0.000112 0.000000
-0.000031 -0.000192 0.000032 0.000000
0.000725 -0.001593 -0.001071 0.000000
-0.000068 -0.000179 0.000097 0.000000
0.001422 -0.002495 -0.000348 0.000000
0.002530 -0.003741 0.002069 0.000000
0.000007 -0.000256 -0.000140 0.000000
-0.000197 -0.000901 -0.001232 0.000000
-0.000010 -0.000189 -0.000167 0.000000
-0.000011 -0.000204 -0.000105 0.000000
-0.000004 -0.000140 -0.000138 0.000000
0.000009 -0.000214 -0.000155 0.000000
-0.000057 -0.000118 -0.000133 0.000000
0.000309 -0.001544 -0.002315 0.000000
0.000272 -0.000261 0.000038 0.000000
-0.000022 -0.000146 0.000073 0.000000
0.000002 -0.000176 0.000055 0.000000
0.002927 -0.003348 0.000111 0.000000
0.002770 -0.002537 0.002745 0.000000
-0.000023 -0.000131 -0.000131 0.000000
0.002163 -0.002995 0.001622 0.000000
-0.000004 -0.000145 0.000044 0.000000
0.000025 -0.000149 0.000040 0.000000
0.000006 -0.000177 0.000054 0.000000
0.000040 -0.000123 0.000060 0.000000
0.000007 -0.000166 0.000068 0.000000
0.000031 -0.000168 0.000042 0.000000
-0.000027 -0.000133 -0.000020 0.000000
0.001631 -0.001790 -0.003401 0.000000
0.000029 -0.000252 -0.000082 0.000000
0.000083 -0.000106 0.000109 0.000000
0.000017 -0.000204 -0.000139 0.000000
0.002521 -0.004104 0.002195 0.000000
0.002197 -0.004371 0.005283 0.000000
0.004644 -0.005085 0.005557 0.000000
0.003360 -0.004718 0.004798 0.000000
0.001511 -0.002754 0.001494 0.000000
0.000050 -0.000268 -0.000163 0.000000
-0.000034 -0.000229 0.000137 0.000000
0.000573 -0.001027 -0.000689 0.000000
0.000027 -0.000173 0.000013 0.000000
-0.000043 -0.000120 0.000018 0.000000
-0.000508 -0.000861 -0.000364 0.000000
-0.000038 -0.001486 0.000629 0.000000
-0.000127 -0.000192 0.000069 0.000000
-0.000113 -0.000225 0.000097 0.000000
-0.000118 -0.000205 0.000059 0.000000
-0.000259 -0.001295 -0.000347 0.000000
-0.000098 -0.000193 0.000155 0.000000
0.000033 -0.001559 0.000391 0.000000
-0.000122 -0.000184 0.000063 0.000000
0.003810 -0.005152 0.005958 0.000000
-0.000138 -0.000181 0.000051 0.000000
-0.000056 -0.000336 0.000173 0.000000
-0.000709 -0.000697 -0.000060 0.000000
-0.000055 -0.000212 0.000092 0.000000
-0.000116 -0.000197 0.000027 0.000000
-0.000554 -0.000810 -0.000470 0.000000
-0.000097 -0.000213 -0.000021 0.000000
-0.000112 -0.000193 0.000097 0.000000
-0.000136 -0.001455 0.000253 0.000000
-0.000755 -0.000388 0.001097 0.000000
0.000031 -0.001621 -0.000431 0.000000
-0.000022 -0.000326 0.000118 0.000000
-0.000029 -0.001275 0.000890 0.000000
0.000749 -0.003257 0.003689 0.000000
0.000080 -0.001745 0.001113 0.000000
-0.000019 -0.000291 0.000119 0.000000
0.000042 -0.000240 0.000089 0.000000
0.001673 -0.002395 0.001897 0.000000
-0.000102 -0.000262 0.000242 0.000000
0.000256 -0.001768 0.000796 0.000000
0.004571 -0.006056 0.003060 0.000000
-0.000059 -0.000253 0.000096 0.000000
0.004625 -0.005849 0.002829 0.000000
0.004512 -0.006791 0.004036 0.000000
-0.000042 -0.000316 0.000104 0.000000
0.001369 -0.002597 0.002272 0.000000
0.001544 -0.003913 0.002859 0.000000
0.000336 -0.001597 0.000474 0.000000
0.000093 -0.000281 0.000114 0.000000
0.004569 -0.006522 0.002431 0.000000
0.003569 -0.005179 0.006767 0.000000
-0.000025 -0.000189 0.000020 0.000000
0.005430 -0.006361 0.000976 0.000000
0.001102 -0.002801 0.001535 0.000000
0.000370 -0.002157 0.000494 0.000000
0.001984 -0.003421 0.001928 0.000000
-0.000551 -0.000282 -0.000166 0.000000
0.002016 -0.003101 0.005047 0.000000
0.001323 -0.002473 0.000927 0.000000
-0.000061 -0.000249 0.000128 0.000000
0.002046 -0.003438 0.001921 0.000000
0.002542 -0.003417 0.001562 0.000000
0.003119 -0.005144 0.005093 0.000000
-0.000067 -0.000227 0.000117 0.000000
0.000027 -0.000570 0.000182 0.000000
-0.000056 -0.000257 0.000118 0.000000
0.001183 -0.003074 0.000651 0.000000
-0.000588 -0.002566 0.003758 0.000000
-0.000108 -0.000255 0.000157 0.000000
-0.000045 -0.000294 0.000179 0.000000
-0.000054 -0.000251 0.000050 0.000000
0.003552 -0.005408 0.005690 0.000000
-0.000053 -0.000264 0.000166 0.000000
-0.000078 -0.000228 0.000051 0.000000
-0.000056 -0.000246 0.000167 0.000000
-0.000073 -0.000238 0.000151 0.000000
0.005285 -0.006868 0.006344 0.000000
-0.000063 -0.000258 0.000165 0.000000
0.001803 -0.003143 0.005355 0.000000
0.001091 -0.002873 0.002170 0.000000
-0.000075 -0.000223 0.000165 0.000000
0.000505 -0.002089 0.003390 0.000000
-0.000013 -0.001195 0.000795 0.000000
0.003102 -0.004386 0.004597 0.000000
0.001070 -0.002316 0.001737 0.000000
-0.000089 -0.000197 0.000183 0.000000
-0.000133 -0.000131 0.000203 0.000000
-0.000257 -0.000959 0.000114 0.000000
-0.000131 -0.000132 0.000203 0.000000
0.001561 -0.002739 0.004972 0.000000
0.001958 -0.003178 0.005747 0.000000
0.003082 -0.004671 0.006873 0.000000
0.002134 -0.003457 0.005684 0.000000
0.000299 -0.001911 0.002387 0.000000
0.000707 -0.001921 0.001808 0.000000
-0.000066 -0.000284 0.000146 0.000000
0.000243 -0.001723 0.002354 0.000000
0.000106 -0.001766 0.000131 0.000000
-0.000115 -0.000183 0.000210 0.000000
0.000275 -0.002309 0.003609 0.000000
-0.000459 -0.001001 0.000383 0.000000
-0.000392 -0.001198 0.000535 0.000000
-0.000614 -0.000625 0.001917 0.000000
-0.000065 -0.000191 0.000059 0.000000
-0.000555 -0.000816 0.001864 0.000000
0.000012 -0.001228 0.000406 0.000000
-0.000132 -0.000147 0.000189 0.000000
-0.000084 -0.000138 0.000136 0.000000
0.000166 -0.001629 0.002302 0.000000
-0.000069 -0.000159 0.000292 0.000000
-0.000118 -0.000152 0.000186 0.000000
-0.000088 -0.000139 0.000147 0.000000
-0.000117 -0.000125 0.000170 0.000000
-0.000106 -0.000150 0.000173 0.000000
-0.000091 -0.000156 0.000156 0.000000
-0.000068 -0.000144 0.000128 0.000000
-0.000092 -0.000153 0.000155 0.000000
-0.000065 -0.000188 0.000127 0.000000
-0.000074 -0.000147 0.000121 0.000000
-0.000055 -0.000139 0.000133 0.000000
-0.000068 -0.000141 0.000128 0.000000
-0.000061 -0.000142 0.000136 0.000000
-0.000064 -0.000133 0.000145 0.000000
-0.000052 -0.000140 0.000141 0.000000
-0.000027 -0.000112 0.000118 0.000000
-0.000064 -0.000114 0.000123 0.000000
-0.000066 -0.000141 0.000135 0.000000
-0.000063 -0.000141 0.000129 0.000000
-0.000126 -0.000128 0.000193 0.000000
-0.000143 -0.000116 0.000218 0.000000
-0.000116 -0.000105 0.000150 0.000000
-0.000128 -0.000103 0.000171 0.000000
-0.000090 -0.001267 0.000634 0.000000
-0.000167 -0.000141 0.000314 0.000000
-0.000123 -0.000132 0.000184 0.000000
-0.000134 -0.000133 0.000196 0.000000
-0.000010 -0.001333 0.000896 0.000000
0.001645 -0.003387 0.002326 0.000000
-0.000141 -0.000104 0.000187 0.000000
0.000552 -0.001905 0.002245 0.000000
-0.000470 -0.000547 0.000248 0.000000
0.000167 -0.001738 0.001075 0.000000
-0.000140 -0.000113 0.000215 0.000000
-0.000255 -0.000875 0.000472 0.000000
-0.000118 -0.000104 0.000132 0.000000
0.000032 -0.001196 0.001268 0.000000
-0.000058 -0.000134 0.000122 0.000000
0.000242 -0.001178 0.001458 0.000000
-0.000075 -0.000121 0.000129 0.000000
-0.000080 -0.000112 0.000128 0.000000
-0.000050 -0.000061 0.000185 0.000000
-0.000062 -0.000116 0.000130 0.000000
-0.000027 -0.000124 0.000121 0.000000
-0.000053 -0.000075 0.000158 0.000000
-0.000037 -0.000131 0.000122 0.000000
-0.000033 -0.000136 0.000134 0.000000
-0.000031 -0.000132 0.000127 0.000000
-0.000016 -0.000138 0.000163 0.000000
-0.000045 -0.000137 0.000133 0.000000
-0.000051 -0.000109 0.000137 0.000000
-0.000037 -0.000135 0.000125 0.000000
-0.000052 -0.000138 0.000144 0.000000
-0.000061 -0.000138 0.000138 0.000000
-0.000051 -0.000140 0.000131 0.000000
-0.000062 -0.000139 0.000139 0.000000
0.000000 -0.000142 0.000152 0.000000
-0.000067 -0.000138 0.000132 0.000000
-0.000086 -0.000118 0.000140 0.000000
-0.000092 -0.000128 0.000110 0.000000
-0.000041 -0.000103 0.000197 0.000000
-0.000052 -0.000127 0.000166 0.000000
-0.000067 -0.000072 0.000181 0.000000
-0.000071 -0.000114 0.000162 0.000000
0.000282 -0.001110 0.003237 0.000000
-0.000036 -0.000139 0.000136 0.000000
-0.000007 -0.000138 0.000165 0.000000
-0.000043 -0.000139 0.000145 0.000000
-0.000055 -0.000138 0.000144 0.000000
-0.000020 -0.000139 0.000150 0.000000
-0.000061 -0.000130 0.000156 0.000000
0.000009 -0.000132 0.000077 0.000000
-0.000021 -0.000132 0.000128 0.000000
-0.000012 -0.000141 0.000154 0.000000
-0.000022 -0.000137 0.000133 0.000000
-0.000007 -0.000132 0.000181 0.000000
0.000001 -0.000145 0.000152 0.000000
-0.000029 -0.000073 0.000098 0.000000
-0.000017 -0.000115 0.000167 0.000000
-0.000129 -0.000078 0.000257 0.000000
-0.000157 -0.000303 0.000778 0.000000
-0.000009 -0.000131 0.000187 0.000000
-0.000050 -0.000449 0.002344 0.000000
-0.000548 -0.001028 0.002275 0.000000
-0.000018 -0.000076 0.000116 0.000000
0.000009 -0.000141 0.000106 0.000000
-0.000014 -0.000130 0.000239 0.000000
-0.000058 -0.000075 0.000223 0.000000
0.000498 -0.001250 0.003896 0.000000
-0.000040 -0.000078 0.000140 0.000000
-0.000026 -0.000075 0.000088 0.000000
-0.000040 -0.000094 0.000146 0.000000
-0.000022 -0.000122 0.000115 0.000000
-0.000037 -0.000089 0.000136 0.000000
-0.000036 -0.000115 0.000125 0.000000
0.000561 -0.001414 0.001375 0.000000
0.000326 -0.001068 0.002564 0.000000
0.000808 -0.001582 0.001969 0.000000
0.000297 -0.001160 0.001439 0.000000
0.000546 -0.001077 0.004433 0.000000
-0.000097 -0.000445 0.000136 0.000000
0.000448 -0.001285 0.001446 0.000000
-0.000048 -0.000065 0.000145 0.000000
0.000372 -0.001140 0.002526 0.000000
0.000369 -0.001189 0.001601 0.000000
-0.000076 -0.000708 -0.000119 0.000000
-0.000042 -0.000468 0.000579 0.000000
0.000769 -0.001241 0.001617 0.000000
0.000692 -0.001182 0.000957 0.000000
-0.000014 -0.000148 0.000047 0.000000
0.000022 -0.000227 0.000053 0.000000
-0.000003 -0.000145 0.000047 0.000000
-0.000005 -0.000154 0.000023 0.000000
-0.000007 -0.000167 0.000048 0.000000
-0.000022 -0.000158 0.000039 0.000000
-0.000010 -0.000200 0.000066 0.000000
-0.000013 -0.000184 0.000038 0.000000
-0.000027 -0.000131 0.000104 0.000000
-0.000040 -0.000086 0.000233 0.000000
0.000638 -0.001231 0.001523 0.000000
-0.000252 -0.000465 0.000012 0.000000
0.000570 -0.001624 0.002199 0.000000
-0.000049 -0.000091 0.000191 0.000000
0.000343 -0.001252 0.001258 0.000000
0.000073 -0.001162 0.001342 0.000000
0.000057 -0.001184 0.001240 0.000000
0.001511 -0.002455 0.003711 0.000000
0.000166 -0.001215 0.001335 0.000000
0.000038 -0.001173 0.001406 0.000000
0.000045 -0.001866 -0.000445 0.000000
0.001939 -0.002992 0.002432 0.000000
-0.000040 -0.001400 0.000535 0.000000
0.001234 -0.002205 0.003456 0.000000
-0.000035 -0.000209 -0.000016 0.000000
0.000372 -0.001404 0.001598 0.000000
-0.000026 -0.000198 0.000047 0.000000
-0.000034 -0.000213 -0.000001 0.000000
-0.000289 0.000046 0.001158 0.000000
-0.000031 -0.000192 0.000030 0.000000
-0.000019 -0.000200 0.000021 0.000000
0.006287 -0.007825 0.002617 0.000000
-0.000024 -0.000196 0.000019 0.000000
0.000016 -0.000215 -0.000005 0.000000
-0.000029 -0.000205 0.000007 0.000000
0.006035 -0.007358 0.003285 0.000000
0.000025 -0.000231 0.000045 0.000000
0.001769 -0.002761 0.003584 0.000000
-0.000058 -0.000328 0.000286 0.000000
-0.000020 -0.000217 0.000080 0.000000
-0.000019 -0.000217 0.000021 0.000000
-0.000020 -0.000255 0.000066 0.000000
-0.000027 -0.000184 0.000036 0.000000
0.001642 -0.002995 0.000048 0.000000
-0.000016 -0.000203 0.000051 0.000000
0.004048 -0.005195 0.002160 0.000000
-0.000014 -0.000211 0.000025 0.000000
-0.000015 -0.000227 0.000033 0.000000
-0.000025 -0.000182 0.000063 0.000000
-0.000011 -0.000172 0.000039 0.000000
-0.000017 -0.000188 0.000062 0.000000
0.000008 -0.000156 -0.000017 0.000000
-0.000018 -0.000188 0.000026 0.000000
-0.000009 -0.000182 0.000042 0.000000
-0.000032 -0.000177 0.000022 0.000000
-0.000022 -0.000178 0.000038 0.000000
-0.000004 -0.000171 0.000050 0.000000
-0.000005 -0.000151 0.000050 0.000000
-0.000010 -0.000163 0.000046 0.000000
-0.000025 -0.000173 0.000030 0.000000
-0.000007 -0.000157 0.000012 0.000000
0.000001 -0.000158 0.000060 0.000000
-0.000010 -0.000184 0.000042 0.000000
0.000002 -0.000175 0.000033 0.000000
0.000014 -0.000175 0.000035 0.000000
-0.000008 -0.000167 0.000047 0.000000
0.000018 -0.000171 0.000058 0.000000
-0.000004 -0.000130 0.000043 0.000000
-0.000029 -0.000980 -0.000167 0.000000
0.000001 -0.000168 0.000059 0.000000
0.000513 -0.002037 -0.002004 0.000000
-0.000029 -0.000111 -0.000043 0.000000
-0.000005 -0.000135 0.000052 0.000000
0.001534 -0.002061 0.001088 0.000000
-0.000022 -0.000136 0.000073 0.000000
0.000001 -0.000143 0.000049 0.000000
0.000027 -0.000819 0.000400 0.000000
0.000000 -0.000135 0.000046 0.000000
0.000024 -0.000849 0.000372 0.000000
0.000000 -0.000161 0.000080 0.000000
-0.000000 -0.000151 0.000055 0.000000
0.000001 -0.000151 0.000063 0.000000
0.000002 -0.000134 0.000038 0.000000
-0.000001 -0.000156 0.000055 0.000000
-0.000001 -0.000155 0.000052 0.000000
0.000002 -0.000148 0.000048 0.000000
0.000006 -0.000137 0.000039 0.000000
0.000004 -0.000161 0.000053 0.000000
0.000032 -0.000158 0.000079 0.000000
-0.000077 -0.000440 0.000277 0.000000
0.001308 -0.001968 0.001375 0.000000
0.000030 -0.000151 0.000050 0.000000
-0.000019 -0.000651 0.000139 0.000000
-0.000208 -0.000300 0.000213 0.000000
0.000503 -0.001312 0.000675 0.000000
-0.000001 -0.000129 0.000044 0.000000
0.000009 -0.000130 0.000031 0.000000
0.000024 -0.000815 0.000391 0.000000
0.000895 -0.001651 0.000956 0.000000
0.000962 -0.001587 0.001196 0.000000
0.000005 -0.000091 -0.000011 0.000000
-0.000002 -0.000060 0.000021 0.000000
0.000004 -0.000089 0.000020 0.000000
-0.000005 -0.000076 0.000026 0.000000
-0.000017 -0.000083 0.000043 0.000000
-0.000069 -0.000704 0.000432 0.000000
-0.000062 -0.000464 0.000242 0.000000
-0.000010 -0.000057 0.000031 0.000000
-0.000008 -0.000058 0.000027 0.000000
-0.000017 -0.000071 0.000042 0.000000
-0.000011 -0.000059 0.000032 0.000000
-0.000131 -0.000466 0.000191 0.000000
0.000086 -0.000112 0.000604 0.000000
-0.000108 -0.000263 -0.000018 0.000000
-0.000003 -0.000053 0.000017 0.000000
-0.000003 -0.000106 0.000005 0.000000
0.000023 -0.000077 -0.000003 0.000000
0.000647 -0.001135 0.000421 0.000000
0.002591 -0.002442 0.003823 0.000000
0.003616 -0.004043 0.000788 0.000000
0.000876 -0.001776 0.000435 0.000000
0.000596 -0.001439 0.001027 0.000000
0.001692 -0.002114 0.001765 0.000000
0.000593 -0.001169 0.000764 0.000000
-0.000019 -0.000133 -0.000042 0.000000
0.000519 -0.001187 0.000485 0.000000
0.000843 -0.001284 0.000363 0.000000
0.002535 -0.003298 0.000754 0.000000
0.003597 -0.004189 0.003066 0.000000
0.002294 -0.002384 0.002388 0.000000
0.001532 -0.001433 0.002327 0.000000
0.000046 -0.000148 -0.000013 0.000000
0.000255 -0.001364 0.000785 0.000000
0.003419 -0.003908 0.001101 0.000000
0.000063 -0.000127 -0.000086 0.000000
0.000003 -0.000135 -0.000020 0.000000
0.000038 -0.000085 -0.000008 0.000000
0.000092 -0.000096 -0.000047 0.000000
0.000039 -0.000118 -0.000015 0.000000
0.000099 -0.000071 0.000647 0.000000
0.000030 -0.000086 -0.000054 0.000000
0.000008 -0.000062 0.000020 0.000000
0.000154 -0.000107 -0.000200 0.000000
0.000021 -0.000085 -0.000007 0.000000
0.000024 -0.000077 0.000034 0.000000
0.000017 -0.000069 0.000008 0.000000
0.000058 -0.000116 -0.000003 0.000000
0.003940 -0.003249 -0.000353 0.000000
0.000024 -0.000085 0.000006 0.000000
0.000037 -0.000122 -0.000044 0.000000
0.000044 -0.000108 0.000051 0.000000
0.000013 -0.000117 -0.000003 0.000000
0.000021 -0.000074 0.000025 0.000000
0.000012 -0.000060 0.000017 0.000000
0.000030 -0.000021 -0.000062 0.000000
0.000049 -0.000067 -0.000008 0.000000
-0.000002 -0.000012 -0.000015 0.000000
0.000012 -0.000144 0.000010 0.000000
0.000010 -0.000126 0.000023 0.000000
0.000008 -0.000032 0.000010 0.000000
0.000020 -0.000022 -0.000030 0.000000
0.000005 -0.000041 0.000014 0.000000
0.000013 -0.000062 0.000021 0.000000
0.000007 -0.000049 0.000022 0.000000
0.000015 -0.000060 0.000016 0.000000
0.000005 -0.000048 0.000025 0.000000
0.000006 -0.000041 0.000016 0.000000
-0.000002 -0.000047 -0.000019 0.000000
-0.000013 -0.000069 0.000077 0.000000
0.000005 -0.000049 0.000014 0.000000
0.000012 -0.000060 0.000013 0.000000
-0.000025 -0.000004 0.000013 0.000000
-0.000072 0.000009 0.000075 0.000000
0.000010 -0.000042 0.000037 0.000000
-0.000033 -0.000024 0.000048 0.000000
0.000063 -0.000135 0.001978 0.000000
-0.000017 -0.000046 0.000015 0.000000
-0.000106 0.000040 0.002920 0.000000
-0.000040 0.000016 0.001090 0.000000
0.000570 -0.000550 0.001233 0.000000
0.000030 -0.000107 0.000330 0.000000
0.000075 -0.000080 0.000132 0.000000
0.000656 -0.000678 0.003280 0.000000
0.000071 -0.000404 0.000129 0.000000
0.000250 -0.000305 0.001205 0.000000
0.000017 -0.000070 0.000012 0.000000
0.000017 -0.000061 0.000017 0.000000
0.000008 -0.000060 0.000017 0.000000
0.001863 -0.001711 0.002830 0.000000
0.000015 -0.000065 0.000015 0.000000
0.001991 -0.002092 0.003262 0.000000
0.000664 -0.000533 0.002582 0.000000
0.002138 -0.002866 0.002753 0.000000
0.001299 -0.001524 0.002672 0.000000
-0.000001 -0.000126 0.000021 0.000000
0.000010 -0.000054 0.000044 0.000000
0.000002 -0.000071 0.000034 0.000000
0.000005 -0.000050 0.000016 0.000000
0.000022 -0.000107 0.000051 0.000000
-0.000250 -0.000148 0.001241 0.000000
-0.000011 -0.000048 0.000027 0.000000
-0.000165 -0.000134 0.000310 0.000000
0.000234 -0.000250 0.001149 0.000000
-0.000022 -0.000249 0.003386 0.000000
0.000079 -0.000088 0.002781 0.000000
0.000043 -0.000374 0.003139 0.000000
0.000330 -0.000544 0.003318 0.000000
0.000303 -0.000523 0.001233 0.000000
-0.000128 -0.000118 0.000215 0.000000
0.000235 -0.000456 0.001222 0.000000
0.000462 -0.000766 0.004053 0.000000
-0.000018 -0.000073 0.000044 0.000000
0.000143 -0.000334 0.001549 0.000000
-0.000144 -0.000035 0.000236 0.000000
-0.000174 -0.000119 0.000415 0.000000
-0.000019 -0.000098 0.000046 0.000000
-0.000007 -0.000068 0.000052 0.000000
0.000019 -0.000089 0.000120 0.000000
-0.000002 -0.000047 0.000029 0.000000
0.000016 -0.000236 0.000180 0.000000
-0.000064 0.000048 0.000088 0.000000
-0.000219 0.000237 0.000582 0.000000
-0.000057 -0.000030 0.000063 0.000000
-0.000323 0.000205 0.000738 0.000000
-0.000297 0.000295 0.001372 0.000000
-0.000100 -0.000039 0.000120 0.000000
0.000029 -0.000180 0.001659 0.000000
-0.000061 0.000006 0.000207 0.000000
0.000100 -0.000283 0.000899 0.000000
0.000589 -0.000660 0.004360 0.000000
0.000380 -0.000481 0.004078 0.000000
0.000507 -0.000532 0.003141 0.000000
0.000557 -0.000742 0.004605 0.000000
0.000730 -0.000832 0.003715 0.000000
0.000653 -0.000705 0.003152 0.000000
0.000550 -0.000600 0.002380 0.000000
0.000301 -0.000443 0.002762 0.000000
0.000529 -0.000503 0.003874 0.000000
-0.000099 -0.000053 0.000071 0.000000
0.000367 -0.000750 0.001225 0.000000
0.000237 -0.000299 0.000726 0.000000
-0.000153 0.000069 0.000976 0.000000
0.000013 -0.000235 0.000213 0.000000
0.000387 -0.000441 0.004506 0.000000
0.000103 -0.000254 0.000741 0.000000
-0.000146 0.000045 0.000231 0.000000
-0.000051 -0.000088 0.000265 0.000000
-0.000041 -0.000134 0.000184 0.000000
-0.000156 0.000088 0.000451 0.000000
-0.000087 -0.000070 0.000347 0.000000
0.001174 -0.001608 0.004645 0.000000
0.000521 -0.000747 0.004442 0.000000
-0.000119 0.000008 0.000043 0.000000
-0.000009 -0.000047 0.000276 0.000000
0.000367 -0.000691 0.004569 0.000000
0.000737 -0.000972 0.004326 0.000000
0.000961 -0.001823 0.006645 0.000000
-0.000028 -0.000061 0.000126 0.000000
-0.000058 -0.000080 -0.000031 0.000000
-0.000088 -0.000038 0.000116 0.000000
-0.000092 -0.000066 0.000292 0.000000
-0.000103 -0.000002 0.000496 0.000000
-0.000111 -0.000086 0.000469 0.000000
-0.000086 -0.000010 0.000729 0.000000
-0.000109 -0.000099 0.000496 0.000000
-0.000154 -0.000064 0.000583 0.000000
-0.000021 -0.000030 0.000083 0.000000
0.000046 -0.000217 0.001305 0.000000
-0.000205 0.000007 0.000389 0.000000
-0.000018 -0.000032 0.000072 0.000000
-0.000132 0.000108 0.000241 0.000000
-0.000158 0.000056 0.000445 0.000000
-0.000030 -0.000084 0.000190 0.000000
-0.000152 0.000011 0.000658 0.000000
-0.000020 -0.000053 0.000057 0.000000
-0.000185 0.000035 0.000719 0.000000
-0.000025 -0.000044 0.000052 0.000000
-0.000015 -0.000040 0.000054 0.000000
-0.000024 -0.000045 0.000056 0.000000
-0.000123 -0.000057 0.000187 0.000000
-0.000039 -0.000372 0.004543 0.000000
-0.000203 -0.000451 0.000600 0.000000
-0.000016 -0.000051 0.000071 0.000000
0.000126 -0.000264 0.000393 0.000000
-0.000197 -0.000295 0.000303 0.000000
-0.000125 -0.000075 0.002380 0.000000
-0.000252 -0.000297 0.000298 0.000000
0.001309 -0.001853 0.003118 0.000000
-0.000166 -0.000360 0.000200 0.000000
-0.000196 -0.000638 0.001090 0.000000
-0.000323 -0.000220 0.004959 0.000000
-0.000297 -0.000054 0.001772 0.000000
-0.001963 0.001020 0.004175 0.000000
0.000962 -0.001252 0.006425 0.000000
-0.000056 -0.000002 0.000239 0.000000
-0.000055 -0.000537 0.000423 0.000000
-0.000046 -0.000077 0.000165 0.000000
-0.000024 -0.000050 0.000096 0.000000
0.000099 -0.000779 0.001413 0.000000
0.000940 -0.001454 0.001897 0.000000
-0.000532 0.000346 0.003628 0.000000
0.000505 -0.001085 0.003726 0.000000
0.001396 -0.002286 0.001900 0.000000
0.000724 -0.001321 0.002473 0.000000
-0.000280 -0.000306 0.000341 0.000000
0.000117 -0.000575 0.000779 0.000000
0.000594 -0.001298 0.004164 0.000000
0.000646 -0.001190 0.002904 0.000000
0.001442 -0.002074 0.004229 0.000000
0.000011 -0.000641 0.001066 0.000000
-0.000603 -0.000254 0.004291 0.000000
-0.000134 -0.000246 0.003620 0.000000
0.000310 -0.000917 0.005060 0.000000
0.000717 -0.001431 0.004988 0.000000
-0.000862 0.000101 0.005383 0.000000
0.000120 -0.000959 0.004431 0.000000
-0.000292 0.000167 0.002063 0.000000
-0.000028 -0.000055 0.000075 0.000000
0.000001 -0.000115 0.000097 0.000000
0.000116 -0.000598 0.001139 0.000000
-0.000044 -0.000084 0.000183 0.000000
-0.000043 -0.000069 0.000133 0.000000
-0.000047 -0.000081 0.000189 0.000000
-0.000007 -0.000127 0.000182 0.000000
-0.000131 -0.000145 0.001192 0.000000
-0.000039 -0.000064 0.000099 0.000000
-0.000035 -0.000035 0.000074 0.000000
0.000032 -0.000235 -0.000001 0.000000
-0.000044 -0.000084 0.000184 0.000000
-0.000019 -0.000134 0.000216 0.000000
-0.000026 -0.000040 0.000053 0.000000
-0.000022 -0.000072 0.000101 0.000000
-0.000129 0.000015 0.000060 0.000000
-0.000189 -0.000048 0.000346 0.000000
-0.000586 -0.000979 0.002588 0.000000
-0.000103 -0.000155 0.000126 0.000000
-0.000336 -0.000799 0.000836 0.000000
-0.000080 -0.000125 0.000133 0.000000
-0.000114 -0.000130 0.000085 0.000000
-0.000711 -0.000430 0.003640 0.000000
-0.000988 -0.000084 0.003225 0.000000
-0.000367 -0.000594 0.002878 0.000000
-0.000074 -0.000132 0.000258 0.000000
-0.000048 -0.000132 0.000213 0.000000
-0.000118 -0.000077 0.000248 0.000000
-0.000056 -0.000123 0.000212 0.000000
-0.000618 -0.000646 0.003850 0.000000
-0.000772 -0.000342 0.003579 0.000000
-0.000754 -0.000616 0.003841 0.000000
-0.000121 -0.000085 0.000209 0.000000
-0.000118 -0.000130 0.000227 0.000000
-0.000056 -0.000170 0.000296 0.000000
-0.000447 -0.001387 0.002437 0.000000
-0.000103 -0.000143 0.000367 0.000000
-0.000126 -0.000022 0.000207 0.000000
-0.000120 -0.000063 0.000284 0.000000
-0.000099 -0.000045 0.000168 0.000000
-0.000118 -0.000076 0.000254 0.000000
-0.000055 -0.000052 0.000379 0.000000
-0.000060 -0.000042 0.000106 0.000000
-0.000020 -0.000057 0.000142 0.000000
-0.000069 -0.000093 0.000155 0.000000
-0.000067 -0.001003 0.001538 0.000000
-0.000068 -0.000164 0.000236 0.000000
-0.000007 -0.000197 0.000070 0.000000
-0.000297 -0.000272 0.000758 0.000000
-0.000448 -0.000113 0.001250 0.000000
-0.000283 -0.000269 0.000678 0.000000
-0.000140 -0.000351 0.001009 0.000000
-0.000382 -0.000279 0.001125 0.000000
0.000015 -0.000548 0.001721 0.000000
-0.000219 -0.000153 0.001456 0.000000
-0.000013 -0.000045 0.000067 0.000000
-0.000230 -0.000463 0.003577 0.000000
-0.000027 -0.000066 0.000149 0.000000
-0.000063 -0.000051 0.000192 0.000000
0.000092 -0.000331 0.000588 0.000000
-0.000047 -0.000151 0.000106 0.000000
-0.000094 -0.000080 0.000682 0.000000
-0.000028 -0.000049 0.000111 0.000000
-0.000470 -0.000470 0.003316 0.000000
-0.000223 -0.000491 0.003568 0.000000
0.000207 -0.000335 0.000606 0.000000
-0.000032 -0.000052 0.000141 0.000000
-0.000056 -0.000347 0.001338 0.000000
-0.000119 -0.000314 0.000832 0.000000
-0.000047 -0.000600 0.000347 0.000000
-0.000168 -0.000420 0.002173 0.000000
-0.000706 -0.000350 0.003113 0.000000
-0.000039 -0.000895 0.000963 0.000000
0.000207 -0.001033 0.000991 0.000000
-0.000083 -0.000113 0.000155 0.000000
-0.000036 -0.000111 0.000181 0.000000
-0.000062 -0.000086 0.000189 0.000000
-0.000056 -0.000107 0.000185 0.000000
-0.000092 -0.000148 0.000096 0.000000
-0.000019 -0.000100 0.000212 0.000000
-0.000092 -0.000056 0.000158 0.000000
-0.000022 -0.000096 0.000191 0.000000
0.000073 -0.000834 0.003626 0.000000
0.000303 -0.000855 0.003052 0.000000
-0.000184 -0.000767 0.002400 0.000000
0.000442 -0.001077 0.002931 0.000000
0.001364 -0.001077 -0.000640 0.000000
0.001236 -0.001941 0.000783 0.000000
0.000120 -0.000187 0.000111 0.000000
0.000001 -0.000110 0.000132 0.000000
0.001010 -0.001460 0.000141 0.000000
0.000011 -0.000096 0.000087 0.000000
0.000002 -0.000085 0.000118 0.000000
0.000013 -0.000261 0.000136 0.000000
0.000009 -0.000083 0.000104 0.000000
0.000189 -0.000243 0.001247 0.000000
-0.000012 -0.000051 0.000123 0.000000
-0.000112 -0.000019 0.000299 0.000000
0.000009 -0.000085 0.000114 0.000000
-0.000002 -0.000056 0.000085 0.000000
-0.000018 -0.000032 0.000147 0.000000
-0.000018 -0.000041 0.000135 0.000000
-0.000074 0.000049 0.000215 0.000000
0.000015 -0.000090 0.000140 0.000000
0.000006 -0.000071 0.000100 0.000000
-0.000159 0.000004 0.001661 0.000000
-0.000045 -0.000072 0.000226 0.000000
-0.000543 0.000051 0.000614 0.000000
0.000261 -0.000218 0.001429 0.000000
0.000483 -0.000617 0.001041 0.000000
-0.000254 0.000099 0.000783 0.000000
0.000101 -0.000126 0.000672 0.000000
-0.000397 0.000288 0.000730 0.000000
-0.000010 -0.000061 0.000126 0.000000
0.000451 -0.000625 0.000785 0.000000
0.000219 -0.000315 0.000448 0.000000
-0.000200 0.000088 0.000463 0.000000
0.000316 -0.000526 0.000453 0.000000
-0.000381 0.000293 0.001895 0.000000
-0.000032 0.000011 0.002085 0.000000
-0.000001 -0.000049 0.000050 0.000000
0.000245 -0.000318 0.002222 0.000000
0.000012 -0.000074 0.000063 0.000000
0.000483 -0.000581 0.000444 0.000000
0.000094 -0.000242 0.002104 0.000000
0.000115 -0.000262 0.000351 0.000000
0.000036 -0.000099 0.000987 0.000000
0.000085 -0.000354 0.000317 0.000000
0.000057 -0.000240 0.000210 0.000000
-0.000026 -0.000182 0.000081 0.000000
0.000121 -0.000075 -0.000194 0.000000
0.000128 -0.000130 0.000050 0.000000
0.000090 -0.000440 0.000200 0.000000
0.000497 -0.000661 0.002389 0.000000
-0.000153 -0.000255 0.000805 0.000000
0.000239 -0.000579 0.000970 0.000000
-0.000146 -0.000411 0.003172 0.000000
0.000005 -0.000889 0.002322 0.000000
0.000326 -0.000583 0.001154 0.000000
-0.000013 -0.000598 0.003214 0.000000
-0.000463 0.000069 0.003218 0.000000
-0.000025 -0.000075 0.000089 0.000000
0.000169 -0.001067 0.001048 0.000000
0.000033 -0.000932 0.000652 0.000000
0.000007 -0.000136 0.000132 0.000000
-0.000700 0.000117 0.003623 0.000000
-0.000059 -0.000038 0.000110 0.000000
-0.000037 -0.000031 0.000085 0.000000
-0.000026 -0.000048 0.000104 0.000000
0.000056 -0.000348 0.000782 0.000000
-0.000755 0.000166 0.001979 0.000000
-0.000053 -0.000103 0.000151 0.000000
-0.000051 -0.000128 0.000197 0.000000
-0.000530 0.000138 0.002578 0.000000
-0.000328 -0.000118 0.000033 0.000000
-0.000739 0.000495 0.001831 0.000000
-0.000754 0.000342 0.000622 0.000000
-0.001216 0.000332 0.007586 0.000000
-0.000473 0.000214 0.000762 0.000000
-0.000782 0.000133 0.001080 0.000000
-0.000153 -0.000189 0.000056 0.000000
-0.000653 -0.000490 0.001632 0.000000
-0.000073 -0.000070 0.000232 0.000000
-0.000057 -0.000064 0.000220 0.000000
-0.000614 -0.000481 0.001571 0.000000
-0.000158 -0.000007 0.000628 0.000000
-0.000093 -0.000043 0.000292 0.000000
-0.000327 0.000214 0.000904 0.000000
-0.000017 -0.000187 0.000058 0.000000
-0.000146 0.000040 0.000420 0.000000
-0.000069 -0.000109 0.000134 0.000000
-0.000054 0.000013 0.000007 0.000000
-0.000141 -0.000007 0.002694 0.000000
-0.000175 0.000012 0.000998 0.000000
-0.000420 0.000382 0.005585 0.000000
-0.000481 0.000367 0.001685 0.000000
-0.000224 -0.000123 0.000880 0.000000
-0.000126 -0.000008 0.000474 0.000000
-0.000040 -0.000165 0.000144 0.000000
-0.000468 0.000302 0.002985 0.000000
-0.000187 -0.000063 0.001274 0.000000
-0.000373 0.000175 0.004252 0.000000
-0.000145 -0.000162 0.006948 0.000000
-0.000025 -0.000101 0.001731 0.000000
-0.000006 -0.000034 0.000073 0.000000
-0.000234 0.000123 0.000861 0.000000
-0.000113 0.000038 0.001254 0.000000
-0.000426 0.000317 0.000959 0.000000
-0.000311 0.000227 0.002133 0.000000
-0.000336 0.000243 0.002106 0.000000
-0.000377 0.000328 0.001124 0.000000
-0.000041 -0.000014 0.000087 0.000000
-0.000393 0.000277 0.002121 0.000000
-0.000004 -0.000028 0.000085 0.000000
-0.000028 -0.000037 0.000173 0.000000
-0.000066 -0.000116 0.000095 0.000000
-0.000531 0.000401 0.001879 0.000000
-0.000062 -0.000021 0.000136 0.000000
0.000005 -0.000044 0.000055 0.000000
-0.000029 -0.000027 0.000112 0.000000
-0.000577 0.000036 0.007591 0.000000
-0.000054 -0.000013 0.000083 0.000000
-0.000057 -0.000010 0.000113 0.000000
-0.000006 -0.000057 0.000105 0.000000
-0.000020 -0.000017 0.000086 0.000000
-0.000025 -0.000096 0.000172 0.000000
0.000039 -0.000036 0.000294 0.000000
-0.000041 -0.000113 0.000122 0.000000
0.000001 -0.000025 0.000120 0.000000
-0.000419 0.000267 0.001300 0.000000
-0.000327 -0.000006 0.000535 0.000000
-0.000208 0.000229 0.001836 0.000000
-0.000027 -0.000035 0.000096 0.000000
-0.000311 0.000263 0.001132 0.000000
-0.000365 0.000174 0.000552 0.000000
-0.000087 -0.000033 0.000163 0.000000
-0.000056 -0.000015 0.000100 0.000000
-0.000315 0.000181 0.002957 0.000000
-0.000328 0.000316 0.000890 0.000000
-0.000024 -0.000305 0.000028 0.000000
-0.000300 0.000366 0.001791 0.000000
-0.000542 0.000380 0.001349 0.000000
-0.000086 -0.000004 0.000137 0.000000
-0.000025 -0.000135 0.000161 0.000000
-0.000038 -0.000032 0.000135 0.000000
-0.000056 -0.000011 0.000129 0.000000
-0.000048 -0.000122 0.000158 0.000000
-0.000218 -0.000143 0.000094 0.000000
-0.000028 -0.000142 0.000206 0.000000
-0.000379 -0.000125 0.000072 0.000000
-0.000044 -0.000100 0.000171 0.000000
-0.000046 -0.000092 0.000187 0.000000
-0.000066 -0.000026 0.000144 0.000000
-0.000041 -0.000083 0.000078 0.000000
-0.000056 -0.000083 0.000141 0.000000
-0.000049 -0.000054 0.000173 0.000000
-0.001019 0.000233 0.003340 0.000000
-0.000079 -0.000004 0.000083 0.000000
-0.000074 -0.000069 0.000212 0.000000
-0.000091 -0.000298 0.001683 0.000000
-0.000518 0.000229 0.003641 0.000000
-0.000078 -0.000026 0.000127 0.000000
-0.000349 0.000254 0.001336 0.000000
-0.000279 0.000243 0.000889 0.000000
-0.000060 -0.000093 0.000147 0.000000
-0.000009 -0.000131 0.000146 0.000000
-0.000036 -0.000164 0.000228 0.000000
-0.000393 -0.000204 0.000478 0.000000
-0.000043 -0.000127 0.000161 0.000000
-0.000062 -0.000078 0.000136 0.000000
-0.001082 0.000304 0.003599 0.000000
-0.000065 -0.000027 0.000133 0.000000
-0.000061 0.000002 -0.000005 0.000000
-0.000317 0.000240 0.000011 0.000000
-0.000362 0.000225 -0.000030 0.000000
-0.000041 0.000001 -0.000022 0.000000
-0.000055 0.000012 -0.000021 0.000000
-0.000297 0.000224 -0.000004 0.000000
-0.000609 0.000479 -0.000057 0.000000
-0.000080 0.000018 -0.000007 0.000000
-0.000082 0.000019 0.000000 0.000000
-0.000343 0.000202 0.000002 0.000000
-0.000032 -0.000006 -0.000014 0.000000
-0.000084 0.000020 0.000006 0.000000
-0.000053 -0.000021 -0.000035 0.000000
-0.000160 0.000039 -0.000012 0.000000
-0.000122 0.000044 -0.000000 0.000000
-0.000074 -0.000032 -0.000054 0.000000
-0.000042 -0.000000 -0.000014 0.000000
-0.000053 0.000006 0.000008 0.000000
-0.000043 0.000017 -0.000036 0.000000
-0.000330 0.000260 -0.000002 0.000000
-0.000026 -0.000005 0.000016 0.000000
-0.000314 0.000228 0.000048 0.000000
-0.000082 0.000019 -0.000003 0.000000
-0.000080 0.000018 0.000004 0.000000
-0.000113 0.000005 -0.000050 0.000000
-0.000163 0.000082 0.000011 0.000000
-0.000089 -0.000064 -0.000007 0.000000
-0.000081 0.000020 -0.000008 0.000000
-0.000088 -0.000084 -0.000003 0.000000
-0.000082 -0.000010 0.000003 0.000000
-0.000057 -0.000087 -0.000124 0.000000
-0.000065 -0.000014 -0.000042 0.000000
-0.000073 -0.000067 -0.000092 0.000000
-0.000104 -0.000053 -0.000116 0.000000
-0.000039 0.000003 0.000004 0.000000
-0.000034 -0.000002 0.000007 0.000000
-0.000033 -0.000014 0.000019 0.000000
-0.000053 -0.000015 0.000039 0.000000
-0.000198 0.000077 0.000001 0.000000
-0.000020 -0.000006 0.000004 0.000000
-0.000025 -0.000006 0.000014 0.000000
-0.000025 -0.000001 0.000011 0.000000
-0.000616 0.000428 0.000068 0.000000
-0.000516 0.000460 -0.000140 0.000000
-0.000046 -0.000004 0.000005 0.000000
-0.000045 0.000009 -0.000007 0.000000
-0.000429 0.000015 0.000051 0.000000
-0.000600 0.000391 0.000119 0.000000
-0.000058 -0.000004 -0.000007 0.000000
-0.000045 0.000005 -0.000005 0.000000
-0.000050 -0.000001 -0.000004 0.000000
-0.000060 0.000001 -0.000025 0.000000
-0.000062 -0.000002 -0.000001 0.000000
-0.000514 0.000402 0.000131 0.000000
-0.000707 0.000563 -0.000050 0.000000
-0.000874 0.000733 0.000893 0.000000
-0.000044 0.000002 -0.000013 0.000000
-0.000048 -0.000001 -0.000008 0.000000
-0.000758 0.000675 -0.000031 0.000000
-0.000507 0.000360 0.000206 0.000000
-0.000045 0.000008 0.000000 0.000000
-0.000353 0.000226 -0.000008 0.000000
-0.000046 0.000007 0.000009 0.000000
-0.000094 0.000015 -0.000013 0.000000
-0.000040 0.000006 -0.000008 0.000000
-0.000034 0.000002 -0.000012 0.000000
-0.000087 0.000034 0.000013 0.000000
-0.000054 0.000019 -0.000001 0.000000
-0.000552 0.000388 0.000177 0.000000
-0.000317 0.000238 -0.000009 0.000000
-0.000609 0.000520 -0.000104 0.000000
-0.000679 0.000563 -0.000066 0.000000
-0.000851 0.000731 -0.000030 0.000000
-0.000303 0.000226 -0.000004 0.000000
-0.000331 0.000199 0.000006 0.000000
-0.000728 0.000593 -0.000198 0.000000
-0.000848 0.000756 -0.000074 0.000000
-0.000959 0.000715 0.000128 0.000000
-0.000098 -0.000022 0.000154 0.000000
-0.000388 0.000207 0.001151 0.000000
-0.000352 0.000226 0.000480 0.000000
-0.000316 0.000140 0.001032 0.000000
-0.000173 0.000131 0.000181 0.000000
-0.000044 -0.000003 0.000060 0.000000
0.000090 -0.000010 0.000147 0.000000
-0.000043 -0.000046 0.000142 0.000000
-0.000740 0.000266 0.003825 0.000000
-0.000434 -0.000180 0.000954 0.000000
-0.000273 -0.000480 0.000819 0.000000
-0.000068 -0.000046 0.000138 0.000000
-0.000168 -0.000074 0.000399 0.000000
-0.000169 -0.000093 0.000137 0.000000
-0.000075 -0.000110 0.000185 0.000000
-0.000027 -0.000156 0.000210 0.000000
-0.000457 -0.000758 0.000458 0.000000
-0.000165 -0.000104 0.000178 0.000000
-0.000085 -0.000084 0.000180 0.000000
-0.000075 -0.000079 0.000153 0.000000
-0.000196 -0.000127 0.001686 0.000000
-0.000060 -0.000035 0.000108 0.000000
-0.000067 -0.000038 0.000194 0.000000
-0.000083 -0.000021 0.000145 0.000000
-0.000079 -0.000014 0.000126 0.000000
-0.000048 -0.000023 0.000099 0.000000
-0.000396 -0.001413 0.002297 0.000000
-0.000139 -0.000084 0.000181 0.000000
-0.000073 -0.000121 0.000200 0.000000
-0.000046 -0.000130 0.000191 0.000000
-0.000507 -0.000767 0.000378 0.000000
-0.000889 0.000044 0.001924 0.000000
-0.000418 -0.000816 0.003973 0.000000
-0.000458 -0.000860 0.001812 0.000000
-0.000591 -0.001134 0.001668 0.000000
-0.000563 -0.000382 0.002483 0.000000
-0.000070 -0.000144 0.000379 0.000000
-0.000190 -0.001562 0.002621 0.000000
-0.000087 -0.000143 0.000362 0.000000
-0.000098 -0.000143 0.000400 0.000000
-0.000080 -0.000121 0.000212 0.000000
-0.000080 -0.000099 0.000187 0.000000
-0.000064 -0.000157 0.000238 0.000000
-0.002555 0.002587 0.004407 0.000000
-0.000086 -0.000018 0.000139 0.000000
-0.000077 -0.000059 0.000138 0.000000
-0.000046 -0.000007 -0.000001 0.000000
-0.000231 0.000150 0.000078 0.000000
-0.000080 -0.000021 0.000141 0.000000
-0.000086 -0.000033 0.000157 0.000000
-0.000277 0.000173 0.000202 0.000000
-0.000297 0.000092 0.000488 0.000000
-0.000027 -0.000003 -0.000005 0.000000
-0.000796 0.000655 -0.000335 0.000000
-0.000356 0.000190 -0.000004 0.000000
-0.000357 0.000276 0.000001 0.000000
-0.000044 0.000001 0.000001 0.000000
-0.000681 0.000630 -0.000243 0.000000
-0.000053 0.000000 0.000009 0.000000
-0.000629 0.000474 0.000020 0.000000
-0.000545 0.000381 0.000104 0.000000
-0.000482 0.000331 0.000051 0.000000
-0.000553 0.000385 -0.000058 0.000000
-0.000445 0.000227 -0.000041 0.000000
-0.000543 0.000231 -0.000196 0.000000
-0.000743 0.000320 -0.000272 0.000000
-0.000515 0.000197 0.000072 0.000000
-0.000095 -0.000001 -0.000010 0.000000
-0.000138 0.000071 0.000044 0.000000
-0.000409 0.000219 0.000075 0.000000
-0.000056 -0.000006 -0.000004 0.000000
-0.000040 -0.000004 -0.000014 0.000000
-0.001167 0.000828 -0.000245 0.000000
-0.000623 0.000383 0.000101 0.000000
-0.000052 -0.000002 -0.000012 0.000000
-0.000054 -0.000004 -0.000012 0.000000
-0.000055 -0.000001 -0.000000 0.000000
-0.000075 0.000004 0.000012 0.000000
-0.000100 -0.000044 0.000141 0.000000
-0.000119 -0.000027 0.000135 0.000000
-0.000094 -0.000023 0.000147 0.000000
-0.000091 -0.000021 0.000147 0.000000
-0.000072 -0.000130 0.000335 0.000000
-0.000071 -0.000155 0.000368 0.000000
-0.000081 -0.000062 0.000126 0.000000
-0.000054 -0.000071 0.000119 0.000000
-0.001741 0.000943 0.003153 0.000000
-0.000044 -0.000149 0.000225 0.000000
-0.000266 -0.000375 0.000566 0.000000
-0.001822 0.001102 0.003496 0.000000
-0.000060 -0.000068 0.000133 0.000000
-0.000111 -0.000055 0.000093 0.000000
-0.000117 -0.000017 0.000152 0.000000
-0.000060 -0.000032 0.000141 0.000000
-0.000150 -0.000018 0.000107 0.000000
-0.000154 -0.000011 0.000140 0.000000
-0.000106 -0.000046 0.000073 0.000000
-0.000206 -0.000397 0.000682 0.000000
-0.000087 -0.000055 0.000140 0.000000
-0.000081 -0.000065 0.000106 0.000000
-0.000060 -0.000144 0.000233 0.000000
-0.000095 -0.000145 0.000224 0.000000
-0.000095 -0.000047 0.000071 0.000000
-0.001375 0.000885 0.002555 0.000000
-0.000656 -0.000418 0.001912 0.000000
-0.000381 -0.000888 0.001637 0.000000
-0.000063 -0.000178 0.000248 0.000000
-0.000102 -0.000094 0.000223 0.000000
-0.002011 0.001102 0.004578 0.000000
-0.002107 0.001173 0.004773 0.000000
-0.000099 -0.000056 0.000092 0.000000
-0.000098 -0.000049 0.000063 0.000000
-0.000142 0.000012 0.000000 0.000000
-0.000142 -0.000053 0.000242 0.000000
-0.000084 0.000002 0.000020 0.000000
-0.000162 -0.000004 0.000097 0.000000
-0.000567 0.000119 0.001067 0.000000
-0.000327 -0.000049 0.000650 0.000000
-0.000063 -0.000003 -0.000014 0.000000
-0.000175 0.000008 0.000076 0.000000
-0.000084 0.000005 0.000002 0.000000
-0.001037 0.000857 -0.000407 0.000000
-0.000094 0.000000 -0.000015 0.000000
-0.000074 0.000001 0.000010 0.000000
-0.000068 0.000003 -0.000007 0.000000
-0.000074 -0.000000 0.000004 0.000000
-0.000103 0.000001 0.000023 0.000000
-0.000994 0.000255 0.001102 0.000000
-0.000791 0.000336 0.000446 0.000000
-0.000108 -0.000005 -0.000003 0.000000
-0.000722 0.000301 -0.000327 0.000000
-0.000457 0.000003 -0.000080 0.000000
-0.000050 -0.000015 0.000031 0.000000
-0.000321 0.000126 0.000039 0.000000
-0.000046 -0.000017 0.000027 0.000000
-0.000230 0.000052 0.000143 0.000000
-0.000046 -0.000018 0.000028 0.000000
-0.000035 -0.000007 0.000016 0.000000
-0.000546 0.000298 0.000196 0.000000
-0.000080 -0.000029 0.000030 0.000000
-0.000096 -0.000256 -0.000128 0.000000
-0.000478 0.000120 0.000032 0.000000
-0.000485 0.000121 0.000034 0.000000
-0.000571 0.000297 0.000065 0.000000
-0.000522 0.000203 0.000122 0.000000
-0.000534 0.000171 0.000154 0.000000
-0.000438 0.000127 0.000212 0.000000
-0.000058 0.000016 0.000001 0.000000
-0.000446 0.000117 0.000181 0.000000
-0.000472 0.000047 0.000057 0.000000
-0.000283 0.000063 0.000074 0.000000
-0.000449 0.000208 0.000116 0.000000
-0.000058 -0.000008 -0.000002 0.000000
-0.000188 0.000089 0.000011 0.000000
-0.000422 0.000040 0.000251 0.000000
-0.000045 -0.000002 0.000002 0.000000
-0.000041 -0.000007 0.000012 0.000000
-0.000038 -0.000017 0.000021 0.000000
-0.000059 -0.000006 0.000003 0.000000
-0.000045 -0.000001 -0.000001 0.000000
-0.000061 -0.000008 -0.000001 0.000000
-0.000043 0.000010 -0.000006 0.000000
-0.000076 -0.000007 -0.000006 0.000000
-0.000355 0.000119 -0.000002 0.000000
-0.000038 -0.000011 0.000019 0.000000
-0.000042 -0.000048 0.000029 0.000000
-0.000040 -0.000017 0.000022 0.000000
-0.000037 -0.000022 0.000024 0.000000
-0.000107 -0.000074 -0.000040 0.000000
-0.000044 -0.000287 0.000034 0.000000
-0.000120 -0.000095 -0.000014 0.000000
-0.000082 -0.000101 0.000016 0.000000
-0.000082 -0.000065 -0.000003 0.000000
-0.000091 -0.000093 0.000012 0.000000
-0.000027 -0.000020 -0.000011 0.000000
-0.000110 -0.000034 -0.000095 0.000000
-0.000021 -0.000071 -0.000001 0.000000
-0.000030 -0.000041 -0.000027 0.000000
-0.000025 -0.000043 -0.000025 0.000000
-0.000142 -0.000056 -0.000139 0.000000
-0.000143 -0.000058 -0.000133 0.000000
-0.000114 0.000001 -0.000046 0.000000
-0.000173 -0.000071 -0.000051 0.000000
-0.000167 -0.000072 -0.000037 0.000000
-0.000132 0.000015 -0.000030 0.000000
-0.000118 -0.000139 0.000062 0.000000
-0.000086 -0.000079 0.000071 0.000000
-0.000093 -0.000152 0.000045 0.000000
-0.000082 -0.000111 0.000002 0.000000
-0.000041 -0.000016 0.000022 0.000000
-0.000041 -0.000034 0.000026 0.000000
-0.000036 -0.000019 0.000022 0.000000
-0.000044 -0.000026 0.000030 0.000000
-0.000032 -0.000014 0.000020 0.000000
-0.000031 -0.000044 0.000032 0.000000
-0.000034 -0.000046 0.000030 0.000000
-0.000100 -0.000290 0.000139 0.000000
-0.000046 -0.000219 0.000038 0.000000
-0.000080 -0.000132 0.000027 0.000000
-0.000028 -0.000024 -0.000015 0.000000
-0.000161 -0.000055 -0.000056 0.000000
-0.000045 -0.000039 -0.000020 0.000000
-0.000150 -0.000332 -0.000065 0.000000
-0.000023 -0.000021 -0.000004 0.000000
-0.000031 -0.000493 -0.000272 0.000000
-0.000030 -0.000042 -0.000019 0.000000
-0.000037 -0.000024 -0.000022 0.000000
-0.000035 -0.000032 0.000022 0.000000
-0.000039 -0.000029 0.000026 0.000000
-0.000110 -0.000109 0.000024 0.000000
-0.000032 -0.000053 0.000044 0.000000
-0.000032 -0.000018 0.000021 0.000000
-0.000040 -0.000025 0.000025 0.000000
-0.000011 -0.000177 -0.000285 0.000000
-0.000013 -0.000041 -0.000001 0.000000
-0.000043 -0.000035 0.000030 0.000000
-0.000044 -0.000032 0.000031 0.000000
-0.000038 -0.000018 0.000022 0.000000
-0.000042 -0.000063 0.000033 0.000000
-0.000487 0.000127 0.000173 0.000000
-0.000269 -0.000154 0.000180 0.000000
-0.000359 0.000067 0.000161 0.000000
-0.000385 -0.000030 0.000302 0.000000
-0.000158 -0.000166 0.000210 0.000000
-0.000052 -0.000007 0.000002 0.000000
-0.000322 -0.000090 0.000202 0.000000
-0.000373 0.000014 0.000351 0.000000
-0.000369 -0.000018 0.000226 0.000000
-0.000426 -0.000050 0.000370 0.000000
-0.000048 -0.000023 0.000032 0.000000
-0.000056 -0.000015 0.000033 0.000000
-0.000038 -0.000026 0.000022 0.000000
-0.000042 -0.000027 0.000028 0.000000
-0.000038 -0.000042 0.000025 0.000000
-0.000037 -0.000032 0.000025 0.000000
-0.000033 -0.000051 0.000036 0.000000
-0.000022 -0.000036 0.000019 0.000000
-0.000042 -0.000032 0.000027 0.000000
-0.000043 -0.000046 0.000032 0.000000
-0.000042 -0.000040 0.000030 0.000000
-0.000043 -0.000046 0.000030 0.000000
-0.000207 -0.000165 0.000125 0.000000
-0.000284 -0.000104 0.000183 0.000000
-0.000043 -0.000048 0.000032 0.000000
-0.000043 -0.000040 0.000029 0.000000
-0.000127 -0.000309 0.000137 0.000000
-0.000038 -0.000061 0.000062 0.000000
-0.000039 -0.000086 -0.000031 0.000000
-0.000024 -0.000045 0.000031 0.000000
-0.000073 -0.000265 0.000098 0.000000
-0.000193 -0.000145 0.000189 0.000000
0.000007 -0.000493 -0.000404 0.000000
-0.000032 -0.000049 -0.000032 0.000000
-0.000021 -0.000050 -0.000025 0.000000
-0.000025 -0.000037 -0.000021 0.000000
-0.000026 -0.000053 -0.000036 0.000000
-0.000028 -0.000024 -0.000016 0.000000
-0.000198 -0.000089 -0.000053 0.000000
-0.000143 -0.000196 0.000005 0.000000
-0.000176 -0.000076 -0.000061 0.000000
-0.000030 -0.000052 -0.000035 0.000000
-0.000033 -0.000039 -0.000027 0.000000
-0.000032 -0.000046 -0.000034 0.000000
-0.000130 -0.000195 0.000025 0.000000
-0.000139 -0.000225 -0.000004 0.000000
-0.000131 -0.000272 -0.000020 0.000000
-0.000044 -0.000395 -0.000205 0.000000
-0.000107 -0.000258 0.000008 0.000000
-0.000153 -0.000176 0.000003 0.000000
0.000051 -0.000488 -0.000271 0.000000
0.000067 -0.000444 0.000130 0.000000
-0.000029 -0.000094 -0.000012 0.000000
0.000088 -0.000593 -0.000276 0.000000
-0.000035 -0.000057 0.000032 0.000000
-0.000040 -0.000070 0.000047 0.000000
-0.000031 -0.000089 -0.000005 0.000000
-0.000017 -0.000524 -0.000261 0.000000
-0.000036 -0.000463 -0.000134 0.000000
-0.000034 -0.000406 0.000010 0.000000
0.000056 -0.000587 -0.000217 0.000000
-0.000034 -0.000462 -0.000137 0.000000
-0.000028 -0.000090 0.000005 0.000000
-0.000058 -0.000378 -0.000161 0.000000
-0.000104 -0.000402 -0.000039 0.000000
-0.000064 -0.000393 -0.000031 0.000000
-0.000205 -0.000424 0.000086 0.000000
0.000062 -0.000488 0.000007 0.000000
-0.000064 -0.000518 -0.000122 0.000000
-0.000128 -0.000332 -0.000054 0.000000
-0.000032 -0.000113 0.000054 0.000000
-0.000068 -0.000513 0.000298 0.000000
-0.000035 -0.000096 0.000006 0.000000
-0.000132 -0.000249 0.000089 0.000000
-0.000028 -0.000090 -0.000004 0.000000
-0.000038 -0.000094 0.000001 0.000000
-0.000019 -0.000549 -0.000190 0.000000
0.000048 -0.000571 -0.000229 0.000000
0.000027 -0.000559 -0.000218 0.000000
-0.000006 -0.000096 -0.000042 0.000000
-0.000042 -0.000076 0.000032 0.000000
-0.000039 -0.000061 0.000032 0.000000
-0.000044 -0.000081 0.000035 0.000000
-0.000028 -0.000069 0.000042 0.000000
-0.000045 -0.000064 0.000036 0.000000
-0.000043 -0.000079 0.000041 0.000000
-0.000044 -0.000073 0.000036 0.000000
-0.000042 -0.000071 0.000041 0.000000
-0.000056 -0.000086 0.000089 0.000000
-0.000074 -0.000023 -0.000010 0.000000
-0.000015 -0.000527 -0.000332 0.000000
-0.000046 -0.000118 0.000044 0.000000
-0.000051 -0.000475 0.000164 0.000000
-0.000229 -0.000154 0.000134 0.000000
0.000024 -0.000483 -0.000245 0.000000
-0.000192 -0.000340 0.000279 0.000000
-0.000190 -0.000237 0.000071 0.000000
-0.000038 -0.000659 0.000523 0.000000
-0.000040 -0.000069 0.000056 0.000000
-0.000002 -0.000554 -0.000083 0.000000
-0.000044 -0.000060 0.000035 0.000000
-0.000043 -0.000068 0.000035 0.000000
-0.000045 -0.000077 0.000036 0.000000
-0.000031 -0.000069 0.000055 0.000000
-0.000043 -0.000056 0.000034 0.000000
-0.000040 -0.000062 0.000035 0.000000
-0.000033 -0.000066 0.000038 0.000000
-0.000038 -0.000079 0.000053 0.000000
-0.000152 -0.000290 0.000012 0.000000
-0.000198 -0.000283 0.000124 0.000000
-0.000091 -0.000403 0.000186 0.000000
-0.000163 -0.000268 0.000125 0.000000
-0.000042 -0.000064 0.000032 0.000000
-0.000041 -0.000064 0.000032 0.000000
-0.000083 -0.000031 -0.000007 0.000000
-0.000385 -0.000220 0.000335 0.000000
-0.000311 -0.000330 0.000646 0.000000
-0.000359 -0.000114 0.000105 0.000000
-0.000124 -0.000004 -0.000012 0.000000
-0.000629 -0.000399 0.001743 0.000000
-0.000084 -0.000031 -0.000015 0.000000
-0.000121 -0.000010 -0.000033 0.000000
-0.000141 -0.000005 -0.000001 0.000000
-0.000126 -0.000005 -0.000005 0.000000
-0.000680 0.000064 0.000776 0.000000
-0.000130 -0.000026 0.000115 0.000000
-0.000546 -0.000060 0.001310 0.000000
-0.000089 -0.000054 0.000035 0.000000
-0.000214 -0.000380 0.000510 0.000000
-0.000308 -0.000310 0.000476 0.000000
-0.000332 -0.000336 0.000619 0.000000
-0.000058 -0.000088 0.000086 0.000000
-0.000305 -0.000371 0.000611 0.000000
-0.000435 -0.000103 0.000462 0.000000
-0.000047 -0.000087 0.000073 0.000000
-0.000067 -0.000069 0.000067 0.000000
-0.000055 -0.000085 0.000086 0.000000
-0.000059 -0.000089 0.000085 0.000000
-0.000589 -0.000221 0.000289 0.000000
-0.000339 -0.000320 0.000901 0.000000
-0.000369 -0.000243 0.000502 0.000000
-0.000399 -0.000206 0.000309 0.000000
-0.000133 -0.000020 -0.000000 0.000000
-0.000984 0.000218 0.000523 0.000000
-0.000088 -0.000090 0.000099 0.000000
-0.000080 -0.000073 0.000042 0.000000
-0.000407 -0.000168 0.000281 0.000000
-0.000110 -0.000050 0.000061 0.000000
-0.000566 -0.000385 0.000293 0.000000
-0.000940 0.000125 0.000534 0.000000
-0.000957 -0.000035 0.000025 0.000000
-0.000159 -0.000010 0.000049 0.000000
-0.000162 -0.000031 0.000121 0.000000
-0.000165 -0.000007 0.000111 0.000000
-0.000151 -0.000059 0.000105 0.000000
-0.000151 -0.000048 0.000100 0.000000
-0.000646 -0.000299 0.000348 0.000000
-0.000151 -0.000057 0.000119 0.000000
-0.001129 0.000500 0.000757 0.000000
-0.000175 -0.000066 0.000186 0.000000
-0.000158 -0.000003 0.000078 0.000000
-0.000161 -0.000019 0.000110 0.000000
-0.001439 0.000190 0.001266 0.000000
-0.000161 -0.000025 0.000107 0.000000
-0.001984 0.000685 0.002400 0.000000
-0.000175 -0.000027 0.000157 0.000000
-0.000144 -0.000073 0.000168 0.000000
-0.000150 -0.000061 0.000165 0.000000
-0.000146 -0.000016 0.000074 0.000000
-0.000097 0.000002 0.000031 0.000000
-0.000161 -0.000010 0.000070 0.000000
-0.000902 -0.000116 0.000605 0.000000
-0.001072 0.000210 0.000333 0.000000
-0.000113 0.000004 0.000034 0.000000
-0.000141 -0.000015 0.000013 0.000000
-0.000726 0.000352 0.000200 0.000000
-0.000132 0.000003 0.000039 0.000000
-0.000141 0.000004 0.000038 0.000000
-0.000151 0.000001 0.000074 0.000000
-0.000140 0.000001 0.000063 0.000000
-0.000113 0.000010 0.000039 0.000000
-0.000126 -0.000001 0.000058 0.000000
-0.002017 0.001160 0.002226 0.000000
-0.000166 -0.000033 0.000149 0.000000
-0.000173 -0.000008 0.000117 0.000000
-0.000202 -0.000128 0.000392 0.000000
-0.000173 0.000025 0.000082 0.000000
-0.000122 -0.000063 0.000079 0.000000
-0.000131 0.000007 -0.000009 0.000000
-0.000207 0.000003 0.000248 0.000000
-0.000142 0.000002 0.000061 0.000000
-0.000129 -0.000003 0.000021 0.000000
-0.000134 0.000000 0.000057 0.000000
-0.000103 0.000008 0.000026 0.000000
-0.000166 0.000008 0.000070 0.000000
-0.000159 0.000011 0.000038 0.000000
-0.000124 -0.000000 0.000054 0.000000
-0.000100 0.000002 0.000014 0.000000
-0.000926 0.000197 0.000469 0.000000
-0.001068 0.000476 0.000643 0.000000
-0.000116 -0.000005 -0.000010 0.000000
-0.000132 -0.000003 -0.000010 0.000000
-0.000789 0.000038 0.000491 0.000000
-0.000428 -0.000361 0.000726 0.000000
0.000116 -0.000608 0.000126 0.000000
-0.000069 -0.000014 -0.000003 0.000000
-0.000082 -0.000066 0.000039 0.000000
-0.000464 0.000068 -0.000362 0.000000
-0.000047 -0.000083 0.000081 0.000000
-0.000058 -0.000008 -0.000005 0.000000
-0.000103 -0.000003 -0.000016 0.000000
-0.000121 -0.000003 -0.000019 0.000000
-0.000123 -0.000008 0.000009 0.000000
-0.000097 -0.000073 -0.000040 0.000000
-0.000111 -0.000009 0.000007 0.000000
-0.000489 0.000136 -0.000117 0.000000
-0.000101 -0.000001 -0.000009 0.000000
-0.000969 0.000429 0.000265 0.000000
-0.000094 -0.000002 -0.000004 0.000000
-0.000103 -0.000003 -0.000003 0.000000
-0.000090 -0.000010 0.000009 0.000000
-0.000097 -0.000006 -0.000000 0.000000
-0.000507 0.000064 0.000063 0.000000
-0.000116 0.000010 -0.000015 0.000000
-0.000586 0.000107 -0.000023 0.000000
-0.000082 -0.000018 0.000034 0.000000
-0.000339 -0.000101 0.000011 0.000000
-0.000372 -0.000091 0.000032 0.000000
-0.000691 0.000520 0.000760 0.000000
-0.000099 -0.000001 -0.000013 0.000000
-0.000468 0.000353 0.000101 0.000000
-0.000086 0.000000 -0.000020 0.000000
-0.000512 -0.000001 -0.000016 0.000000
-0.000445 -0.000090 0.000029 0.000000
-0.000084 0.000003 0.000010 0.000000
-0.000117 0.000004 0.000024 0.000000
-0.001158 0.000546 -0.000519 0.000000
-0.000703 0.000317 -0.000161 0.000000
-0.000113 0.000002 0.000029 0.000000
-0.000094 0.000002 0.000015 0.000000
-0.001077 0.000536 0.000681 0.000000
-0.001212 0.000383 0.000491 0.000000
-0.000135 0.000004 0.000037 0.000000
-0.000072 -0.000006 -0.000013 0.000000
-0.000115 0.000006 0.000012 0.000000
-0.000151 0.000006 0.000058 0.000000
-0.000170 0.000011 0.000040 0.000000
-0.000142 0.000009 0.000010 0.000000
-0.000114 0.000003 0.000020 0.000000
-0.000090 -0.000004 -0.000016 0.000000
-0.000129 0.000004 0.000036 0.000000
-0.000106 0.000006 0.000007 0.000000
-0.000126 -0.000055 0.000117 0.000000
-0.000094 -0.000020 0.000142 0.000000
-0.000119 -0.000032 0.000133 0.000000
-0.000094 -0.000027 0.000150 0.000000
-0.000092 -0.000059 0.000132 0.000000
-0.000105 -0.000050 0.000134 0.000000
-0.000133 -0.000044 0.000112 0.000000
-0.000088 -0.000042 0.000154 0.000000
-0.000108 -0.000066 0.000112 0.000000
-0.000148 -0.000083 0.000127 0.000000
-0.000141 -0.000021 0.000114 0.000000
-0.000118 -0.000042 0.000129 0.000000
-0.000144 -0.000026 0.000104 0.000000
-0.002079 -0.000185 0.003095 0.000000
-0.000165 -0.000032 0.000250 0.000000
-0.000185 0.000034 -0.000020 0.000000
-0.000136 -0.000037 0.000111 0.000000
-0.000123 -0.000034 0.000128 0.000000
-0.000164 -0.000009 0.000124 0.000000
-0.000141 -0.000040 0.000091 0.000000
-0.000140 -0.000039 0.000104 0.000000
-0.000138 -0.000056 0.000100 0.000000
-0.000144 -0.000034 0.000092 0.000000
-0.001245 -0.000118 0.001335 0.000000
-0.000123 -0.000063 0.000113 0.000000
-0.000146 -0.000058 0.000111 0.000000
-0.000146 -0.000054 0.000108 0.000000
-0.000130 -0.000035 0.000118 0.000000
-0.000114 -0.000065 0.000109 0.000000
-0.000147 -0.000075 0.000132 0.000000
-0.000097 -0.000061 0.000128 0.000000
-0.000113 -0.000068 0.000120 0.000000
-0.000118 -0.000047 0.000128 0.000000
-0.000130 -0.000068 0.000109 0.000000
-0.000053 -0.000241 0.000251 0.000000
-0.000070 -0.000174 0.000204 0.000000
-0.000111 -0.000066 0.000115 0.000000
-0.000116 -0.000064 0.000117 0.000000
-0.001528 0.000428 0.003868 0.000000
-0.000116 -0.000063 0.000084 0.000000
-0.000119 -0.000065 0.000110 0.000000
-0.000139 -0.000069 0.000126 0.000000
-0.000051 -0.000202 0.000261 0.000000
-0.000058 -0.000174 0.000268 0.000000
-0.000094 -0.000152 0.000221 0.000000
-0.000091 -0.000155 0.000218 0.000000
-0.000087 -0.000157 0.000222 0.000000
-0.000086 -0.000106 0.000206 0.000000
-0.000072 -0.000196 0.000230 0.000000
-0.000055 -0.000219 0.000228 0.000000
-0.000081 -0.000165 0.000225 0.000000
-0.000092 -0.000124 0.000229 0.000000
-0.000088 -0.000166 0.000236 0.000000
-0.000087 -0.000134 0.000241 0.000000
-0.001718 0.000859 0.003690 0.000000
-0.000061 -0.000198 0.000207 0.000000
-0.001694 0.000590 0.003963 0.000000
-0.001596 0.000784 0.003950 0.000000
-0.000088 -0.000135 0.000231 0.000000
-0.000082 -0.000184 0.000235 0.000000
-0.001691 0.000876 0.004523 0.000000
-0.000106 -0.000049 0.000080 0.000000
-0.000080 -0.000130 0.000279 0.000000
-0.000090 -0.000147 0.000222 0.000000
-0.000096 -0.000140 0.000223 0.000000
-0.000084 -0.000166 0.000216 0.000000
-0.000068 -0.000148 0.000238 0.000000
-0.000089 -0.000140 0.000229 0.000000
-0.000156 -0.000165 0.000189 0.000000
-0.000162 -0.000057 0.000385 0.000000
-0.000094 -0.000160 0.000254 0.000000
-0.000058 -0.000169 0.000355 0.000000
-0.000102 -0.000203 0.000165 0.000000
-0.000120 -0.000178 0.000165 0.000000
-0.000076 -0.000213 0.000124 0.000000
-0.000154 -0.000181 0.000221 0.000000
0.002398 -0.003829 0.003318 0.000000
-0.000010 -0.000280 0.000221 0.000000
0.001236 -0.002802 0.001643 0.000000
-0.000039 -0.000299 0.000132 0.000000
-0.000070 -0.000169 0.000151 0.000000
0.001283 -0.002969 0.002809 0.000000
0.000251 -0.001565 0.000864 0.000000
0.002778 -0.004082 0.002809 0.000000
0.000111 -0.001816 0.000725 0.000000
0.000981 -0.002223 0.001377 0.000000
-0.000039 -0.000248 0.000069 0.000000
-0.000043 -0.000295 0.000160 0.000000
-0.000619 -0.000833 -0.000741 0.000000
-0.000557 -0.000922 -0.000153 0.000000
-0.000422 -0.001082 -0.000308 0.000000
0.000031 -0.001687 -0.000066 0.000000
-0.000061 -0.000269 0.000173 0.000000
-0.000045 -0.000282 0.000172 0.000000
-0.000057 -0.000251 0.000145 0.000000
-0.000069 -0.000248 0.000149 0.000000
-0.000091 -0.000169 0.000154 0.000000
-0.000071 -0.000218 0.000171 0.000000
0.004040 -0.004649 0.006518 0.000000
-0.000080 -0.000255 0.000104 0.000000
-0.000096 -0.000158 0.000146 0.000000
-0.000078 -0.000202 0.000169 0.000000
-0.000078 -0.000194 0.000169 0.000000
-0.000062 -0.000238 0.000171 0.000000
0.000383 -0.001989 0.001922 0.000000
0.004886 -0.006300 0.007485 0.000000
-0.000055 -0.000287 0.000182 0.000000
-0.000037 -0.000331 -0.000043 0.000000
-0.000057 -0.000248 0.000168 0.000000
-0.000048 -0.000283 0.000176 0.000000
0.003904 -0.004988 0.005498 0.000000
0.000437 -0.001225 0.004118 0.000000
-0.000087 -0.000226 0.000134 0.000000
0.002445 -0.004084 0.005925 0.000000
0.000466 -0.001943 0.003609 0.000000
0.000687 -0.002560 0.002275 0.000000
0.001877 -0.003911 0.000972 0.000000
0.000058 -0.001733 0.000559 0.000000
0.002587 -0.004061 0.002530 0.000000
0.000110 -0.002138 0.000308 0.000000
-0.000075 -0.000310 0.000243 0.000000
-0.000102 -0.000233 0.000208 0.000000
-0.000028 -0.000370 0.000283 0.000000
0.000102 -0.000475 0.000230 0.000000
0.000237 -0.001733 0.000663 0.000000
0.000148 -0.000876 -0.000583 0.000000
-0.000042 -0.000285 0.000131 0.000000
0.000017 -0.000318 0.000236 0.000000
-0.000435 -0.001197 0.002190 0.000000
-0.000122 -0.000115 0.000279 0.000000
-0.000072 -0.000154 0.000262 0.000000
-0.000085 -0.000167 0.000219 0.000000
0.000822 -0.002162 0.001990 0.000000
-0.000091 -0.000263 0.000375 0.000000
-0.000123 -0.000153 0.000296 0.000000
-0.000086 -0.000166 0.000219 0.000000
-0.000074 -0.000171 0.000239 0.000000
-0.000070 -0.000181 0.000237 0.000000
0.001782 -0.003457 0.001707 0.000000
0.001858 -0.003608 0.002342 0.000000
0.000914 -0.001614 -0.001268 0.000000
0.003206 -0.003713 0.000101 0.000000
-0.000041 -0.001862 0.000758 0.000000
0.000389 -0.002319 0.001492 0.000000
0.000698 -0.001997 -0.005320 0.000000
0.000025 -0.000321 0.000245 0.000000
-0.000097 -0.001636 0.003832 0.000000
0.000410 -0.002222 0.002706 0.000000
0.000805 -0.002265 0.001429 0.000000
0.000613 -0.001860 0.006295 0.000000
0.000279 -0.001995 0.003774 0.000000
-0.000076 -0.000220 0.000275 0.000000
0.000813 -0.002312 0.000577 0.000000
0.000582 -0.002396 0.003337 0.000000
-0.000055 -0.000264 0.000162 0.000000
-0.000056 -0.000258 0.000162 0.000000
-0.000073 -0.000244 0.000145 0.000000
-0.000103 -0.000209 0.000107 0.000000
0.000728 -0.002400 0.000879 0.000000
-0.000775 -0.000746 -0.000160 0.000000
-0.000021 -0.000319 0.000159 0.000000
-0.000048 -0.000275 0.000166 0.000000
-0.000135 -0.000697 0.001678 0.000000
-0.000049 -0.000297 -0.000013 0.000000
0.000327 -0.002257 0.003297 0.000000
-0.000054 -0.000296 -0.000016 0.000000
-0.000028 -0.000317 0.000148 0.000000
-0.000025 -0.000304 0.000093 0.000000
-0.000031 -0.000308 0.000168 0.000000
-0.000036 -0.000299 0.000170 0.000000
-0.000073 -0.000249 0.000143 0.000000
-0.000100 -0.000237 0.000072 0.000000
-0.000051 -0.000283 0.000156 0.000000
-0.000036 -0.000304 0.000163 0.000000
-0.000048 -0.000315 0.000071 0.000000
-0.000067 -0.000282 0.000021 0.000000
-0.000021 -0.001870 0.002444 0.000000
0.001662 -0.003607 0.004108 0.000000
-0.000030 -0.000298 0.000110 0.000000
-0.000004 -0.000344 0.000123 0.000000
0.000135 -0.002546 0.002659 0.000000
-0.000029 -0.000314 0.000108 0.000000
-0.000050 -0.000284 0.000045 0.000000
-0.000020 -0.000319 0.000151 0.000000
-0.000029 -0.000297 0.000087 0.000000
0.000005 -0.000359 0.000131 0.000000
-0.000045 -0.000306 0.000115 0.000000
-0.000027 -0.000316 0.000162 0.000000
-0.000053 -0.000231 0.000275 0.000000
0.000306 -0.002224 0.004435 0.000000
0.000012 -0.000269 0.000177 0.000000
0.000589 -0.002211 0.000991 0.000000
0.000175 -0.001711 0.003651 0.000000
-0.000103 -0.000230 0.000088 0.000000
0.000320 -0.002220 0.001653 0.000000
0.000645 -0.002180 0.004539 0.000000
0.000013 -0.000256 0.000135 0.000000
0.002473 -0.004020 0.002576 0.000000
0.002554 -0.003172 0.006940 0.000000
0.000050 -0.000344 0.000204 0.000000
-0.000009 -0.000297 0.000138 0.000000
0.001923 -0.002828 0.006034 0.000000
-0.000008 -0.000321 -0.000061 0.000000
-0.000006 -0.000243 0.000168 0.000000
0.001485 -0.002038 -0.005135 0.000000
0.000022 -0.000347 0.000152 0.000000
0.002724 -0.004771 0.009572 0.000000
0.000583 -0.002265 0.002278 0.000000
0.000813 -0.001270 0.004142 0.000000
0.001162 -0.001983 0.004744 0.000000
-0.000085 -0.000226 0.000324 0.000000
-0.000066 -0.000170 0.000242 0.000000
-0.000053 -0.000206 0.000240 0.000000
-0.000070 -0.000215 0.000279 0.000000
-0.000048 -0.000303 0.000330 0.000000
-0.000082 -0.000217 0.000271 0.000000
-0.000081 -0.000185 0.000236 0.000000
-0.000086 -0.000174 0.000224 0.000000
-0.000327 -0.000701 0.001399 0.000000
-0.000123 -0.000150 0.000149 0.000000
-0.000087 -0.000206 0.000274 0.000000
-0.000089 -0.000204 0.000259 0.000000
-0.000221 -0.000085 0.000417 0.000000
-0.000173 -0.000216 0.000546 0.000000
-0.000170 -0.000091 0.000314 0.000000
-0.000159 -0.000199 0.000449 0.000000
-0.000771 -0.000710 0.003822 0.000000
-0.000138 -0.000153 0.000133 0.000000
-0.000198 -0.000131 0.000406 0.000000
-0.000555 -0.000056 0.000215 0.000000
-0.000083 -0.000190 0.000267 0.000000
-0.000121 -0.000189 0.000397 0.000000
-0.000086 -0.000172 0.000222 0.000000
-0.000089 -0.000163 0.000217 0.000000
-0.000083 -0.000184 0.000231 0.000000
-0.000067 -0.000194 0.000250 0.000000
-0.000084 -0.000190 0.000227 0.000000
-0.000085 -0.000192 0.000242 0.000000
-0.000086 -0.000172 0.000217 0.000000
-0.000086 -0.000182 0.000231 0.000000
-0.000072 -0.000177 0.000224 0.000000
-0.000093 -0.000150 0.000218 0.000000
-0.000173 -0.000004 0.000120 0.000000
-0.001586 0.000626 0.003819 0.000000
-0.000069 -0.000184 0.000222 0.000000
-0.000095 -0.000152 0.000227 0.000000
-0.000077 -0.000185 0.000242 0.000000
-0.000066 -0.000191 0.000245 0.000000
-0.000130 -0.000056 0.000113 0.000000
-0.000165 -0.000080 0.000136 0.000000
-0.000139 -0.000046 0.000110 0.000000
-0.000141 -0.000047 0.000098 0.000000
-0.000137 -0.000045 0.000089 0.000000
-0.000206 0.000053 0.000109 0.000000
-0.000129 -0.000073 0.000118 0.000000
-0.000126 -0.000062 0.000115 0.000000
-0.000125 -0.000078 0.000095 0.000000
-0.000142 -0.000042 0.000078 0.000000
-0.000148 -0.000075 0.000104 0.000000
-0.000160 -0.000069 0.000120 0.000000
-0.000748 -0.000282 0.000789 0.000000
-0.000142 -0.000065 0.000126 0.000000
-0.000042 -0.000203 0.000210 0.000000
-0.000064 -0.000196 0.000219 0.000000
-0.000152 -0.000075 0.000116 0.000000
-0.000127 -0.000067 0.000118 0.000000
-0.000032 -0.000219 0.000232 0.000000
-0.000204 -0.001188 0.000692 0.000000
0.000249 -0.002051 0.001471 0.000000
-0.000071 -0.000190 0.000249 0.000000
-0.002233 0.000946 0.005366 0.000000
-0.000212 -0.000095 0.000203 0.000000
-0.000164 -0.000065 0.000117 0.000000
-0.001223 -0.000437 0.002251 0.000000
-0.000141 -0.000079 0.000141 0.000000
-0.000859 -0.000676 0.002059 0.000000
-0.000155 -0.000062 0.000115 0.000000
-0.000162 -0.000076 0.000127 0.000000
-0.000141 -0.000070 0.000143 0.000000
-0.000162 -0.000062 0.000123 0.000000
-0.000151 -0.000063 0.000139 0.000000
-0.000113 -0.001409 0.003088 0.000000
-0.000159 -0.000073 0.000112 0.000000
-0.000177 -0.000090 0.000144 0.000000
-0.000191 -0.000092 0.000164 0.000000
0.000099 -0.001834 0.002676 0.000000
-0.000174 -0.000083 0.000137 0.000000
-0.000755 -0.000940 0.005135 0.000000
-0.000161 -0.000079 0.000123 0.000000
-0.001106 -0.000665 0.001763 0.000000
-0.000163 -0.000057 0.000118 0.000000
-0.000162 -0.000084 0.000116 0.000000
-0.000162 -0.000079 0.000123 0.000000
0.000372 -0.001807 0.006867 0.000000
-0.000163 -0.000071 0.000123 0.000000
-0.000178 -0.000061 0.000121 0.000000
-0.000171 -0.000092 0.000161 0.000000
-0.000193 -0.000115 0.000224 0.000000
-0.000652 -0.000605 0.001170 0.000000
-0.000747 -0.000470 0.001052 0.000000
-0.000256 -0.001208 0.003578 0.000000
0.000236 -0.002024 0.001849 0.000000
-0.000244 -0.001117 0.000541 0.000000
0.000014 -0.001558 0.001047 0.000000
-0.000689 -0.000782 0.000868 0.000000
-0.000585 -0.000217 -0.000410 0.000000
-0.000495 -0.000871 0.000342 0.000000
-0.000198 -0.000108 0.000215 0.000000
-0.000164 -0.000094 0.000159 0.000000
-0.000169 -0.000080 0.000136 0.000000
0.000175 -0.002079 0.002077 0.000000
-0.000242 -0.002780 0.005914 0.000000
0.000237 -0.001879 0.001184 0.000000
-0.000079 -0.001824 0.002262 0.000000
0.000250 -0.002239 0.002588 0.000000
-0.000139 -0.001955 0.002476 0.000000
0.000228 -0.001827 0.000986 0.000000
0.001416 -0.002792 0.003296 0.000000
-0.000036 -0.000259 0.000433 0.000000
0.000568 -0.002568 0.003647 0.000000
-0.000106 -0.002100 0.001590 0.000000
-0.000088 -0.000498 0.001313 0.000000
0.000053 -0.000274 0.000464 0.000000
0.000090 -0.002101 0.001582 0.000000
-0.000032 -0.000238 0.000403 0.000000
0.000280 -0.002003 0.001619 0.000000
-0.000099 -0.001575 0.000471 0.000000
-0.000100 -0.000155 0.000195 0.000000
-0.000036 -0.000293 0.000138 0.000000
-0.000428 -0.001050 0.002407 0.000000
-0.000148 -0.000130 0.000252 0.000000
-0.000704 -0.000597 0.000693 0.000000
-0.001981 0.000099 0.000978 0.000000
-0.000304 -0.001620 0.001586 0.000000
0.000085 -0.001812 0.001994 0.000000
-0.000233 -0.000825 0.003954 0.000000
-0.000161 -0.000081 0.000137 0.000000
-0.000031 -0.000264 0.000427 0.000000
0.000105 -0.000314 0.000591 0.000000
0.000126 -0.001832 0.000779 0.000000
-0.000026 -0.000233 0.000265 0.000000
0.000010 -0.001715 0.000630 0.000000
0.000049 -0.001771 0.001271 0.000000
0.000040 -0.001536 0.002259 0.000000
0.003835 -0.006052 0.007374 0.000000
0.000640 -0.001532 0.001027 0.000000
0.001804 -0.002486 0.008881 0.000000
0.000199 -0.003459 0.004322 0.000000
0.001812 -0.003175 -0.003610 0.000000
0.000249 -0.000352 0.000838 0.000000
0.001763 -0.001376 -0.001260 0.000000
-0.000006 -0.000318 0.000180 0.000000
-0.000076 -0.000310 0.000262 0.000000
0.000054 -0.000363 0.000147 0.000000
0.001498 -0.001250 -0.001152 0.000000
-0.000061 -0.000329 -0.000006 0.000000
0.000500 -0.002454 0.005629 0.000000
-0.000011 -0.000297 0.000198 0.000000
-0.000001 -0.000326 0.000121 0.000000
-0.000016 -0.000353 0.000084 0.000000
-0.000013 -0.000329 0.000158 0.000000
-0.000001 -0.000382 0.000075 0.000000
-0.000028 -0.000315 0.000146 0.000000
-0.000103 -0.001882 0.001527 0.000000
0.000268 -0.002023 0.000987 0.000000
-0.000021 -0.000320 0.000150 0.000000
-0.000019 -0.000313 0.000136 0.000000
-0.000804 -0.001389 0.001262 0.000000
0.000002 -0.000379 0.000020 0.000000
-0.000153 -0.001706 0.001692 0.000000
-0.000247 -0.002111 0.001780 0.000000
-0.000004 -0.000335 0.000168 0.000000
0.000010 -0.000359 0.000159 0.000000
-0.000033 -0.000328 0.000074 0.000000
0.000006 -0.000377 0.000115 0.000000
-0.000036 -0.000322 0.000093 0.000000
0.000061 -0.000359 0.000119 0.000000
0.000833 -0.002652 0.004257 0.000000
0.000594 -0.002549 0.002333 0.000000
0.000771 -0.002152 0.004430 0.000000
0.001237 -0.003014 0.002993 0.000000
-0.000606 -0.001556 0.001412 0.000000
-0.000343 -0.001601 0.001317 0.000000
-0.000268 -0.002156 0.001431 0.000000
-0.000022 -0.000308 0.000147 0.000000
-0.000574 -0.001380 0.001498 0.000000
-0.000693 -0.001504 0.000925 0.000000
-0.000093 -0.002261 0.002261 0.000000
-0.000420 -0.002044 0.001393 0.000000
-0.000301 -0.002052 0.001473 0.000000
0.000008 -0.000330 0.000144 0.000000
-0.000043 -0.002128 0.001463 0.000000
-0.000232 -0.002182 0.001259 0.000000
-0.000015 -0.000390 0.000123 0.000000
-0.000037 -0.000331 0.000046 0.000000
-0.000153 -0.000192 0.000310 0.000000
0.000744 -0.003030 0.004318 0.000000
-0.000111 -0.000212 0.000315 0.000000
-0.000254 -0.001591 0.002325 0.000000
-0.000083 -0.000240 0.000302 0.000000
0.000546 -0.002784 0.001467 0.000000
-0.000045 -0.000315 0.000302 0.000000
-0.000070 -0.000260 0.000312 0.000000
0.000029 -0.000353 0.000152 0.000000
0.000164 -0.000654 0.000287 0.000000
0.000118 -0.000417 0.000422 0.000000
-0.000069 -0.000258 0.000387 0.000000
-0.000070 -0.000356 0.000405 0.000000
-0.000027 -0.000324 0.000249 0.000000
0.000169 -0.000299 0.000558 0.000000
0.001035 -0.002526 0.002690 0.000000
-0.000393 -0.001074 0.001924 0.000000
0.000000 -0.001604 0.000939 0.000000
-0.000067 -0.000310 0.000352 0.000000
-0.000162 -0.000179 0.000288 0.000000
-0.000070 -0.002331 0.002112 0.000000
-0.000029 -0.002302 0.002783 0.000000
-0.000690 -0.000602 0.001012 0.000000
-0.000159 -0.000209 0.000299 0.000000
-0.000140 -0.000240 0.000371 0.000000
0.000000 -0.002092 0.007673 0.000000
0.000172 -0.002041 0.002580 0.000000
0.000668 -0.003014 0.000649 0.000000
-0.000885 -0.000976 0.001908 0.000000
0.000270 -0.001265 0.004683 0.000000
-0.000346 -0.001154 0.002994 0.000000
0.001349 -0.003716 0.002377 0.000000
-0.001124 -0.000616 0.000803 0.000000
-0.001098 0.000299 0.000336 0.000000
0.000480 -0.002880 0.001087 0.000000
-0.000070 -0.000389 0.000188 0.000000
0.001240 -0.003612 0.004169 0.000000
-0.000008 -0.000360 0.000051 0.000000
0.000120 -0.002450 0.001821 0.000000
-0.000076 -0.002518 0.000799 0.000000
0.000020 -0.000337 0.000078 0.000000
0.001462 -0.004219 0.002737 0.000000
0.000000 -0.002300 0.003674 0.000000
-0.000330 -0.001879 0.001022 0.000000
-0.000488 -0.001815 0.001073 0.000000
-0.000428 -0.001890 0.001151 0.000000
-0.000345 -0.002011 0.001161 0.000000
-0.000225 -0.002235 0.001357 0.000000
0.000205 -0.003091 0.001200 0.000000
0.001636 -0.004640 0.003284 0.000000
0.000000 -0.003095 0.001037 0.000000
0.001893 -0.004283 0.002164 0.000000
-0.000348 -0.002115 0.001196 0.000000
-0.000184 -0.002200 0.001265 0.000000
0.000781 -0.003232 0.001370 0.000000
-0.000301 -0.001916 0.001847 0.000000
-0.000279 -0.001990 0.001568 0.000000
-0.000347 -0.001782 0.002628 0.000000
0.000000 -0.002263 0.002170 0.000000
-0.000000 -0.002303 0.001829 0.000000
-0.000247 -0.002342 0.001609 0.000000
0.000000 -0.002319 0.001283 0.000000
0.000000 -0.003313 0.001886 0.000000
0.001500 -0.003978 0.002501 0.000000
0.000000 -0.001207 0.006712 0.000000
0.000768 -0.002638 0.006365 0.000000
-0.000654 -0.000824 0.003904 0.000000
0.000011 -0.000416 0.000488 0.000000
-0.000024 -0.002593 0.002173 0.000000
-0.000063 -0.002269 0.003581 0.000000
0.001461 -0.003097 0.005352 0.000000
0.000060 -0.000348 0.000081 0.000000
0.000000 -0.003442 0.003850 0.000000
0.000642 -0.003136 0.002946 0.000000
0.000985 -0.002883 0.001869 0.000000
-0.000186 -0.002056 0.002252 0.000000
0.000000 -0.002333 0.003017 0.000000
-0.000000 -0.002573 0.006906 0.000000
-0.000200 -0.001398 0.005329 0.000000
0.000000 -0.001165 0.004081 0.000000
0.000000 -0.001213 0.003223 0.000000
0.000665 -0.002530 0.012099 0.000000
0.000264 -0.002304 0.008050 0.000000
0.000962 -0.003391 0.009017 0.000000
-0.000271 -0.002044 0.004739 0.000000
0.000254 -0.002457 0.009978 0.000000
-0.000599 -0.001308 0.000811 0.000000
0.000000 -0.001174 0.002395 0.000000
0.000267 -0.002341 0.003179 0.000000
-0.000000 -0.002416 0.010063 0.000000
-0.000294 -0.001004 0.002046 0.000000
-0.000844 -0.000703 0.003471 0.000000
0.000150 -0.001088 0.006056 0.000000
-0.001017 -0.000668 0.005043 0.000000
0.000214 -0.001676 0.003239 0.000000
0.000273 -0.001374 0.001008 0.000000
-0.000190 -0.001319 0.002355 0.000000
-0.000745 -0.000714 0.003510 0.000000
0.000142 -0.002176 0.001539 0.000000
-0.000426 -0.000614 -0.000419 0.000000
0.000600 -0.002522 0.007201 0.000000
0.000348 -0.002184 0.002625 0.000000
0.000720 -0.002856 0.008474 0.000000
0.000000 -0.002409 0.010345 0.000000
-0.000201 -0.001815 0.002092 0.000000
0.000208 -0.002229 0.007652 0.000000
0.000346 -0.002551 0.007311 0.000000
-0.000533 -0.000933 0.001671 0.000000
-0.000521 -0.001017 0.006447 0.000000
-0.000539 -0.001288 0.002960 0.000000
0.000021 -0.001104 0.001442 0.000000
-0.000057 -0.001689 0.002990 0.000000
-0.000052 -0.000200 0.000276 0.000000
-0.000331 -0.001661 0.007215 0.000000
-0.000360 -0.001045 0.003659 0.000000
-0.000683 -0.001033 0.003897 0.000000
-0.000178 -0.000092 0.000149 0.000000
-0.000742 -0.000483 0.000603 0.000000
-0.000192 -0.000122 0.000321 0.000000
-0.000654 -0.000896 0.006560 0.000000
0.000247 -0.001683 0.005965 0.000000
-0.000847 -0.000885 0.001921 0.000000
-0.000713 -0.000676 0.001053 0.000000
-0.000831 -0.000617 0.000837 0.000000
0.000313 -0.001677 0.005829 0.000000
-0.000553 -0.000811 0.004211 0.000000
-0.000451 -0.001036 0.006270 0.000000
-0.000481 -0.001092 0.005776 0.000000
-0.000147 -0.001459 0.006718 0.000000
0.000000 -0.002459 0.012379 0.000000
-0.000166 -0.000095 0.000153 0.000000
-0.000138 -0.000111 0.000159 0.000000
0.000165 -0.002057 0.013290 0.000000
-0.000000 -0.001359 0.012507 0.000000
-0.000568 -0.000957 0.003723 0.000000
0.000060 -0.001631 0.006307 0.000000
-0.000308 -0.000880 0.006188 0.000000
0.000361 -0.001849 0.007065 0.000000
-0.000199 -0.001251 0.011655 0.000000
-0.000165 -0.001095 0.006371 0.000000
-0.000410 -0.001153 0.004755 0.000000
-0.000184 -0.000063 0.000609 0.000000
-0.000737 -0.001264 0.005696 0.000000
0.001063 -0.002485 0.012532 0.000000
-0.001036 -0.001241 0.012736 0.000000
-0.000296 -0.001135 0.003045 0.000000
0.000415 -0.001052 0.007837 0.000000
-0.000669 -0.000747 0.003296 0.000000
-0.001184 -0.000944 0.009416 0.000000
-0.000138 -0.000102 0.000105 0.000000
-0.000442 -0.000997 0.007566 0.000000
0.000000 -0.001574 0.006107 0.000000
-0.000547 -0.000492 0.000543 0.000000
-0.000108 -0.000109 0.000147 0.000000
-0.000746 -0.000196 0.000888 0.000000
0.000000 -0.000827 0.001912 0.000000
-0.000018 -0.000965 0.001452 0.000000
0.000135 -0.001189 0.000684 0.000000
0.000000 -0.000794 0.001086 0.000000
-0.000336 -0.000514 0.000421 0.000000
0.000017 -0.001032 0.000534 0.000000
0.000000 -0.000766 0.004208 0.000000
-0.000534 -0.000310 0.000390 0.000000
0.000000 -0.000754 0.003647 0.000000
-0.000083 -0.000090 0.000110 0.000000
-0.000195 -0.001019 0.002137 0.000000
-0.000155 -0.001080 0.001412 0.000000
-0.000448 -0.000984 0.002390 0.000000
-0.000120 -0.000477 0.000173 0.000000
-0.000478 -0.000557 0.001352 0.000000
-0.000184 -0.000036 0.000128 0.000000
-0.000559 -0.000613 0.001498 0.000000
-0.000517 -0.000518 0.001366 0.000000
-0.000065 -0.000135 0.000104 0.000000
-0.000073 -0.000107 0.000135 0.000000
-0.000134 -0.000893 0.000964 0.000000
-0.000343 -0.000466 0.000350 0.000000
-0.000120 -0.000673 0.001108 0.000000
-0.000384 -0.000523 0.000505 0.000000
-0.000398 -0.000784 0.002847 0.000000
-0.000121 -0.000931 0.001552 0.000000
-0.000589 -0.000401 0.000450 0.000000
-0.000083 -0.000091 0.000119 0.000000
0.000000 -0.001032 0.007427 0.000000
-0.000159 -0.000043 0.000113 0.000000
-0.000216 -0.000030 0.000267 0.000000
-0.000417 -0.000457 0.000914 0.000000
-0.000714 -0.000545 0.001265 0.000000
-0.000316 -0.000729 0.001485 0.000000
0.000168 -0.001188 0.002225 0.000000
-0.000095 -0.000101 0.000118 0.000000
-0.000177 -0.000114 0.000376 0.000000
-0.000273 -0.001144 0.003034 0.000000
-0.001935 -0.000425 0.003852 0.000000
-0.001079 -0.000602 0.001452 0.000000
-0.000153 -0.000115 0.000267 0.000000
-0.000094 -0.000109 0.000232 0.000000
-0.000155 0.000033 0.000304 0.000000
-0.000718 -0.000406 0.002092 0.000000
-0.000095 -0.000126 0.000167 0.000000
-0.000652 -0.000604 0.001604 0.000000
-0.000162 -0.000051 0.000079 0.000000
-0.000522 -0.000754 0.004115 0.000000
-0.000131 -0.000106 0.000099 0.000000
-0.000521 -0.000833 0.002451 0.000000
-0.000941 -0.000279 0.001497 0.000000
-0.000760 -0.000451 0.001996 0.000000
-0.000852 -0.000447 0.001578 0.000000
-0.000125 -0.000090 0.000163 0.000000
-0.000992 -0.000308 0.001487 0.000000
-0.000148 -0.000046 0.000085 0.000000
-0.000127 -0.000097 0.000181 0.000000
-0.000116 -0.000083 0.000126 0.000000
-0.000151 -0.000112 0.000212 0.000000
-0.000824 -0.000457 0.001904 0.000000
-0.000162 -0.000065 0.000135 0.000000
-0.002103 0.001101 0.001427 0.000000
-0.000506 -0.000460 0.000320 0.000000
-0.000233 -0.000063 0.000143 0.000000
-0.000154 -0.000059 0.000173 0.000000
-0.000170 -0.000074 0.000139 0.000000
-0.000540 -0.000260 -0.000051 0.000000
-0.000863 -0.000509 0.001117 0.000000
-0.000153 -0.000057 0.000142 0.000000
-0.000153 -0.000056 0.000113 0.000000
-0.000660 -0.000423 0.000916 0.000000
-0.000817 -0.000405 0.001813 0.000000
0.000017 -0.000600 0.000554 0.000000
-0.000641 -0.000286 0.000138 0.000000
-0.000150 -0.000063 0.000108 0.000000
-0.000153 -0.000051 0.000112 0.000000
-0.000789 -0.000367 0.001005 0.000000
-0.001211 0.000029 0.002409 0.000000
-0.000798 -0.000360 0.001541 0.000000
-0.000106 -0.000107 0.000203 0.000000
-0.000462 -0.000416 0.000418 0.000000
-0.000535 -0.000254 0.000441 0.000000
-0.000085 -0.000079 0.000068 0.000000
-0.000084 -0.000065 0.000037 0.000000
-0.000821 -0.000075 0.000773 0.000000
-0.000566 -0.000324 0.000235 0.000000
-0.000524 -0.000285 0.000338 0.000000
-0.000092 -0.000076 0.000074 0.000000
-0.000348 -0.000299 0.000351 0.000000
-0.000539 0.000064 0.000069 0.000000
-0.000067 -0.000083 0.000076 0.000000
-0.000336 -0.000315 0.000642 0.000000
-0.000076 -0.000080 0.000055 0.000000
-0.000409 -0.000229 0.000195 0.000000
-0.000060 -0.000082 0.000071 0.000000
-0.000054 -0.000110 0.000076 0.000000
-0.000056 -0.000090 0.000091 0.000000
-0.000057 -0.000083 0.000082 0.000000
-0.000088 -0.000086 0.000088 0.000000
-0.000068 -0.000098 0.000085 0.000000
0.000119 -0.001216 0.000623 0.000000
-0.000059 -0.000079 0.000067 0.000000
-0.000540 -0.000319 0.000313 0.000000
-0.000904 0.000055 0.001066 0.000000
-0.000087 -0.000096 0.000073 0.000000
-0.000072 -0.000094 0.000095 0.000000
-0.000130 -0.000077 0.000154 0.000000
-0.000061 -0.000136 0.000149 0.000000
-0.000120 -0.000070 0.000091 0.000000
-0.000131 -0.000090 0.000138 0.000000
-0.000345 -0.000439 0.000316 0.000000
-0.000323 -0.000553 0.000463 0.000000
-0.000156 -0.000336 -0.000279 0.000000
-0.000320 -0.000520 0.000425 0.000000
-0.000055 -0.000105 0.000081 0.000000
-0.000044 -0.000120 0.000101 0.000000
-0.000043 -0.000682 0.000776 0.000000
-0.000039 -0.000128 0.000076 0.000000
-0.000251 -0.000600 0.000481 0.000000
-0.000052 -0.000989 0.001051 0.000000
-0.000082 -0.000117 0.000150 0.000000
-0.000267 -0.000501 0.000390 0.000000
-0.000041 -0.000118 0.000031 0.000000
-0.000052 -0.000104 0.000058 0.000000
-0.000217 -0.000247 -0.000349 0.000000
0.000017 -0.000650 0.000056 0.000000
-0.000019 -0.000695 0.000030 0.000000
0.000022 -0.000691 0.000054 0.000000
-0.000072 -0.000107 0.000128 0.000000
-0.000053 -0.000087 0.000087 0.000000
-0.000004 -0.000535 -0.000422 0.000000
-0.000076 -0.000363 -0.000584 0.000000
-0.000399 -0.000324 0.000372 0.000000
-0.000208 -0.000315 0.000195 0.000000
-0.000044 -0.000102 0.000036 0.000000
-0.000036 -0.000104 0.000039 0.000000
-0.000060 -0.000101 0.000083 0.000000
-0.000253 -0.000358 0.000291 0.000000
-0.000044 -0.000107 0.000060 0.000000
-0.000083 -0.000069 0.000089 0.000000
0.000019 -0.000639 -0.000173 0.000000
0.000004 -0.000650 -0.000034 0.000000
-0.000047 -0.000074 0.000036 0.000000
0.000017 -0.000654 0.000052 0.000000
-0.000179 -0.000484 0.000496 0.000000
-0.000031 -0.000118 0.000033 0.000000
0.000009 -0.000602 -0.000423 0.000000
-0.000043 -0.000104 0.000062 0.000000
-0.000044 -0.000108 0.000035 0.000000
-0.000045 -0.000112 0.000041 0.000000
0.000063 -0.000780 0.000143 0.000000
-0.000041 -0.000076 0.000031 0.000000
0.000022 -0.000784 0.000112 0.000000
-0.000044 -0.000106 0.000057 0.000000
-0.000040 -0.000084 0.000030 0.000000
-0.000041 -0.000074 0.000035 0.000000
0.000008 -0.000721 0.000271 0.000000
-0.000062 -0.000566 0.000411 0.000000
-0.000065 -0.000559 0.000940 0.000000
-0.000046 -0.000383 0.000795 0.000000
-0.000029 -0.000112 -0.000010 0.000000
-0.000031 -0.000090 0.000007 0.000000
-0.000233 -0.000296 0.000816 0.000000
-0.000047 -0.000591 0.000865 0.000000
-0.000026 -0.000124 -0.000010 0.000000
-0.000028 -0.000116 -0.000011 0.000000
-0.000023 -0.000130 0.000016 0.000000
0.000022 -0.000715 0.000067 0.000000
0.000010 -0.000745 0.000108 0.000000
-0.000033 -0.000106 0.000012 0.000000
0.000001 -0.001008 0.000250 0.000000
-0.000225 -0.000503 0.000039 0.000000
0.000193 -0.001003 0.000099 0.000000
-0.000014 -0.000731 0.000330 0.000000
-0.000061 -0.000776 0.000394 0.000000
-0.000113 -0.000632 0.000296 0.000000
-0.000080 -0.000693 0.000355 0.000000
0.000056 -0.000615 0.000515 0.000000
-0.000001 -0.000583 0.000556 0.000000
-0.000207 -0.000375 -0.000086 0.000000
-0.000131 -0.000859 0.000085 0.000000
-0.000148 -0.000852 0.000297 0.000000
-0.000057 -0.000904 -0.000061 0.000000
-0.000168 -0.000530 -0.000150 0.000000
-0.000035 -0.000563 -0.000363 0.000000
0.000104 -0.000750 0.000709 0.000000
-0.000027 -0.000144 -0.000046 0.000000
-0.000220 -0.000451 -0.000153 0.000000
-0.001254 0.001420 -0.001767 0.000000
-0.000098 -0.000910 0.000502 0.000000
-0.000023 -0.000123 -0.000004 0.000000
-0.000028 -0.000123 0.000034 0.000000
-0.000154 -0.000671 0.000194 0.000000
-0.000030 -0.000117 0.000023 0.000000
-0.000024 -0.000958 0.000054 0.000000
0.000032 -0.001042 0.000039 0.000000
-0.000023 -0.000135 0.000014 0.000000
0.000015 -0.000836 0.000447 0.000000
-0.000111 -0.000780 0.000311 0.000000
-0.000014 -0.000997 0.000249 0.000000
-0.000023 -0.000140 0.000037 0.000000
-0.000141 -0.000730 0.000624 0.000000
0.000007 -0.000815 0.000852 0.000000
-0.000173 -0.000633 0.000087 0.000000
-0.000019 -0.000845 0.000391 0.000000
0.000029 -0.000957 0.000419 0.000000
0.000226 -0.001347 0.000871 0.000000
-0.000245 -0.000591 0.000342 0.000000
-0.000289 -0.000662 0.000309 0.000000
-0.000155 -0.000611 0.000265 0.000000
0.000205 -0.001062 0.000223 0.000000
-0.000190 -0.000623 0.000082 0.000000
-0.000106 -0.000642 0.000007 0.000000
0.000058 -0.000882 0.000058 0.000000
0.000017 -0.000792 0.000375 0.000000
0.000000 -0.001172 0.000283 0.000000
0.000136 -0.001129 0.000238 0.000000
-0.000042 -0.001058 0.000949 0.000000
-0.000045 -0.000876 0.000295 0.000000
0.000000 -0.000946 0.000934 0.000000
-0.000291 -0.000679 0.000546 0.000000
-0.000302 -0.000548 0.000383 0.000000
-0.000095 -0.000793 0.000188 0.000000
-0.000182 -0.000658 0.000201 0.000000
0.000020 -0.000896 0.000316 0.000000
0.000021 -0.000881 0.000332 0.000000
0.000000 -0.000888 0.000133 0.000000
-0.000000 -0.000882 0.000305 0.000000
-0.000174 -0.000757 0.000186 0.000000
0.000186 -0.001277 0.000131 0.000000
0.000164 -0.001056 -0.000102 0.000000
-0.000037 -0.000123 0.000031 0.000000
0.000172 -0.001031 0.000319 0.000000
0.000187 -0.001243 0.000969 0.000000
-0.000019 -0.000181 0.000046 0.000000
-0.000032 -0.000966 -0.000896 0.000000
-0.000275 -0.000504 -0.000401 0.000000
0.000032 -0.001043 0.000525 0.000000
0.000787 -0.001796 -0.000430 0.000000
-0.000264 -0.001993 -0.000503 0.000000
0.000051 -0.002351 -0.001165 0.000000
-0.000003 -0.002210 -0.000981 0.000000
0.000000 -0.002151 -0.001063 0.000000
-0.000152 -0.001805 0.000469 0.000000
-0.000237 -0.001998 0.000095 0.000000
-0.000248 -0.001078 -0.000905 0.000000
0.000000 -0.001778 0.007175 0.000000
0.001312 -0.001557 0.004876 0.000000
0.000000 -0.002247 -0.001059 0.000000
-0.003297 0.003757 0.004901 0.000000
-0.002321 -0.001508 0.004948 0.000000
-0.000836 -0.000056 0.001716 0.000000
-0.000496 -0.001553 -0.000192 0.000000
-0.000074 -0.002316 0.002655 0.000000
-0.000448 -0.001274 0.000328 0.000000
-0.000028 -0.001356 0.002143 0.000000
0.000250 -0.001999 0.000015 0.000000
-0.000094 -0.001863 0.001690 0.000000
-0.000247 -0.001392 0.001061 0.000000
-0.000158 -0.001819 0.000488 0.000000
-0.000005 -0.000561 0.000312 0.000000
-0.000010 -0.002089 0.000479 0.000000
-0.000115 -0.002152 -0.001150 0.000000
-0.000220 -0.001485 0.000558 0.000000
0.000064 -0.001391 -0.001582 0.000000
-0.000217 -0.001705 -0.000097 0.000000
-0.000414 -0.002013 -0.000217 0.000000
-0.000039 -0.000592 -0.000062 0.000000
0.000067 -0.000682 0.000201 0.000000
0.000000 -0.000623 -0.000006 0.000000
-0.000040 -0.000535 0.000077 0.000000
0.000007 -0.000557 0.000298 0.000000
0.000022 -0.000597 0.000248 0.000000
-0.000044 -0.000549 0.000093 0.000000
-0.000008 -0.000635 0.000148 0.000000
-0.000025 -0.000559 0.000067 0.000000
-0.000081 -0.000531 -0.000051 0.000000
-0.000941 -0.001530 -0.000493 0.000000
0.000063 -0.000588 -0.000103 0.000000
-0.000033 -0.000549 -0.000063 0.000000
-0.000062 -0.000551 -0.000027 0.000000
-0.000485 -0.001480 -0.001758 0.000000
0.000023 -0.000596 0.000010 0.000000
0.000000 -0.004218 -0.000698 0.000000
-0.000712 -0.000837 0.000428 0.000000
-0.000000 -0.003779 -0.000607 0.000000
-0.000625 -0.002755 0.000269 0.000000
0.000000 -0.002152 -0.001192 0.000000
0.000130 -0.000945 0.000255 0.000000
0.000123 -0.000750 -0.000022 0.000000
0.000140 -0.004273 -0.000577 0.000000
0.000329 -0.003760 -0.003289 0.000000
0.000000 -0.004423 -0.000870 0.000000
0.000072 -0.003989 -0.000370 0.000000
0.000027 -0.003565 -0.000095 0.000000
0.000000 -0.003214 -0.000576 0.000000
0.000000 -0.002148 -0.001179 0.000000
0.000000 -0.003296 -0.001612 0.000000
0.001312 -0.004817 0.000925 0.000000
0.001270 -0.004518 -0.000223 0.000000
-0.000283 -0.002380 -0.001219 0.000000
-0.000388 -0.002296 -0.001711 0.000000
0.000594 -0.003546 -0.000938 0.000000
0.000190 -0.002545 -0.001852 0.000000
0.000000 -0.004009 0.000567 0.000000
-0.000027 -0.000512 0.000023 0.000000
0.000825 -0.004660 0.001293 0.000000
0.000307 -0.003665 0.001571 0.000000
0.000000 -0.003651 0.001596 0.000000
0.000300 -0.003479 0.002082 0.000000
0.000000 -0.003283 0.001929 0.000000
-0.000234 -0.002726 0.001462 0.000000
0.000000 -0.002474 -0.000237 0.000000
-0.000772 -0.001988 0.000739 0.000000
0.000000 -0.002913 -0.001093 0.000000
-0.001101 -0.001594 0.000516 0.000000
-0.000650 -0.002683 -0.001704 0.000000
-0.000764 -0.002675 -0.001021 0.000000
0.000174 -0.003524 0.001209 0.000000
-0.000253 -0.003019 0.002212 0.000000
0.000000 -0.002501 0.000744 0.000000
-0.000829 -0.002308 0.001538 0.000000
-0.000809 -0.002625 0.001410 0.000000
-0.001011 -0.001730 0.000305 0.000000
-0.000855 -0.001653 -0.000211 0.000000
-0.000845 -0.001870 0.001294 0.000000
-0.000844 -0.001756 0.000275 0.000000
-0.001083 -0.001934 -0.000158 0.000000
-0.000769 -0.001721 -0.001662 0.000000
-0.001091 -0.001537 0.000000 0.000000
-0.000103 -0.003281 -0.000908 0.000000
-0.000120 -0.000445 -0.000218 0.000000
-0.000872 -0.001367 -0.000736 0.000000
-0.000104 -0.000446 -0.000071 0.000000
-0.000936 -0.001763 -0.001444 0.000000
-0.000890 -0.001996 -0.000335 0.000000
-0.000434 -0.002825 0.001283 0.000000
0.000027 -0.000634 0.001102 0.000000
-0.001012 -0.001413 0.000049 0.000000
0.000134 -0.002914 0.001970 0.000000
0.002469 -0.005363 0.000214 0.000000
-0.000419 -0.002519 0.001584 0.000000
0.000064 -0.000535 0.000381 0.000000
0.000972 -0.004706 0.002045 0.000000
0.000365 -0.004489 0.001603 0.000000
0.001001 -0.004813 0.000364 0.000000
0.000189 -0.003524 0.001225 0.000000
0.000850 -0.004034 0.002160 0.000000
0.000788 -0.003068 -0.001547 0.000000
-0.001123 -0.000584 -0.000422 0.000000
0.000860 -0.003540 -0.001410 0.000000
0.001002 -0.003806 -0.001841 0.000000
0.000021 -0.003057 -0.001846 0.000000
0.002540 -0.005394 0.000070 0.000000
0.002476 -0.005384 0.000210 0.000000
0.001496 -0.004590 0.001396 0.000000
-0.000007 -0.000523 0.000014 0.000000
0.000593 -0.004901 0.002674 0.000000
0.000089 -0.000564 0.000009 0.000000
-0.000087 -0.000504 0.000324 0.000000
0.000004 -0.000536 0.000070 0.000000
0.000042 -0.000570 0.000064 0.000000
-0.000018 -0.000532 0.000069 0.000000
-0.000017 -0.000521 0.000012 0.000000
0.000009 -0.000540 0.000067 0.000000
-0.000026 -0.000561 0.000149 0.000000
-0.000048 -0.000555 0.000160 0.000000
-0.000037 -0.000550 0.000151 0.000000
-0.000025 -0.000584 0.000372 0.000000
-0.000001 -0.000564 0.000071 0.000000
0.000009 -0.000596 0.000185 0.000000
0.000008 -0.000549 0.000094 0.000000
-0.000511 -0.001441 0.000247 0.000000
-0.000054 -0.000681 0.000505 0.000000
-0.000606 -0.001711 0.001356 0.000000
-0.000845 -0.000788 0.000368 0.000000
-0.000886 -0.001696 0.000641 0.000000
-0.000255 -0.001654 0.000238 0.000000
-0.000860 -0.001257 -0.000343 0.000000
-0.000958 -0.000992 -0.001443 0.000000
-0.000935 -0.001504 -0.000913 0.000000
-0.000113 -0.000501 0.000006 0.000000
-0.000936 -0.000667 -0.000768 0.000000
-0.000110 -0.000374 -0.000041 0.000000
-0.000063 -0.000389 -0.000111 0.000000
-0.000106 -0.000449 0.000088 0.000000
-0.000544 -0.001422 0.000158 0.000000
-0.000202 -0.001856 0.000635 0.000000
-0.000371 -0.001781 0.000070 0.000000
-0.000374 -0.001778 -0.000060 0.000000
-0.000065 -0.001975 0.000306 0.000000
-0.000135 -0.002029 0.000135 0.000000
-0.000764 -0.001301 0.000561 0.000000
-0.000483 -0.001570 0.000408 0.000000
-0.000232 -0.001806 0.000385 0.000000
-0.000286 -0.002027 0.000565 0.000000
-0.000106 -0.000333 0.000114 0.000000
0.000083 -0.002059 0.000900 0.000000
-0.000095 -0.000350 -0.000151 0.000000
0.000129 -0.002313 0.000792 0.000000
0.000032 -0.001989 0.001049 0.000000
-0.000004 -0.002005 0.000568 0.000000
0.000312 -0.003002 -0.002187 0.000000
0.000016 -0.001980 0.001307 0.000000
-0.000536 -0.001229 -0.000117 0.000000
-0.000324 -0.001546 0.000064 0.000000
-0.000012 -0.001976 0.000950 0.000000
0.000018 -0.002015 0.000710 0.000000
-0.000020 -0.000619 0.000258 0.000000
0.000052 -0.000617 0.000140 0.000000
-0.000036 -0.000559 0.000181 0.000000
-0.000725 -0.000820 -0.000188 0.000000
0.000022 -0.000622 0.000258 0.000000
0.000020 -0.000820 0.000461 0.000000
-0.000749 -0.001209 0.000065 0.000000
-0.000551 -0.001263 0.000033 0.000000
-0.000046 -0.000492 0.000108 0.000000
0.000083 -0.000377 -0.000370 0.000000
-0.000028 -0.000550 0.000211 0.000000
-0.000041 -0.000504 0.000045 0.000000
-0.000026 -0.000521 0.000123 0.000000
-0.000012 -0.000491 0.000035 0.000000
-0.000021 -0.000502 0.000146 0.000000
-0.000037 -0.000475 0.000080 0.000000
-0.000058 -0.000516 0.000132 0.000000
-0.000041 -0.000521 0.000195 0.000000
-0.000034 -0.000464 0.000027 0.000000
-0.000003 -0.000518 0.000098 0.000000
-0.000034 -0.000470 -0.000007 0.000000
0.000035 -0.000596 0.000189 0.000000
0.000403 -0.003046 0.000168 0.000000
0.000086 -0.000759 0.000262 0.000000
0.000317 -0.002953 -0.002053 0.000000
0.001296 -0.001166 -0.005004 0.000000
0.000014 -0.000538 0.000195 0.000000
-0.000021 -0.000521 0.000295 0.000000
0.000018 -0.000446 0.000133 0.000000
0.000010 -0.000467 0.000035 0.000000
-0.000024 -0.000494 0.000110 0.000000
-0.000059 -0.000447 -0.000077 0.000000
0.002141 -0.004914 -0.005774 0.000000
0.000037 -0.000740 -0.000004 0.000000
-0.000082 -0.000293 -0.000046 0.000000
0.002394 -0.004929 -0.005776 0.000000
-0.000055 -0.000431 0.000020 0.000000
-0.000024 -0.000444 -0.000050 0.000000
0.002378 -0.004861 -0.006015 0.000000
0.002480 -0.004990 -0.005783 0.000000
0.002407 -0.005617 -0.002582 0.000000
0.002727 -0.004475 -0.004103 0.000000
-0.000029 -0.000487 0.000114 0.000000
0.000009 -0.000537 0.000259 0.000000
-0.000060 -0.000514 0.000006 0.000000
-0.000052 -0.000367 -0.000284 0.000000
-0.000036 -0.000497 0.000137 0.000000
0.000003 -0.000448 0.000067 0.000000
-0.000059 -0.000497 -0.000007 0.000000
-0.000069 -0.000456 -0.000069 0.000000
-0.000023 -0.000454 0.000094 0.000000
-0.000057 -0.000413 0.000020 0.000000
-0.000000 -0.000528 0.000224 0.000000
0.000000 -0.000496 0.000141 0.000000
-0.000025 -0.000512 0.000266 0.000000
-0.000013 -0.000468 0.000174 0.000000
-0.000010 -0.000542 0.000287 0.000000
-0.000410 -0.001345 0.000959 0.000000
0.000009 -0.000556 0.000258 0.000000
-0.000776 -0.001181 0.001570 0.000000
-0.000542 -0.001260 0.000480 0.000000
-0.000189 -0.001581 0.000540 0.000000
-0.000210 -0.001660 0.001016 0.000000
-0.000527 -0.001253 0.000468 0.000000
-0.000463 -0.001336 0.000197 0.000000
0.000011 -0.000553 0.000271 0.000000
-0.000415 -0.001387 0.000834 0.000000
0.000027 -0.000551 0.000301 0.000000
0.000039 -0.000645 0.000317 0.000000
-0.001069 -0.001083 0.000210 0.000000
-0.000587 -0.001272 0.000659 0.000000
-0.000529 -0.001349 0.000316 0.000000
-0.000811 -0.000744 0.002197 0.000000
-0.000756 -0.000633 0.001829 0.000000
-0.000019 -0.000423 0.000095 0.000000
0.000007 -0.000518 0.000315 0.000000
-0.000035 -0.002663 0.000632 0.000000
0.000031 -0.000544 0.000398 0.000000
-0.000001 -0.000480 0.000112 0.000000
0.000115 -0.000493 0.000121 0.000000
-0.000845 -0.001182 0.000225 0.000000
-0.000740 -0.001464 0.000245 0.000000
-0.000730 -0.001271 0.002158 0.000000
-0.000946 -0.001167 0.001639 0.000000
-0.000692 -0.001222 0.002337 0.000000
-0.000940 -0.001139 0.000035 0.000000
-0.001036 -0.001125 0.000512 0.000000
-0.000979 -0.001242 0.000471 0.000000
-0.001018 -0.001224 0.000505 0.000000
0.000025 -0.002762 0.000630 0.000000
-0.001102 -0.001133 0.000591 0.000000
0.000027 -0.002953 0.000366 0.000000
-0.000158 -0.002260 0.001276 0.000000
-0.000114 -0.002326 -0.001055 0.000000
0.000120 -0.002887 0.000189 0.000000
0.000097 -0.002458 0.000433 0.000000
-0.000786 -0.002210 0.001263 0.000000
-0.000655 -0.002346 0.002123 0.000000
-0.000166 -0.002666 0.000696 0.000000
-0.000163 -0.002910 0.000990 0.000000
0.000153 -0.003045 0.000262 0.000000
0.000559 -0.003064 -0.000201 0.000000
0.002304 -0.003635 -0.003169 0.000000
0.000459 -0.003792 0.000620 0.000000
-0.000007 -0.000463 0.000070 0.000000
0.002145 -0.004254 -0.001262 0.000000
-0.000026 -0.000496 0.000037 0.000000
-0.000023 -0.000513 0.000113 0.000000
-0.000025 -0.000430 -0.000053 0.000000
-0.000072 -0.000387 0.000029 0.000000
0.000026 -0.000566 0.000082 0.000000
-0.000013 -0.000523 0.000013 0.000000
0.000806 -0.003427 -0.001629 0.000000
0.000128 -0.002986 0.000618 0.000000
0.000432 -0.002700 -0.001321 0.000000
0.001501 -0.003703 -0.002327 0.000000
0.000979 -0.002820 -0.003013 0.000000
-0.000566 -0.000644 -0.002169 0.000000
0.001031 -0.003884 -0.003389 0.000000
0.000720 -0.002893 -0.001584 0.000000
0.001248 -0.003116 -0.004287 0.000000
-0.000379 -0.002052 -0.000097 0.000000
0.000403 -0.002923 -0.001484 0.000000
-0.000083 -0.000428 -0.000014 0.000000
0.000773 -0.003795 -0.000053 0.000000
0.000949 -0.002583 0.000909 0.000000
0.000172 -0.002914 -0.000134 0.000000
-0.000030 -0.000581 -0.000139 0.000000
0.001136 -0.004868 0.000395 0.000000
0.001438 -0.003574 0.001105 0.000000
0.000016 -0.002307 -0.000468 0.000000
0.000322 -0.002185 -0.001691 0.000000
-0.000320 -0.002103 -0.000886 0.000000
0.000275 -0.002473 -0.001348 0.000000
-0.000610 -0.001556 0.000124 0.000000
-0.000998 -0.001219 0.000100 0.000000
-0.000347 -0.002320 0.000344 0.000000
0.000548 -0.002573 -0.001113 0.000000
-0.000357 -0.001963 0.000573 0.000000
0.000102 -0.002711 0.000401 0.000000
0.000549 -0.003118 -0.000247 0.000000
0.000406 -0.002878 -0.000377 0.000000
-0.001106 -0.001111 0.000177 0.000000
-0.000903 -0.001516 0.000461 0.000000
-0.001006 -0.001431 0.000621 0.000000
-0.001053 -0.001238 0.000211 0.000000
-0.000691 -0.001517 0.000546 0.000000
-0.000868 -0.001307 0.000020 0.000000
-0.000337 -0.001890 0.000173 0.000000
-0.000841 -0.001338 0.000249 0.000000
-0.000933 -0.001337 0.000157 0.000000
-0.000787 -0.001559 0.000227 0.000000
-0.000811 -0.001391 0.000081 0.000000
-0.000651 -0.001911 0.000380 0.000000
0.000060 -0.002014 -0.000706 0.000000
-0.000217 -0.002302 0.000080 0.000000
0.000396 -0.002781 -0.000385 0.000000
-0.000727 -0.001391 0.000026 0.000000
-0.000397 -0.002012 -0.000407 0.000000
-0.000557 -0.001891 0.000025 0.000000
-0.000148 -0.001898 -0.000268 0.000000
-0.000753 -0.001346 -0.000050 0.000000
-0.000693 -0.001537 0.000012 0.000000
-0.000483 -0.001541 -0.000301 0.000000
-0.000627 -0.001247 -0.000182 0.000000
-0.000684 -0.001317 -0.000117 0.000000
-0.000633 -0.001392 -0.000176 0.000000
-0.000517 -0.001265 0.000035 0.000000
-0.000295 -0.001569 -0.000095 0.000000
-0.000255 -0.001475 0.000015 0.000000
0.000048 -0.001153 -0.003049 0.000000
0.000358 -0.002749 -0.001711 0.000000
0.000543 -0.002791 -0.000689 0.000000
-0.000056 -0.000359 0.000122 0.000000
-0.000583 -0.001336 -0.000383 0.000000
-0.000265 -0.001534 -0.000912 0.000000
-0.000038 -0.002337 -0.000348 0.000000
0.000280 -0.002485 -0.000564 0.000000
0.000488 -0.002643 -0.000533 0.000000
0.000330 -0.002327 -0.000991 0.000000
0.000511 -0.002705 -0.000528 0.000000
-0.000104 -0.000312 0.000068 0.000000
-0.000052 -0.000342 0.000049 0.000000
-0.000086 -0.000311 0.000015 0.000000
-0.000048 -0.000329 -0.000003 0.000000
-0.000036 -0.000315 -0.000065 0.000000
-0.000020 -0.000377 0.000072 0.000000
-0.000066 -0.000359 0.000107 0.000000
-0.000023 -0.000374 0.000096 0.000000
-0.000056 -0.000342 0.000078 0.000000
0.000012 -0.000386 0.000048 0.000000
-0.000036 -0.000401 0.000135 0.000000
0.000015 -0.000430 0.000074 0.000000
-0.000012 -0.000403 0.000114 0.000000
0.000022 -0.000421 0.000010 0.000000
-0.000005 -0.000433 0.000121 0.000000
0.000024 -0.000451 0.000057 0.000000
0.000010 -0.000462 0.000108 0.000000
-0.000235 -0.003292 0.001835 0.000000
-0.000038 -0.000436 0.000179 0.000000
-0.000027 -0.000462 0.000180 0.000000
-0.000068 -0.000417 0.000297 0.000000
0.000324 -0.002342 -0.000723 0.000000
0.000370 -0.002596 -0.000078 0.000000
-0.000075 -0.000390 0.000175 0.000000
-0.000112 -0.000358 0.000225 0.000000
0.000281 -0.002343 -0.000665 0.000000
0.000536 -0.002939 -0.001294 0.000000
0.000247 -0.002546 -0.000477 0.000000
0.000197 -0.002317 -0.000465 0.000000
0.000111 -0.002571 -0.001120 0.000000
0.000185 -0.002140 -0.000761 0.000000
0.000302 -0.003447 0.002003 0.000000
0.001259 -0.005091 0.000573 0.000000
0.000974 -0.003768 0.002409 0.000000
-0.000062 -0.000462 0.000266 0.000000
0.000093 -0.000545 -0.000014 0.000000
0.000000 -0.000470 0.000310 0.000000
0.000024 -0.000504 -0.000026 0.000000
0.001688 -0.004426 -0.001483 0.000000
0.000464 -0.003512 -0.002752 0.000000
0.001088 -0.003812 -0.002535 0.000000
0.000005 -0.000488 0.000220 0.000000
-0.000143 -0.001827 -0.000368 0.000000
0.000004 -0.000422 -0.000052 0.000000
0.001115 -0.004190 0.000707 0.000000
0.001047 -0.003357 -0.001006 0.000000
-0.000022 -0.000430 -0.000117 0.000000
0.000033 -0.000486 -0.000115 0.000000
0.000009 -0.000450 0.000079 0.000000
0.000003 -0.000429 -0.000101 0.000000
0.000031 -0.000515 0.000031 0.000000
0.000025 -0.000463 -0.000056 0.000000
0.000032 -0.000456 0.000017 0.000000
0.000003 -0.000467 -0.000074 0.000000
0.000022 -0.000469 0.000055 0.000000
0.000015 -0.000446 -0.000050 0.000000
0.000030 -0.000410 0.000033 0.000000
0.000020 -0.000444 0.000013 0.000000
0.000014 -0.000386 -0.000033 0.000000
-0.000007 -0.000379 -0.000063 0.000000
-0.000378 -0.001501 -0.000366 0.000000
-0.000028 -0.000350 -0.000110 0.000000
-0.000031 -0.000402 -0.000139 0.000000
-0.000001 -0.000409 -0.000161 0.000000
-0.000004 -0.000425 -0.000081 0.000000
-0.000083 -0.000433 -0.000267 0.000000
-0.000016 -0.000400 -0.000091 0.000000
-0.000064 -0.000334 -0.000149 0.000000
0.001689 -0.003380 -0.000576 0.000000
-0.000040 -0.000351 -0.000118 0.000000
-0.000079 -0.000331 -0.000137 0.000000
-0.000078 -0.000258 -0.000096 0.000000
0.000732 -0.002924 -0.000719 0.000000
-0.000060 -0.000248 -0.000027 0.000000
-0.000051 -0.000307 -0.000100 0.000000
-0.000064 -0.000268 -0.000066 0.000000
-0.000033 -0.000346 -0.000105 0.000000
-0.000082 -0.000243 -0.000053 0.000000
-0.000218 -0.001832 -0.000474 0.000000
-0.000083 -0.001892 -0.000041 0.000000
0.000838 -0.002257 0.000190 0.000000
0.000268 -0.002341 -0.000329 0.000000
0.001033 -0.002515 0.000013 0.000000
-0.000492 -0.001314 -0.000346 0.000000
-0.000138 -0.001535 -0.000091 0.000000
-0.000508 -0.001245 -0.000375 0.000000
-0.000292 -0.001401 -0.000541 0.000000
-0.000432 -0.001335 -0.000422 0.000000
-0.000384 -0.001394 -0.000141 0.000000
-0.000462 -0.001393 -0.000230 0.000000
0.000687 -0.002563 -0.000280 0.000000
-0.000237 -0.001712 -0.000391 0.000000
-0.000166 -0.001689 -0.000284 0.000000
-0.000606 -0.001501 -0.000164 0.000000
-0.000516 -0.001423 0.000236 0.000000
-0.000231 -0.001698 -0.000337 0.000000
-0.000706 -0.001402 0.000176 0.000000
-0.000547 -0.001397 -0.000281 0.000000
-0.000501 -0.001415 -0.000153 0.000000
-0.000450 -0.001517 0.000115 0.000000
-0.000080 -0.001811 0.000106 0.000000
-0.000317 -0.001517 0.000143 0.000000
-0.000295 -0.001530 -0.000340 0.000000
0.000012 -0.001849 0.000664 0.000000
-0.000131 -0.001800 0.000184 0.000000
-0.000387 -0.001539 -0.000041 0.000000
-0.000060 -0.001797 0.000212 0.000000
-0.000504 -0.001639 0.000682 0.000000
-0.000503 -0.001544 0.000338 0.000000
-0.000493 -0.001539 0.000616 0.000000
0.000372 -0.002407 0.000948 0.000000
-0.000620 -0.001503 0.000374 0.000000
-0.000171 -0.002116 -0.000558 0.000000
-0.000541 -0.001588 0.000257 0.000000
-0.000554 -0.001426 0.000208 0.000000
0.000019 -0.002134 -0.000046 0.000000
0.000670 -0.003190 -0.000915 0.000000
-0.000604 -0.001415 -0.000167 0.000000
-0.000552 -0.001505 -0.000110 0.000000
0.000373 -0.003987 -0.001823 0.000000
0.000203 -0.004741 -0.000110 0.000000
0.001268 -0.003796 0.000898 0.000000
0.000835 -0.003755 -0.000330 0.000000
0.000002 -0.004335 0.000886 0.000000
0.000056 -0.000587 0.000103 0.000000
0.000760 -0.004419 0.000744 0.000000
0.000812 -0.004320 0.000416 0.000000
0.000059 -0.004317 0.000768 0.000000
0.000210 -0.004380 -0.000059 0.000000
0.000034 -0.000578 0.000189 0.000000
0.000043 -0.000586 0.000258 0.000000
0.000067 -0.000531 0.000184 0.000000
-0.000097 -0.002069 0.000052 0.000000
0.000288 -0.003013 0.000117 0.000000
0.001339 -0.004193 0.001101 0.000000
-0.000479 -0.001522 -0.000217 0.000000
0.001005 -0.003809 0.001016 0.000000
-0.000690 -0.000729 -0.000534 0.000000
0.000057 -0.002342 0.001015 0.000000
-0.000589 -0.001399 -0.000685 0.000000
0.001140 -0.003324 0.000502 0.000000
-0.000009 -0.000549 0.000247 0.000000
0.000090 -0.000505 -0.000142 0.000000
0.000015 -0.000557 0.000215 0.000000
0.000060 -0.000648 -0.000001 0.000000
-0.000027 -0.000488 0.000097 0.000000
-0.000022 -0.000525 0.000178 0.000000
0.000016 -0.000558 0.000099 0.000000
-0.000023 -0.000526 0.000183 0.000000
-0.000005 -0.000554 0.000240 0.000000
0.000009 -0.000544 0.000198 0.000000
0.000022 -0.000556 0.000287 0.000000
-0.000031 -0.000559 0.000267 0.000000
0.000015 -0.000566 0.000223 0.000000
0.000013 -0.000628 0.000201 0.000000
-0.000488 -0.000625 -0.001325 0.000000
-0.000314 -0.001736 0.000010 0.000000
0.000288 -0.002166 0.000530 0.000000
-0.000250 -0.001377 -0.000370 0.000000
-0.000283 -0.001710 0.000871 0.000000
-0.000034 -0.001735 0.000085 0.000000
-0.000378 -0.001513 0.000571 0.000000
-0.000623 -0.001507 0.000469 0.000000
-0.000395 -0.001754 0.000713 0.000000
-0.000289 -0.001913 0.001132 0.000000
-0.000123 -0.001771 0.000917 0.000000
0.000148 -0.002128 0.001590 0.000000
0.000035 -0.001992 0.000907 0.000000
0.000228 -0.002102 0.000640 0.000000
-0.000260 -0.001939 0.001331 0.000000
0.000150 -0.001362 -0.002265 0.000000
-0.000018 -0.001904 0.001820 0.000000
-0.000065 -0.001780 0.000948 0.000000
0.000042 -0.001893 0.001432 0.000000
-0.000345 -0.001823 0.000689 0.000000
-0.000117 -0.002321 -0.000994 0.000000
-0.000083 -0.002100 0.001525 0.000000
0.000127 -0.001900 0.000372 0.000000
-0.000051 -0.000418 0.000034 0.000000
0.000057 -0.000530 -0.000237 0.000000
0.000024 -0.000476 -0.000106 0.000000
-0.000054 -0.000393 -0.000264 0.000000
-0.000035 -0.000388 -0.000245 0.000000
-0.000010 -0.000515 -0.000207 0.000000
-0.000037 -0.000392 -0.000262 0.000000
0.000123 -0.002257 0.000305 0.000000
-0.000032 -0.000422 -0.000292 0.000000
0.000037 -0.000444 -0.000324 0.000000
-0.000053 -0.000393 -0.000260 0.000000
-0.000067 -0.000364 -0.000225 0.000000
-0.000055 -0.000361 -0.000202 0.000000
-0.000068 -0.000342 -0.000098 0.000000
0.001580 -0.003560 0.000247 0.000000
-0.000065 -0.000342 -0.000094 0.000000
0.001134 -0.003503 0.000000 0.000000
-0.000023 -0.000344 -0.000053 0.000000
0.001536 -0.003627 0.000542 0.000000
-0.000051 -0.000350 -0.000126 0.000000
0.001383 -0.003622 -0.000056 0.000000
0.000820 -0.002553 0.000400 0.000000
0.000058 -0.000350 0.000097 0.000000
-0.000041 -0.000410 -0.000255 0.000000
-0.000049 -0.000384 -0.000239 0.000000
-0.000068 -0.000374 -0.000236 0.000000
-0.000078 -0.000355 -0.000192 0.000000
-0.000042 -0.000344 -0.000104 0.000000
-0.000054 -0.000373 -0.000230 0.000000
-0.000046 -0.000364 -0.000206 0.000000
-0.000024 -0.000398 -0.000245 0.000000
-0.000048 -0.000363 -0.000180 0.000000
-0.000060 -0.000345 -0.000162 0.000000
-0.000037 -0.000356 -0.000153 0.000000
-0.000049 -0.000350 -0.000169 0.000000
-0.000405 -0.000450 -0.000003 0.000000
-0.000043 -0.000345 -0.000074 0.000000
-0.000046 -0.000363 -0.000090 0.000000
-0.000022 -0.000316 -0.000220 0.000000
0.000326 -0.002826 -0.001171 0.000000
-0.000044 -0.000369 -0.000214 0.000000
-0.000043 -0.000363 -0.000209 0.000000
-0.000020 -0.000398 -0.000250 0.000000
-0.000048 -0.000363 -0.000206 0.000000
-0.000038 -0.000381 -0.000219 0.000000
-0.000024 -0.000387 -0.000255 0.000000
-0.000024 -0.000423 -0.000261 0.000000
-0.000033 -0.000386 -0.000239 0.000000
-0.000029 -0.000394 -0.000236 0.000000
-0.000045 -0.000397 -0.000274 0.000000
-0.000025 -0.000400 -0.000265 0.000000
-0.000052 -0.000385 -0.000257 0.000000
-0.000045 -0.000380 -0.000243 0.000000
-0.000445 -0.001702 -0.000114 0.000000
0.000503 -0.002321 0.000177 0.000000
-0.000001 -0.000555 0.000001 0.000000
-0.000012 -0.000415 -0.000226 0.000000
-0.000042 -0.000352 -0.000198 0.000000
0.000464 -0.002195 0.000620 0.000000
0.001804 -0.002834 0.002083 0.000000
-0.000052 -0.000298 0.000021 0.000000
-0.000018 -0.000443 -0.000187 0.000000
-0.000022 -0.000396 -0.000248 0.000000
-0.000253 -0.001544 -0.000034 0.000000
0.000510 -0.002504 0.000746 0.000000
0.001048 -0.002212 0.001967 0.000000
0.000079 -0.001813 -0.000155 0.000000
-0.000051 -0.000353 -0.000218 0.000000
0.000995 -0.003047 0.001161 0.000000
-0.000039 -0.000385 -0.000203 0.000000
-0.000111 -0.000428 -0.000444 0.000000
0.000065 -0.001782 -0.000385 0.000000
-0.000054 -0.000377 -0.000175 0.000000
-0.000056 -0.000346 -0.000255 0.000000
-0.000022 -0.000400 -0.000253 0.000000
-0.000037 -0.000341 -0.000164 0.000000
-0.000407 -0.001399 -0.000591 0.000000
-0.000042 -0.000335 -0.000190 0.000000
0.002188 -0.004099 -0.000570 0.000000
-0.000510 -0.001241 -0.000486 0.000000
0.000147 -0.001822 -0.000458 0.000000
0.001820 -0.003663 0.000507 0.000000
-0.000547 -0.001190 -0.000505 0.000000
-0.000531 -0.001177 -0.000486 0.000000
-0.000406 -0.001355 -0.000579 0.000000
-0.000372 -0.001493 -0.000482 0.000000
-0.000570 -0.001185 -0.000575 0.000000
0.001132 -0.002804 0.000248 0.000000
0.002654 -0.004063 -0.000289 0.000000
-0.000018 -0.000399 -0.000259 0.000000
0.002925 -0.005115 -0.000263 0.000000
0.002316 -0.003858 0.000152 0.000000
0.000068 -0.001941 -0.000366 0.000000
-0.000080 -0.000392 -0.000326 0.000000
0.002847 -0.004505 -0.000312 0.000000
-0.000034 -0.000405 -0.000234 0.000000
0.000683 -0.002984 -0.001575 0.000000
0.000507 -0.003536 -0.000831 0.000000
0.000283 -0.003129 -0.001013 0.000000
0.001190 -0.003135 -0.002280 0.000000
0.000820 -0.003283 -0.001639 0.000000
0.000842 -0.003441 -0.001571 0.000000
0.000277 -0.003113 0.000229 0.000000
-0.000070 -0.000346 -0.000223 0.000000
-0.000043 -0.000346 -0.000259 0.000000
0.000842 -0.003196 -0.001506 0.000000
0.001101 -0.003534 -0.001104 0.000000
-0.000314 -0.002026 -0.000765 0.000000
-0.000473 -0.001678 0.000346 0.000000
0.001059 -0.003726 -0.001630 0.000000
0.000373 -0.003021 -0.001023 0.000000
-0.000100 -0.001898 -0.000593 0.000000
-0.000309 -0.002182 -0.000222 0.000000
-0.000046 -0.000424 -0.000063 0.000000
0.000414 -0.002020 -0.001899 0.000000
-0.000349 -0.001886 0.000001 0.000000
-0.000514 -0.001842 0.000524 0.000000
0.000761 -0.003298 -0.001399 0.000000
0.000779 -0.003774 -0.000392 0.000000
-0.000120 -0.002402 -0.000386 0.000000
0.000052 -0.002157 -0.001278 0.000000
-0.000045 -0.000371 -0.000207 0.000000
-0.000046 -0.000363 -0.000201 0.000000
-0.000038 -0.000395 -0.000175 0.000000
-0.000011 -0.000371 -0.000247 0.000000
-0.000047 -0.000363 -0.000201 0.000000
-0.000041 -0.000357 -0.000118 0.000000
-0.000038 -0.000359 -0.000115 0.000000
0.000880 -0.002577 -0.002009 0.000000
0.000042 -0.001607 -0.000532 0.000000
-0.000385 -0.001588 -0.000120 0.000000
0.000073 -0.002441 -0.000426 0.000000
0.001920 -0.003341 0.004614 0.000000
-0.000008 -0.001983 0.001864 0.000000
-0.000047 -0.000363 0.000028 0.000000
-0.000086 -0.000307 0.000167 0.000000
0.001608 -0.002576 0.003442 0.000000
0.001116 -0.003670 0.002379 0.000000
-0.000045 -0.000366 0.000135 0.000000
0.000312 -0.002672 0.002815 0.000000
0.001588 -0.003687 0.003324 0.000000
-0.000078 -0.000399 0.000130 0.000000
0.001370 -0.003460 0.003066 0.000000
-0.000391 -0.002057 -0.000008 0.000000
0.000676 -0.003001 0.003366 0.000000
-0.000402 -0.001531 0.001027 0.000000
0.000140 -0.002534 0.001846 0.000000
-0.000465 -0.001966 0.000318 0.000000
-0.000399 -0.001868 0.000838 0.000000
-0.000086 -0.002058 0.000775 0.000000
-0.000359 -0.001844 0.000901 0.000000
-0.000340 -0.001844 0.000566 0.000000
0.000202 -0.002386 0.001042 0.000000
-0.000283 -0.002160 0.000282 0.000000
0.000115 -0.002536 0.002441 0.000000
0.000588 -0.002378 0.001430 0.000000
-0.000241 -0.001859 0.001176 0.000000
0.000973 -0.002888 0.001216 0.000000
0.000731 -0.003160 0.003092 0.000000
0.000486 -0.002500 0.002312 0.000000
0.000053 -0.002133 0.002378 0.000000
0.001499 -0.003287 0.002639 0.000000
0.000615 -0.002519 0.003019 0.000000
0.002169 -0.003971 0.002008 0.000000
0.001059 -0.003047 0.003143 0.000000
-0.000181 -0.002061 -0.000035 0.000000
0.000514 -0.002725 0.000248 0.000000
-0.000590 -0.001312 0.000404 0.000000
-0.000040 -0.001754 0.000488 0.000000
0.000776 -0.002792 0.001028 0.000000
0.000934 -0.003042 0.001377 0.000000
0.000239 -0.002400 0.000180 0.000000
0.000376 -0.002169 0.000463 0.000000
-0.000244 -0.001506 0.000560 0.000000
-0.000327 -0.001745 0.000280 0.000000
-0.000632 -0.001322 0.000352 0.000000
-0.000580 -0.001455 0.000113 0.000000
-0.000660 -0.001323 0.000334 0.000000
-0.000326 -0.001636 0.000359 0.000000
-0.000644 -0.001333 0.000491 0.000000
-0.000001 -0.001437 -0.000531 0.000000
-0.000681 -0.001275 0.000439 0.000000
-0.000689 -0.001324 0.000526 0.000000
-0.000677 -0.001278 0.000478 0.000000
-0.000132 -0.002120 0.001686 0.000000
0.000171 -0.002139 0.000153 0.000000
-0.000124 -0.000395 0.000293 0.000000
0.000652 -0.002971 -0.000157 0.000000
-0.000592 -0.001487 0.000146 0.000000
0.001083 -0.002849 -0.000815 0.000000
-0.000083 -0.000364 0.000175 0.000000
-0.000609 -0.001416 0.000258 0.000000
-0.000271 -0.001715 0.000113 0.000000
-0.000623 -0.001386 0.000147 0.000000
-0.000389 -0.001521 -0.000058 0.000000
-0.000593 -0.001536 0.000212 0.000000
-0.000620 -0.001427 0.000316 0.000000
-0.000622 -0.001328 0.000167 0.000000
-0.000696 -0.001345 0.000354 0.000000
-0.000645 -0.001340 0.000319 0.000000
-0.000716 -0.001296 0.000474 0.000000
-0.000477 -0.001418 0.000166 0.000000
-0.000641 -0.001376 0.000396 0.000000
-0.000570 -0.001219 -0.000065 0.000000
-0.000500 -0.001424 0.000099 0.000000
-0.000436 -0.001777 0.000590 0.000000
-0.000620 -0.001400 0.000544 0.000000
-0.000052 -0.000403 0.000087 0.000000
0.000368 -0.002037 -0.001097 0.000000
-0.000055 -0.000398 0.000109 0.000000
-0.000047 -0.000457 0.000115 0.000000
-0.000078 -0.000360 0.000154 0.000000
-0.000100 -0.000331 0.000086 0.000000
-0.000052 -0.000429 0.000073 0.000000
-0.000211 -0.001973 -0.000975 0.000000
0.001543 -0.004350 0.002922 0.000000
0.000046 -0.001973 0.001704 0.000000
-0.000062 -0.000391 0.000153 0.000000
-0.000016 -0.000317 0.000233 0.000000
-0.000409 -0.001498 -0.000077 0.000000
0.000784 -0.002552 0.001589 0.000000
0.001945 -0.003611 0.004526 0.000000
0.000931 -0.001921 0.000472 0.000000
0.001611 -0.003812 0.003265 0.000000
0.000032 -0.000952 0.002993 0.000000
-0.000051 -0.000365 0.000070 0.000000
-0.000026 -0.000377 0.000062 0.000000
-0.000091 -0.000341 0.000139 0.000000
-0.000046 -0.000360 0.000097 0.000000
-0.000052 -0.000382 0.000091 0.000000
-0.000046 -0.000356 0.000090 0.000000
-0.000057 -0.000381 0.000089 0.000000
-0.000062 -0.000371 0.000117 0.000000
-0.000025 -0.000347 -0.000015 0.000000
-0.000062 -0.000366 -0.000022 0.000000
-0.000056 -0.000371 0.000038 0.000000
-0.000057 -0.000368 0.000041 0.000000
0.000731 -0.002618 -0.000851 0.000000
0.000634 -0.002519 0.001187 0.000000
-0.000019 -0.000368 -0.000043 0.000000
-0.000039 -0.000367 0.000025 0.000000
-0.000517 -0.001701 0.000289 0.000000
-0.000038 -0.000316 0.000059 0.000000
-0.000577 -0.001565 -0.000480 0.000000
-0.000040 -0.000356 -0.000052 0.000000
-0.000060 -0.000373 -0.000033 0.000000
-0.000055 -0.000347 -0.000036 0.000000
-0.000066 -0.000358 -0.000013 0.000000
-0.000068 -0.000352 -0.000042 0.000000
-0.000059 -0.000407 0.000077 0.000000
-0.000067 -0.000374 0.000027 0.000000
-0.000037 -0.000424 0.000029 0.000000
-0.000715 -0.000592 -0.000665 0.000000
-0.000750 -0.001410 0.000750 0.000000
-0.000530 -0.001409 0.000137 0.000000
-0.000067 -0.000386 0.000054 0.000000
-0.000066 -0.000407 0.000073 0.000000
-0.000051 -0.000439 0.000078 0.000000
-0.000755 -0.001200 -0.000130 0.000000
-0.000387 -0.001588 0.000188 0.000000
-0.000460 -0.001538 0.000360 0.000000
-0.000300 -0.001588 0.000213 0.000000
-0.000074 -0.001933 0.000053 0.000000
-0.000288 -0.001722 0.000101 0.000000
-0.000092 -0.001912 0.000112 0.000000
0.000005 -0.002072 0.000153 0.000000
0.000064 -0.002044 0.000119 0.000000
-0.000081 -0.002007 0.000238 0.000000
-0.000251 -0.001769 0.000193 0.000000
-0.000201 -0.001690 0.000831 0.000000
-0.000437 -0.001412 0.000190 0.000000
0.000021 -0.002097 0.000173 0.000000
-0.000098 -0.001876 0.000108 0.000000
-0.000047 -0.000420 0.000018 0.000000
-0.000053 -0.000395 0.000040 0.000000
-0.000035 -0.001272 0.002525 0.000000
-0.000475 -0.000854 0.001545 0.000000
0.000101 -0.002197 0.000572 0.000000
-0.000171 -0.001893 0.000398 0.000000
-0.000072 -0.001990 0.000340 0.000000
-0.000010 -0.002089 0.000367 0.000000
-0.000146 -0.002061 0.000657 0.000000
-0.000390 -0.001784 0.000253 0.000000
0.000057 -0.002093 0.000074 0.000000
-0.000129 -0.002029 0.000134 0.000000
0.000107 -0.002453 0.002378 0.000000
-0.000261 -0.001951 0.000409 0.000000
-0.000006 -0.002103 0.000226 0.000000
-0.000270 -0.001881 0.000353 0.000000
-0.000424 -0.001847 0.000550 0.000000
-0.000473 -0.001805 0.000435 0.000000
-0.000151 -0.002108 0.000235 0.000000
-0.000264 -0.001948 0.000252 0.000000
0.000046 -0.000461 0.000068 0.000000
0.000014 -0.002669 0.000295 0.000000
-0.000405 -0.001842 0.000312 0.000000
0.000365 -0.001731 0.003479 0.000000
-0.000025 -0.000427 0.000048 0.000000
-0.000055 -0.000390 0.000039 0.000000
-0.000317 -0.001921 0.000491 0.000000
0.000016 -0.000573 -0.000081 0.000000
-0.000009 -0.002014 0.000829 0.000000
0.000656 -0.002917 0.002462 0.000000
-0.000367 -0.001888 0.000078 0.000000
0.000137 -0.002585 -0.000673 0.000000
0.000412 -0.002899 -0.000170 0.000000
0.000762 -0.003303 -0.000178 0.000000
0.000498 -0.002927 -0.000277 0.000000
-0.000027 -0.002429 -0.000215 0.000000
0.000302 -0.002761 0.000211 0.000000
0.000395 -0.002905 -0.000256 0.000000
-0.000257 -0.002077 0.000173 0.000000
-0.000236 -0.002125 -0.000053 0.000000
0.000152 -0.002478 -0.000467 0.000000
-0.000318 -0.002042 0.000029 0.000000
-0.000409 -0.001901 0.000153 0.000000
-0.000314 -0.002109 -0.000021 0.000000
-0.000035 -0.002060 -0.000534 0.000000
-0.000248 -0.002277 -0.000301 0.000000
-0.000087 -0.002149 0.000499 0.000000
0.000808 -0.003102 0.001131 0.000000
0.000057 -0.002034 -0.000765 0.000000
-0.000582 -0.000480 -0.000532 0.000000
-0.000024 -0.000382 -0.000028 0.000000
-0.000031 -0.002670 0.000313 0.000000
-0.000047 -0.000416 0.000014 0.000000
-0.000040 -0.000390 -0.000050 0.000000
-0.000059 -0.000358 -0.000050 0.000000
-0.000019 -0.000368 -0.000120 0.000000
-0.000066 -0.000365 -0.000005 0.000000
-0.000064 -0.000381 0.000028 0.000000
0.000142 -0.002300 0.000644 0.000000
0.000924 -0.002826 0.001524 0.000000
-0.000504 -0.000857 -0.001538 0.000000
-0.000036 -0.000426 -0.000048 0.000000
-0.000065 -0.000355 -0.000057 0.000000
-0.000059 -0.000354 -0.000045 0.000000
-0.000066 -0.000340 -0.000088 0.000000
0.001328 -0.003486 0.000250 0.000000
-0.000519 -0.001989 -0.000276 0.000000
0.001118 -0.003187 0.001215 0.000000
0.000988 -0.003127 0.001142 0.000000
-0.000405 -0.001907 0.000154 0.000000
0.000494 -0.002578 0.000483 0.000000
0.000442 -0.002883 0.000791 0.000000
-0.000296 -0.002359 -0.001858 0.000000
0.000477 -0.003693 -0.001289 0.000000
0.000092 -0.002563 -0.001941 0.000000
0.001176 -0.003536 0.000014 0.000000
-0.000399 -0.002477 -0.001609 0.000000
0.000146 -0.002323 0.000149 0.000000
-0.000118 -0.000342 -0.000219 0.000000
-0.000015 -0.002357 -0.000737 0.000000
0.000052 -0.003683 -0.000964 0.000000
0.000041 -0.003712 -0.000888 0.000000
-0.000032 -0.003759 -0.001533 0.000000
0.000185 -0.002849 -0.002713 0.000000
-0.000203 -0.002703 -0.001788 0.000000
0.000159 -0.002382 0.000395 0.000000
-0.000292 -0.002776 -0.001625 0.000000
0.000699 -0.004105 -0.001522 0.000000
-0.000092 -0.000449 -0.000287 0.000000
0.000308 -0.002432 0.000744 0.000000
0.000241 -0.002321 0.000444 0.000000
-0.000000 -0.000444 -0.000246 0.000000
-0.000029 -0.000526 -0.000197 0.000000
0.000375 -0.003002 -0.002653 0.000000
0.000072 -0.000470 -0.000364 0.000000
0.000476 -0.003763 -0.001305 0.000000
0.000046 -0.000761 -0.000114 0.000000
0.000566 -0.003998 -0.001851 0.000000
-0.000014 -0.000516 -0.000202 0.000000
0.000063 -0.000554 -0.000347 0.000000
0.000214 -0.002631 -0.000256 0.000000
0.000125 -0.002481 0.000096 0.000000
-0.000069 -0.000410 -0.000202 0.000000
-0.000101 -0.000438 -0.000096 0.000000
-0.000065 -0.000439 -0.000183 0.000000
-0.000059 -0.000455 -0.000322 0.000000
-0.000096 -0.000447 -0.000186 0.000000
-0.000065 -0.000443 -0.000223 0.000000
-0.000084 -0.000450 -0.000210 0.000000
-0.000084 -0.000428 -0.000216 0.000000
-0.000088 -0.000468 -0.000229 0.000000
-0.000054 -0.000523 -0.000267 0.000000
-0.000800 -0.000651 -0.000534 0.000000
-0.000489 -0.001025 -0.001927 0.000000
-0.000032 -0.000603 -0.000100 0.000000
0.001037 -0.003583 0.000725 0.000000
0.000830 -0.003037 0.000194 0.000000
0.000169 -0.002325 0.000309 0.000000
0.001372 -0.003577 0.000468 0.000000
0.000039 -0.002401 0.000079 0.000000
0.000301 -0.002696 -0.000125 0.000000
0.001269 -0.003582 -0.000365 0.000000
-0.000043 -0.002405 -0.000101 0.000000
0.000246 -0.002494 0.000863 0.000000
0.000782 -0.002718 0.001273 0.000000
0.000387 -0.002799 0.000754 0.000000
-0.000436 -0.001684 0.000484 0.000000
-0.000121 -0.002069 0.000534 0.000000
0.000539 -0.002919 0.000085 0.000000
-0.000317 -0.001976 0.000367 0.000000
0.000380 -0.002453 0.001158 0.000000
-0.000095 -0.002162 0.000475 0.000000
-0.000135 -0.002070 0.000526 0.000000
0.000377 -0.002399 0.000754 0.000000
-0.000124 -0.002074 0.000580 0.000000
-0.000202 -0.002142 0.000011 0.000000
-0.000227 -0.002074 0.000201 0.000000
-0.000270 -0.002192 -0.000094 0.000000
-0.000201 -0.002273 -0.000209 0.000000
-0.000211 -0.002146 0.000024 0.000000
-0.000170 -0.002401 -0.000329 0.000000
-0.000036 -0.002437 -0.000202 0.000000
0.000043 -0.002229 0.000133 0.000000
-0.000179 -0.002134 0.000105 0.000000
-0.000187 -0.002110 0.000101 0.000000
0.000000 -0.002286 0.000077 0.000000
0.000585 -0.002860 0.000529 0.000000
0.000447 -0.002603 -0.000052 0.000000
0.000196 -0.002481 0.000503 0.000000
-0.000156 -0.002098 0.000257 0.000000
-0.000057 -0.000453 -0.000111 0.000000
0.000960 -0.003208 -0.000802 0.000000
0.000858 -0.003475 0.000155 0.000000
0.000153 -0.002441 0.000065 0.000000
-0.000112 -0.000444 -0.000212 0.000000
-0.000109 -0.000429 -0.000243 0.000000
-0.000043 -0.000471 -0.000141 0.000000
-0.000057 -0.000491 -0.000274 0.000000
-0.000104 -0.000484 -0.000158 0.000000
-0.000093 -0.000481 -0.000192 0.000000
0.000013 -0.003286 -0.000874 0.000000
0.000034 -0.002794 0.001141 0.000000
0.000240 -0.003489 -0.000736 0.000000
-0.000068 -0.000556 -0.000336 0.000000
0.000012 -0.003787 -0.001575 0.000000
0.001416 -0.003792 0.000868 0.000000
0.000156 -0.002467 -0.000268 0.000000
0.000101 -0.002514 0.000131 0.000000
-0.000041 -0.003598 -0.001135 0.000000
0.000506 -0.003761 -0.000885 0.000000
0.000172 -0.002522 0.000133 0.000000
0.000131 -0.002552 0.000306 0.000000
0.000059 -0.003139 -0.001659 0.000000
0.000505 -0.003710 -0.001183 0.000000
0.000235 -0.003541 -0.001149 0.000000
0.000000 -0.003650 -0.000820 0.000000
0.000000 -0.003905 -0.000344 0.000000
0.000000 -0.002986 0.000685 0.000000
0.001066 -0.003509 0.001052 0.000000
-0.000103 -0.002595 0.000104 0.000000
-0.000212 -0.002244 0.000120 0.000000
-0.000185 -0.002325 0.000479 0.000000
-0.000180 -0.002141 0.000046 0.000000
-0.000219 -0.002181 -0.000046 0.000000
-0.000115 -0.002229 0.000039 0.000000
-0.000135 -0.002242 -0.000032 0.000000
-0.000189 -0.002282 0.000185 0.000000
0.000000 -0.002349 -0.000106 0.000000
-0.000147 -0.002390 -0.000262 0.000000
-0.000000 -0.002552 -0.000370 0.000000
-0.000019 -0.002493 -0.000255 0.000000
-0.000097 -0.002334 -0.000162 0.000000
-0.000165 -0.002147 0.000046 0.000000
-0.000163 -0.002315 -0.000065 0.000000
0.000000 -0.002436 -0.000269 0.000000
0.000000 -0.002637 -0.000393 0.000000
0.000127 -0.002726 -0.000422 0.000000
0.000373 -0.002687 0.000158 0.000000
0.000372 -0.003134 -0.000001 0.000000
0.000417 -0.002941 -0.000370 0.000000
0.000000 -0.002633 0.000567 0.000000
0.000581 -0.002915 0.000600 0.000000
0.000286 -0.002634 0.000415 0.000000
0.000134 -0.002558 0.000988 0.000000
0.000067 -0.002666 -0.000413 0.000000
0.000000 -0.002736 -0.000128 0.000000
0.000178 -0.002821 -0.000285 0.000000
0.000178 -0.002716 -0.000262 0.000000
-0.000047 -0.002534 -0.000425 0.000000
0.000302 -0.002849 -0.000536 0.000000
0.000246 -0.002807 -0.000518 0.000000
0.000306 -0.002876 -0.000404 0.000000
-0.000340 -0.002090 -0.000028 0.000000
-0.000298 -0.002010 0.000114 0.000000
0.000717 -0.003189 -0.000450 0.000000
0.000425 -0.002990 -0.000497 0.000000
0.000543 -0.003055 -0.000384 0.000000
-0.000089 -0.002270 0.000858 0.000000
0.000341 -0.003120 -0.000071 0.000000
0.001257 -0.003496 0.000475 0.000000
0.000286 -0.002942 0.000399 0.000000
0.000572 -0.003194 -0.000478 0.000000
0.000820 -0.003067 0.000355 0.000000
0.000000 -0.002534 0.001018 0.000000
0.001215 -0.003898 0.000739 0.000000
0.001241 -0.004088 0.000260 0.000000
0.000344 -0.002685 0.001174 0.000000
0.000587 -0.003235 0.000600 0.000000
0.000116 -0.002474 0.001325 0.000000
0.000296 -0.002712 0.001224 0.000000
0.000300 -0.002754 0.001089 0.000000
0.001316 -0.003652 0.001261 0.000000
0.000123 -0.002663 0.001369 0.000000
0.000364 -0.002868 0.001232 0.000000
-0.000527 -0.001967 0.000881 0.000000
-0.000503 -0.001811 0.000438 0.000000
-0.000414 -0.001855 0.000347 0.000000
-0.000468 -0.001902 0.000642 0.000000
-0.000058 -0.002306 0.000847 0.000000
-0.000097 -0.002355 0.001059 0.000000
-0.000440 -0.002065 0.000961 0.000000
0.000088 -0.002546 0.001102 0.000000
-0.000350 -0.001943 0.000654 0.000000
-0.000102 -0.002374 0.001077 0.000000
0.000000 -0.002467 0.001054 0.000000
-0.000357 -0.002163 0.000953 0.000000
0.000032 -0.002498 0.001096 0.000000
-0.000484 -0.002001 0.000622 0.000000
0.000374 -0.002768 0.001064 0.000000
0.000563 -0.003020 0.001036 0.000000
0.000094 -0.002505 0.000968 0.000000
0.000270 -0.002905 0.000767 0.000000
0.000269 -0.002609 0.000760 0.000000
-0.000000 -0.002585 0.000864 0.000000
0.000034 -0.002473 0.000994 0.000000
0.000134 -0.002640 0.000978 0.000000
-0.000082 -0.002426 0.001072 0.000000
-0.000000 -0.002313 0.000690 0.000000
-0.000348 -0.002302 0.000518 0.000000
0.000000 -0.002291 0.000300 0.000000
0.000000 -0.002364 -0.000109 0.000000
-0.000245 -0.002350 0.000891 0.000000
-0.000347 -0.001925 0.000409 0.000000
-0.000371 -0.001902 0.000110 0.000000
-0.000368 -0.002324 0.000048 0.000000
-0.000056 -0.002469 -0.000516 0.000000
0.000028 -0.002739 0.000625 0.000000
0.000254 -0.002754 0.000153 0.000000
0.000205 -0.002589 -0.000470 0.000000
-0.000031 -0.002486 -0.000269 0.000000
0.000000 -0.002565 -0.000430 0.000000
0.000117 -0.002610 -0.000462 0.000000
-0.000015 -0.002696 0.000143 0.000000
0.000112 -0.002839 -0.000071 0.000000
0.000000 -0.003119 -0.000071 0.000000
-0.000167 -0.002551 -0.000005 0.000000
0.000000 -0.002652 0.000602 0.000000
-0.000161 -0.002328 0.001144 0.000000
0.000756 -0.003409 -0.000391 0.000000
-0.000024 -0.002818 -0.000129 0.000000
-0.000499 -0.002228 0.000021 0.000000
-0.000569 -0.002183 -0.000609 0.000000
-0.000102 -0.002505 0.000546 0.000000
-0.000030 -0.002699 0.000663 0.000000
-0.000158 -0.002637 0.000171 0.000000
0.000001 -0.002716 -0.000369 0.000000
0.000301 -0.002997 -0.000463 0.000000
0.000314 -0.003509 -0.000555 0.000000
0.000038 -0.002669 0.000755 0.000000
0.000123 -0.002741 0.000549 0.000000
0.000378 -0.003409 -0.000058 0.000000
0.000482 -0.002952 -0.000494 0.000000
-0.000048 -0.001767 0.002418 0.000000
-0.000078 -0.000550 -0.000067 0.000000
-0.000838 -0.002012 0.000104 0.000000
-0.000653 -0.001932 -0.000472 0.000000
-0.000083 -0.000489 0.000074 0.000000
-0.000075 -0.000494 -0.000011 0.000000
-0.000714 -0.001938 -0.000197 0.000000
-0.000941 -0.001743 0.000645 0.000000
-0.000026 -0.000413 0.000076 0.000000
-0.000384 -0.001894 0.000048 0.000000
-0.000008 -0.000387 0.000048 0.000000
-0.000051 -0.002658 0.000770 0.000000
-0.000543 -0.001749 0.000086 0.000000
0.000165 -0.002885 0.000508 0.000000
-0.000084 -0.000362 0.000058 0.000000
0.000470 -0.002209 -0.001493 0.000000
0.000282 -0.002912 -0.000036 0.000000
0.000326 -0.002798 -0.000627 0.000000
0.000081 -0.002687 0.000753 0.000000
0.000511 -0.002688 -0.000491 0.000000
-0.000531 -0.001942 0.000272 0.000000
-0.000226 -0.002145 -0.000119 0.000000
-0.000392 -0.001799 -0.000458 0.000000
-0.000526 -0.002000 -0.000153 0.000000
-0.000394 -0.001823 0.000457 0.000000
-0.000484 -0.001801 0.000466 0.000000
-0.000394 -0.001776 0.000334 0.000000
-0.000532 -0.001731 0.000294 0.000000
-0.000339 -0.001762 -0.000161 0.000000
-0.000495 -0.001810 0.000207 0.000000
-0.000218 -0.001867 0.000354 0.000000
-0.000251 -0.001942 0.000201 0.000000
-0.000432 -0.001603 -0.000013 0.000000
-0.000433 -0.001815 0.000024 0.000000
-0.000068 -0.000383 0.000100 0.000000
0.000191 -0.001761 -0.001309 0.000000
-0.000078 -0.000377 0.000039 0.000000
-0.000072 -0.000468 0.000205 0.000000
-0.000116 -0.000347 0.000012 0.000000
-0.000094 -0.000395 0.000137 0.000000
0.000083 -0.001472 0.002525 0.000000
-0.000078 -0.000389 0.000084 0.000000
-0.000365 -0.001781 0.000075 0.000000
-0.000072 -0.002078 0.000124 0.000000
-0.000359 -0.001744 0.000185 0.000000
-0.000228 -0.001256 -0.001145 0.000000
-0.000260 -0.001819 0.000083 0.000000
0.000024 -0.002089 0.000090 0.000000
-0.000065 -0.001905 0.000391 0.000000
-0.000134 -0.001922 0.000272 0.000000
-0.000132 -0.002009 0.000186 0.000000
0.000003 -0.001971 0.000127 0.000000
-0.000074 -0.000353 0.000022 0.000000
-0.000074 -0.000409 0.000015 0.000000
-0.000091 -0.000363 0.000075 0.000000
-0.000076 -0.000331 0.000114 0.000000
-0.000080 -0.000362 0.000079 0.000000
-0.000071 -0.000355 0.000045 0.000000
-0.000128 -0.000331 0.000073 0.000000
-0.000081 -0.000371 0.000085 0.000000
-0.000093 -0.000358 0.000073 0.000000
-0.000090 -0.000369 0.000061 0.000000
-0.000096 -0.000350 0.000068 0.000000
-0.000081 -0.000355 0.000062 0.000000
-0.000091 -0.000373 0.000112 0.000000
-0.000092 -0.000359 0.000076 0.000000
-0.000103 -0.000353 0.000101 0.000000
-0.000051 -0.000424 0.000135 0.000000
-0.000073 -0.000357 0.000084 0.000000
-0.000083 -0.000355 0.000087 0.000000
-0.000068 -0.000373 0.000116 0.000000
-0.000078 -0.000367 0.000102 0.000000
-0.000065 -0.000402 0.000160 0.000000
-0.000058 -0.000389 0.000047 0.000000
-0.000082 -0.000373 0.000070 0.000000
0.001059 -0.003089 -0.000151 0.000000
-0.000073 -0.000398 0.000139 0.000000
-0.000070 -0.000471 0.000110 0.000000
-0.000082 -0.000422 0.000032 0.000000
0.001069 -0.003678 -0.000668 0.000000
-0.000080 -0.000426 0.000127 0.000000
-0.000089 -0.000456 0.000014 0.000000
-0.000079 -0.000410 0.000047 0.000000
-0.000958 -0.000614 0.000776 0.000000
-0.000096 -0.000352 0.000136 0.000000
-0.000092 -0.000351 0.000111 0.000000
-0.000095 -0.000372 0.000149 0.000000
-0.000098 -0.000399 0.000144 0.000000
-0.000025 -0.000389 0.000079 0.000000
-0.000096 -0.000357 0.000066 0.000000
-0.000102 -0.000336 0.000086 0.000000
-0.000077 -0.000359 0.000091 0.000000
-0.000108 -0.000352 0.000130 0.000000
-0.000090 -0.000326 0.000051 0.000000
-0.000064 -0.000431 0.000166 0.000000
-0.000077 -0.000436 0.000131 0.000000
-0.000764 -0.001494 -0.000118 0.000000
-0.000667 -0.001321 -0.000530 0.000000
-0.001003 -0.000341 -0.000125 0.000000
-0.000994 -0.001400 -0.000118 0.000000
0.000347 -0.002859 -0.001146 0.000000
0.000537 -0.003165 -0.001299 0.000000
-0.000046 -0.000424 -0.000115 0.000000
0.001080 -0.003843 -0.000579 0.000000
0.000928 -0.003995 -0.000422 0.000000
-0.000071 -0.000463 0.000005 0.000000
-0.000037 -0.000423 -0.000070 0.000000
0.001051 -0.003680 -0.000655 0.000000
-0.000064 -0.000428 -0.000009 0.000000
-0.000064 -0.000413 0.000020 0.000000
0.001027 -0.003446 -0.000699 0.000000
0.000008 -0.002578 -0.000737 0.000000
-0.000001 -0.000397 -0.000094 0.000000
-0.000038 -0.000533 -0.000079 0.000000
0.000857 -0.002777 -0.001244 0.000000
-0.000218 -0.001911 -0.000953 0.000000
0.000733 -0.003446 -0.000647 0.000000
-0.000077 -0.000397 0.000019 0.000000
0.000851 -0.002629 -0.001250 0.000000
0.000723 -0.001678 -0.002105 0.000000
-0.000803 -0.001357 0.000598 0.000000
0.001092 -0.003149 -0.000122 0.000000
-0.000115 -0.000394 0.000077 0.000000
-0.000093 -0.000457 0.000212 0.000000
-0.000099 -0.000415 0.000028 0.000000
-0.000134 -0.000373 0.000058 0.000000
-0.000013 -0.000378 -0.000220 0.000000
-0.000088 -0.000388 0.000013 0.000000
-0.000090 -0.000425 -0.000044 0.000000
-0.000091 -0.000433 0.000026 0.000000
-0.000091 -0.000428 0.000054 0.000000
-0.000095 -0.000416 0.000043 0.000000
-0.000093 -0.000432 -0.000121 0.000000
-0.000075 -0.000474 0.000040 0.000000
0.000630 -0.003459 0.001822 0.000000
-0.000093 -0.000494 -0.000157 0.000000
-0.000130 -0.000403 -0.000109 0.000000
-0.000133 -0.000415 -0.000057 0.000000
-0.000657 -0.001816 0.000793 0.000000
-0.000732 -0.001249 0.002198 0.000000
0.000124 -0.001894 0.002107 0.000000
-0.000236 -0.002353 0.001023 0.000000
-0.000032 -0.002491 0.000945 0.000000
-0.000625 -0.002125 0.000501 0.000000
0.000680 -0.002340 0.002299 0.000000
0.000072 -0.002772 0.000433 0.000000
-0.000768 -0.001911 -0.000065 0.000000
0.000393 -0.003572 -0.000048 0.000000
0.000116 -0.002768 0.001314 0.000000
0.000441 -0.003119 0.000745 0.000000
-0.000607 -0.002021 0.000048 0.000000
0.000072 -0.002280 0.000385 0.000000
-0.000053 -0.000428 -0.000103 0.000000
-0.000032 -0.000623 -0.000344 0.000000
-0.000046 -0.000556 -0.000003 0.000000
-0.000070 -0.000480 -0.000119 0.000000
0.000002 -0.000740 -0.000383 0.000000
0.000997 -0.003931 -0.000398 0.000000
-0.000083 -0.000525 -0.000100 0.000000
-0.000098 -0.000442 0.000011 0.000000
0.000997 -0.003993 0.002804 0.000000
-0.000006 -0.000642 0.000007 0.000000
0.001352 -0.003446 0.004157 0.000000
0.000973 -0.002803 0.003400 0.000000
0.000430 -0.002817 0.001189 0.000000
0.000541 -0.002942 0.000321 0.000000
0.000004 -0.003102 0.002369 0.000000
0.000326 -0.003076 0.001333 0.000000
0.000419 -0.003030 0.000645 0.000000
-0.000053 -0.002385 0.000769 0.000000
0.000004 -0.002732 0.001575 0.000000
-0.000528 -0.002479 0.001461 0.000000
-0.000545 -0.002083 0.000971 0.000000
-0.000534 -0.002215 0.001092 0.000000
0.002761 -0.005201 0.001338 0.000000
0.000667 -0.003860 0.000971 0.000000
0.001379 -0.003573 0.004139 0.000000
0.000666 -0.003926 -0.000189 0.000000
0.000690 -0.003942 -0.000264 0.000000
0.001451 -0.004950 -0.001512 0.000000
0.002689 -0.006766 0.000425 0.000000
0.001489 -0.004425 0.003568 0.000000
0.000276 -0.003145 -0.000858 0.000000
-0.000133 -0.002833 -0.000977 0.000000
0.000473 -0.003548 -0.000953 0.000000
0.000652 -0.003762 -0.000989 0.000000
-0.000822 -0.001724 -0.000046 0.000000
-0.000522 -0.002127 -0.000729 0.000000
-0.000022 -0.002505 -0.001366 0.000000
0.000219 -0.002905 -0.000845 0.000000
-0.000585 -0.002466 0.000352 0.000000
-0.000789 -0.001872 -0.000373 0.000000
-0.000776 -0.001800 -0.000471 0.000000
-0.000821 -0.002191 -0.000093 0.000000
0.000049 -0.003112 -0.001851 0.000000
-0.000428 -0.002233 -0.000761 0.000000
0.000607 -0.003555 -0.000859 0.000000
0.000109 -0.002834 -0.001304 0.000000
0.000713 -0.003766 -0.000900 0.000000
0.000945 -0.004621 -0.000283 0.000000
-0.000549 -0.002141 -0.000920 0.000000
-0.000564 -0.002194 -0.000769 0.000000
-0.000464 -0.002539 -0.001201 0.000000
0.000000 -0.002673 -0.000692 0.000000
-0.000471 -0.002664 0.000317 0.000000
-0.000738 -0.002220 -0.000623 0.000000
-0.000744 -0.001970 -0.000591 0.000000
-0.000762 -0.002006 -0.000498 0.000000
0.000000 -0.002680 -0.000004 0.000000
-0.000549 -0.002128 -0.000359 0.000000
-0.000547 -0.002677 -0.000346 0.000000
-0.000392 -0.002732 -0.001034 0.000000
0.000000 -0.003051 -0.001251 0.000000
0.000000 -0.002783 -0.001155 0.000000
0.000829 -0.004131 -0.001580 0.000000
-0.000091 -0.002924 -0.001458 0.000000
0.001202 -0.003801 0.001347 0.000000
-0.000096 -0.002891 0.001924 0.000000
0.000000 -0.003160 0.001081 0.000000
0.000478 -0.003504 -0.001313 0.000000
0.000375 -0.003341 -0.001346 0.000000
0.001863 -0.005397 0.000436 0.000000
0.001357 -0.004154 -0.001160 0.000000
0.000518 -0.003111 0.001434 0.000000
0.000000 -0.002691 0.001554 0.000000
-0.000682 -0.002251 0.000759 0.000000
0.000000 -0.003101 -0.000135 0.000000
0.000000 -0.003046 0.001664 0.000000
-0.000415 -0.002204 0.000987 0.000000
-0.000441 -0.002686 0.000793 0.000000
-0.000446 -0.002253 0.000576 0.000000
0.000000 -0.002794 0.000084 0.000000
0.000000 -0.004272 0.001206 0.000000
-0.000025 -0.000616 0.000152 0.000000
-0.000018 -0.000623 0.000187 0.000000
-0.000397 -0.002638 0.001814 0.000000
0.000896 -0.004232 0.001007 0.000000
-0.000000 -0.004543 0.000451 0.000000
0.000574 -0.004453 0.000908 0.000000
0.000642 -0.004594 0.001318 0.000000
0.000000 -0.002733 0.000523 0.000000
-0.000196 -0.002968 -0.000314 0.000000
-0.000379 -0.002757 0.000299 0.000000
0.000445 -0.003646 0.000231 0.000000
-0.000595 -0.002146 0.000383 0.000000
0.001519 -0.004286 0.000658 0.000000
-0.000313 -0.002516 -0.000032 0.000000
-0.000082 -0.000514 0.000187 0.000000
-0.000036 -0.000588 0.000082 0.000000
-0.000123 -0.000586 0.000382 0.000000
-0.000073 -0.000476 0.000232 0.000000
-0.000034 -0.000593 0.000176 0.000000
-0.000054 -0.000570 0.000212 0.000000
-0.000022 -0.000580 0.000115 0.000000
0.000022 -0.000580 0.000064 0.000000
0.001176 -0.005172 0.001788 0.000000
0.000782 -0.004864 0.002102 0.000000
0.000143 -0.004703 0.002871 0.000000
0.000538 -0.003601 0.000955 0.000000
-0.000022 -0.000603 0.000171 0.000000
0.000620 -0.004797 0.001599 0.000000
0.000001 -0.004442 0.001254 0.000000
0.000004 -0.000566 0.000061 0.000000
-0.000024 -0.000595 0.000121 0.000000
-0.000077 -0.000574 0.000106 0.000000
0.000034 -0.000527 0.000088 0.000000
-0.000001 -0.000596 0.000119 0.000000
-0.000054 -0.000469 0.000039 0.000000
-0.000033 -0.000523 -0.000020 0.000000
-0.000533 -0.001775 0.000811 0.000000
0.000219 -0.002040 0.002116 0.000000
-0.001050 -0.000499 -0.000400 0.000000
-0.000573 -0.001692 0.000734 0.000000
0.000272 -0.002512 0.001691 0.000000
-0.000053 -0.000450 0.000018 0.000000
-0.000266 -0.001784 0.000655 0.000000
-0.000094 -0.002257 0.001581 0.000000
-0.000093 -0.002641 0.001733 0.000000
-0.000042 -0.000474 0.000066 0.000000
-0.000333 -0.001675 0.000914 0.000000
-0.000570 -0.001963 0.001454 0.000000
0.000689 -0.004254 0.003448 0.000000
-0.000062 -0.000567 -0.000049 0.000000
0.000167 -0.003657 0.001350 0.000000
0.000379 -0.003215 0.000931 0.000000
0.000058 -0.003431 0.003842 0.000000
0.000990 -0.004944 0.001595 0.000000
-0.000000 -0.003774 0.003170 0.000000
0.000000 -0.002934 0.003246 0.000000
0.000000 -0.002136 0.002453 0.000000
-0.000790 -0.002013 0.002168 0.000000
-0.000892 -0.002022 0.000839 0.000000
-0.000889 -0.001398 0.000996 0.000000
0.000000 -0.002068 0.000697 0.000000
-0.000050 -0.000530 -0.000065 0.000000
0.000000 -0.003167 0.000403 0.000000
-0.000762 -0.001442 0.000897 0.000000
-0.000052 -0.002393 -0.000406 0.000000
0.000000 -0.004375 0.000432 0.000000
0.000000 -0.004375 0.000432 0.000000
-0.000009 -0.000513 -0.000122 0.000000
-0.000405 -0.002091 -0.000438 0.000000
-0.000117 -0.000504 -0.000121 0.000000
0.000018 -0.002806 0.001633 0.000000
0.000000 -0.002524 0.000461 0.000000
-0.000291 -0.002307 -0.000007 0.000000
-0.000406 -0.002061 0.000464 0.000000
0.001486 -0.005008 0.002749 0.000000
0.001586 -0.004882 0.000030 0.000000
-0.000287 -0.001786 0.001858 0.000000
0.000815 -0.004127 0.000943 0.000000
0.000000 -0.003240 0.002901 0.000000
0.001500 -0.003374 0.002377 0.000000
0.000478 -0.002535 0.005212 0.000000
-0.000202 -0.002347 -0.000307 0.000000
-0.000275 -0.001623 0.001294 0.000000
-0.000053 -0.002651 -0.000700 0.000000
0.000000 -0.003038 0.000202 0.000000
0.000536 -0.002955 -0.000271 0.000000
0.000820 -0.003278 0.000302 0.000000
0.000553 -0.003563 0.000293 0.000000
-0.000078 -0.002753 0.000121 0.000000
0.000901 -0.003703 0.000139 0.000000
0.000285 -0.003041 -0.000519 0.000000
0.000974 -0.003703 0.000133 0.000000
0.001509 -0.003841 0.000048 0.000000
0.003797 -0.007211 0.007540 0.000000
0.002012 -0.004497 0.001293 0.000000
0.004048 -0.007466 0.001155 0.000000
0.001924 -0.004269 0.004280 0.000000
0.001468 -0.003959 0.005625 0.000000
0.000429 -0.002706 0.003512 0.000000
0.000902 -0.003131 -0.000201 0.000000
0.000167 -0.002859 0.000060 0.000000
0.002917 -0.005928 0.002206 0.000000
0.002333 -0.004884 0.000327 0.000000
0.003062 -0.005927 0.001975 0.000000
0.001284 -0.004040 0.006462 0.000000
0.000010 -0.000531 0.000025 0.000000
0.000750 -0.002800 0.005344 0.000000
-0.000065 -0.002334 -0.000061 0.000000
0.000344 -0.003170 0.000259 0.000000
-0.000109 -0.000429 0.000081 0.000000
-0.000028 -0.000596 0.000231 0.000000
-0.000035 -0.000734 -0.000275 0.000000
-0.000363 -0.002458 0.000671 0.000000
-0.001038 -0.001138 0.000342 0.000000
-0.000807 -0.001160 0.000342 0.000000
-0.000102 -0.000434 0.000100 0.000000
-0.000706 -0.001553 -0.000075 0.000000
-0.000088 -0.000408 0.000160 0.000000
-0.000088 -0.000299 0.000202 0.000000
-0.000109 -0.000438 0.000101 0.000000
0.000046 -0.000749 0.000178 0.000000
-0.000095 -0.000438 0.000088 0.000000
-0.000091 -0.000475 0.000128 0.000000
-0.000107 -0.000374 0.000112 0.000000
0.002276 -0.004729 0.000131 0.000000
-0.000014 -0.000432 0.000110 0.000000
-0.000040 -0.000439 0.000093 0.000000
-0.000087 -0.000402 0.000202 0.000000
-0.000044 -0.000421 0.000103 0.000000
-0.000013 -0.000420 0.000090 0.000000
0.001840 -0.004872 -0.001148 0.000000
-0.000012 -0.000435 0.000132 0.000000
0.000040 -0.000612 -0.000130 0.000000
0.002206 -0.006016 0.001382 0.000000
0.000310 -0.003551 -0.001203 0.000000
-0.000089 -0.000408 -0.000074 0.000000
-0.000039 -0.000546 -0.000047 0.000000
0.002049 -0.005632 -0.000513 0.000000
0.001704 -0.002455 -0.003970 0.000000
0.002846 -0.005433 0.001784 0.000000
-0.000122 -0.000343 0.000109 0.000000
0.002973 -0.005620 0.001922 0.000000
-0.000120 -0.000330 0.000170 0.000000
-0.000092 -0.000467 0.000109 0.000000
-0.000110 -0.000496 0.000185 0.000000
-0.000082 -0.000439 0.000024 0.000000
-0.000089 -0.000560 -0.000051 0.000000
-0.000097 -0.000405 0.000022 0.000000
-0.000085 -0.000414 0.000141 0.000000
-0.000064 -0.000416 0.000059 0.000000
-0.000096 -0.000458 -0.000020 0.000000
-0.000149 -0.000322 0.000089 0.000000
-0.000084 -0.000388 0.000148 0.000000
0.003089 -0.005329 0.002263 0.000000
0.003384 -0.005431 0.001666 0.000000
-0.000094 -0.000405 0.000099 0.000000
-0.000124 -0.000384 0.000109 0.000000
-0.000129 -0.000312 0.000050 0.000000
-0.000112 -0.000374 0.000160 0.000000
-0.000130 -0.000321 0.000109 0.000000
-0.000135 -0.000328 0.000122 0.000000
-0.000072 -0.000402 0.000095 0.000000
-0.000106 -0.000342 0.000132 0.000000
-0.000076 -0.000436 0.000080 0.000000
0.001472 -0.003746 0.004489 0.000000
-0.000063 -0.000385 0.000052 0.000000
-0.000086 -0.000421 0.000006 0.000000
-0.000043 -0.000321 0.000052 0.000000
-0.000022 -0.000358 -0.000026 0.000000
-0.000082 -0.000349 0.000029 0.000000
-0.000101 -0.000366 0.000123 0.000000
-0.000090 -0.000389 0.000136 0.000000
-0.000072 -0.000381 0.000087 0.000000
-0.000117 -0.000343 0.000065 0.000000
-0.000087 -0.000453 0.000219 0.000000
-0.000098 -0.000346 0.000059 0.000000
-0.000114 -0.000367 -0.000000 0.000000
0.002414 -0.004850 0.000256 0.000000
0.002336 -0.004811 0.000576 0.000000
-0.000050 -0.000298 -0.000224 0.000000
0.002839 -0.005069 0.002002 0.000000
0.000093 -0.002637 0.005504 0.000000
0.000002 -0.000435 0.000104 0.000000
0.002509 -0.006476 0.000114 0.000000
0.002691 -0.006325 -0.000740 0.000000
0.003163 -0.004688 -0.002835 0.000000
0.001403 -0.004240 -0.000783 0.000000
0.001204 -0.003852 0.000955 0.000000
0.001706 -0.004302 0.001782 0.000000
0.002300 -0.004514 -0.001979 0.000000
-0.000050 -0.000553 0.000169 0.000000
-0.000014 -0.002310 0.005410 0.000000
0.000442 -0.001870 0.000882 0.000000
0.000128 -0.003110 0.002401 0.000000
0.000401 -0.002380 0.005259 0.000000
0.003066 -0.004895 0.002583 0.000000
0.002182 -0.006301 -0.003065 0.000000
0.000051 -0.000576 0.000041 0.000000
-0.000006 -0.000477 0.000095 0.000000
-0.000043 -0.000456 0.000060 0.000000
0.000009 -0.000470 0.000129 0.000000
-0.000110 -0.001489 0.001832 0.000000
-0.000506 -0.001841 0.000013 0.000000
-0.000129 -0.001855 0.001412 0.000000
0.000359 -0.002385 0.005226 0.000000
0.001160 -0.003608 0.006320 0.000000
-0.000108 -0.001868 0.001379 0.000000
-0.000613 -0.000591 -0.000594 0.000000
-0.000043 -0.000445 0.000069 0.000000
-0.000538 -0.001578 0.000820 0.000000
0.000527 -0.002837 0.002224 0.000000
-0.000215 -0.001622 0.000760 0.000000
-0.000341 -0.001732 0.000581 0.000000
0.000532 -0.002137 0.002374 0.000000
-0.000221 -0.001629 0.001565 0.000000
-0.000028 -0.000482 0.000005 0.000000
0.000010 -0.000554 0.000046 0.000000
-0.000131 -0.000303 0.000141 0.000000
0.000000 -0.000534 0.000049 0.000000
-0.000002 -0.000521 0.000059 0.000000
0.000006 -0.000527 0.000093 0.000000
-0.000065 -0.000381 -0.000033 0.000000
-0.000004 -0.000478 0.000102 0.000000
-0.000119 -0.000370 0.000183 0.000000
-0.000051 -0.000401 0.000168 0.000000
-0.000009 -0.000586 0.000112 0.000000
0.000040 -0.000567 -0.000008 0.000000
0.000025 -0.000540 0.000065 0.000000
0.000052 -0.000595 0.000023 0.000000
0.000016 -0.000580 0.000056 0.000000
0.000038 -0.000576 0.000011 0.000000
-0.000007 -0.000578 0.000035 0.000000
0.000025 -0.000581 0.000041 0.000000
0.000025 -0.000678 0.000260 0.000000
-0.000938 -0.000733 -0.000200 0.000000
0.000003 -0.000480 0.000359 0.000000
-0.000084 -0.000588 0.000329 0.000000
-0.000108 -0.000487 0.000154 0.000000
0.000021 -0.000656 0.000288 0.000000
-0.000058 -0.000493 0.000118 0.000000
-0.000010 -0.000478 -0.000015 0.000000
-0.000033 -0.000562 0.000101 0.000000
-0.000064 -0.000496 0.000106 0.000000
0.000719 -0.003587 0.000008 0.000000
0.000038 -0.000559 0.000008 0.000000
0.000016 -0.000506 -0.000008 0.000000
0.000013 -0.000551 0.000026 0.000000
0.000038 -0.000585 0.000029 0.000000
0.000044 -0.000578 0.000043 0.000000
0.000041 -0.000590 0.000087 0.000000
0.000050 -0.000595 -0.000014 0.000000
0.000028 -0.000569 0.000051 0.000000
0.000801 -0.004295 -0.000634 0.000000
0.000049 -0.000600 0.000056 0.000000
0.000025 -0.000518 0.000138 0.000000
0.000028 -0.003126 0.000376 0.000000
0.000499 -0.003140 0.000410 0.000000
0.000765 -0.003878 -0.000191 0.000000
0.000356 -0.004295 -0.000448 0.000000
0.000041 -0.000573 -0.000005 0.000000
0.000050 -0.000580 0.000009 0.000000
-0.001122 -0.000898 0.001659 0.000000
-0.000717 -0.001662 0.000938 0.000000
-0.000666 -0.002018 0.000581 0.000000
-0.000353 -0.002477 0.000619 0.000000
-0.000282 -0.002631 0.000677 0.000000
-0.000266 -0.002633 0.000570 0.000000
0.000676 -0.004161 -0.000512 0.000000
0.000676 -0.004197 0.000240 0.000000
-0.000592 -0.002003 0.000517 0.000000
-0.000162 -0.002671 0.000737 0.000000
0.000440 -0.003891 0.000289 0.000000
0.000202 -0.003985 0.001590 0.000000
-0.001045 -0.001347 0.000163 0.000000
-0.000838 -0.001910 0.000774 0.000000
-0.001139 -0.001520 0.000424 0.000000
-0.000799 -0.001741 0.000938 0.000000
-0.000502 -0.002330 0.001240 0.000000
-0.000132 -0.002819 0.001594 0.000000
0.000183 -0.003050 0.001242 0.000000
-0.000128 -0.002466 0.001083 0.000000
0.000059 -0.000423 0.000070 0.000000
0.000363 -0.002718 0.001722 0.000000
0.000117 -0.000474 -0.000036 0.000000
0.000463 -0.003123 0.002136 0.000000
0.000664 -0.003675 0.002182 0.000000
0.000066 -0.000489 -0.000124 0.000000
0.000788 -0.004073 0.002545 0.000000
0.000080 -0.000466 -0.000226 0.000000
0.000320 -0.003424 0.002643 0.000000
0.000317 -0.003463 0.001323 0.000000
0.000705 -0.004325 0.001836 0.000000
0.000642 -0.003945 0.001180 0.000000
0.001683 -0.004318 0.001144 0.000000
0.003095 -0.006145 -0.001432 0.000000
0.001194 -0.004086 -0.001060 0.000000
0.003688 -0.007817 -0.000204 0.000000
0.001004 -0.004724 -0.002167 0.000000
0.000034 -0.000696 -0.000654 0.000000
0.000470 -0.004297 0.000718 0.000000
0.000312 -0.004198 -0.000298 0.000000
0.001281 -0.004208 -0.000107 0.000000
0.000169 -0.000510 -0.000397 0.000000
0.005130 -0.006831 0.005782 0.000000
-0.000040 -0.000487 -0.000387 0.000000
0.001513 -0.002986 -0.002003 0.000000
0.000314 -0.001644 -0.001186 0.000000
0.000978 -0.003807 -0.002204 0.000000
0.004227 -0.006810 0.005567 0.000000
0.004957 -0.006498 0.005205 0.000000
-0.000049 -0.002445 0.003752 0.000000
-0.000142 -0.001644 0.003129 0.000000
-0.000625 -0.001699 0.003386 0.000000
0.000279 -0.002067 -0.000721 0.000000
-0.000375 -0.001670 0.002324 0.000000
0.002038 -0.005286 0.000681 0.000000
0.000458 -0.004270 0.000788 0.000000
-0.000015 -0.003551 -0.002082 0.000000
0.003350 -0.007036 -0.001629 0.000000
0.004551 -0.007514 -0.001589 0.000000
0.002369 -0.006525 0.000321 0.000000
0.000226 -0.004406 0.000109 0.000000
0.000027 -0.000581 0.000143 0.000000
0.001916 -0.004880 -0.001904 0.000000
0.001195 -0.005060 -0.001179 0.000000
-0.000691 -0.001426 0.002283 0.000000
-0.000807 -0.001895 0.003327 0.000000
-0.000433 -0.001419 0.002233 0.000000
0.000189 -0.002010 0.003716 0.000000
0.000409 -0.002398 -0.000664 0.000000
-0.000317 -0.001098 0.000042 0.000000
-0.000080 -0.000408 0.000075 0.000000
-0.000045 -0.000356 0.000065 0.000000
0.000869 -0.003357 -0.000582 0.000000
-0.000073 -0.000373 0.000138 0.000000
-0.000078 -0.000371 0.000051 0.000000
-0.000073 -0.000353 0.000078 0.000000
-0.000077 -0.000393 0.000110 0.000000
-0.000051 -0.000356 0.000045 0.000000
-0.000069 -0.000347 0.000011 0.000000
-0.000062 -0.000341 0.000024 0.000000
-0.000101 -0.000341 0.000043 0.000000
-0.000074 -0.000374 0.000049 0.000000
-0.000109 -0.000348 0.000088 0.000000
-0.000078 -0.000350 0.000030 0.000000
-0.000090 -0.000348 0.000092 0.000000
-0.000086 -0.000367 0.000085 0.000000
-0.000078 -0.000357 0.000042 0.000000
-0.000077 -0.000386 0.000103 0.000000
-0.000056 -0.000397 0.000074 0.000000
-0.000070 -0.000365 0.000070 0.000000
-0.000051 -0.000359 -0.000005 0.000000
-0.000056 -0.000366 0.000025 0.000000
-0.000043 -0.000378 0.000013 0.000000
-0.000320 -0.001297 0.000989 0.000000
-0.000049 -0.000395 0.000048 0.000000
-0.000037 -0.000364 -0.000025 0.000000
-0.000089 -0.000355 0.000061 0.000000
-0.000073 -0.000354 0.000055 0.000000
-0.000059 -0.000383 0.000061 0.000000
-0.000042 -0.000340 -0.000055 0.000000
-0.000055 -0.000378 0.000047 0.000000
-0.000042 -0.000373 0.000004 0.000000
-0.000063 -0.000350 0.000011 0.000000
-0.000058 -0.000348 0.000018 0.000000
-0.000058 -0.000356 -0.000000 0.000000
-0.000039 -0.000362 -0.000020 0.000000
-0.000053 -0.000355 -0.000005 0.000000
-0.000045 -0.000334 -0.000083 0.000000
-0.000048 -0.000365 -0.000009 0.000000
-0.000020 -0.000355 -0.000066 0.000000
-0.000038 -0.000356 -0.000056 0.000000
-0.000040 -0.000367 -0.000025 0.000000
-0.000033 -0.000354 -0.000049 0.000000
-0.000022 -0.000360 -0.000046 0.000000
-0.000055 -0.000325 -0.000018 0.000000
-0.000057 -0.000352 -0.000014 0.000000
-0.000051 -0.000338 -0.000031 0.000000
-0.000044 -0.000350 -0.000033 0.000000
-0.000065 -0.000320 0.000112 0.000000
-0.000074 -0.000368 0.000123 0.000000
-0.000051 -0.000331 0.000059 0.000000
-0.000057 -0.000345 0.000103 0.000000
-0.000066 -0.000338 0.000091 0.000000
-0.000060 -0.000370 0.000064 0.000000
-0.000063 -0.000360 0.000030 0.000000
-0.000060 -0.000345 0.000061 0.000000
-0.000097 -0.000367 0.000217 0.000000
0.000530 -0.001857 -0.001304 0.000000
-0.000065 -0.000349 0.000134 0.000000
-0.000089 -0.000341 0.000138 0.000000
-0.000034 -0.000345 0.000081 0.000000
0.005951 -0.007406 0.007960 0.000000
-0.000113 -0.000246 0.000149 0.000000
-0.000096 -0.000295 0.000180 0.000000
-0.000027 -0.000338 0.000129 0.000000
-0.000030 -0.000321 0.000094 0.000000
0.006054 -0.007617 0.008005 0.000000
-0.000029 -0.000309 0.000155 0.000000
-0.000034 -0.000332 0.000174 0.000000
-0.000005 -0.000325 0.000203 0.000000
-0.000041 -0.000301 0.000193 0.000000
-0.000023 -0.000328 0.000160 0.000000
-0.000044 -0.000314 0.000110 0.000000
-0.000089 -0.000292 0.000143 0.000000
-0.000067 -0.000319 0.000089 0.000000
-0.000088 -0.000322 0.000178 0.000000
-0.000071 -0.000296 -0.000014 0.000000
-0.000100 -0.000200 0.000037 0.000000
-0.000057 -0.000303 0.000057 0.000000
-0.000046 -0.000345 0.000080 0.000000
-0.000067 -0.000278 0.000027 0.000000
-0.000083 -0.000288 0.000052 0.000000
-0.000054 -0.000307 -0.000063 0.000000
-0.000053 -0.000343 -0.000037 0.000000
-0.000038 -0.000334 -0.000085 0.000000
-0.000045 -0.000344 -0.000063 0.000000
-0.000035 -0.000343 -0.000071 0.000000
-0.000026 -0.000354 -0.000047 0.000000
-0.000037 -0.000340 -0.000084 0.000000
-0.000046 -0.000318 -0.000088 0.000000
-0.000047 -0.000322 -0.000091 0.000000
-0.000064 -0.000275 -0.000078 0.000000
-0.000038 -0.000338 -0.000091 0.000000
-0.000043 -0.000324 -0.000101 0.000000
-0.000062 -0.000295 -0.000024 0.000000
-0.000056 -0.000326 -0.000021 0.000000
-0.000053 -0.000330 -0.000058 0.000000
-0.000055 -0.000298 -0.000080 0.000000
-0.000055 -0.000319 -0.000078 0.000000
-0.000043 -0.000327 -0.000074 0.000000
-0.000079 -0.000264 -0.000013 0.000000
-0.000068 -0.000255 -0.000060 0.000000
-0.000069 -0.000285 -0.000049 0.000000
-0.000061 -0.000287 -0.000100 0.000000
-0.000061 -0.000285 -0.000054 0.000000
-0.000062 -0.000299 -0.000075 0.000000
-0.000037 -0.000329 -0.000093 0.000000
-0.000051 -0.000304 -0.000090 0.000000
-0.000048 -0.000311 -0.000111 0.000000
-0.000065 -0.000267 -0.000069 0.000000
-0.000041 -0.000329 -0.000094 0.000000
-0.000039 -0.000319 -0.000110 0.000000
-0.000061 -0.000248 -0.000042 0.000000
-0.000081 -0.000250 -0.000014 0.000000
-0.000060 -0.000292 -0.000110 0.000000
-0.000059 -0.000235 0.000008 0.000000
-0.000021 -0.000196 -0.000055 0.000000
-0.000050 -0.000291 0.000168 0.000000
-0.000089 -0.000224 0.000129 0.000000
-0.000115 -0.000219 0.000083 0.000000
-0.000128 -0.000172 0.000159 0.000000
0.006035 -0.008321 0.008696 0.000000
-0.000066 -0.000271 0.000096 0.000000
-0.000084 -0.000242 0.000043 0.000000
-0.000085 -0.000333 -0.000011 0.000000
-0.000039 -0.000294 0.000220 0.000000
-0.000069 -0.000280 0.000212 0.000000
-0.000060 -0.000297 0.000202 0.000000
-0.000093 -0.000350 -0.000128 0.000000
0.006069 -0.008070 0.008481 0.000000
-0.000085 -0.000288 0.000235 0.000000
0.005903 -0.008164 0.008702 0.000000
-0.000123 -0.000263 0.000213 0.000000
-0.000152 -0.000248 0.000298 0.000000
-0.000009 -0.000413 -0.000054 0.000000
0.000009 -0.000410 -0.000021 0.000000
0.000002 -0.000387 0.000012 0.000000
0.000011 -0.000411 -0.000020 0.000000
0.000000 -0.000415 -0.000035 0.000000
0.000002 -0.000404 -0.000015 0.000000
0.000003 -0.000401 -0.000012 0.000000
0.000007 -0.000400 -0.000002 0.000000
0.000004 -0.000418 -0.000041 0.000000
0.000023 -0.000417 -0.000031 0.000000
0.000021 -0.000446 -0.000101 0.000000
0.000003 -0.000421 -0.000099 0.000000
-0.000018 -0.000425 -0.000118 0.000000
-0.000022 -0.000402 -0.000156 0.000000
-0.000054 -0.000386 -0.000142 0.000000
0.006111 -0.007893 0.008261 0.000000
-0.000088 -0.000365 -0.000153 0.000000
-0.000091 -0.000353 -0.000237 0.000000
-0.000002 -0.000302 0.000128 0.000000
-0.000001 -0.000262 0.000287 0.000000
0.000062 -0.000529 -0.000300 0.000000
0.006077 -0.007639 0.006744 0.000000
-0.000005 -0.000602 -0.000488 0.000000
0.006126 -0.007572 0.006867 0.000000
0.000115 -0.000482 -0.000088 0.000000
0.000166 -0.000529 -0.000154 0.000000
0.000112 -0.000483 -0.000169 0.000000
0.000107 -0.000545 -0.000218 0.000000
0.000022 -0.000422 -0.000026 0.000000
0.000065 -0.000435 -0.000006 0.000000
0.000041 -0.000435 -0.000068 0.000000
0.000045 -0.000429 -0.000041 0.000000
0.000011 -0.000460 -0.000206 0.000000
0.000054 -0.000490 -0.000215 0.000000
0.000044 -0.000422 0.000034 0.000000
0.000120 -0.000537 -0.000039 0.000000
0.000040 -0.000439 -0.000024 0.000000
0.000142 -0.000506 0.000047 0.000000
0.000067 -0.000465 -0.000005 0.000000
0.000088 -0.000452 0.000038 0.000000
0.000070 -0.000477 -0.000061 0.000000
0.000195 -0.000526 -0.000112 0.000000
-0.000003 -0.000383 -0.000094 0.000000
-0.000020 -0.000363 -0.000072 0.000000
0.000056 -0.000419 0.000049 0.000000
0.000114 -0.000461 0.000080 0.000000
0.000043 -0.000392 0.000034 0.000000
0.000016 -0.000383 0.000034 0.000000
0.000025 -0.000375 0.000058 0.000000
0.000012 -0.000392 -0.000000 0.000000
0.000020 -0.000391 0.000017 0.000000
0.000081 -0.000422 0.000084 0.000000
-0.000011 -0.000386 -0.000126 0.000000
0.000903 -0.002291 0.003756 0.000000
-0.000044 -0.000386 -0.000215 0.000000
-0.000019 -0.000378 -0.000064 0.000000
0.000010 -0.000393 -0.000010 0.000000
0.000013 -0.000390 0.000006 0.000000
0.000011 -0.000398 -0.000006 0.000000
0.000028 -0.000409 -0.000006 0.000000
0.000018 -0.000403 -0.000011 0.000000
-0.000000 -0.000378 -0.000033 0.000000
0.000010 -0.000402 -0.000012 0.000000
0.000007 -0.000393 -0.000014 0.000000
-0.000028 -0.000380 -0.000108 0.000000
0.000004 -0.000411 -0.000144 0.000000
-0.000011 -0.000370 -0.000071 0.000000
0.000025 -0.000431 -0.000120 0.000000
0.000007 -0.000392 -0.000012 0.000000
0.000005 -0.000404 -0.000088 0.000000
0.000029 -0.000497 -0.000299 0.000000
0.000062 -0.000476 -0.000224 0.000000
-0.000031 -0.000385 -0.000171 0.000000
0.000051 -0.000439 -0.000218 0.000000
0.000010 -0.000468 -0.000243 0.000000
-0.000020 -0.000389 -0.000154 0.000000
-0.000042 -0.000376 -0.000135 0.000000
0.000020 -0.000574 -0.000279 0.000000
-0.000875 -0.000570 -0.000152 0.000000
-0.000684 -0.000800 -0.000220 0.000000
-0.000674 -0.000966 0.000304 0.000000
0.000003 -0.000519 -0.000295 0.000000
-0.000874 -0.001485 0.001532 0.000000
-0.000889 -0.000694 0.000165 0.000000
-0.000802 -0.000644 -0.000260 0.000000
-0.000813 -0.000516 -0.000181 0.000000
0.000117 -0.000453 0.000169 0.000000
-0.000731 -0.000902 0.000218 0.000000
0.001019 -0.003207 0.004636 0.000000
-0.000564 -0.000937 0.000302 0.000000
-0.000199 -0.002084 0.001529 0.000000
0.000013 -0.000343 0.000234 0.000000
0.000014 -0.000362 0.000224 0.000000
-0.000079 -0.002274 0.001990 0.000000
-0.000554 -0.001817 0.001245 0.000000
0.000468 -0.003579 0.002663 0.000000
0.000022 -0.000342 0.000253 0.000000
-0.000398 -0.002210 0.002061 0.000000
0.000092 -0.002509 0.002360 0.000000
-0.000480 -0.001792 0.001020 0.000000
-0.000073 -0.002859 0.002844 0.000000
0.000055 -0.003204 0.001382 0.000000
0.002093 -0.004438 0.002816 0.000000
0.000534 -0.003105 0.002563 0.000000
0.000105 -0.002473 0.002112 0.000000
-0.000555 -0.001830 0.000501 0.000000
0.001934 -0.004297 0.004738 0.000000
0.000431 -0.001807 0.000402 0.000000
-0.000458 -0.001773 0.001526 0.000000
-0.000446 -0.002343 0.002124 0.000000
-0.000492 -0.002206 0.002249 0.000000
-0.000862 -0.001733 0.000883 0.000000
-0.000190 -0.002332 0.002351 0.000000
-0.001202 -0.000227 0.002258 0.000000
-0.000127 -0.000261 0.000471 0.000000
-0.000085 -0.000297 0.000608 0.000000
0.000867 -0.003484 0.003199 0.000000
0.000692 -0.002295 0.000650 0.000000
-0.000153 -0.000322 0.000334 0.000000
-0.000233 -0.000299 0.000576 0.000000
-0.000291 -0.000240 0.000200 0.000000
-0.000559 -0.001745 -0.000806 0.000000
0.000184 -0.003236 -0.000317 0.000000
-0.000028 -0.000436 -0.000249 0.000000
-0.000144 -0.001801 0.000367 0.000000
-0.000657 -0.001009 0.000308 0.000000
0.000145 -0.001714 -0.000117 0.000000
-0.000709 -0.000612 -0.000351 0.000000
-0.000714 -0.000929 -0.000143 0.000000
-0.000007 -0.000337 0.000008 0.000000
0.000079 -0.000660 -0.000191 0.000000
-0.000030 -0.000438 -0.000240 0.000000
-0.000021 -0.000466 -0.000236 0.000000
0.000142 -0.000458 -0.000214 0.000000
-0.000051 -0.000368 -0.000154 0.000000
0.000077 -0.002871 -0.000617 0.000000
-0.000026 -0.000366 -0.000071 0.000000
-0.000006 -0.000399 -0.000074 0.000000
-0.000110 -0.001708 -0.001427 0.000000
-0.000639 -0.001572 0.000299 0.000000
0.000000 -0.000463 -0.000083 0.000000
-0.000048 -0.002673 -0.000871 0.000000
-0.000192 -0.000300 -0.000036 0.000000
-0.000170 -0.000380 0.000008 0.000000
0.000076 -0.000520 -0.000290 0.000000
-0.000004 -0.003168 -0.000207 0.000000
-0.000213 -0.000265 0.000105 0.000000
-0.000158 -0.000372 0.000020 0.000000
-0.000135 -0.000403 -0.000020 0.000000
-0.000109 -0.000387 -0.000038 0.000000
0.000082 -0.002083 0.000256 0.000000
-0.000127 -0.000441 0.000025 0.000000
-0.000655 -0.001200 -0.001300 0.000000
-0.000620 -0.001810 0.000444 0.000000
-0.000152 -0.000484 0.000238 0.000000
-0.000691 -0.001974 -0.000608 0.000000
-0.000229 -0.000337 0.000002 0.000000
-0.001124 -0.001623 0.000805 0.000000
-0.000175 -0.000370 -0.000010 0.000000
-0.000235 -0.000355 0.000173 0.000000
-0.000173 -0.000355 -0.000058 0.000000
-0.001062 -0.001768 0.001321 0.000000
-0.000162 -0.000372 -0.000008 0.000000
-0.000123 -0.000426 -0.000020 0.000000
-0.000130 -0.000402 -0.000025 0.000000
-0.000142 -0.000361 0.000165 0.000000
-0.000184 -0.000344 0.000113 0.000000
-0.000175 -0.000350 0.000065 0.000000
-0.000153 -0.000376 0.000039 0.000000
-0.000157 -0.000380 0.000013 0.000000
-0.000165 -0.000370 0.000040 0.000000
-0.000173 -0.000405 0.000085 0.000000
-0.000118 -0.000373 0.000119 0.000000
-0.000149 -0.000338 0.000145 0.000000
-0.000134 -0.000398 0.000039 0.000000
-0.000159 -0.000375 0.000075 0.000000
-0.000123 -0.000382 0.000080 0.000000
-0.000991 -0.001259 0.001829 0.000000
-0.000106 -0.000394 0.000073 0.000000
-0.000135 -0.000367 0.000104 0.000000
0.000800 -0.003299 -0.001299 0.000000
-0.000512 -0.001325 0.000377 0.000000
0.001142 -0.002984 -0.000411 0.000000
-0.000591 -0.001249 0.000877 0.000000
-0.000605 -0.001627 0.001169 0.000000
-0.000301 -0.001649 0.000553 0.000000
-0.000136 -0.000395 0.000160 0.000000
-0.000146 -0.000317 0.000264 0.000000
-0.000069 -0.000398 0.000135 0.000000
-0.000130 -0.000345 0.000195 0.000000
-0.000648 -0.001393 0.001178 0.000000
-0.000497 -0.001769 0.000232 0.000000
-0.000525 -0.001403 0.003435 0.000000
-0.000281 -0.001888 0.001255 0.000000
-0.000160 -0.000378 0.000258 0.000000
-0.000088 -0.000495 0.000357 0.000000
-0.000126 -0.000374 0.000419 0.000000
-0.000082 -0.000376 0.000281 0.000000
-0.000178 -0.000318 0.000174 0.000000
-0.000222 -0.000308 0.000408 0.000000
-0.000206 -0.000304 0.000244 0.000000
-0.000184 -0.000301 0.000130 0.000000
-0.000691 -0.001456 0.002196 0.000000
-0.000948 -0.001529 0.000714 0.000000
0.000496 -0.003030 0.002910 0.000000
-0.001319 -0.000161 0.003364 0.000000
-0.000160 -0.000308 0.000266 0.000000
-0.000104 -0.000339 0.000336 0.000000
0.000569 -0.003274 0.000768 0.000000
0.000890 -0.003492 0.000015 0.000000
-0.000837 -0.001504 0.000196 0.000000
0.003317 -0.005374 -0.002401 0.000000
0.000356 -0.002754 0.000193 0.000000
-0.000150 -0.002017 0.000409 0.000000
0.000658 -0.003122 0.000624 0.000000
0.001325 -0.003826 0.000409 0.000000
0.000333 -0.002821 0.000968 0.000000
0.000581 -0.002888 0.000473 0.000000
-0.000021 -0.000379 0.000083 0.000000
0.000706 -0.003441 0.000905 0.000000
0.000747 -0.003181 -0.000391 0.000000
0.003113 -0.004692 -0.003438 0.000000
-0.000189 -0.002118 0.000595 0.000000
0.000408 -0.002775 -0.000826 0.000000
0.003124 -0.005208 -0.002496 0.000000
0.002727 -0.005212 -0.002262 0.000000
-0.000027 -0.000439 0.000120 0.000000
0.001021 -0.002925 -0.000569 0.000000
-0.000035 -0.000425 0.000119 0.000000
-0.000028 -0.000418 0.000107 0.000000
0.001613 -0.002445 -0.003073 0.000000
0.002699 -0.003925 -0.002850 0.000000
-0.000062 -0.000367 0.000086 0.000000
-0.000056 -0.000365 0.000075 0.000000
-0.000044 -0.000414 0.000086 0.000000
-0.000069 -0.000369 0.000086 0.000000
-0.000040 -0.000363 0.000087 0.000000
-0.000005 -0.002746 0.000273 0.000000
-0.000062 -0.000357 0.000079 0.000000
-0.000069 -0.000365 0.000087 0.000000
-0.000021 -0.002753 0.000576 0.000000
-0.000055 -0.000370 0.000082 0.000000
-0.000276 -0.001710 0.001129 0.000000
0.000440 -0.002689 0.000995 0.000000
0.000006 -0.002118 0.001250 0.000000
0.000268 -0.002732 0.000631 0.000000
-0.000078 -0.000374 0.000091 0.000000
0.000438 -0.002693 0.000989 0.000000
-0.000093 -0.000348 0.000074 0.000000
-0.000079 -0.000363 0.000063 0.000000
0.000011 -0.002033 0.000195 0.000000
-0.000270 -0.001801 0.000571 0.000000
-0.000054 -0.002003 0.000179 0.000000
-0.000253 -0.001653 0.000538 0.000000
-0.000227 -0.001862 0.000425 0.000000
-0.000110 -0.001976 0.001459 0.000000
-0.000220 -0.001804 0.000273 0.000000
-0.000263 -0.001779 0.000525 0.000000
-0.000290 -0.001833 0.001393 0.000000
-0.000213 -0.001818 0.000633 0.000000
-0.000301 -0.001823 0.000972 0.000000
-0.000290 -0.001783 0.001240 0.000000
-0.000151 -0.001978 0.001477 0.000000
0.000480 -0.002941 0.000832 0.000000
0.000207 -0.002304 0.001157 0.000000
0.000040 -0.002766 -0.000105 0.000000
-0.000188 -0.002054 0.002040 0.000000
-0.000425 -0.001504 0.000419 0.000000
0.000108 -0.002238 0.001639 0.000000
0.000369 -0.002613 0.000370 0.000000
0.000096 -0.002394 0.000553 0.000000
-0.000479 -0.001618 0.000523 0.000000
-0.000070 -0.002004 0.001497 0.000000
-0.000258 -0.001815 0.001084 0.000000
-0.000241 -0.001971 0.001811 0.000000
-0.000099 -0.001970 0.001780 0.000000
-0.000301 -0.001896 0.001324 0.000000
-0.000143 -0.002043 0.001897 0.000000
0.000352 -0.002246 0.002386 0.000000
0.000359 -0.002568 0.002360 0.000000
-0.000695 -0.001325 0.000553 0.000000
-0.000648 -0.001458 0.000440 0.000000
-0.000389 -0.001910 0.000561 0.000000
0.000453 -0.002390 0.002071 0.000000
0.000327 -0.002100 0.002142 0.000000
0.000296 -0.002554 0.002658 0.000000
-0.000076 -0.002085 0.001552 0.000000
0.000085 -0.002029 0.002941 0.000000
0.000103 -0.002069 0.002240 0.000000
0.000226 -0.002302 0.003066 0.000000
-0.000142 -0.002076 0.002658 0.000000
-0.000031 -0.002258 0.002588 0.000000
0.000357 -0.002987 0.000177 0.000000
-0.000208 -0.001935 0.001482 0.000000
0.000881 -0.002968 -0.000029 0.000000
0.003111 -0.004981 -0.002274 0.000000
0.003533 -0.005746 -0.001265 0.000000
-0.000274 -0.002263 0.000834 0.000000
-0.000568 -0.001784 0.000531 0.000000
-0.000379 -0.002066 0.000271 0.000000
0.000164 -0.002305 0.000258 0.000000
-0.000367 -0.002294 0.000252 0.000000
-0.000607 -0.001969 0.000720 0.000000
-0.000815 -0.001602 0.000651 0.000000
0.002715 -0.004345 -0.003105 0.000000
0.000455 -0.001733 -0.000302 0.000000
0.003365 -0.005862 0.000217 0.000000
0.000024 -0.002521 0.000642 0.000000
-0.000259 -0.001986 0.000697 0.000000
0.000233 -0.002641 0.000658 0.000000
0.003504 -0.006103 -0.000495 0.000000
0.000121 -0.002702 0.000871 0.000000
-0.000037 -0.000329 0.000248 0.000000
0.000018 -0.002298 0.000863 0.000000
-0.000015 -0.000345 0.000262 0.000000
-0.000103 -0.002136 0.001132 0.000000
-0.000854 -0.001741 0.000900 0.000000
-0.000546 -0.002016 0.001315 0.000000
-0.000000 -0.000341 0.000209 0.000000
-0.000019 -0.000352 0.000198 0.000000
-0.000003 -0.000330 0.000239 0.000000
0.000027 -0.000346 0.000252 0.000000
0.000006 -0.000418 0.000117 0.000000
-0.000014 -0.000391 0.000110 0.000000
0.000020 -0.000583 0.000427 0.000000
0.000017 -0.000347 0.000289 0.000000
-0.000035 -0.000342 0.000160 0.000000
-0.000055 -0.000319 0.000208 0.000000
0.001661 -0.003400 -0.003594 0.000000
0.000579 -0.001581 -0.000073 0.000000
0.000024 -0.000537 0.000242 0.000000
0.001668 -0.003075 -0.003505 0.000000
0.001888 -0.002861 -0.004479 0.000000
0.000106 -0.001585 -0.000213 0.000000
0.000101 -0.002308 0.001088 0.000000
0.002460 -0.003382 -0.005177 0.000000
-0.000594 -0.001511 0.000526 0.000000
0.000332 -0.001846 -0.000220 0.000000
0.000536 -0.002306 0.002293 0.000000
-0.000137 -0.001669 0.002803 0.000000
-0.000096 -0.000272 0.000091 0.000000
0.000116 -0.002316 0.002573 0.000000
0.000253 -0.002034 0.002685 0.000000
0.000093 -0.002297 0.001556 0.000000
0.000523 -0.002501 0.001045 0.000000
0.000141 -0.002089 0.000508 0.000000
-0.000068 -0.000251 0.000046 0.000000
-0.000094 -0.000284 0.000040 0.000000
-0.000088 -0.000262 -0.000013 0.000000
-0.000110 -0.000255 0.000011 0.000000
-0.000075 -0.000236 0.000133 0.000000
-0.000092 -0.000277 0.000024 0.000000
-0.000076 -0.000242 -0.000060 0.000000
-0.000100 -0.000243 0.000010 0.000000
0.000280 -0.001986 -0.002540 0.000000
0.000083 -0.001460 -0.000537 0.000000
0.000388 -0.001472 -0.000220 0.000000
-0.000244 -0.000278 -0.001556 0.000000
-0.000061 -0.000319 0.000116 0.000000
-0.000002 -0.000311 -0.000020 0.000000
-0.000204 -0.000625 0.002112 0.000000
0.000204 -0.001724 0.002004 0.000000
0.000032 -0.000499 0.000234 0.000000
0.000028 -0.000393 0.000140 0.000000
-0.000011 -0.000353 0.000143 0.000000
0.000011 -0.000391 0.000140 0.000000
-0.000008 -0.000330 0.000213 0.000000
0.000013 -0.000370 0.000120 0.000000
0.000001 -0.000328 0.000228 0.000000
-0.000003 -0.000355 0.000154 0.000000
0.000016 -0.000393 0.000133 0.000000
-0.000106 -0.000264 0.000223 0.000000
0.000025 -0.000365 0.000109 0.000000
0.000001 -0.000340 0.000175 0.000000
-0.000003 -0.000389 0.000279 0.000000
0.000155 -0.001667 -0.001266 0.000000
0.000034 -0.000415 0.000205 0.000000
0.001158 -0.001851 -0.002694 0.000000
0.000022 -0.000452 0.000278 0.000000
0.000021 -0.000424 0.000180 0.000000
0.000023 -0.000384 0.000155 0.000000
0.000021 -0.000358 0.000169 0.000000
0.000020 -0.000377 0.000133 0.000000
0.000020 -0.000403 0.000189 0.000000
0.000024 -0.000363 0.000139 0.000000
0.000028 -0.000370 0.000117 0.000000
0.000030 -0.000343 0.000149 0.000000
0.000063 -0.000367 0.000034 0.000000
0.000052 -0.000364 0.000002 0.000000
0.000034 -0.000373 0.000116 0.000000
0.000061 -0.000368 0.000068 0.000000
0.000041 -0.000359 0.000128 0.000000
-0.000011 -0.000321 -0.000054 0.000000
0.000022 -0.000358 0.000086 0.000000
-0.000013 -0.000327 0.000104 0.000000
-0.000016 -0.000355 0.000181 0.000000
-0.000095 -0.000270 0.000059 0.000000
0.000034 -0.000440 -0.000224 0.000000
-0.000031 -0.000301 0.000059 0.000000
0.000015 -0.000328 -0.000047 0.000000
0.000613 -0.002725 -0.003081 0.000000
-0.000001 -0.000261 -0.000103 0.000000
0.001235 -0.002228 -0.002185 0.000000
-0.000004 -0.000307 0.000274 0.000000
-0.000064 -0.000229 -0.000034 0.000000
-0.000100 -0.001272 -0.000091 0.000000
0.000886 -0.002840 -0.002526 0.000000
0.000711 -0.002361 -0.001676 0.000000
-0.000110 -0.001427 -0.001130 0.000000
0.000165 -0.001504 -0.000608 0.000000
0.000069 -0.001699 -0.001085 0.000000
0.000801 -0.002518 -0.002227 0.000000
-0.000116 -0.001576 -0.001399 0.000000
-0.000110 -0.001514 -0.001484 0.000000
0.000057 -0.001416 0.000193 0.000000
0.000500 -0.001803 0.000238 0.000000
0.000041 -0.001548 -0.000450 0.000000
0.000071 -0.001607 -0.000891 0.000000
-0.000088 -0.001415 -0.001082 0.000000
0.000860 -0.002437 -0.002499 0.000000
-0.000018 -0.000299 -0.000081 0.000000
0.000808 -0.002155 -0.002326 0.000000
0.000018 -0.000338 -0.000122 0.000000
-0.000009 -0.000248 -0.000192 0.000000
-0.000011 -0.000299 -0.000042 0.000000
-0.000021 -0.000289 -0.000062 0.000000
0.000063 -0.001350 -0.000293 0.000000
0.000521 -0.001500 -0.000004 0.000000
0.000372 -0.001776 0.000256 0.000000
0.000565 -0.001725 -0.001357 0.000000
0.000843 -0.002032 0.000531 0.000000
0.000539 -0.001250 -0.000151 0.000000
0.000019 -0.000321 -0.000080 0.000000
-0.000134 -0.000331 -0.000158 0.000000
0.000747 -0.001577 0.000106 0.000000
0.000556 -0.001334 -0.000506 0.000000
0.000560 -0.001640 -0.000369 0.000000
-0.000212 -0.001280 -0.000858 0.000000
0.000049 -0.000459 0.000746 0.000000
-0.000062 -0.001265 0.000045 0.000000
0.000018 -0.000323 -0.000082 0.000000
-0.000044 -0.000280 -0.000087 0.000000
0.000004 -0.000312 -0.000080 0.000000
0.000027 -0.000319 -0.000096 0.000000
0.000010 -0.000312 -0.000086 0.000000
0.000031 -0.000338 -0.000065 0.000000
0.000015 -0.000320 -0.000085 0.000000
0.000019 -0.000326 -0.000072 0.000000
0.000019 -0.000327 -0.000075 0.000000
0.000029 -0.000335 -0.000046 0.000000
0.000022 -0.000350 -0.000024 0.000000
0.000063 -0.000377 -0.000002 0.000000
0.000045 -0.000359 -0.000037 0.000000
0.000046 -0.000359 -0.000052 0.000000
0.000054 -0.000369 -0.000043 0.000000
0.000036 -0.000358 -0.000068 0.000000
0.000072 -0.000368 0.000037 0.000000
0.000060 -0.000372 -0.000034 0.000000
0.000062 -0.000366 0.000004 0.000000
0.000020 -0.000356 0.000067 0.000000
0.000054 -0.000368 0.000049 0.000000
0.000058 -0.000367 -0.000012 0.000000
0.000069 -0.000375 0.000034 0.000000
0.000073 -0.000372 0.000022 0.000000
0.000044 -0.000365 0.000090 0.000000
0.000065 -0.000371 0.000025 0.000000
0.000063 -0.000340 0.000091 0.000000
0.000076 -0.000368 0.000054 0.000000
0.000014 -0.000336 -0.000054 0.000000
0.000005 -0.000324 -0.000071 0.000000
0.000038 -0.000362 -0.000000 0.000000
0.000054 -0.000370 -0.000019 0.000000
-0.000024 -0.000317 0.000000 0.000000
0.000009 -0.000334 0.000008 0.000000
0.000018 -0.000336 -0.000022 0.000000
0.000037 -0.000358 0.000029 0.000000
0.000039 -0.000366 0.000043 0.000000
0.000055 -0.000372 0.000017 0.000000
0.000038 -0.000368 0.000079 0.000000
0.000049 -0.000367 0.000090 0.000000
0.000059 -0.000359 0.000108 0.000000
0.000061 -0.000367 0.000067 0.000000
0.000064 -0.000344 0.000107 0.000000
0.000048 -0.000334 0.000147 0.000000
0.000046 -0.000325 0.000153 0.000000
0.000059 -0.000305 0.000090 0.000000
0.000054 -0.000345 0.000132 0.000000
0.000043 -0.000293 0.000115 0.000000
0.000043 -0.000254 -0.000002 0.000000
0.000054 -0.000294 0.000071 0.000000
0.000057 -0.000324 0.000111 0.000000
0.000075 -0.000354 0.000076 0.000000
0.000030 -0.000217 0.000052 0.000000
0.000071 -0.000317 0.000091 0.000000
0.000056 -0.000359 0.000108 0.000000
0.000057 -0.000346 0.000115 0.000000
0.000063 -0.000356 0.000059 0.000000
0.000068 -0.000357 0.000085 0.000000
0.000061 -0.000318 0.000082 0.000000
0.000068 -0.000224 -0.000015 0.000000
0.000035 -0.000285 0.000045 0.000000
0.000074 -0.000337 0.000069 0.000000
0.000033 -0.000322 0.000043 0.000000
0.000043 -0.000298 0.000029 0.000000
0.000063 -0.000322 0.000048 0.000000
0.000065 -0.000302 0.000043 0.000000
0.000030 -0.000222 -0.000020 0.000000
0.000007 -0.000251 -0.000015 0.000000
0.001738 -0.002239 0.000056 0.000000
0.000053 -0.000280 0.000020 0.000000
0.000044 -0.000248 0.000080 0.000000
0.000069 -0.000269 0.000021 0.000000
0.000044 -0.000278 0.000062 0.000000
0.000020 -0.000227 0.000009 0.000000
0.000032 -0.000208 -0.000055 0.000000
0.000043 -0.000136 -0.000167 0.000000
0.002363 -0.002695 0.001357 0.000000
0.000361 -0.001307 0.003267 0.000000
0.002459 -0.003835 0.001694 0.000000
-0.001138 -0.000133 0.005564 0.000000
0.001561 -0.001817 0.001119 0.000000
0.000098 -0.000856 0.003013 0.000000
-0.000530 -0.000643 0.004459 0.000000
0.000091 -0.000492 0.000114 0.000000
0.000498 -0.000968 0.002161 0.000000
0.000150 -0.000476 0.000213 0.000000
0.000040 -0.000356 0.000137 0.000000
0.000045 -0.000373 0.000267 0.000000
0.001796 -0.002838 0.003281 0.000000
0.000106 -0.000531 -0.000024 0.000000
-0.000160 0.000231 0.003297 0.000000
0.001675 -0.002584 0.001542 0.000000
-0.000080 -0.001010 0.003286 0.000000
0.000389 -0.001017 0.000381 0.000000
0.000145 -0.000607 0.000148 0.000000
0.000695 -0.001112 -0.000248 0.000000
0.000049 -0.000251 -0.000016 0.000000
0.000742 -0.001250 0.000569 0.000000
0.000129 -0.000194 -0.000711 0.000000
0.002494 -0.002633 0.001446 0.000000
0.000029 -0.000230 -0.000039 0.000000
0.000375 -0.000329 0.001349 0.000000
0.000228 -0.000249 0.000289 0.000000
0.000699 -0.001254 0.000515 0.000000
0.001869 -0.001843 0.000490 0.000000
0.000723 -0.001189 0.000596 0.000000
0.000457 -0.001922 0.001803 0.000000
-0.000302 -0.000684 -0.000080 0.000000
0.000173 -0.000522 -0.000110 0.000000
0.000614 -0.001165 0.000072 0.000000
0.000327 -0.001134 -0.000097 0.000000
0.000692 -0.001409 0.000435 0.000000
0.000097 -0.000486 -0.000231 0.000000
-0.000178 -0.000575 0.000162 0.000000
0.000043 -0.000459 -0.000250 0.000000
-0.000110 -0.000517 -0.000007 0.000000
0.000056 -0.000465 -0.000140 0.000000
0.000132 -0.000496 -0.000189 0.000000
0.000079 -0.000892 0.000317 0.000000
0.000049 -0.000338 0.000138 0.000000
-0.000059 -0.000734 -0.000142 0.000000
0.000649 -0.001105 0.000594 0.000000
0.000318 -0.001089 0.000002 0.000000
0.000372 -0.001419 0.001661 0.000000
0.000453 -0.000983 0.000480 0.000000
0.000446 -0.001015 0.000043 0.000000
0.000056 -0.000318 0.000115 0.000000
0.000060 -0.000330 0.000120 0.000000
0.000060 -0.000285 0.000027 0.000000
0.000051 -0.000310 0.000095 0.000000
0.000040 -0.000345 0.000135 0.000000
0.000025 -0.000353 0.000127 0.000000
0.000051 -0.000332 0.000137 0.000000
0.000042 -0.000339 0.000164 0.000000
0.000028 -0.000337 0.000184 0.000000
0.000044 -0.000348 0.000147 0.000000
0.000013 -0.000343 0.000165 0.000000
0.000036 -0.000339 0.000188 0.000000
0.000025 -0.000305 0.000056 0.000000
0.000043 -0.000329 0.000153 0.000000
0.000028 -0.000262 0.000096 0.000000
0.000043 -0.000304 0.000098 0.000000
0.000426 -0.000429 0.002652 0.000000
0.000041 -0.000286 0.000053 0.000000
0.000024 -0.000362 0.000229 0.000000
0.000043 -0.000330 0.000137 0.000000
0.000039 -0.000376 0.000180 0.000000
-0.000471 -0.000979 0.000019 0.000000
0.000009 -0.000332 0.000199 0.000000
0.000023 -0.000335 0.000182 0.000000
0.000004 -0.000334 0.000206 0.000000
0.000006 -0.000334 0.000242 0.000000
-0.000001 -0.000342 0.000179 0.000000
-0.000000 -0.000334 0.000220 0.000000
0.000006 -0.000343 0.000238 0.000000
0.000016 -0.000348 0.000248 0.000000
0.000033 -0.000401 0.000205 0.000000
0.000012 -0.000343 0.000236 0.000000
0.000031 -0.000356 0.000181 0.000000
0.000091 -0.000565 0.000012 0.000000
0.000872 -0.001688 0.004326 0.000000
0.000028 -0.000385 0.000065 0.000000
0.000875 -0.001857 0.004345 0.000000
0.000043 -0.000345 0.000051 0.000000
-0.000267 -0.000863 0.000356 0.000000
0.000913 -0.001814 0.004425 0.000000
0.000916 -0.001373 0.003460 0.000000
0.000026 -0.000304 0.000050 0.000000
-0.000023 -0.001415 0.000309 0.000000
0.000053 -0.001003 0.000698 0.000000
-0.000370 -0.000669 0.000072 0.000000
-0.000499 -0.000581 -0.000330 0.000000
-0.000350 -0.000498 -0.000093 0.000000
0.000012 -0.000405 -0.000176 0.000000
-0.000472 -0.000781 -0.000142 0.000000
0.000060 -0.000480 -0.000275 0.000000
-0.000590 -0.000505 -0.000152 0.000000
-0.000006 -0.000445 -0.000258 0.000000
-0.000008 -0.000444 -0.000264 0.000000
-0.000000 -0.000416 -0.000201 0.000000
0.000025 -0.000457 -0.000265 0.000000
-0.000003 -0.000413 -0.000233 0.000000
-0.000009 -0.000393 -0.000095 0.000000
-0.000002 -0.000392 -0.000052 0.000000
0.000004 -0.000384 -0.000032 0.000000
0.000009 -0.000392 -0.000018 0.000000
0.000007 -0.000395 -0.000022 0.000000
0.000006 -0.000389 -0.000016 0.000000
0.000016 -0.000394 -0.000066 0.000000
0.000020 -0.000389 -0.000017 0.000000
0.000009 -0.000396 -0.000041 0.000000
0.000005 -0.000387 -0.000017 0.000000
0.000027 -0.000443 -0.000193 0.000000
0.000018 -0.000398 -0.000115 0.000000
0.000042 -0.000443 -0.000069 0.000000
0.000051 -0.000426 -0.000149 0.000000
0.000079 -0.000441 -0.000091 0.000000
0.000094 -0.000501 -0.000148 0.000000
0.000030 -0.000399 -0.000043 0.000000
0.000043 -0.000413 -0.000085 0.000000
0.000096 -0.000462 0.000001 0.000000
0.000124 -0.000476 -0.000088 0.000000
0.000073 -0.000435 -0.000024 0.000000
0.000071 -0.000479 -0.000056 0.000000
0.000038 -0.000408 -0.000002 0.000000
0.000050 -0.000415 -0.000038 0.000000
0.000031 -0.000396 -0.000008 0.000000
0.000029 -0.000414 -0.000038 0.000000
0.000013 -0.000391 -0.000031 0.000000
0.000031 -0.000398 -0.000017 0.000000
0.000016 -0.000401 -0.000031 0.000000
0.000012 -0.000386 -0.000009 0.000000
0.000016 -0.000382 0.000011 0.000000
0.000019 -0.000383 0.000008 0.000000
0.000007 -0.000388 -0.000005 0.000000
0.000014 -0.000384 0.000004 0.000000
0.000007 -0.000383 0.000016 0.000000
0.000009 -0.000384 0.000009 0.000000
0.000012 -0.000380 0.000016 0.000000
0.000009 -0.000383 0.000015 0.000000
0.000008 -0.000380 0.000019 0.000000
0.000011 -0.000380 0.000023 0.000000
0.000018 -0.000374 0.000024 0.000000
0.000013 -0.000375 0.000022 0.000000
0.000009 -0.000377 0.000016 0.000000
0.000008 -0.000378 0.000020 0.000000
0.000001 -0.000395 0.000001 0.000000
0.000008 -0.000384 0.000019 0.000000
0.000002 -0.000389 0.000011 0.000000
0.000002 -0.000382 0.000016 0.000000
-0.000003 -0.000403 -0.000020 0.000000
0.000004 -0.000389 0.000011 0.000000
-0.000008 -0.000387 0.000010 0.000000
-0.000026 -0.000390 -0.000027 0.000000
0.000006 -0.000387 -0.000006 0.000000
0.000006 -0.000387 0.000006 0.000000
0.000002 -0.000393 0.000005 0.000000
0.000005 -0.000389 0.000012 0.000000
0.000005 -0.000397 -0.000007 0.000000
0.000004 -0.000389 0.000001 0.000000
0.000006 -0.000393 0.000004 0.000000
0.000012 -0.000403 -0.000007 0.000000
0.000007 -0.000388 0.000011 0.000000
0.000006 -0.000393 0.000004 0.000000
0.000001 -0.000401 -0.000010 0.000000
-0.000009 -0.000397 -0.000025 0.000000
-0.000002 -0.000394 -0.000003 0.000000
-0.000003 -0.000393 -0.000001 0.000000
-0.000012 -0.000390 -0.000003 0.000000
-0.000013 -0.000389 0.000005 0.000000
-0.000023 -0.000388 -0.000021 0.000000
-0.000050 -0.000381 -0.000014 0.000000
-0.000006 -0.000400 0.000015 0.000000
-0.000011 -0.000389 0.000045 0.000000
-0.000008 -0.000403 0.000032 0.000000
0.004822 -0.004577 0.011017 0.000000
0.000031 -0.000485 -0.000010 0.000000
0.005422 -0.008049 0.008992 0.000000
0.000140 -0.000442 -0.000195 0.000000
0.001362 -0.003262 0.001072 0.000000
0.003355 -0.003953 0.010522 0.000000
0.000119 -0.000696 -0.000018 0.000000
0.003795 -0.004951 0.009441 0.000000
-0.000180 -0.000115 0.000076 0.000000
0.000042 -0.000187 0.000203 0.000000
-0.000125 -0.000178 0.000015 0.000000
-0.000021 -0.000229 0.000037 0.000000
-0.000096 -0.000230 0.000015 0.000000
-0.000057 -0.000274 -0.000074 0.000000
-0.000031 -0.000231 0.000051 0.000000
-0.000057 -0.000274 -0.000074 0.000000
-0.000061 -0.000238 -0.000004 0.000000
-0.000058 -0.000266 -0.000074 0.000000
-0.000041 -0.000309 -0.000093 0.000000
-0.000053 -0.000299 -0.000114 0.000000
-0.000031 -0.000353 -0.000107 0.000000
-0.000054 -0.000236 -0.000007 0.000000
-0.000053 -0.000242 -0.000002 0.000000
-0.000062 -0.000248 -0.000038 0.000000
-0.000057 -0.000215 0.000039 0.000000
-0.000056 -0.000254 -0.000030 0.000000
-0.000065 -0.000228 -0.000026 0.000000
-0.000053 -0.000204 0.000085 0.000000
0.001851 -0.003613 0.006689 0.000000
0.001053 -0.002854 0.001020 0.000000
-0.000045 -0.000233 0.000034 0.000000
-0.000061 -0.000200 0.000020 0.000000
-0.000060 -0.000209 0.000045 0.000000
0.000098 -0.000362 -0.000169 0.000000
-0.000055 -0.000257 -0.000069 0.000000
-0.000028 -0.001563 -0.000061 0.000000
-0.000036 -0.001418 -0.000011 0.000000
0.000092 -0.002638 -0.000409 0.000000
-0.000046 -0.001674 -0.001188 0.000000
0.001113 -0.002408 0.001354 0.000000
0.000502 -0.001341 0.001962 0.000000
0.000948 -0.002470 0.001611 0.000000
0.000126 -0.001438 -0.000085 0.000000
0.000900 -0.002482 0.000823 0.000000
-0.000061 -0.000214 0.000041 0.000000
-0.000004 -0.000342 -0.000055 0.000000
0.000014 -0.000359 -0.000055 0.000000
0.000014 -0.000424 -0.000046 0.000000
0.002621 -0.003406 0.008743 0.000000
-0.000057 -0.000364 -0.000042 0.000000
0.002728 -0.005494 0.008063 0.000000
0.002546 -0.002689 0.004117 0.000000
0.001222 -0.002697 0.002136 0.000000
0.000002 -0.000391 0.000012 0.000000
0.000038 -0.000399 -0.000059 0.000000
0.000008 -0.000376 -0.000019 0.000000
0.000013 -0.000416 0.000005 0.000000
0.000009 -0.000385 0.000018 0.000000
0.000017 -0.000384 -0.000018 0.000000
0.000014 -0.000375 -0.000001 0.000000
0.000012 -0.000392 0.000009 0.000000
0.000010 -0.000353 -0.000022 0.000000
-0.000007 -0.000370 -0.000033 0.000000
0.000019 -0.000350 0.000009 0.000000
0.000010 -0.000370 -0.000017 0.000000
0.000012 -0.000363 -0.000001 0.000000
0.000012 -0.000373 0.000000 0.000000
-0.000009 -0.000335 -0.000037 0.000000
0.000015 -0.000318 0.000044 0.000000
0.000008 -0.000330 -0.000002 0.000000
0.000006 -0.000343 -0.000015 0.000000
-0.000013 -0.000312 -0.000034 0.000000
-0.000004 -0.000325 -0.000023 0.000000
0.001730 -0.002679 0.007043 0.000000
-0.000026 -0.000314 -0.000050 0.000000
0.000786 -0.001819 0.002636 0.000000
-0.000018 -0.000333 -0.000078 0.000000
0.002208 -0.002962 0.007695 0.000000
0.000500 -0.002085 0.002056 0.000000
0.001013 -0.002250 0.001873 0.000000
0.000881 -0.001936 0.001122 0.000000
0.000894 -0.002377 0.001167 0.000000
0.000999 -0.002367 0.001191 0.000000
0.000126 -0.001681 -0.000136 0.000000
0.000970 -0.002221 0.000729 0.000000
-0.000092 -0.001526 -0.000422 0.000000
0.000011 -0.001504 -0.000182 0.000000
0.000014 -0.001411 -0.000102 0.000000
-0.000083 -0.001484 0.000142 0.000000
-0.000106 -0.000731 -0.000502 0.000000
-0.000049 -0.000998 -0.001133 0.000000
0.000307 -0.001883 0.001176 0.000000
0.001271 -0.002312 -0.000124 0.000000
0.000959 -0.002385 0.000628 0.000000
0.001218 -0.002390 0.000726 0.000000
0.000275 -0.001628 0.000046 0.000000
0.001176 -0.002704 0.000265 0.000000
0.000850 -0.002461 -0.000976 0.000000
0.000231 -0.001267 0.001060 0.000000
0.001441 -0.002544 -0.000506 0.000000
0.000530 -0.001631 0.000524 0.000000
0.001407 -0.002660 0.000569 0.000000
0.000526 -0.002014 0.001289 0.000000
-0.000105 -0.000453 0.000355 0.000000
0.000020 -0.000485 0.000297 0.000000
0.000140 -0.001234 0.000087 0.000000
0.000633 -0.001859 0.000360 0.000000
0.001265 -0.003445 0.000250 0.000000
0.000502 -0.002023 0.001156 0.000000
0.001422 -0.002426 0.006984 0.000000
0.000301 -0.001372 0.001188 0.000000
0.000132 -0.001143 0.001631 0.000000
0.000133 -0.001224 0.000250 0.000000
0.000008 -0.000293 -0.000052 0.000000
0.000010 -0.000321 -0.000007 0.000000
-0.000003 -0.000277 -0.000029 0.000000
0.000008 -0.000298 -0.000039 0.000000
0.001511 -0.002791 0.006703 0.000000
-0.000003 -0.000280 -0.000009 0.000000
0.000248 -0.001312 0.001273 0.000000
0.000304 -0.001611 0.001491 0.000000
0.000014 -0.000352 -0.000002 0.000000
0.000014 -0.000345 0.000005 0.000000
0.000016 -0.000327 -0.000005 0.000000
0.000005 -0.000338 -0.000014 0.000000
0.000015 -0.000340 -0.000001 0.000000
0.000014 -0.000333 0.000004 0.000000
0.000011 -0.000328 -0.000013 0.000000
0.000005 -0.000315 -0.000006 0.000000
0.000005 -0.000304 -0.000018 0.000000
0.000011 -0.000314 -0.000030 0.000000
0.000027 -0.000362 0.000025 0.000000
0.000018 -0.000325 0.000020 0.000000
0.000021 -0.000343 0.000022 0.000000
0.000017 -0.000332 0.000012 0.000000
0.000031 -0.000363 0.000027 0.000000
0.000033 -0.000357 0.000032 0.000000
0.000030 -0.000364 0.000031 0.000000
0.000032 -0.000346 0.000039 0.000000
0.000027 -0.000368 0.000024 0.000000
0.000029 -0.000359 0.000030 0.000000
0.000026 -0.000366 0.000030 0.000000
0.000018 -0.000357 0.000015 0.000000
0.000023 -0.000364 0.000023 0.000000
0.000023 -0.000348 0.000018 0.000000
0.000021 -0.000358 0.000018 0.000000
0.000018 -0.000345 0.000014 0.000000
0.000025 -0.000361 0.000028 0.000000
0.000018 -0.000370 0.000023 0.000000
0.000022 -0.000355 0.000023 0.000000
0.000015 -0.000370 0.000011 0.000000
0.000016 -0.000368 0.000014 0.000000
0.000013 -0.000380 0.000023 0.000000
0.000021 -0.000364 0.000023 0.000000
0.000014 -0.000373 0.000020 0.000000
0.000016 -0.000379 0.000021 0.000000
0.000017 -0.000377 0.000025 0.000000
0.000018 -0.000366 0.000019 0.000000
0.000022 -0.000369 0.000028 0.000000
0.000022 -0.000372 0.000021 0.000000
0.000021 -0.000375 0.000018 0.000000
0.000031 -0.000368 0.000028 0.000000
0.000025 -0.000372 0.000025 0.000000
0.000023 -0.000369 0.000024 0.000000
0.000021 -0.000374 0.000025 0.000000
0.000035 -0.000381 0.000016 0.000000
0.000038 -0.000373 0.000022 0.000000
0.000028 -0.000379 0.000015 0.000000
0.000044 -0.000368 0.000032 0.000000
0.000023 -0.000378 0.000013 0.000000
0.000027 -0.000372 0.000020 0.000000
0.000017 -0.000378 0.000015 0.000000
0.000027 -0.000376 0.000019 0.000000
0.000068 -0.000462 0.000001 0.000000
0.000163 -0.000657 -0.000015 0.000000
0.000096 -0.000508 0.000036 0.000000
0.000068 -0.000425 0.000020 0.000000
0.000093 -0.000495 0.000292 0.000000
0.000066 -0.000430 0.000081 0.000000
0.000056 -0.000394 0.000116 0.000000
0.000068 -0.000410 0.000060 0.000000
0.000053 -0.000414 0.000035 0.000000
0.000051 -0.000399 0.000025 0.000000
0.000067 -0.000390 0.000101 0.000000
0.000069 -0.000425 0.000170 0.000000
0.000041 -0.000378 0.000022 0.000000
0.000051 -0.000364 0.000059 0.000000
0.000035 -0.000374 0.000019 0.000000
0.000041 -0.000374 0.000024 0.000000
0.000032 -0.000371 0.000021 0.000000
0.000032 -0.000367 0.000024 0.000000
0.000042 -0.000377 0.000024 0.000000
0.000039 -0.000367 0.000028 0.000000
0.000035 -0.000359 0.000031 0.000000
0.000040 -0.000361 0.000032 0.000000
0.000055 -0.000399 0.000060 0.000000
0.000050 -0.000370 0.000082 0.000000
0.000055 -0.000388 0.000050 0.000000
0.000045 -0.000368 0.000030 0.000000
0.000044 -0.000373 0.000031 0.000000
0.000046 -0.000337 0.000059 0.000000
0.000057 -0.000374 0.000076 0.000000
0.000050 -0.000375 0.000046 0.000000
0.000050 -0.000379 0.000050 0.000000
0.000047 -0.000378 0.000033 0.000000
0.000048 -0.000366 0.000041 0.000000
0.000045 -0.000362 0.000034 0.000000
0.000042 -0.000369 0.000026 0.000000
0.000037 -0.000367 0.000025 0.000000
0.000046 -0.000354 0.000054 0.000000
0.000048 -0.000360 0.000040 0.000000
0.000047 -0.000354 0.000043 0.000000
0.000049 -0.000350 0.000050 0.000000
0.000044 -0.000335 0.000094 0.000000
0.000007 -0.000305 0.000283 0.000000
0.000048 -0.000360 0.000060 0.000000
0.000048 -0.000367 0.000041 0.000000
0.000050 -0.000348 0.000072 0.000000
0.000019 -0.000278 0.000170 0.000000
0.000042 -0.000325 0.000072 0.000000
0.000043 -0.000347 0.000077 0.000000
0.000035 -0.000327 0.000084 0.000000
0.000042 -0.000339 0.000063 0.000000
0.000041 -0.000322 0.000068 0.000000
0.000048 -0.000342 0.000063 0.000000
0.000043 -0.000345 0.000048 0.000000
0.000039 -0.000334 0.000054 0.000000
0.000044 -0.000345 0.000048 0.000000
0.000042 -0.000341 0.000050 0.000000
0.000046 -0.000350 0.000045 0.000000
0.000044 -0.000356 0.000039 0.000000
0.000040 -0.000345 0.000048 0.000000
0.000042 -0.000345 0.000048 0.000000
0.000035 -0.000339 0.000052 0.000000
0.000042 -0.000342 0.000050 0.000000
0.000038 -0.000353 0.000040 0.000000
0.000043 -0.000350 0.000042 0.000000
0.000035 -0.000353 0.000037 0.000000
0.000039 -0.000335 0.000057 0.000000
0.000040 -0.000349 0.000045 0.000000
0.000030 -0.000337 0.000049 0.000000
0.000036 -0.000337 0.000050 0.000000
0.000029 -0.000322 0.000068 0.000000
0.000025 -0.000328 0.000039 0.000000
0.000011 -0.000313 0.000028 0.000000
0.000018 -0.000312 0.000067 0.000000
0.000024 -0.000335 0.000027 0.000000
0.000024 -0.000318 0.000049 0.000000
0.000030 -0.000334 0.000046 0.000000
0.000005 -0.000294 0.000034 0.000000
0.000020 -0.000329 0.000034 0.000000
0.000025 -0.000340 0.000036 0.000000
0.000022 -0.000337 0.000017 0.000000
0.000018 -0.000330 0.000021 0.000000
0.000017 -0.000314 0.000039 0.000000
0.000031 -0.000344 0.000039 0.000000
0.000035 -0.000346 0.000044 0.000000
0.000035 -0.000345 0.000044 0.000000
0.000028 -0.000343 0.000032 0.000000
0.000034 -0.000359 0.000032 0.000000
0.000029 -0.000353 0.000029 0.000000
0.000035 -0.000351 0.000037 0.000000
0.000032 -0.000352 0.000033 0.000000
0.000032 -0.000357 0.000033 0.000000
0.000026 -0.000347 0.000025 0.000000
0.000028 -0.000350 0.000033 0.000000
0.000024 -0.000342 0.000029 0.000000
0.000018 -0.000326 0.000006 0.000000
0.000021 -0.000328 0.000032 0.000000
0.000013 -0.000312 -0.000010 0.000000
0.000012 -0.000313 0.000025 0.000000
0.000011 -0.000320 -0.000001 0.000000
0.000001 -0.000291 -0.000010 0.000000
0.000011 -0.000309 0.000007 0.000000
-0.000001 -0.000291 0.000015 0.000000
0.000008 -0.000296 -0.000032 0.000000
-0.000045 -0.000226 -0.000043 0.000000
-0.000013 -0.000277 -0.000008 0.000000
0.000002 -0.000301 -0.000010 0.000000
-0.000010 -0.000283 -0.000036 0.000000
0.000002 -0.000280 -0.000049 0.000000
-0.000020 -0.000274 -0.000065 0.000000
-0.000014 -0.000250 -0.000030 0.000000
-0.000014 -0.000277 -0.000024 0.000000
0.001545 -0.002813 0.006665 0.000000
-0.000039 -0.000094 0.000447 0.000000
0.000476 -0.001638 0.000863 0.000000
-0.000062 -0.000171 0.000183 0.000000
0.000531 -0.001347 0.000598 0.000000
-0.000035 -0.000186 0.000216 0.000000
-0.000042 -0.000182 0.000221 0.000000
0.000113 -0.002345 0.000531 0.000000
-0.000033 -0.000237 0.000139 0.000000
-0.000060 -0.000154 0.000220 0.000000
0.000015 -0.000265 0.000083 0.000000
-0.000049 -0.000199 0.000177 0.000000
-0.000037 -0.000219 0.000185 0.000000
0.001851 -0.003086 0.005894 0.000000
0.001121 -0.002424 0.004190 0.000000
0.000447 -0.000863 0.000885 0.000000
0.001134 -0.002658 0.004116 0.000000
-0.000047 -0.000164 0.000202 0.000000
-0.000047 -0.000172 0.000221 0.000000
-0.000040 -0.000235 -0.000078 0.000000
-0.000038 -0.000175 0.000209 0.000000
0.001180 -0.002615 0.003767 0.000000
-0.000048 -0.000129 0.000262 0.000000
-0.000029 -0.000228 0.000190 0.000000
-0.000016 -0.001197 0.000465 0.000000
0.000103 -0.000257 0.000214 0.000000
-0.000026 -0.000214 0.000160 0.000000
-0.000037 -0.000174 0.000210 0.000000
0.000195 -0.001639 0.003703 0.000000
-0.000026 -0.000168 0.000156 0.000000
0.000913 -0.001724 0.000890 0.000000
-0.000065 -0.000193 -0.000058 0.000000
0.001304 -0.002307 0.004196 0.000000
0.000465 -0.002006 0.004034 0.000000
0.000528 -0.001591 0.003448 0.000000
-0.000041 -0.000231 0.000027 0.000000
0.000002 -0.000299 0.000042 0.000000
-0.000068 -0.000213 -0.000050 0.000000
-0.000050 -0.000220 0.000003 0.000000
-0.000024 -0.000253 -0.000050 0.000000
-0.000047 -0.000234 -0.000020 0.000000
0.001835 -0.002058 0.005446 0.000000
0.000685 -0.001640 0.004719 0.000000
-0.000015 -0.000267 -0.000000 0.000000
0.000001 -0.000296 0.000011 0.000000
-0.000012 -0.000271 -0.000029 0.000000
-0.000030 -0.000246 -0.000019 0.000000
0.000000 -0.000278 0.000050 0.000000
0.000009 -0.000289 0.000066 0.000000
-0.000012 -0.000276 0.000020 0.000000
-0.000001 -0.000289 0.000059 0.000000
-0.000031 -0.000246 0.000017 0.000000
-0.000025 -0.000256 0.000045 0.000000
-0.000013 -0.000266 0.000032 0.000000
-0.000011 -0.000252 0.000085 0.000000
-0.000011 -0.000256 0.000052 0.000000
-0.000042 -0.000222 0.000042 0.000000
-0.000011 -0.000263 0.000091 0.000000
-0.000003 -0.000277 0.000102 0.000000
-0.000006 -0.000276 0.000077 0.000000
-0.000018 -0.000249 0.000068 0.000000
-0.000026 -0.000228 0.000076 0.000000
-0.000025 -0.000239 0.000053 0.000000
-0.000036 -0.000218 0.000045 0.000000
-0.000062 -0.000203 0.000039 0.000000
-0.000010 -0.000278 0.000045 0.000000
-0.000023 -0.000251 0.000038 0.000000
-0.000040 -0.000213 0.000056 0.000000
-0.000035 -0.000210 0.000053 0.000000
-0.000069 -0.000218 -0.000033 0.000000
-0.000075 -0.000205 -0.000007 0.000000
0.000137 -0.001427 0.003974 0.000000
-0.000089 -0.000205 -0.000003 0.000000
0.000176 -0.001712 0.003689 0.000000
0.000644 -0.002337 0.002918 0.000000
-0.000241 -0.001902 0.001824 0.000000
0.000458 -0.001092 0.001515 0.000000
0.003884 -0.005033 0.003695 0.000000
0.002574 -0.003010 0.002989 0.000000
0.003942 -0.004567 0.002080 0.000000
0.002803 -0.004114 0.003071 0.000000
-0.000076 -0.000202 -0.000005 0.000000
-0.000046 -0.000213 0.000051 0.000000
0.000006 -0.000252 0.000051 0.000000
-0.000050 -0.000202 0.000046 0.000000
0.000173 -0.001395 0.003816 0.000000
-0.000085 -0.000203 0.000020 0.000000
0.003293 -0.004871 0.006319 0.000000
0.000011 -0.000294 0.000064 0.000000
0.003736 -0.005238 0.006306 0.000000
0.003863 -0.003913 0.003252 0.000000
0.002712 -0.004183 0.004509 0.000000
0.002550 -0.003022 0.002843 0.000000
0.003360 -0.004453 0.004120 0.000000
-0.000046 -0.000117 -0.000040 0.000000
0.001824 -0.003878 0.004830 0.000000
0.000006 -0.000138 -0.000071 0.000000
0.001042 -0.002802 0.002137 0.000000
0.001703 -0.003017 0.001234 0.000000
0.003769 -0.004577 0.004287 0.000000
0.003741 -0.004913 0.002711 0.000000
0.001909 -0.002463 0.003272 0.000000
0.004001 -0.004866 0.001410 0.000000
0.003189 -0.004226 0.001348 0.000000
-0.000031 -0.000201 0.000012 0.000000
0.000052 -0.000241 -0.000058 0.000000
0.003295 -0.004430 0.003271 0.000000
-0.000025 -0.000235 0.000076 0.000000
-0.000032 -0.000218 0.000060 0.000000
-0.000022 -0.000217 0.000010 0.000000
-0.000012 -0.000210 0.000031 0.000000
-0.000027 -0.000228 0.000059 0.000000
-0.000020 -0.000235 0.000097 0.000000
-0.000035 -0.000209 0.000054 0.000000
-0.000035 -0.000209 0.000077 0.000000
-0.000034 -0.000214 0.000104 0.000000
0.000002 -0.000277 0.000098 0.000000
-0.000033 -0.000232 0.000109 0.000000
-0.000014 -0.000250 0.000106 0.000000
0.002506 -0.003819 0.002425 0.000000
-0.000033 -0.000210 0.000051 0.000000
0.000012 -0.000301 0.000081 0.000000
0.000003 -0.000297 0.000079 0.000000
0.000022 -0.000311 0.000075 0.000000
0.000013 -0.000302 0.000091 0.000000
0.000017 -0.000305 0.000059 0.000000
0.000015 -0.000307 0.000075 0.000000
0.000028 -0.000321 0.000072 0.000000
0.000021 -0.000312 0.000079 0.000000
0.000031 -0.000324 0.000065 0.000000
0.000018 -0.000311 0.000067 0.000000
0.000034 -0.000330 0.000056 0.000000
0.000014 -0.000298 0.000087 0.000000
0.000022 -0.000312 0.000078 0.000000
0.000003 -0.000276 0.000082 0.000000
0.000022 -0.000308 0.000073 0.000000
-0.000003 -0.000264 0.000096 0.000000
0.000029 -0.000321 0.000062 0.000000
0.000013 -0.000305 0.000083 0.000000
0.000011 -0.000288 0.000086 0.000000
0.000007 -0.000296 0.000073 0.000000
0.000029 -0.000325 0.000054 0.000000
0.000020 -0.000308 0.000061 0.000000
0.000022 -0.000314 0.000072 0.000000
0.000014 -0.000296 0.000075 0.000000
0.000038 -0.000339 0.000053 0.000000
0.000036 -0.000333 0.000059 0.000000
0.000039 -0.000339 0.000052 0.000000
0.000029 -0.000324 0.000067 0.000000
0.000033 -0.000328 0.000064 0.000000
0.000026 -0.000318 0.000065 0.000000
0.000034 -0.000331 0.000062 0.000000
0.000029 -0.000322 0.000068 0.000000
0.000033 -0.000330 0.000060 0.000000
0.000028 -0.000330 0.000059 0.000000
0.000024 -0.000307 0.000062 0.000000
0.000032 -0.000324 0.000059 0.000000
0.000032 -0.000318 0.000064 0.000000
0.000033 -0.000325 0.000057 0.000000
0.000043 -0.000336 0.000056 0.000000
0.000034 -0.000329 0.000060 0.000000
0.000038 -0.000336 0.000054 0.000000
0.000040 -0.000337 0.000055 0.000000
0.000040 -0.000333 0.000057 0.000000
0.000031 -0.000315 0.000063 0.000000
0.000037 -0.000327 0.000056 0.000000
0.000044 -0.000332 0.000060 0.000000
-0.000002 -0.000248 0.000088 0.000000
0.000011 -0.000294 0.000060 0.000000
0.000022 -0.000280 0.000092 0.000000
0.000036 -0.000306 0.000083 0.000000
0.000016 -0.000291 0.000067 0.000000
0.000031 -0.000312 0.000067 0.000000
0.000016 -0.000281 0.000074 0.000000
0.002073 -0.003676 0.002904 0.000000
-0.000007 -0.000262 0.000059 0.000000
0.000004 -0.000287 0.000065 0.000000
0.000013 -0.000289 0.000056 0.000000
0.000027 -0.000303 0.000069 0.000000
0.000018 -0.000296 0.000067 0.000000
0.000018 -0.000304 0.000062 0.000000
0.000004 -0.000291 0.000058 0.000000
-0.000002 -0.000290 0.000066 0.000000
0.000026 -0.000317 0.000059 0.000000
0.000023 -0.000313 0.000061 0.000000
-0.000007 -0.000259 0.000049 0.000000
0.000013 -0.000290 0.000061 0.000000
0.000004 -0.000279 0.000066 0.000000
0.000003 -0.000268 0.000037 0.000000
0.000012 -0.000297 0.000062 0.000000
0.000019 -0.000307 0.000064 0.000000
-0.000026 -0.000229 0.000018 0.000000
0.005043 -0.006432 0.003659 0.000000
0.005628 -0.006889 0.006880 0.000000
0.005491 -0.006672 0.006373 0.000000
0.005504 -0.006695 0.006717 0.000000
0.002175 -0.003262 0.003784 0.000000
0.005385 -0.006890 0.006259 0.000000
-0.000042 -0.000210 0.000045 0.000000
0.001000 -0.002225 0.000210 0.000000
0.000735 -0.002390 -0.000238 0.000000
0.001254 -0.002416 0.001192 0.000000
0.002067 -0.003217 0.002908 0.000000
0.001254 -0.002789 0.001215 0.000000
-0.000092 -0.000172 0.000046 0.000000
0.000957 -0.002816 0.000113 0.000000
0.000110 -0.001336 -0.000513 0.000000
0.000002 -0.001028 -0.001549 0.000000
-0.000379 -0.000841 -0.000536 0.000000
-0.000025 -0.001259 -0.001788 0.000000
-0.000014 -0.000207 -0.000026 0.000000
-0.000050 -0.000179 -0.000159 0.000000
0.000064 -0.000816 -0.002328 0.000000
-0.000027 -0.000512 0.000190 0.000000
-0.000134 -0.001138 -0.001315 0.000000
0.000237 -0.000436 -0.000263 0.000000
0.000408 -0.001322 -0.002248 0.000000
0.000132 -0.001379 -0.001676 0.000000
0.000730 -0.001141 0.000290 0.000000
0.000139 -0.001191 -0.001956 0.000000
0.000064 -0.001071 -0.002507 0.000000
0.000076 -0.001053 -0.002114 0.000000
0.000023 -0.001315 -0.000694 0.000000
0.000734 -0.001963 -0.000225 0.000000
0.000685 -0.001827 -0.000763 0.000000
0.000285 -0.001543 -0.003125 0.000000
0.000235 -0.001372 -0.003668 0.000000
-0.000235 -0.000894 -0.000873 0.000000
0.000224 -0.001303 -0.003639 0.000000
-0.000039 -0.001603 -0.000921 0.000000
0.000305 -0.003569 -0.001169 0.000000
0.000257 -0.001445 -0.003555 0.000000
0.000183 -0.001401 -0.003090 0.000000
0.000536 -0.002294 -0.000857 0.000000
0.000148 -0.001456 -0.002044 0.000000
-0.000024 -0.001323 -0.002450 0.000000
0.002264 -0.003400 -0.000820 0.000000
0.000282 -0.002228 0.002070 0.000000
0.000082 -0.001418 -0.003261 0.000000
0.000586 -0.001743 -0.001929 0.000000
-0.000004 -0.001347 -0.001457 0.000000
0.001595 -0.002634 0.002040 0.000000
-0.000032 -0.001095 -0.000149 0.000000
0.004447 -0.006197 0.005772 0.000000
0.001936 -0.003096 0.002362 0.000000
-0.000035 -0.001526 -0.000034 0.000000
-0.000117 -0.001126 -0.000749 0.000000
0.000035 -0.001774 0.000834 0.000000
-0.000164 -0.001249 -0.000594 0.000000
0.005064 -0.006592 0.005908 0.000000
0.000009 -0.000250 0.000116 0.000000
-0.000040 -0.000224 0.000077 0.000000
-0.000016 -0.000199 0.000143 0.000000
-0.000018 -0.000216 0.000114 0.000000
0.005397 -0.006422 0.006428 0.000000
-0.000016 -0.000161 0.000228 0.000000
0.000022 -0.000296 0.000077 0.000000
-0.000002 -0.000264 0.000083 0.000000
0.000011 -0.000244 0.000140 0.000000
0.000009 -0.000266 0.000109 0.000000
0.000027 -0.000282 0.000106 0.000000
-0.000005 -0.000230 0.000178 0.000000
0.000026 -0.000300 0.000086 0.000000
0.000299 -0.000883 0.001700 0.000000
-0.000038 -0.000971 0.000391 0.000000
0.005090 -0.006105 0.006272 0.000000
0.004513 -0.005802 0.006446 0.000000
0.000422 -0.001505 0.001108 0.000000
-0.000047 -0.001232 -0.000646 0.000000
0.001275 -0.003073 0.000292 0.000000
0.001294 -0.002682 -0.001236 0.000000
-0.000012 -0.000361 0.000397 0.000000
-0.001304 0.001031 0.005601 0.000000
0.000036 -0.000309 0.000116 0.000000
0.000021 -0.000278 0.000123 0.000000
0.000037 -0.000339 0.000109 0.000000
-0.000004 -0.000279 0.000186 0.000000
0.000041 -0.000318 0.000145 0.000000
0.000021 -0.000309 0.000123 0.000000
0.000033 -0.000313 0.000251 0.000000
-0.001447 0.000440 0.006452 0.000000
0.000045 -0.000345 0.000185 0.000000
0.000065 -0.000380 0.000178 0.000000
0.000951 -0.001694 0.001478 0.000000
0.000177 -0.001143 0.003167 0.000000
0.000300 -0.000812 0.002732 0.000000
0.000027 -0.000314 0.000239 0.000000
0.000313 -0.000808 0.003284 0.000000
0.002154 -0.002699 0.002059 0.000000
0.000031 -0.000315 0.000191 0.000000
-0.001469 0.001258 0.006530 0.000000
0.000020 -0.000325 0.000169 0.000000
-0.000002 -0.000248 0.000267 0.000000
0.002287 -0.003200 -0.001581 0.000000
0.000102 -0.001177 -0.000947 0.000000
0.001936 -0.002957 -0.000756 0.000000
0.001151 -0.002133 0.001697 0.000000
0.000011 -0.000232 0.000031 0.000000
0.001796 -0.003169 0.000357 0.000000
0.003654 -0.004520 -0.000336 0.000000
0.003346 -0.004667 0.000502 0.000000
0.000056 -0.000341 0.000027 0.000000
0.000061 -0.000344 0.000046 0.000000
0.000024 -0.000246 -0.000004 0.000000
-0.000028 -0.000256 0.000019 0.000000
-0.000027 -0.000271 0.000083 0.000000
0.002155 -0.003952 -0.000327 0.000000
-0.000004 -0.000249 0.000014 0.000000
0.001613 -0.003025 -0.002475 0.000000
0.001283 -0.002772 -0.002067 0.000000
0.002583 -0.004548 -0.000469 0.000000
0.000103 -0.003387 0.000291 0.000000
-0.000056 -0.000352 0.000190 0.000000
0.001575 -0.002710 -0.002483 0.000000
0.001322 -0.002338 -0.002337 0.000000
0.000770 -0.001947 -0.002687 0.000000
0.000454 -0.001456 -0.002855 0.000000
0.001129 -0.002449 -0.002212 0.000000
0.001878 -0.002858 -0.000670 0.000000
0.000945 -0.002125 -0.001712 0.000000
0.000797 -0.001886 -0.000615 0.000000
0.000095 -0.001134 -0.001928 0.000000
0.000547 -0.001744 -0.001819 0.000000
0.001905 -0.003984 0.001112 0.000000
0.001886 -0.003605 0.000056 0.000000
0.000168 -0.001598 -0.002137 0.000000
0.000891 -0.002428 -0.001570 0.000000
0.000326 -0.001553 -0.002757 0.000000
0.000521 -0.001934 -0.002886 0.000000
0.000822 -0.003221 -0.000817 0.000000
0.000004 -0.000329 -0.000093 0.000000
0.000039 -0.002864 -0.000667 0.000000
0.000035 -0.000370 -0.000027 0.000000
0.000343 -0.001697 0.001430 0.000000
0.001356 -0.002626 -0.000689 0.000000
0.000510 -0.002211 -0.002286 0.000000
0.000003 -0.000315 -0.000088 0.000000
-0.000052 -0.000274 -0.000065 0.000000
0.000286 -0.001929 0.000658 0.000000
0.000041 -0.000329 -0.000253 0.000000
0.000009 -0.000371 0.000060 0.000000
0.000122 -0.003577 0.001417 0.000000
0.000100 -0.000393 -0.000084 0.000000
0.001835 -0.003586 -0.000019 0.000000
0.001921 -0.003058 -0.000520 0.000000
0.000029 -0.000349 -0.000128 0.000000
0.000036 -0.000372 -0.000028 0.000000
-0.000016 -0.000323 0.000069 0.000000
0.000115 -0.000384 0.000154 0.000000
0.000052 -0.000367 -0.000035 0.000000
0.000051 -0.000358 -0.000009 0.000000
0.000050 -0.000376 0.000001 0.000000
0.000060 -0.000366 0.000031 0.000000
0.000028 -0.000346 -0.000082 0.000000
0.000021 -0.000330 -0.000088 0.000000
0.000037 -0.000355 -0.000071 0.000000
-0.000026 -0.000288 -0.000154 0.000000
-0.000027 -0.000316 -0.000109 0.000000
-0.000077 -0.000279 -0.000167 0.000000
0.000014 -0.000329 -0.000101 0.000000
0.000029 -0.000398 -0.000129 0.000000
0.000038 -0.000357 -0.000073 0.000000
0.000037 -0.000386 -0.000067 0.000000
0.000008 -0.000287 -0.000062 0.000000
-0.000100 -0.000619 -0.000422 0.000000
-0.000014 -0.000277 -0.000053 0.000000
0.000010 -0.000311 -0.000086 0.000000
0.000031 -0.000372 -0.000012 0.000000
0.000014 -0.000309 -0.000077 0.000000
0.000019 -0.000323 -0.000080 0.000000
0.000009 -0.000312 -0.000085 0.000000
0.000699 -0.001531 0.000107 0.000000
0.000104 -0.001361 0.000931 0.000000
0.000027 -0.000349 -0.000083 0.000000
0.000034 -0.000315 -0.000050 0.000000
0.000749 -0.001581 -0.000035 0.000000
-0.000053 -0.000131 0.000068 0.000000
0.000550 -0.001336 0.000149 0.000000
0.000665 -0.002128 0.000854 0.000000
0.000543 -0.001570 -0.000500 0.000000
-0.000055 -0.000153 0.000076 0.000000
0.000090 -0.001012 0.001353 0.000000
-0.000015 -0.000991 0.000444 0.000000
0.000742 -0.002152 0.000672 0.000000
-0.000033 -0.000263 -0.000058 0.000000
0.000365 -0.001939 0.000687 0.000000
0.000019 -0.000257 0.000009 0.000000
-0.000026 -0.000120 0.000208 0.000000
0.000030 -0.001408 0.001611 0.000000
0.000879 -0.002292 0.000912 0.000000
0.000630 -0.002014 0.001204 0.000000
-0.000045 -0.000153 0.000064 0.000000
-0.000055 -0.000160 0.000021 0.000000
-0.000005 -0.001001 0.000451 0.000000
0.000309 -0.001531 0.001122 0.000000
0.000043 -0.001573 0.000869 0.000000
0.000169 -0.001747 0.000715 0.000000
-0.000419 -0.000207 0.000254 0.000000
-0.000052 -0.000131 0.000057 0.000000
-0.000048 -0.000158 0.000148 0.000000
-0.000050 -0.000177 0.000215 0.000000
-0.000058 -0.000147 0.000035 0.000000
-0.000056 -0.000154 0.000054 0.000000
-0.000053 -0.000168 0.000040 0.000000
-0.000041 -0.000183 0.000130 0.000000
-0.000046 -0.000164 0.000133 0.000000
0.000330 -0.001592 0.001428 0.000000
-0.000054 -0.000164 0.000239 0.000000
0.000030 -0.000430 0.000330 0.000000
-0.000038 -0.000169 0.000235 0.000000
-0.000037 -0.000167 0.000185 0.000000
-0.000069 -0.000166 0.000191 0.000000
0.000286 -0.001522 0.000673 0.000000
-0.000071 -0.001643 0.001124 0.000000
-0.000068 -0.001539 -0.001034 0.000000
-0.000337 -0.001128 0.000893 0.000000
-0.000285 -0.001879 -0.000340 0.000000
0.000765 -0.003200 0.000252 0.000000
0.001004 -0.003138 -0.000708 0.000000
0.000046 -0.000403 -0.000125 0.000000
0.001107 -0.003428 0.000593 0.000000
0.000058 -0.000522 0.000261 0.000000
0.001116 -0.003282 -0.000204 0.000000
0.001306 -0.001840 0.000601 0.000000
-0.000007 -0.000308 -0.000151 0.000000
-0.000052 -0.000153 0.000281 0.000000
-0.000007 -0.001582 0.001216 0.000000
-0.000060 -0.000138 0.000263 0.000000
-0.000007 -0.001086 0.001272 0.000000
0.000112 -0.000434 0.000050 0.000000
0.000837 -0.001916 -0.001495 0.000000
0.001200 -0.001511 0.001438 0.000000
-0.000052 -0.000154 0.000281 0.000000
0.000043 -0.000404 0.000016 0.000000
0.000036 -0.000389 0.000088 0.000000
0.000037 -0.000311 -0.000145 0.000000
0.000049 -0.000348 -0.000019 0.000000
-0.000001 -0.000455 -0.000425 0.000000
-0.000005 -0.000287 -0.000183 0.000000
0.000066 -0.000357 0.000160 0.000000
0.000027 -0.000272 0.000020 0.000000
-0.000004 -0.000271 -0.000111 0.000000
0.000024 -0.000292 -0.000047 0.000000
0.000332 -0.000387 0.000246 0.000000
0.000893 -0.001773 0.000679 0.000000
0.000032 -0.000251 0.000289 0.000000
0.000939 -0.000986 0.000272 0.000000
0.000036 -0.000300 0.000073 0.000000
0.000000 -0.000262 0.000178 0.000000
0.000498 -0.002002 0.000746 0.000000
-0.000018 -0.000223 0.000137 0.000000
0.001260 -0.002137 0.001208 0.000000
0.000176 -0.001506 0.001534 0.000000
-0.000050 -0.000205 0.000017 0.000000
-0.000034 -0.000199 0.000232 0.000000
0.001098 -0.002204 0.002029 0.000000
-0.000060 -0.000242 0.000310 0.000000
-0.000346 -0.000580 0.000470 0.000000
-0.000062 -0.000150 0.000023 0.000000
-0.000056 -0.000164 0.000045 0.000000
-0.000035 -0.000203 0.000123 0.000000
-0.000411 -0.000614 0.000410 0.000000
-0.000066 -0.000162 0.000009 0.000000
-0.000158 -0.000827 0.000536 0.000000
0.000838 -0.002475 0.001137 0.000000
-0.000055 -0.001007 0.000453 0.000000
-0.000256 -0.001014 0.000260 0.000000
-0.000494 -0.000358 -0.000111 0.000000
-0.000055 -0.000885 0.000387 0.000000
-0.000448 -0.000494 0.000397 0.000000
0.000112 -0.000560 -0.000323 0.000000
-0.000005 -0.000216 -0.000047 0.000000
0.000002 -0.000174 0.000018 0.000000
-0.000505 -0.000281 -0.000375 0.000000
-0.000546 -0.000186 -0.000303 0.000000
-0.000010 -0.000243 -0.000061 0.000000
0.000023 -0.000257 0.000060 0.000000
-0.000020 -0.000238 -0.000155 0.000000
-0.000040 -0.000179 -0.000134 0.000000
-0.000412 -0.000302 -0.000216 0.000000
-0.000533 -0.000196 -0.000318 0.000000
-0.000446 -0.000333 -0.000254 0.000000
-0.000426 -0.000540 0.000267 0.000000
-0.000503 -0.000303 -0.000355 0.000000
-0.000419 -0.000475 0.000219 0.000000
-0.000416 -0.000412 -0.000040 0.000000
-0.000402 -0.000318 -0.000045 0.000000
-0.000440 -0.000339 -0.000282 0.000000
-0.000077 -0.000139 -0.000057 0.000000
-0.000406 -0.000361 -0.000165 0.000000
-0.000338 -0.000505 -0.000399 0.000000
-0.000350 -0.000414 -0.000228 0.000000
-0.000390 -0.000390 -0.000210 0.000000
-0.000382 -0.000387 -0.000249 0.000000
-0.000446 -0.000387 -0.000272 0.000000
-0.000008 -0.000248 -0.000063 0.000000
-0.000404 -0.000366 -0.000188 0.000000
0.000009 -0.000277 -0.000135 0.000000
0.000017 -0.000337 -0.000136 0.000000
-0.000427 -0.000318 -0.000219 0.000000
-0.000470 -0.000247 -0.000266 0.000000
0.000008 -0.000269 0.000036 0.000000
0.000007 -0.000274 0.000026 0.000000
-0.000004 -0.000266 -0.000015 0.000000
-0.000002 -0.000275 0.000017 0.000000
-0.000005 -0.000306 -0.000012 0.000000
0.000022 -0.000270 0.000052 0.000000
0.000002 -0.000280 0.000025 0.000000
0.000011 -0.000274 0.000035 0.000000
-0.000004 -0.000290 0.000004 0.000000
0.000025 -0.000234 0.000062 0.000000
0.000003 -0.000279 0.000029 0.000000
0.000004 -0.000278 0.000037 0.000000
0.000014 -0.000273 0.000028 0.000000
0.000008 -0.000274 0.000040 0.000000
0.000004 -0.000275 0.000035 0.000000
0.000033 -0.000260 0.000038 0.000000
0.000022 -0.000275 0.000034 0.000000
0.000009 -0.000270 0.000049 0.000000
0.000016 -0.000273 0.000044 0.000000
0.000001 -0.000265 0.000036 0.000000
0.000009 -0.000273 0.000041 0.000000
-0.000000 -0.000257 0.000002 0.000000
0.000002 -0.000243 0.000013 0.000000
0.000012 -0.000243 0.000053 0.000000
-0.000003 -0.000227 0.000002 0.000000
0.000035 -0.000213 0.000041 0.000000
-0.000019 -0.000236 -0.000057 0.000000
0.000013 -0.000224 0.000044 0.000000
0.000029 -0.000270 0.000020 0.000000
0.000019 -0.000270 0.000053 0.000000
0.000030 -0.000274 0.000043 0.000000
0.000012 -0.000261 0.000057 0.000000
0.000007 -0.000261 0.000034 0.000000
0.000022 -0.000258 0.000045 0.000000
0.000002 -0.000250 0.000011 0.000000
0.000016 -0.000270 0.000010 0.000000
0.000010 -0.000264 0.000015 0.000000
0.000021 -0.000272 0.000034 0.000000
0.000005 -0.000252 0.000006 0.000000
0.000005 -0.000262 0.000022 0.000000
0.000018 -0.000264 0.000017 0.000000
0.000006 -0.000261 0.000020 0.000000
-0.000010 -0.000236 0.000022 0.000000
-0.000006 -0.000242 0.000014 0.000000
-0.000006 -0.000236 0.000014 0.000000
0.000001 -0.000250 0.000019 0.000000
-0.000023 -0.000207 0.000021 0.000000
-0.000016 -0.000227 0.000011 0.000000
-0.000012 -0.000224 0.000020 0.000000
-0.000004 -0.000239 0.000021 0.000000
-0.000027 -0.000197 0.000035 0.000000
-0.000039 -0.000183 0.000039 0.000000
-0.000038 -0.000190 0.000030 0.000000
-0.000018 -0.000212 0.000029 0.000000
-0.000034 -0.000184 0.000037 0.000000
-0.000036 -0.000176 0.000006 0.000000
-0.000034 -0.000181 0.000042 0.000000
-0.000025 -0.000195 0.000041 0.000000
-0.000028 -0.000184 0.000021 0.000000
-0.000024 -0.000195 0.000033 0.000000
-0.000022 -0.000214 0.000029 0.000000
-0.000018 -0.000207 0.000034 0.000000
-0.000031 -0.000187 0.000039 0.000000
-0.000026 -0.000204 0.000034 0.000000
-0.000012 -0.000230 0.000027 0.000000
-0.000009 -0.000228 0.000027 0.000000
-0.000012 -0.000232 0.000018 0.000000
-0.000023 -0.000216 0.000018 0.000000
-0.000017 -0.000205 0.000031 0.000000
0.000007 -0.000260 0.000021 0.000000
-0.000021 -0.000207 0.000035 0.000000
-0.000013 -0.000213 0.000028 0.000000
-0.000014 -0.000196 0.000008 0.000000
-0.000017 -0.000204 0.000038 0.000000
-0.000024 -0.000195 0.000041 0.000000
-0.000023 -0.000194 0.000033 0.000000
-0.000012 -0.000217 0.000014 0.000000
-0.000017 -0.000200 0.000032 0.000000
-0.000010 -0.000212 0.000032 0.000000
-0.000018 -0.000189 -0.000009 0.000000
-0.000008 -0.000219 0.000036 0.000000
-0.000007 -0.000226 0.000024 0.000000
-0.000008 -0.000226 0.000035 0.000000
-0.000016 -0.000220 0.000030 0.000000
0.000004 -0.000255 0.000025 0.000000
0.000002 -0.000252 0.000023 0.000000
-0.000003 -0.000242 0.000025 0.000000
0.000008 -0.000274 0.000020 0.000000
-0.000004 -0.000244 0.000024 0.000000
0.000003 -0.000254 0.000023 0.000000
-0.000003 -0.000244 0.000023 0.000000
0.000001 -0.000255 0.000018 0.000000
0.000002 -0.000252 0.000014 0.000000
0.000001 -0.000253 0.000017 0.000000
0.000010 -0.000262 0.000018 0.000000
0.000005 -0.000261 0.000022 0.000000
0.000007 -0.000268 0.000021 0.000000
0.000006 -0.000262 0.000019 0.000000
0.000008 -0.000274 0.000027 0.000000
0.000008 -0.000268 0.000024 0.000000
0.000010 -0.000274 0.000034 0.000000
0.000013 -0.000269 0.000027 0.000000
0.000005 -0.000263 0.000018 0.000000
0.000008 -0.000268 0.000018 0.000000
0.000006 -0.000269 0.000019 0.000000
0.000006 -0.000272 0.000015 0.000000
0.000005 -0.000274 0.000018 0.000000
0.000007 -0.000265 0.000021 0.000000
0.000001 -0.000289 -0.000003 0.000000
0.000007 -0.000278 0.000009 0.000000
0.000006 -0.000259 0.000008 0.000000
0.000005 -0.000267 0.000015 0.000000
0.000009 -0.000270 0.000016 0.000000
0.000006 -0.000278 0.000010 0.000000
0.000005 -0.000271 0.000010 0.000000
0.000002 -0.000258 0.000017 0.000000
0.000009 -0.000276 0.000014 0.000000
0.000007 -0.000270 0.000019 0.000000
-0.000006 -0.000238 0.000025 0.000000
-0.000004 -0.000233 0.000029 0.000000
0.000000 -0.000248 0.000023 0.000000
0.000003 -0.000262 0.000015 0.000000
-0.000009 -0.000209 0.000026 0.000000
-0.000003 -0.000237 0.000018 0.000000
0.000001 -0.000248 0.000022 0.000000
-0.000005 -0.000234 0.000031 0.000000
-0.000007 -0.000216 0.000007 0.000000
-0.000011 -0.000201 0.000004 0.000000
-0.000005 -0.000222 0.000032 0.000000
-0.000010 -0.000199 -0.000013 0.000000
-0.000004 -0.000222 0.000025 0.000000
-0.000011 -0.000213 0.000020 0.000000
0.000008 -0.000271 0.000012 0.000000
-0.000001 -0.000234 0.000028 0.000000
-0.000000 -0.000237 0.000022 0.000000
0.000001 -0.000243 0.000027 0.000000
0.000002 -0.000248 0.000008 0.000000
-0.000002 -0.000232 0.000009 0.000000
0.000003 -0.000252 0.000016 0.000000
0.000002 -0.000245 0.000014 0.000000
-0.000015 -0.000191 -0.000028 0.000000
-0.000010 -0.000208 0.000014 0.000000
-0.000006 -0.000222 0.000018 0.000000
-0.000025 -0.000250 0.000073 0.000000
-0.000029 -0.000189 0.000000 0.000000
-0.000044 -0.000182 0.000003 0.000000
-0.000004 -0.000232 0.000003 0.000000
-0.000023 -0.000208 0.000020 0.000000
-0.000003 -0.000275 0.000007 0.000000
0.000010 -0.000290 0.000002 0.000000
0.000002 -0.000288 -0.000006 0.000000
0.000006 -0.000259 0.000020 0.000000
0.000008 -0.000272 0.000005 0.000000
0.000010 -0.000279 0.000011 0.000000
0.000005 -0.000272 0.000002 0.000000
0.000009 -0.000292 -0.000006 0.000000
0.000003 -0.000254 0.000014 0.000000
0.000003 -0.000248 0.000022 0.000000
0.000004 -0.000262 0.000012 0.000000
0.000005 -0.000266 0.000007 0.000000
0.000007 -0.000282 0.000003 0.000000
0.000008 -0.000291 -0.000004 0.000000
0.000007 -0.000288 0.000001 0.000000
0.000011 -0.000288 0.000004 0.000000
0.000006 -0.000273 0.000008 0.000000
0.000011 -0.000290 0.000004 0.000000
0.000010 -0.000281 0.000009 0.000000
0.000007 -0.000282 -0.000003 0.000000
0.000009 -0.000303 -0.000017 0.000000
0.000007 -0.000290 -0.000004 0.000000
0.000011 -0.000293 -0.000004 0.000000
0.000012 -0.000300 -0.000011 0.000000
0.000007 -0.000295 -0.000011 0.000000
-0.000006 -0.000305 -0.000044 0.000000
-0.000000 -0.000307 -0.000036 0.000000
0.000003 -0.000303 -0.000026 0.000000
-0.000002 -0.000298 -0.000014 0.000000
0.000005 -0.000298 -0.000020 0.000000
0.000006 -0.000277 0.000030 0.000000
0.000004 -0.000291 -0.000004 0.000000
-0.000007 -0.000285 0.000012 0.000000
-0.000006 -0.000294 -0.000013 0.000000
0.000005 -0.000284 0.000010 0.000000
0.000001 -0.000296 -0.000016 0.000000
-0.000003 -0.000298 -0.000022 0.000000
-0.000003 -0.000291 -0.000008 0.000000
0.000006 -0.000281 0.000013 0.000000
0.000005 -0.000286 0.000001 0.000000
0.000003 -0.000282 0.000009 0.000000
-0.000004 -0.000288 0.000002 0.000000
0.000005 -0.000274 0.000019 0.000000
0.000003 -0.000277 0.000028 0.000000
0.000003 -0.000279 0.000018 0.000000
0.000001 -0.000287 0.000006 0.000000
0.000004 -0.000281 0.000019 0.000000
-0.000005 -0.000297 0.000001 0.000000
-0.000002 -0.000277 0.000024 0.000000
-0.000003 -0.000279 0.000024 0.000000
-0.000002 -0.000282 0.000016 0.000000
-0.000001 -0.000285 0.000006 0.000000
-0.000003 -0.000292 0.000004 0.000000
0.000000 -0.000284 0.000015 0.000000
-0.000000 -0.000284 0.000023 0.000000
0.000019 -0.000363 0.000024 0.000000
-0.000009 -0.000292 0.000005 0.000000
-0.000010 -0.000297 -0.000008 0.000000
0.000003 -0.000306 0.000011 0.000000
0.000003 -0.000320 0.000008 0.000000
0.000000 -0.000286 0.000026 0.000000
-0.000001 -0.000297 0.000011 0.000000
0.000009 -0.000280 -0.000047 0.000000
-0.000004 -0.000288 0.000004 0.000000
0.000014 -0.000333 -0.000036 0.000000
0.000018 -0.000352 -0.000008 0.000000
-0.000382 -0.000412 -0.000234 0.000000
0.000033 -0.000320 -0.000103 0.000000
-0.000346 -0.000386 -0.000165 0.000000
0.000044 -0.000419 -0.000087 0.000000
-0.000287 -0.000519 -0.000175 0.000000
0.000052 -0.000437 0.000027 0.000000
-0.000219 -0.000681 -0.000265 0.000000
-0.000058 -0.000712 -0.000236 0.000000
-0.000316 -0.000474 -0.000244 0.000000
-0.000200 -0.000644 -0.000197 0.000000
-0.000285 -0.000598 -0.000109 0.000000
-0.000238 -0.000571 -0.000208 0.000000
-0.000002 -0.000304 -0.000001 0.000000
0.000037 -0.000396 0.000089 0.000000
0.000045 -0.000360 0.000051 0.000000
-0.000330 -0.000520 -0.000191 0.000000
-0.000013 -0.000301 -0.000017 0.000000
-0.000003 -0.000304 0.000004 0.000000
0.000011 -0.000334 0.000137 0.000000
0.000001 -0.000326 0.000014 0.000000
0.000015 -0.000326 0.000036 0.000000
0.000002 -0.000314 0.000061 0.000000
0.000033 -0.000350 0.000097 0.000000
-0.000343 -0.000432 -0.000175 0.000000
-0.000360 -0.000404 -0.000020 0.000000
0.000983 -0.001941 0.000186 0.000000
-0.000353 -0.000556 -0.000074 0.000000
0.000611 -0.001946 0.000451 0.000000
0.000294 -0.001484 -0.000223 0.000000
-0.000002 -0.001261 0.000343 0.000000
-0.000360 -0.000255 0.000937 0.000000
-0.000237 -0.000701 -0.000011 0.000000
0.000531 -0.001263 0.000250 0.000000
-0.000383 -0.000887 0.000625 0.000000
-0.000002 -0.000314 0.000177 0.000000
-0.000453 -0.000356 0.000241 0.000000
0.000012 -0.000383 0.000176 0.000000
-0.000284 -0.000569 -0.000099 0.000000
-0.000001 -0.000342 0.000084 0.000000
0.000024 -0.000388 0.000140 0.000000
-0.000412 -0.000640 0.000236 0.000000
-0.000204 -0.000676 0.000113 0.000000
-0.000004 -0.000305 -0.000046 0.000000
-0.000008 -0.000301 -0.000028 0.000000
-0.000007 -0.000322 0.000024 0.000000
-0.000006 -0.000306 0.000010 0.000000
0.000009 -0.000307 -0.000034 0.000000
0.000014 -0.000324 -0.000032 0.000000
0.000003 -0.000312 -0.000048 0.000000
-0.000003 -0.000301 -0.000034 0.000000
0.000010 -0.000326 -0.000060 0.000000
0.000007 -0.000316 -0.000043 0.000000
-0.000002 -0.000309 -0.000051 0.000000
0.000016 -0.000325 -0.000055 0.000000
-0.000009 -0.000305 -0.000041 0.000000
-0.000010 -0.000298 -0.000031 0.000000
-0.000021 -0.000297 0.000013 0.000000
-0.000012 -0.000297 0.000010 0.000000
-0.000024 -0.000293 0.000082 0.000000
-0.000014 -0.000303 0.000080 0.000000
0.000000 -0.000308 -0.000043 0.000000
-0.000007 -0.000310 -0.000055 0.000000
-0.000016 -0.000283 -0.000005 0.000000
-0.000012 -0.000290 -0.000031 0.000000
0.000016 -0.000342 -0.000063 0.000000
0.000006 -0.000320 -0.000074 0.000000
-0.000000 -0.000320 -0.000073 0.000000
-0.000004 -0.000301 -0.000065 0.000000
-0.000004 -0.000305 -0.000069 0.000000
-0.000033 -0.000280 0.000029 0.000000
-0.000006 -0.000297 0.000002 0.000000
-0.000009 -0.000291 -0.000045 0.000000
0.000014 -0.000293 0.000025 0.000000
0.000006 -0.000317 0.000161 0.000000
0.000016 -0.000294 0.000081 0.000000
0.000498 -0.002412 0.000521 0.000000
0.000114 -0.000313 0.000188 0.000000
0.000563 -0.002481 0.001293 0.000000
0.000904 -0.002845 0.001341 0.000000
-0.000217 -0.001262 0.001460 0.000000
0.000024 -0.000297 0.000085 0.000000
0.000622 -0.002603 0.000149 0.000000
0.000097 -0.000521 0.000268 0.000000
0.000122 -0.000332 0.000414 0.000000
-0.000197 -0.000180 0.002079 0.000000
0.000576 -0.001553 0.000651 0.000000
0.000310 -0.001325 0.001088 0.000000
0.000549 -0.001720 0.000363 0.000000
0.000666 -0.002002 0.001679 0.000000
0.000720 -0.001863 0.001245 0.000000
-0.000143 -0.001382 0.000955 0.000000
0.000093 -0.001585 -0.000138 0.000000
0.000573 -0.001962 0.000487 0.000000
0.000459 -0.001700 0.000338 0.000000
-0.000120 -0.001586 0.000610 0.000000
0.000236 -0.001974 0.001241 0.000000
-0.000032 -0.001453 0.000392 0.000000
0.000031 -0.001550 -0.000110 0.000000
-0.000002 -0.000282 0.000062 0.000000
0.000556 -0.002380 0.000209 0.000000
0.000653 -0.002486 0.000765 0.000000
0.000557 -0.001947 0.001514 0.000000
0.000532 -0.002507 0.000091 0.000000
0.000574 -0.002405 0.000180 0.000000
-0.000291 -0.001297 0.000579 0.000000
0.000174 -0.001674 0.001423 0.000000
-0.000034 -0.001677 0.001182 0.000000
0.000072 -0.001646 0.000950 0.000000
-0.000166 -0.001627 0.001310 0.000000
-0.000067 -0.000256 -0.000030 0.000000
-0.000096 -0.001937 0.000736 0.000000
-0.000085 -0.000364 0.000080 0.000000
-0.000361 -0.001283 0.001015 0.000000
-0.000885 -0.000311 0.000859 0.000000
-0.000526 -0.001018 0.000515 0.000000
-0.000411 -0.001508 0.000412 0.000000
-0.000106 -0.000266 0.000062 0.000000
-0.000861 -0.001018 0.000498 0.000000
0.000574 -0.002418 0.000566 0.000000
0.000128 -0.002147 0.000378 0.000000
0.000539 -0.002317 0.000401 0.000000
0.000362 -0.002149 0.000532 0.000000
0.000330 -0.002301 0.000097 0.000000
0.000736 -0.002554 0.000324 0.000000
0.000667 -0.002525 0.000254 0.000000
0.000674 -0.002581 0.000468 0.000000
0.000305 -0.001936 0.000613 0.000000
0.000065 -0.001755 0.000523 0.000000
0.000177 -0.002113 0.000034 0.000000
0.000112 -0.002254 0.000396 0.000000
0.000345 -0.002397 0.000434 0.000000
0.000525 -0.002555 0.000337 0.000000
0.000650 -0.002689 0.000713 0.000000
0.000696 -0.002441 0.001332 0.000000
0.000650 -0.002417 0.000601 0.000000
0.000457 -0.002228 0.000712 0.000000
0.000009 -0.002108 0.000825 0.000000
0.000041 -0.002211 0.000233 0.000000
0.000276 -0.002056 0.000717 0.000000
-0.000099 -0.001978 0.000380 0.000000
-0.000282 -0.002310 -0.000508 0.000000
-0.000058 -0.002252 0.000067 0.000000
0.000104 -0.002182 -0.000109 0.000000
0.000206 -0.002690 -0.000463 0.000000
-0.000004 -0.000361 -0.000095 0.000000
0.000160 -0.002202 -0.000050 0.000000
-0.000027 -0.000353 -0.000083 0.000000
-0.000111 -0.000330 -0.000173 0.000000
-0.000003 -0.000344 -0.000082 0.000000
-0.000062 -0.000300 -0.000078 0.000000
-0.000002 -0.000282 0.000061 0.000000
0.000239 -0.002191 0.000111 0.000000
0.000575 -0.002356 0.000113 0.000000
0.000058 -0.000296 0.000133 0.000000
0.000026 -0.000282 0.000092 0.000000
-0.000015 -0.000302 -0.000048 0.000000
-0.000010 -0.000294 -0.000032 0.000000
-0.000023 -0.000282 0.000034 0.000000
0.000016 -0.000363 -0.000077 0.000000
0.000011 -0.000354 -0.000055 0.000000
-0.000019 -0.000320 -0.000077 0.000000
-0.000002 -0.000346 -0.000098 0.000000
-0.000027 -0.000319 -0.000077 0.000000
-0.000058 -0.000277 -0.000025 0.000000
0.000017 -0.000351 -0.000025 0.000000
0.000704 -0.003373 0.002104 0.000000
0.000012 -0.000360 -0.000058 0.000000
0.000013 -0.000344 -0.000036 0.000000
0.000014 -0.000320 0.000003 0.000000
-0.000002 -0.000295 -0.000014 0.000000
0.000020 -0.000347 -0.000080 0.000000
0.000015 -0.000352 -0.000028 0.000000
0.001744 -0.004905 -0.003390 0.000000
0.000021 -0.000327 -0.000033 0.000000
0.000809 -0.002834 -0.000542 0.000000
0.000018 -0.000352 -0.000072 0.000000
-0.000059 -0.002620 -0.000912 0.000000
0.000002 -0.000347 -0.000084 0.000000
0.000005 -0.000361 -0.000051 0.000000
-0.000026 -0.002535 -0.000998 0.000000
-0.000008 -0.000377 -0.000134 0.000000
0.000015 -0.000365 -0.000078 0.000000
-0.000061 -0.000349 -0.000110 0.000000
-0.000077 -0.002427 -0.001130 0.000000
-0.000102 -0.002590 -0.000949 0.000000
-0.000138 -0.002310 -0.000645 0.000000
-0.000159 -0.002392 -0.000980 0.000000
-0.000208 -0.002313 -0.000947 0.000000
0.000081 -0.002678 -0.000337 0.000000
0.000987 -0.003495 -0.001495 0.000000
0.000792 -0.003528 -0.000758 0.000000
0.000324 -0.002981 -0.002126 0.000000
0.000506 -0.003135 0.001258 0.000000
0.000496 -0.003297 -0.001268 0.000000
0.001416 -0.004095 0.000013 0.000000
0.001202 -0.004117 -0.002529 0.000000
0.001496 -0.003429 -0.001460 0.000000
0.000590 -0.002649 -0.000737 0.000000
0.001428 -0.003895 0.000883 0.000000
0.001356 -0.003562 0.001250 0.000000
0.001333 -0.003700 0.000749 0.000000
0.001464 -0.003130 0.000468 0.000000
0.001075 -0.002802 0.000493 0.000000
0.001638 -0.003708 -0.000774 0.000000
0.001885 -0.004083 -0.000255 0.000000
0.003103 -0.005042 -0.001513 0.000000
-0.000502 -0.001206 -0.000613 0.000000
-0.000172 -0.001532 -0.000609 0.000000
0.001049 -0.003435 -0.000051 0.000000
-0.000116 -0.001829 -0.000485 0.000000
-0.000343 -0.001326 -0.000170 0.000000
-0.000431 -0.001372 -0.000416 0.000000
0.000677 -0.002062 -0.000969 0.000000
0.001902 -0.003433 -0.001465 0.000000
0.000136 -0.001354 -0.000081 0.000000
-0.000115 -0.001410 -0.000700 0.000000
0.000410 -0.002415 -0.000215 0.000000
0.000901 -0.003547 0.002863 0.000000
0.000075 -0.000338 -0.000006 0.000000
0.001994 -0.004370 0.000820 0.000000
0.001247 -0.003218 0.001054 0.000000
0.001441 -0.003212 0.001270 0.000000
0.000020 -0.000341 0.000039 0.000000
0.000031 -0.000339 -0.000012 0.000000
0.000023 -0.000330 -0.000006 0.000000
0.000072 -0.000336 -0.000037 0.000000
-0.000059 -0.000269 0.000048 0.000000
0.000273 -0.001954 -0.000025 0.000000
0.002531 -0.003729 -0.000456 0.000000
-0.000044 -0.000247 0.000070 0.000000
0.000104 -0.000358 0.000042 0.000000
-0.000015 -0.000286 0.000051 0.000000
0.001529 -0.003074 -0.001359 0.000000
0.002618 -0.003590 -0.001945 0.000000
0.000830 -0.002189 -0.000594 0.000000
0.000882 -0.002249 -0.000331 0.000000
0.001398 -0.002316 -0.001734 0.000000
0.001931 -0.002896 -0.001949 0.000000
0.002207 -0.003777 -0.001376 0.000000
-0.000031 -0.000308 0.000125 0.000000
0.000003 -0.000282 -0.000010 0.000000
-0.000011 -0.000230 0.000003 0.000000
0.000004 -0.000288 -0.000005 0.000000
-0.000004 -0.000284 0.000008 0.000000
0.000000 -0.000445 0.000243 0.000000
0.002256 -0.003239 -0.002031 0.000000
-0.000002 -0.000296 0.000086 0.000000
0.000005 -0.000330 0.000026 0.000000
0.000021 -0.000310 -0.000011 0.000000
0.000004 -0.000305 -0.000006 0.000000
0.000005 -0.000306 -0.000007 0.000000
0.000026 -0.000321 -0.000007 0.000000
0.000020 -0.000338 -0.000003 0.000000
0.000010 -0.000322 -0.000014 0.000000
0.000019 -0.000361 -0.000053 0.000000
0.000015 -0.000328 -0.000017 0.000000
0.000016 -0.000322 -0.000007 0.000000
0.000010 -0.000310 -0.000001 0.000000
0.000020 -0.000337 -0.000011 0.000000
0.000011 -0.000325 -0.000011 0.000000
0.000001 -0.000299 -0.000014 0.000000
0.000000 -0.000293 0.000010 0.000000
0.000006 -0.000305 -0.000004 0.000000
0.000008 -0.000310 -0.000008 0.000000
0.000006 -0.000307 0.000000 0.000000
0.000007 -0.000300 -0.000009 0.000000
0.000000 -0.000282 -0.000010 0.000000
0.000005 -0.000298 -0.000003 0.000000
0.000010 -0.000300 -0.000001 0.000000
0.000007 -0.000292 -0.000008 0.000000
0.000014 -0.000314 -0.000035 0.000000
0.000011 -0.000303 -0.000018 0.000000
0.000015 -0.000339 -0.000063 0.000000
0.000012 -0.000328 -0.000048 0.000000
0.000015 -0.000311 -0.000022 0.000000
0.000013 -0.000301 -0.000007 0.000000
0.000012 -0.000311 -0.000021 0.000000
0.000010 -0.000315 -0.000032 0.000000
0.000005 -0.000265 0.000004 0.000000
0.000006 -0.000282 -0.000007 0.000000
0.000009 -0.000281 0.000004 0.000000
0.000007 -0.000289 -0.000000 0.000000
0.000011 -0.000301 -0.000012 0.000000
0.000010 -0.000302 -0.000010 0.000000
0.000004 -0.000265 0.000006 0.000000
-0.000008 -0.000236 0.000018 0.000000
0.000005 -0.000279 0.000001 0.000000
-0.000004 -0.000277 0.000010 0.000000
0.000001 -0.000269 -0.000002 0.000000
-0.000000 -0.000252 0.000006 0.000000
0.000001 -0.000290 -0.000014 0.000000
0.000004 -0.000281 -0.000002 0.000000
-0.000019 -0.000230 0.000027 0.000000
-0.000042 -0.000219 0.000049 0.000000
-0.000018 -0.000249 0.000026 0.000000
0.000004 -0.000271 0.000003 0.000000
-0.000055 -0.000151 -0.000032 0.000000
0.000263 -0.001713 -0.000796 0.000000
-0.000022 -0.000224 0.000010 0.000000
-0.000006 -0.000253 0.000008 0.000000
-0.000003 -0.000256 0.000015 0.000000
0.000001 -0.000254 0.000012 0.000000
0.001129 -0.002425 -0.001364 0.000000
0.000929 -0.002169 -0.001458 0.000000
-0.000028 -0.000197 -0.000007 0.000000
0.001169 -0.002092 -0.001679 0.000000
0.001589 -0.002575 -0.001874 0.000000
0.000851 -0.002012 -0.001058 0.000000
0.001353 -0.002727 -0.001420 0.000000
-0.000042 -0.000195 0.000033 0.000000
0.000759 -0.002051 -0.002955 0.000000
0.000822 -0.002075 -0.000923 0.000000
0.000475 -0.001409 -0.001342 0.000000
0.000202 -0.001252 -0.000996 0.000000
0.001198 -0.002525 -0.002817 0.000000
0.000893 -0.002203 -0.001257 0.000000
0.000557 -0.001648 -0.001332 0.000000
0.000573 -0.001939 -0.001021 0.000000
0.000009 -0.000306 0.000025 0.000000
0.000021 -0.000329 0.000045 0.000000
0.000015 -0.000324 0.000020 0.000000
-0.000003 -0.000279 0.000016 0.000000
0.000031 -0.000345 0.000033 0.000000
0.000045 -0.000372 0.000017 0.000000
0.000020 -0.000328 0.000027 0.000000
-0.000002 -0.000296 0.000058 0.000000
0.000027 -0.000352 0.000024 0.000000
0.000030 -0.000351 0.000031 0.000000
0.000016 -0.000335 0.000025 0.000000
0.000021 -0.000335 0.000034 0.000000
-0.000003 -0.000289 0.000034 0.000000
0.000008 -0.000312 0.000036 0.000000
-0.000016 -0.000265 0.000002 0.000000
-0.000000 -0.000294 0.000021 0.000000
-0.000019 -0.000228 -0.000025 0.000000
-0.000014 -0.000272 0.000008 0.000000
0.000003 -0.000317 0.000016 0.000000
0.000014 -0.000338 0.000006 0.000000
-0.000009 -0.000295 0.000016 0.000000
-0.000004 -0.000299 0.000010 0.000000
0.000031 -0.000357 0.000015 0.000000
0.000035 -0.000359 0.000021 0.000000
0.000008 -0.000318 0.000013 0.000000
0.000003 -0.000305 0.000017 0.000000
0.000027 -0.000373 0.000007 0.000000
0.000035 -0.000369 0.000018 0.000000
0.000013 -0.000357 -0.000020 0.000000
0.000009 -0.000336 0.000014 0.000000
0.000002 -0.000354 -0.000017 0.000000
-0.000001 -0.000319 0.000002 0.000000
-0.000003 -0.000318 0.000009 0.000000
-0.000026 -0.000282 0.000020 0.000000
-0.000032 -0.000724 -0.001933 0.000000
-0.000014 -0.000279 0.000008 0.000000
0.000012 -0.001422 -0.001857 0.000000
-0.000192 -0.000596 -0.001367 0.000000
-0.000011 -0.000280 0.000006 0.000000
-0.000015 -0.000284 0.000007 0.000000
0.000216 -0.000904 -0.002606 0.000000
0.000283 -0.001765 -0.002519 0.000000
0.000828 -0.001955 -0.001081 0.000000
0.000060 -0.001415 -0.000689 0.000000
0.000781 -0.002034 -0.000902 0.000000
0.000160 -0.001415 -0.000683 0.000000
-0.000181 -0.001154 -0.001294 0.000000
0.000912 -0.002222 -0.000556 0.000000
0.000741 -0.002075 -0.000680 0.000000
-0.000379 -0.000977 -0.000833 0.000000
0.000124 -0.001363 -0.000548 0.000000
0.000900 -0.002227 -0.000390 0.000000
-0.000314 -0.001062 -0.000258 0.000000
0.000128 -0.001443 -0.000349 0.000000
-0.000277 -0.001234 0.000037 0.000000
0.000136 -0.001519 -0.000056 0.000000
-0.000235 -0.001197 -0.000447 0.000000
-0.000013 -0.001032 -0.000831 0.000000
-0.000403 -0.000785 -0.000385 0.000000
-0.000248 -0.000900 -0.000475 0.000000
-0.000085 -0.000289 0.000093 0.000000
-0.000496 -0.001380 0.000014 0.000000
-0.000457 -0.000970 -0.000157 0.000000
-0.000597 -0.000811 -0.000553 0.000000
-0.000508 -0.000769 -0.000267 0.000000
-0.000163 -0.001062 -0.000244 0.000000
-0.000483 -0.001127 -0.000311 0.000000
-0.000199 -0.001425 0.000252 0.000000
-0.000477 -0.001063 -0.000374 0.000000
-0.000360 -0.000989 -0.000197 0.000000
-0.000390 -0.001111 -0.000055 0.000000
-0.000479 -0.001160 -0.000553 0.000000
-0.000465 -0.001136 -0.000206 0.000000
-0.000426 -0.001017 -0.000137 0.000000
-0.000522 -0.000919 0.000126 0.000000
-0.000581 -0.001145 -0.000433 0.000000
0.000105 -0.001361 0.000627 0.000000
-0.000051 -0.000280 0.000006 0.000000
-0.000752 -0.000319 -0.000196 0.000000
-0.000098 -0.000221 0.000082 0.000000
-0.000074 -0.000264 0.000015 0.000000
-0.000075 -0.000245 -0.000065 0.000000
-0.000089 -0.000253 0.000000 0.000000
-0.000062 -0.000260 0.000033 0.000000
-0.000660 -0.000406 -0.000588 0.000000
-0.000089 -0.000239 0.000046 0.000000
-0.000022 -0.000345 -0.000069 0.000000
0.000005 -0.000378 -0.000058 0.000000
-0.000054 -0.000273 -0.000057 0.000000
-0.000024 -0.000307 -0.000044 0.000000
-0.000046 -0.000309 -0.000117 0.000000
-0.000023 -0.000337 -0.000069 0.000000
-0.000060 -0.000271 -0.000095 0.000000
-0.000053 -0.000306 -0.000076 0.000000
0.000013 -0.000409 -0.000034 0.000000
-0.000017 -0.000355 -0.000097 0.000000
0.000007 -0.000412 -0.000065 0.000000
-0.000005 -0.000389 -0.000069 0.000000
0.000027 -0.000409 0.000012 0.000000
0.000021 -0.000428 -0.000030 0.000000
-0.000007 -0.000345 -0.000057 0.000000
0.000012 -0.000372 -0.000036 0.000000
0.000024 -0.000410 -0.000018 0.000000
0.000019 -0.000397 -0.000020 0.000000
-0.000017 -0.000310 -0.000013 0.000000
0.000014 -0.000356 0.000001 0.000000
-0.000022 -0.000333 -0.000041 0.000000
0.000002 -0.000356 -0.000038 0.000000
-0.000077 -0.000251 -0.000012 0.000000
-0.000042 -0.000282 -0.000017 0.000000
-0.000000 -0.000334 0.000002 0.000000
-0.000014 -0.000310 0.000005 0.000000
-0.000014 -0.000299 0.000005 0.000000
-0.000027 -0.000292 0.000003 0.000000
0.000013 -0.000371 -0.000019 0.000000
0.000026 -0.000376 -0.000000 0.000000
0.000021 -0.000357 -0.000001 0.000000
0.000021 -0.000377 -0.000006 0.000000
0.000004 -0.000337 -0.000006 0.000000
-0.000002 -0.000337 -0.000019 0.000000
0.000034 -0.000400 0.000028 0.000000
0.000039 -0.000382 0.000023 0.000000
0.000034 -0.000400 0.000010 0.000000
0.000032 -0.000389 0.000005 0.000000
0.000020 -0.000378 0.000032 0.000000
0.000034 -0.000406 0.000023 0.000000
0.000031 -0.000400 0.000043 0.000000
0.000035 -0.000391 0.000031 0.000000
-0.000025 -0.000363 0.000033 0.000000
0.000005 -0.000400 0.000083 0.000000
-0.000004 -0.000368 0.000026 0.000000
0.000024 -0.000416 0.000056 0.000000
0.000026 -0.000394 0.000042 0.000000
0.000017 -0.000396 0.000058 0.000000
0.000037 -0.000394 0.000019 0.000000
0.000035 -0.000399 0.000029 0.000000
0.000015 -0.000429 0.000075 0.000000
0.000026 -0.000425 0.000041 0.000000
0.000031 -0.000412 0.000007 0.000000
0.000026 -0.000427 0.000040 0.000000
0.000010 -0.000432 0.000079 0.000000
0.000020 -0.000436 0.000031 0.000000
0.000025 -0.000445 0.000006 0.000000
0.000028 -0.000426 0.000004 0.000000
-0.000014 -0.000398 0.000100 0.000000
-0.000038 -0.000374 0.000095 0.000000
0.000023 -0.000415 0.000054 0.000000
-0.000006 -0.000422 0.000114 0.000000
0.000012 -0.000380 0.000048 0.000000
-0.000009 -0.000359 0.000012 0.000000
0.000002 -0.000394 0.000072 0.000000
-0.000002 -0.000378 0.000070 0.000000
0.000022 -0.000406 0.000059 0.000000
0.000009 -0.000414 0.000083 0.000000
-0.000042 -0.000356 0.000051 0.000000
-0.000005 -0.000378 0.000050 0.000000
-0.000029 -0.000342 0.000024 0.000000
-0.000028 -0.000355 0.000067 0.000000
-0.000001 -0.000367 -0.000006 0.000000
0.000002 -0.000328 -0.000172 0.000000
-0.000047 -0.000351 -0.000006 0.000000
-0.000051 -0.000336 0.000044 0.000000
-0.000003 -0.000472 -0.000059 0.000000
-0.000001 -0.001506 -0.000619 0.000000
-0.000023 -0.000357 -0.000014 0.000000
-0.000099 -0.000976 -0.002525 0.000000
-0.000100 -0.001478 -0.000247 0.000000
-0.000106 -0.001412 -0.000758 0.000000
-0.000115 -0.001337 -0.000791 0.000000
-0.000039 -0.001622 -0.002583 0.000000
-0.000085 -0.001369 -0.000189 0.000000
-0.000093 -0.001371 -0.000174 0.000000
-0.000166 -0.001383 -0.002095 0.000000
-0.000020 -0.000361 0.000003 0.000000
0.000000 -0.000409 -0.000007 0.000000
-0.000007 -0.000367 -0.000041 0.000000
-0.000009 -0.000361 0.000044 0.000000
0.000007 -0.000369 0.000028 0.000000
0.000011 -0.000359 0.000025 0.000000
-0.000197 -0.000808 -0.002012 0.000000
0.000009 -0.000376 0.000035 0.000000
0.000022 -0.000382 0.000035 0.000000
-0.000100 -0.001346 -0.001150 0.000000
-0.000237 -0.001040 -0.000139 0.000000
0.000009 -0.000361 0.000013 0.000000
-0.000179 -0.000973 -0.000984 0.000000
0.000013 -0.000358 0.000027 0.000000
-0.000305 -0.000575 -0.000983 0.000000
-0.000206 -0.000965 -0.000241 0.000000
-0.000291 -0.000760 -0.000154 0.000000
-0.000417 -0.000646 -0.000396 0.000000
-0.000327 -0.000613 -0.000128 0.000000
-0.000365 -0.000605 -0.000073 0.000000
-0.000008 -0.000313 0.000017 0.000000
-0.000534 -0.000485 -0.000095 0.000000
-0.000454 -0.000339 -0.000311 0.000000
0.000018 -0.000346 0.000034 0.000000
0.000011 -0.000334 0.000023 0.000000
0.000029 -0.000362 0.000017 0.000000
-0.000007 -0.000283 0.000034 0.000000
-0.000347 -0.000855 -0.000729 0.000000
0.000018 -0.000347 0.000047 0.000000
0.000005 -0.000329 0.000047 0.000000
0.000027 -0.000375 0.000023 0.000000
0.000016 -0.000361 0.000015 0.000000
0.000027 -0.000368 0.000023 0.000000
0.000020 -0.000373 0.000028 0.000000
0.000028 -0.000376 0.000027 0.000000
0.000032 -0.000385 0.000028 0.000000
0.000033 -0.000386 0.000014 0.000000
0.000036 -0.000384 0.000013 0.000000
0.000040 -0.000391 0.000023 0.000000
0.000043 -0.000376 0.000020 0.000000
0.000041 -0.000387 0.000026 0.000000
0.000042 -0.000388 0.000020 0.000000
0.000021 -0.000351 0.000015 0.000000
0.000020 -0.000362 0.000025 0.000000
0.000038 -0.000367 0.000014 0.000000
0.000033 -0.000367 0.000014 0.000000
0.000035 -0.000379 0.000022 0.000000
0.000039 -0.000386 0.000024 0.000000
0.000025 -0.000353 0.000010 0.000000
0.000032 -0.000362 0.000015 0.000000
0.000043 -0.000384 0.000023 0.000000
0.000043 -0.000382 0.000023 0.000000
0.000040 -0.000370 0.000021 0.000000
0.000042 -0.000368 0.000024 0.000000
0.000040 -0.000376 0.000024 0.000000
0.000034 -0.000364 0.000024 0.000000
0.000040 -0.000361 0.000035 0.000000
0.000047 -0.000365 0.000024 0.000000
0.000042 -0.000373 0.000026 0.000000
0.000037 -0.000358 0.000026 0.000000
0.000023 -0.000336 0.000009 0.000000
0.000026 -0.000346 0.000016 0.000000
0.000029 -0.000344 -0.000001 0.000000
0.000030 -0.000360 0.000004 0.000000
0.000042 -0.000366 0.000008 0.000000
0.000037 -0.000360 0.000007 0.000000
0.000011 -0.000328 0.000012 0.000000
-0.000464 -0.000491 0.000364 0.000000
0.000021 -0.000346 0.000017 0.000000
-0.000007 -0.000284 -0.000017 0.000000
0.000020 -0.000337 0.000022 0.000000
0.000026 -0.000356 0.000017 0.000000
0.000019 -0.000344 -0.000002 0.000000
0.000017 -0.000329 0.000018 0.000000
-0.000493 -0.000288 0.000103 0.000000
-0.000390 -0.000484 -0.000025 0.000000
0.000004 -0.000314 -0.000003 0.000000
0.000011 -0.000315 0.000032 0.000000
-0.000414 -0.000504 0.000024 0.000000
-0.000472 -0.000339 0.000297 0.000000
-0.000389 -0.000530 0.000139 0.000000
0.000003 -0.000308 -0.000002 0.000000
-0.000488 -0.000456 0.000194 0.000000
-0.000407 -0.000495 0.000091 0.000000
0.000008 -0.000315 0.000014 0.000000
-0.000398 -0.000471 0.000122 0.000000
0.000004 -0.000310 0.000011 0.000000
-0.000443 -0.000551 0.000519 0.000000
0.000012 -0.000334 -0.000019 0.000000
0.000015 -0.000336 0.000009 0.000000
0.000006 -0.000319 0.000008 0.000000
0.000003 -0.000343 0.000057 0.000000
0.000012 -0.000319 0.000009 0.000000
-0.000004 -0.000311 -0.000015 0.000000
-0.000455 -0.000368 0.000455 0.000000
-0.000385 -0.000523 0.000149 0.000000
0.000005 -0.000315 -0.000002 0.000000
0.000004 -0.000315 0.000013 0.000000
0.000002 -0.000323 0.000036 0.000000
-0.000424 -0.000391 0.000644 0.000000
-0.000381 -0.000677 0.000930 0.000000
-0.000375 -0.000627 0.000186 0.000000
-0.000327 -0.001319 0.000394 0.000000
-0.000365 -0.000682 0.000208 0.000000
-0.000005 -0.000281 0.000058 0.000000
-0.000032 -0.000262 0.000004 0.000000
0.000012 -0.000252 0.000006 0.000000
-0.000016 -0.000293 -0.000036 0.000000
-0.000384 -0.000468 0.001050 0.000000
-0.000393 -0.000425 0.000856 0.000000
0.000003 -0.000300 0.000023 0.000000
-0.000005 -0.000298 0.000016 0.000000
0.000007 -0.000325 -0.000001 0.000000
-0.000015 -0.000288 0.000010 0.000000
-0.000002 -0.000280 -0.000074 0.000000
-0.000017 -0.000255 -0.000051 0.000000
0.000033 -0.000349 -0.000050 0.000000
0.000004 -0.000317 -0.000074 0.000000
-0.000015 -0.000269 -0.000053 0.000000
-0.000016 -0.000247 -0.000056 0.000000
0.000038 -0.000368 -0.000049 0.000000
0.000004 -0.000312 -0.000091 0.000000
-0.000003 -0.000274 0.000117 0.000000
0.000030 -0.000362 -0.000066 0.000000
0.000070 -0.000371 0.000120 0.000000
0.000015 -0.000362 -0.000022 0.000000
0.000054 -0.000372 0.000023 0.000000
0.000039 -0.000389 -0.000028 0.000000
0.000051 -0.000368 -0.000000 0.000000
0.000034 -0.000346 0.000113 0.000000
0.000038 -0.000362 -0.000030 0.000000
0.000017 -0.000332 0.000072 0.000000
0.000051 -0.000381 -0.000007 0.000000
0.000040 -0.000365 0.000047 0.000000
0.000019 -0.000319 -0.000064 0.000000
0.000003 -0.000291 -0.000055 0.000000
0.000038 -0.000350 -0.000021 0.000000
0.000038 -0.000348 -0.000037 0.000000
0.000004 -0.000306 -0.000001 0.000000
0.000017 -0.000324 -0.000005 0.000000
0.000036 -0.000361 -0.000012 0.000000
0.000023 -0.000348 -0.000033 0.000000
0.000043 -0.000364 0.000002 0.000000
0.000046 -0.000367 -0.000003 0.000000
0.000045 -0.000367 0.000020 0.000000
0.000045 -0.000366 0.000002 0.000000
0.000045 -0.000369 0.000019 0.000000
0.000031 -0.000350 0.000041 0.000000
0.000044 -0.000369 0.000025 0.000000
0.000044 -0.000369 0.000025 0.000000
0.000032 -0.000350 0.000052 0.000000
0.000038 -0.000358 0.000031 0.000000
0.000041 -0.000350 0.000057 0.000000
0.000040 -0.000356 0.000039 0.000000
0.000031 -0.000344 0.000044 0.000000
0.000031 -0.000351 0.000035 0.000000
0.000011 -0.000311 0.000037 0.000000
-0.000009 -0.000290 0.000109 0.000000
0.000008 -0.000318 0.000057 0.000000
0.000010 -0.000318 0.000049 0.000000
0.000030 -0.000345 0.000027 0.000000
0.000022 -0.000336 0.000038 0.000000
0.000010 -0.000313 0.000047 0.000000
-0.000002 -0.000295 0.000059 0.000000
-0.000006 -0.000293 0.000041 0.000000
-0.000025 -0.000263 0.000031 0.000000
0.000936 -0.002115 -0.001497 0.000000
0.000852 -0.002015 -0.001075 0.000000
-0.000046 -0.000169 0.000014 0.000000
-0.000042 -0.000132 -0.000103 0.000000
-0.000014 -0.000208 -0.000011 0.000000
-0.000054 -0.000152 -0.000035 0.000000
0.000918 -0.002141 -0.001410 0.000000
-0.000046 -0.000149 -0.000078 0.000000
-0.000027 -0.000176 -0.000040 0.000000
-0.000016 -0.000201 0.000005 0.000000
-0.000002 -0.000300 0.000063 0.000000
-0.000030 -0.000247 0.000062 0.000000
0.001785 -0.002725 -0.003404 0.000000
-0.000016 -0.000267 0.000094 0.000000
0.001004 -0.002093 -0.001728 0.000000
0.000899 -0.001926 -0.002178 0.000000
-0.000007 -0.000123 -0.000211 0.000000
0.001541 -0.002869 -0.002996 0.000000
-0.000025 -0.000128 -0.000159 0.000000
0.001126 -0.002462 -0.002148 0.000000
-0.000025 -0.000161 -0.000071 0.000000
-0.000038 -0.000143 -0.000101 0.000000
-0.000030 -0.000175 -0.000023 0.000000
-0.000019 -0.000181 -0.000025 0.000000
-0.000023 -0.000163 -0.000070 0.000000
-0.000054 -0.000129 -0.000073 0.000000
-0.000013 -0.000169 -0.000066 0.000000
-0.000019 -0.000155 -0.000098 0.000000
-0.000017 -0.000142 -0.000149 0.000000
0.001381 -0.002253 -0.002369 0.000000
0.001112 -0.002453 -0.001722 0.000000
0.000987 -0.002303 -0.001600 0.000000
-0.000031 -0.000139 -0.000133 0.000000
-0.000034 -0.000161 -0.000033 0.000000
-0.000005 -0.000312 0.000091 0.000000
0.000008 -0.000312 0.000056 0.000000
0.000016 -0.000305 0.000094 0.000000
-0.000004 -0.000301 0.000069 0.000000
-0.000003 -0.000306 0.000081 0.000000
-0.000015 -0.000284 0.000084 0.000000
0.001583 -0.002591 -0.003316 0.000000
-0.000021 -0.000290 0.000119 0.000000
0.000049 -0.000367 0.000028 0.000000
0.000048 -0.000372 0.000025 0.000000
0.000004 -0.000304 0.000073 0.000000
0.000018 -0.000319 0.000088 0.000000
0.000058 -0.000373 0.000064 0.000000
0.000044 -0.000361 0.000066 0.000000
0.000043 -0.000366 0.000062 0.000000
0.000032 -0.000350 0.000059 0.000000
-0.000004 -0.000301 0.000074 0.000000
0.000035 -0.000324 0.000161 0.000000
0.000126 -0.000373 0.000156 0.000000
0.000034 -0.000343 0.000110 0.000000
-0.000021 -0.000289 0.000078 0.000000
-0.000012 -0.000231 0.000142 0.000000
0.001080 -0.002525 0.003656 0.000000
0.000089 -0.000311 0.000180 0.000000
0.002137 -0.003030 -0.003493 0.000000
0.000052 -0.000310 0.000010 0.000000
-0.000104 -0.000027 -0.000376 0.000000
-0.001076 -0.000043 -0.001659 0.000000
0.001718 -0.002558 -0.002581 0.000000
-0.000100 -0.000207 -0.000465 0.000000
0.001939 -0.003101 -0.003247 0.000000
0.001940 -0.003171 -0.001925 0.000000
-0.000013 -0.000149 -0.000162 0.000000
0.001608 -0.002996 -0.001994 0.000000
-0.000051 -0.000122 -0.000098 0.000000
0.000011 -0.000110 -0.000261 0.000000
-0.000011 -0.000143 -0.000144 0.000000
-0.000015 -0.000160 -0.000081 0.000000
-0.000017 -0.000175 -0.000036 0.000000
-0.000017 -0.000176 -0.000036 0.000000
-0.000012 -0.000186 -0.000023 0.000000
-0.000017 -0.000199 0.000018 0.000000
-0.000018 -0.000185 -0.000002 0.000000
-0.000016 -0.000195 0.000023 0.000000
-0.000023 -0.000188 0.000009 0.000000
-0.000016 -0.000190 -0.000004 0.000000
-0.000028 -0.000131 -0.000157 0.000000
-0.000116 -0.000075 -0.000211 0.000000
-0.000083 -0.000132 -0.000148 0.000000
-0.000017 -0.000155 -0.000086 0.000000
-0.000033 -0.000160 -0.000079 0.000000
-0.000019 -0.000166 -0.000045 0.000000
-0.000141 -0.000141 -0.000367 0.000000
0.000683 -0.001079 -0.002082 0.000000
-0.000014 -0.000138 -0.000126 0.000000
-0.000091 -0.000117 -0.000212 0.000000
-0.000039 -0.000169 -0.000045 0.000000
-0.000043 -0.000204 -0.000162 0.000000
-0.000025 -0.000178 -0.000019 0.000000
-0.000024 -0.000181 0.000011 0.000000
-0.000064 -0.000161 -0.000121 0.000000
-0.000053 -0.000180 -0.000113 0.000000
-0.000034 -0.000175 0.000016 0.000000
-0.000035 -0.000183 0.000013 0.000000
-0.000073 -0.000149 -0.000191 0.000000
0.000456 -0.000950 -0.001847 0.000000
-0.000053 -0.000144 -0.000249 0.000000
-0.000088 -0.000106 -0.000274 0.000000
0.000456 -0.000975 -0.001984 0.000000
0.001451 -0.001348 -0.000640 0.000000
-0.000416 0.000211 -0.000645 0.000000
-0.000551 -0.000504 -0.001484 0.000000
0.002024 -0.003305 0.001394 0.000000
0.000692 -0.002031 0.003565 0.000000
0.000461 -0.000908 -0.003107 0.000000
0.000387 -0.001081 -0.002186 0.000000
0.000779 -0.002069 0.001011 0.000000
0.001978 -0.003271 0.002595 0.000000
0.001123 -0.003018 -0.000475 0.000000
0.001766 -0.003929 -0.000545 0.000000
0.000549 -0.002350 -0.001138 0.000000
0.000050 -0.000309 -0.000160 0.000000
0.000008 -0.002273 -0.001268 0.000000
0.001601 -0.003881 -0.000036 0.000000
0.002740 -0.003893 0.000019 0.000000
0.001282 -0.002103 -0.002357 0.000000
0.000411 -0.002785 0.000079 0.000000
0.000225 -0.002366 0.001049 0.000000
0.000075 -0.000378 -0.000077 0.000000
0.000094 -0.002555 -0.000123 0.000000
0.000617 -0.002741 0.000804 0.000000
-0.000026 -0.001506 0.000336 0.000000
0.000368 -0.002763 0.000074 0.000000
0.000367 -0.002530 0.000082 0.000000
-0.000011 -0.000303 -0.000081 0.000000
-0.000044 -0.000324 -0.000095 0.000000
0.000216 -0.002586 -0.000232 0.000000
0.000447 -0.002637 0.000408 0.000000
0.000258 -0.002460 -0.000085 0.000000
0.000581 -0.002791 -0.000071 0.000000
0.000642 -0.002901 -0.000410 0.000000
0.000046 -0.002420 -0.000658 0.000000
-0.000022 -0.000355 -0.000029 0.000000
0.000428 -0.002710 0.000266 0.000000
0.000190 -0.002867 0.000653 0.000000
0.000498 -0.002914 -0.000105 0.000000
0.000041 -0.000376 0.000022 0.000000
0.000089 -0.002633 0.000257 0.000000
0.000051 -0.000396 0.000033 0.000000
0.000054 -0.000409 0.000027 0.000000
0.000012 -0.000344 -0.000096 0.000000
-0.000007 -0.000342 -0.000038 0.000000
0.000045 -0.000382 -0.000028 0.000000
0.000044 -0.000371 -0.000004 0.000000
-0.000012 -0.000310 -0.000049 0.000000
-0.000300 -0.000918 -0.000054 0.000000
0.000175 -0.002303 0.000096 0.000000
-0.000053 -0.000334 -0.000056 0.000000
0.000011 -0.002426 -0.000021 0.000000
0.000007 -0.000368 -0.000052 0.000000
0.000008 -0.000275 -0.000037 0.000000
-0.000426 -0.001045 0.000076 0.000000
0.000146 -0.001796 -0.000471 0.000000
0.000279 -0.002099 -0.000146 0.000000
0.000261 -0.001569 -0.000138 0.000000
-0.000072 -0.001547 -0.000211 0.000000
-0.000017 -0.001604 0.000046 0.000000
0.000344 -0.001864 -0.000302 0.000000
-0.000490 -0.000666 -0.000054 0.000000
-0.000285 -0.000712 0.000849 0.000000
0.000110 -0.001308 0.000209 0.000000
-0.000216 -0.001047 0.000029 0.000000
-0.000629 -0.000511 0.000136 0.000000
-0.000658 -0.000475 0.000069 0.000000
-0.000639 -0.000550 0.000095 0.000000
-0.000218 -0.001311 -0.000206 0.000000
-0.000412 -0.000907 -0.000049 0.000000
-0.000411 -0.000879 0.000101 0.000000
-0.000575 -0.000530 0.000045 0.000000
-0.000020 -0.001355 -0.000049 0.000000
0.000418 -0.002084 -0.000322 0.000000
0.000167 -0.001801 0.000540 0.000000
0.000121 -0.001602 -0.000064 0.000000
0.000381 -0.002243 -0.000188 0.000000
0.000240 -0.002112 0.001291 0.000000
0.000016 -0.000330 0.000184 0.000000
0.000147 -0.001647 0.000305 0.000000
0.000099 -0.001829 0.000445 0.000000
0.000401 -0.002370 0.000491 0.000000
-0.000646 -0.000468 0.000016 0.000000
0.000118 -0.000881 -0.000041 0.000000
-0.000415 -0.000592 0.000029 0.000000
0.000519 -0.001179 -0.001179 0.000000
-0.000037 -0.001045 -0.000433 0.000000
-0.000514 -0.000520 -0.000030 0.000000
-0.000212 -0.000833 0.000219 0.000000
-0.000146 -0.000747 0.000075 0.000000
-0.000305 -0.000605 -0.000061 0.000000
0.000064 -0.000269 0.000063 0.000000
-0.000084 -0.000726 -0.000108 0.000000
0.000352 -0.000952 -0.001001 0.000000
0.000150 -0.000986 -0.000202 0.000000
0.000182 -0.001820 0.001301 0.000000
0.000005 -0.000265 0.000131 0.000000
-0.000482 -0.000616 0.000151 0.000000
-0.000281 -0.000992 0.000465 0.000000
0.000235 -0.001730 0.001129 0.000000
0.000396 -0.001377 -0.000814 0.000000
0.000232 -0.001848 0.001276 0.000000
0.000019 -0.000243 0.000079 0.000000
0.000206 -0.002011 0.001517 0.000000
0.000010 -0.000241 0.000113 0.000000
0.000050 -0.000318 0.000060 0.000000
0.000046 -0.000293 0.000104 0.000000
0.000129 -0.002574 0.000293 0.000000
0.000066 -0.000341 -0.000115 0.000000
0.000067 -0.000356 0.000004 0.000000
0.000068 -0.000317 -0.000086 0.000000
0.000064 -0.000348 -0.000005 0.000000
0.000071 -0.000344 -0.000046 0.000000
0.000615 -0.001332 -0.000523 0.000000
0.000293 -0.001959 0.000442 0.000000
0.000046 -0.000266 0.000113 0.000000
0.000013 -0.000242 0.000091 0.000000
0.000029 -0.000272 0.000093 0.000000
0.000039 -0.000265 0.000056 0.000000
0.000030 -0.000242 0.000034 0.000000
0.000039 -0.000282 0.000063 0.000000
0.000016 -0.000247 0.000068 0.000000
0.000029 -0.000265 0.000093 0.000000
0.000059 -0.000319 0.000020 0.000000
0.000048 -0.000284 0.000020 0.000000
0.000062 -0.000275 -0.000031 0.000000
0.000063 -0.000309 -0.000028 0.000000
0.000046 -0.000230 -0.000021 0.000000
0.000047 -0.000257 0.000011 0.000000
0.000063 -0.000291 -0.000069 0.000000
0.000067 -0.000281 -0.000083 0.000000
0.000021 -0.000229 0.000055 0.000000
0.000011 -0.000233 0.000062 0.000000
0.000038 -0.000258 0.000018 0.000000
0.000030 -0.000254 0.000048 0.000000
0.000004 -0.000219 0.000096 0.000000
0.000613 -0.001183 0.000314 0.000000
0.000018 -0.000224 0.000068 0.000000
0.000769 -0.001515 0.000133 0.000000
0.000012 -0.000248 0.000080 0.000000
0.000018 -0.000240 0.000070 0.000000
0.000021 -0.000240 0.000059 0.000000
0.000004 -0.000242 0.000077 0.000000
-0.000011 -0.000794 -0.000130 0.000000
0.000271 -0.001028 -0.000174 0.000000
0.000151 -0.000973 -0.000239 0.000000
0.000356 -0.001137 0.000013 0.000000
0.000139 -0.000884 0.000114 0.000000
0.000058 -0.000966 -0.000188 0.000000
0.000662 -0.001040 0.001598 0.000000
0.000190 -0.000694 -0.000715 0.000000
0.000021 -0.000219 0.000059 0.000000
0.000602 -0.001333 0.000181 0.000000
0.000026 -0.000339 -0.000217 0.000000
0.000021 -0.000224 -0.000005 0.000000
0.000378 -0.001346 0.000702 0.000000
0.000022 -0.000194 0.000003 0.000000
-0.000015 -0.000179 0.000068 0.000000
0.000028 -0.000233 0.000057 0.000000
0.000028 -0.000223 0.000055 0.000000
0.000036 -0.000224 0.000054 0.000000
0.000074 -0.000209 -0.000014 0.000000
0.000032 -0.000223 0.000057 0.000000
0.000046 -0.000255 -0.000017 0.000000
0.000194 -0.000892 0.000082 0.000000
0.000420 -0.000747 0.001209 0.000000
0.000534 -0.001346 0.001202 0.000000
-0.000015 -0.000160 0.000042 0.000000
0.000884 -0.001642 0.001573 0.000000
0.000075 -0.000335 -0.000141 0.000000
-0.000029 -0.000680 -0.000039 0.000000
-0.000415 -0.000323 0.000122 0.000000
0.000141 -0.000262 0.000004 0.000000
0.000993 -0.001470 0.001141 0.000000
0.000146 -0.000231 0.000014 0.000000
0.000145 -0.000804 -0.000005 0.000000
0.000206 -0.001504 -0.000627 0.000000
0.000056 -0.000214 0.000051 0.000000
0.000036 -0.000231 0.000047 0.000000
0.000034 -0.000212 0.000044 0.000000
0.000037 -0.000218 0.000064 0.000000
0.000070 -0.000211 0.000018 0.000000
0.000064 -0.000225 -0.000041 0.000000
0.000041 -0.000196 0.000010 0.000000
0.000037 -0.000214 0.000045 0.000000
0.000053 -0.000244 -0.000035 0.000000
0.000035 -0.000201 0.000012 0.000000
0.000086 -0.000233 -0.000016 0.000000
0.000147 -0.000242 0.000009 0.000000
0.000078 -0.000220 -0.000011 0.000000
0.000059 -0.000229 -0.000026 0.000000
0.000047 -0.000242 -0.000067 0.000000
0.000058 -0.000234 -0.000003 0.000000
0.000030 -0.000223 -0.000050 0.000000
0.000003 -0.000200 -0.000026 0.000000
0.000043 -0.000223 -0.000004 0.000000
0.000063 -0.000238 -0.000035 0.000000
0.000029 -0.000214 -0.000007 0.000000
0.000049 -0.000235 -0.000038 0.000000
0.000012 -0.000198 -0.000075 0.000000
0.000044 -0.000211 -0.000015 0.000000
0.000053 -0.000245 -0.000064 0.000000
0.000053 -0.000236 -0.000036 0.000000
0.000057 -0.000250 -0.000052 0.000000
0.000048 -0.000219 0.000003 0.000000
0.000031 -0.000218 0.000030 0.000000
0.000052 -0.000227 -0.000030 0.000000
0.000036 -0.000217 0.000007 0.000000
0.000034 -0.000225 0.000026 0.000000
0.000029 -0.000235 0.000039 0.000000
0.000038 -0.000237 0.000008 0.000000
0.000028 -0.000228 0.000040 0.000000
0.000044 -0.000234 -0.000011 0.000000
0.000036 -0.000238 0.000011 0.000000
0.000054 -0.000241 -0.000044 0.000000
0.000055 -0.000263 -0.000042 0.000000
0.000056 -0.000259 -0.000068 0.000000
0.000060 -0.000262 -0.000111 0.000000
0.000044 -0.000244 -0.000147 0.000000
0.000030 -0.000221 -0.000055 0.000000
0.000033 -0.000242 -0.000171 0.000000
-0.000016 -0.000165 -0.000107 0.000000
0.000009 -0.000203 -0.000162 0.000000
-0.000017 -0.000143 -0.000211 0.000000
0.000242 -0.000929 -0.002710 0.000000
-0.000031 -0.000122 -0.000134 0.000000
0.000031 -0.000229 -0.000102 0.000000
-0.000012 -0.000179 -0.000136 0.000000
0.000002 -0.000173 -0.000166 0.000000
-0.000012 -0.000190 -0.000092 0.000000
0.000046 -0.000238 -0.000077 0.000000
0.000047 -0.000250 -0.000089 0.000000
0.000047 -0.000242 -0.000107 0.000000
0.000048 -0.000259 -0.000113 0.000000
0.000043 -0.000230 -0.000047 0.000000
-0.000017 -0.000169 -0.000041 0.000000
0.000033 -0.000227 -0.000075 0.000000
0.000030 -0.000221 -0.000088 0.000000
0.000006 -0.000203 -0.000019 0.000000
0.000024 -0.000209 -0.000017 0.000000
-0.000030 -0.000194 0.000057 0.000000
0.000011 -0.000203 -0.000050 0.000000
0.000918 -0.001932 -0.001111 0.000000
-0.000018 -0.000163 -0.000079 0.000000
0.000977 -0.001999 -0.001213 0.000000
0.000683 -0.001676 -0.002206 0.000000
0.000006 -0.000188 -0.000108 0.000000
-0.000019 -0.000166 -0.000126 0.000000
-0.000021 -0.000158 -0.000066 0.000000
-0.000018 -0.000140 -0.000136 0.000000
-0.000134 -0.000963 -0.000734 0.000000
0.000963 -0.001901 -0.001422 0.000000
-0.000255 -0.000718 0.000268 0.000000
-0.000254 -0.000670 0.000062 0.000000
0.000057 -0.001072 0.000297 0.000000
-0.000319 -0.000629 -0.000003 0.000000
-0.000106 -0.000696 -0.000282 0.000000
0.000217 -0.000939 -0.000945 0.000000
-0.000141 -0.000711 -0.000121 0.000000
-0.000133 -0.000558 -0.000587 0.000000
-0.000005 -0.000143 0.000151 0.000000
0.000048 -0.000992 -0.000284 0.000000
0.000095 -0.000198 0.000188 0.000000
0.000036 -0.000193 0.000100 0.000000
0.000574 -0.001378 0.000797 0.000000
0.000048 -0.001173 0.000431 0.000000
0.000782 -0.002240 -0.000261 0.000000
0.000595 -0.002087 0.000350 0.000000
0.000047 -0.000985 0.000324 0.000000
-0.000017 -0.000182 -0.000004 0.000000
0.000421 -0.001509 0.000079 0.000000
0.000576 -0.001716 0.000586 0.000000
0.000370 -0.001127 -0.000303 0.000000
-0.000208 -0.000641 -0.000596 0.000000
-0.000211 -0.000695 -0.000209 0.000000
0.000079 -0.000241 -0.000042 0.000000
0.000256 -0.001195 -0.002691 0.000000
-0.000356 -0.000533 -0.000279 0.000000
0.001426 -0.002251 0.000777 0.000000
-0.000225 -0.000647 -0.000044 0.000000
0.000118 -0.001270 -0.000019 0.000000
0.001117 -0.001473 0.000617 0.000000
0.001021 -0.002483 0.000128 0.000000
-0.000032 -0.000214 -0.000120 0.000000
0.000879 -0.002074 0.000092 0.000000
0.000026 -0.000201 -0.000021 0.000000
0.000776 -0.001756 -0.000493 0.000000
0.001230 -0.002606 0.000020 0.000000
0.000204 -0.001389 0.000286 0.000000
0.000039 -0.001644 -0.000378 0.000000
0.000115 -0.001857 -0.001055 0.000000
0.000270 -0.001030 -0.000196 0.000000
-0.000016 -0.000203 -0.000050 0.000000
0.000001 -0.000307 -0.000203 0.000000
0.001334 -0.002326 0.000619 0.000000
-0.000255 -0.000598 -0.000341 0.000000
0.001364 -0.001809 0.000903 0.000000
0.000005 -0.000214 -0.000104 0.000000
-0.000164 -0.000707 -0.000636 0.000000
0.000273 -0.001066 -0.000189 0.000000
0.001472 -0.002101 0.001156 0.000000
-0.000005 -0.000953 -0.000167 0.000000
-0.000074 -0.000054 -0.000205 0.000000
-0.000031 -0.000141 -0.000138 0.000000
-0.000252 -0.000517 -0.000792 0.000000
0.000233 -0.001195 -0.002460 0.000000
0.000052 -0.000279 -0.000153 0.000000
0.000682 -0.001175 -0.002231 0.000000
0.000003 -0.000182 -0.000178 0.000000
-0.000036 -0.000092 -0.000185 0.000000
0.000067 -0.000296 -0.000111 0.000000
0.000015 -0.000218 -0.000221 0.000000
0.000045 -0.000243 -0.000150 0.000000
0.000047 -0.000287 -0.000179 0.000000
0.000031 -0.000234 -0.000169 0.000000
-0.000053 -0.000104 -0.000245 0.000000
-0.000032 -0.000120 -0.000156 0.000000
-0.000014 -0.000164 -0.000299 0.000000
0.000326 -0.001042 -0.000458 0.000000
-0.000149 -0.000544 -0.000537 0.000000
-0.000017 -0.000182 -0.000220 0.000000
0.000009 -0.000183 -0.000223 0.000000
-0.000024 -0.000256 -0.000361 0.000000
0.000543 -0.001437 -0.001260 0.000000
0.000067 -0.000340 -0.000116 0.000000
0.000061 -0.000354 -0.000149 0.000000
0.000046 -0.000251 -0.000180 0.000000
0.000010 -0.000248 -0.000253 0.000000
0.000074 -0.000324 -0.000074 0.000000
0.000070 -0.000316 -0.000200 0.000000
0.000038 -0.000289 -0.000172 0.000000
0.000060 -0.000306 -0.000150 0.000000
0.000050 -0.000278 -0.000157 0.000000
0.000034 -0.000311 -0.000237 0.000000
0.000026 -0.000243 -0.000308 0.000000
0.001563 -0.002921 -0.002064 0.000000
-0.000062 -0.000156 -0.000288 0.000000
0.001966 -0.001916 -0.000733 0.000000
0.000416 -0.000745 -0.001905 0.000000
0.001175 -0.002050 -0.001589 0.000000
0.000939 -0.000916 -0.000026 0.000000
0.000225 -0.000264 -0.000454 0.000000
0.000258 -0.000736 -0.002228 0.000000
-0.000071 -0.000094 -0.000203 0.000000
0.000907 -0.001991 -0.000411 0.000000
0.000516 -0.000851 -0.002467 0.000000
-0.000018 -0.000197 -0.000152 0.000000
0.001071 -0.002088 0.000189 0.000000
-0.000016 -0.000189 -0.000026 0.000000
-0.000025 -0.000217 -0.000077 0.000000
-0.000031 -0.000175 -0.000209 0.000000
-0.000066 -0.000176 -0.000197 0.000000
-0.000039 -0.000164 -0.000067 0.000000
-0.000040 -0.000191 -0.000079 0.000000
-0.000035 -0.000173 -0.000033 0.000000
-0.000024 -0.000187 -0.000059 0.000000
-0.000035 -0.000177 0.000029 0.000000
-0.000034 -0.000177 0.000022 0.000000
-0.000036 -0.000180 0.000027 0.000000
-0.000031 -0.000185 0.000034 0.000000
-0.000038 -0.000173 0.000051 0.000000
-0.000033 -0.000190 0.000038 0.000000
-0.000033 -0.000182 0.000045 0.000000
-0.000022 -0.000203 0.000036 0.000000
-0.000042 -0.000172 0.000049 0.000000
-0.000039 -0.000173 0.000048 0.000000
-0.000044 -0.000176 0.000039 0.000000
-0.000031 -0.000198 0.000033 0.000000
-0.000032 -0.000178 -0.000007 0.000000
-0.000030 -0.000177 0.000029 0.000000
-0.000034 -0.000177 0.000036 0.000000
-0.000038 -0.000179 0.000043 0.000000
-0.000017 -0.000184 0.000037 0.000000
-0.000017 -0.000201 -0.000000 0.000000
-0.000035 -0.000170 0.000060 0.000000
-0.000008 -0.000192 0.000019 0.000000
-0.000009 -0.000187 0.000074 0.000000
0.000204 -0.001515 0.000265 0.000000
-0.000017 -0.000170 0.000101 0.000000
-0.000045 -0.000163 0.000054 0.000000
-0.000030 -0.001262 0.000536 0.000000
-0.000024 -0.000181 0.000072 0.000000
-0.000053 -0.001068 0.000665 0.000000
-0.000040 -0.000158 0.000077 0.000000
-0.000025 -0.000183 0.000064 0.000000
-0.000043 -0.000162 0.000061 0.000000
-0.000034 -0.000158 0.000080 0.000000
-0.000039 -0.000167 0.000067 0.000000
-0.000054 -0.000151 0.000069 0.000000
-0.000046 -0.000164 0.000055 0.000000
-0.000047 -0.000166 0.000046 0.000000
-0.000078 -0.000156 0.000012 0.000000
-0.000187 -0.000970 -0.000048 0.000000
-0.000047 -0.000172 0.000032 0.000000
-0.000211 -0.000783 0.000404 0.000000
-0.000053 -0.000154 0.000073 0.000000
-0.000212 -0.000851 0.000095 0.000000
-0.000068 -0.000153 0.000057 0.000000
-0.000060 -0.000152 0.000030 0.000000
-0.000038 -0.000187 -0.000007 0.000000
0.000063 -0.001466 -0.000173 0.000000
-0.000031 -0.000210 -0.000080 0.000000
-0.000057 -0.000160 -0.000003 0.000000
-0.000056 -0.000181 0.000001 0.000000
-0.000057 -0.000185 -0.000060 0.000000
0.000008 -0.000250 -0.000027 0.000000
-0.000027 -0.000206 -0.000029 0.000000
-0.000022 -0.000212 -0.000006 0.000000
-0.000033 -0.000199 -0.000057 0.000000
-0.000031 -0.000212 -0.000048 0.000000
-0.000047 -0.000179 0.000030 0.000000
-0.000059 -0.000168 0.000037 0.000000
-0.000043 -0.000192 0.000015 0.000000
-0.000043 -0.000177 0.000016 0.000000
-0.000028 -0.000206 0.000026 0.000000
-0.000045 -0.000179 0.000033 0.000000
-0.000028 -0.000195 0.000032 0.000000
-0.000035 -0.000198 0.000021 0.000000
-0.000030 -0.000199 0.000010 0.000000
-0.000016 -0.000218 0.000010 0.000000
-0.000025 -0.000217 -0.000022 0.000000
-0.000021 -0.000222 -0.000003 0.000000
0.000019 -0.000259 -0.000002 0.000000
-0.000010 -0.000230 -0.000017 0.000000
0.000004 -0.000254 -0.000044 0.000000
0.000004 -0.000255 -0.000012 0.000000
0.000028 -0.000267 -0.000008 0.000000
0.000028 -0.000273 0.000039 0.000000
-0.000010 -0.000232 -0.000055 0.000000
-0.000011 -0.000234 -0.000031 0.000000
0.000009 -0.000257 -0.000011 0.000000
0.000009 -0.000270 -0.000056 0.000000
0.000323 -0.001932 0.000193 0.000000
0.000029 -0.000272 -0.000003 0.000000
0.000050 -0.000274 0.000027 0.000000
0.000735 -0.001962 0.000490 0.000000
0.000041 -0.000277 0.000027 0.000000
0.000039 -0.000272 0.000049 0.000000
0.000036 -0.000236 0.000012 0.000000
0.000028 -0.000262 -0.000028 0.000000
0.000050 -0.000260 0.000038 0.000000
0.000028 -0.000233 0.000017 0.000000
-0.000323 -0.000614 0.000265 0.000000
0.000023 -0.000184 -0.000173 0.000000
-0.000262 -0.000446 -0.000187 0.000000
-0.000507 -0.000509 0.000628 0.000000
-0.000459 -0.000469 0.000403 0.000000
-0.000403 -0.000630 0.000660 0.000000
-0.000254 -0.000848 0.000400 0.000000
-0.000463 -0.000521 0.000433 0.000000
-0.000377 -0.000546 0.000264 0.000000
-0.000033 -0.000135 0.000056 0.000000
0.000062 -0.000259 -0.000009 0.000000
0.000417 -0.001683 0.000886 0.000000
0.000473 -0.001400 0.000563 0.000000
-0.000164 -0.000548 0.000123 0.000000
0.000272 -0.001001 0.000181 0.000000
-0.000304 -0.000983 0.000171 0.000000
0.000549 -0.001781 0.000633 0.000000
0.000090 -0.000268 -0.000043 0.000000
0.000226 -0.001214 0.000415 0.000000
-0.000094 -0.000835 0.000498 0.000000
-0.000016 -0.001161 0.000622 0.000000
-0.000322 -0.000577 0.000428 0.000000
-0.000360 -0.000541 0.000485 0.000000
-0.000397 -0.000578 0.000619 0.000000
-0.000324 -0.000466 0.000086 0.000000
-0.000341 -0.000514 0.000260 0.000000
-0.000036 -0.000151 0.000119 0.000000
-0.000235 -0.000684 0.000113 0.000000
0.000239 -0.001527 -0.000330 0.000000
0.000469 -0.001203 0.000309 0.000000
0.000526 -0.001364 0.000580 0.000000
-0.000095 -0.000791 0.000615 0.000000
0.000098 -0.001309 0.000493 0.000000
-0.000255 -0.000796 0.000401 0.000000
0.000175 -0.001800 -0.000135 0.000000
0.000184 -0.001614 -0.000342 0.000000
0.000323 -0.001698 -0.000414 0.000000
0.000520 -0.001627 0.000389 0.000000
0.000474 -0.001939 0.000164 0.000000
0.000184 -0.001599 -0.000420 0.000000
0.000417 -0.001993 0.000281 0.000000
0.000378 -0.001634 -0.000350 0.000000
-0.000027 -0.001548 -0.000281 0.000000
-0.000002 -0.000239 -0.000080 0.000000
0.000015 -0.000262 -0.000035 0.000000
0.000376 -0.001933 -0.000161 0.000000
0.000260 -0.001937 0.000089 0.000000
0.000020 -0.001810 0.000112 0.000000
0.000373 -0.001936 0.000126 0.000000
0.000224 -0.001733 -0.000294 0.000000
0.000258 -0.001736 -0.000286 0.000000
0.000165 -0.001524 -0.000616 0.000000
0.000008 -0.001653 -0.000213 0.000000
0.000011 -0.000231 -0.000078 0.000000
-0.000012 -0.000191 -0.000105 0.000000
0.000008 -0.000240 -0.000053 0.000000
0.000012 -0.000228 -0.000072 0.000000
0.000000 -0.000221 -0.000042 0.000000
0.000008 -0.000209 -0.000096 0.000000
0.000007 -0.000211 -0.000071 0.000000
0.000194 -0.001460 -0.000697 0.000000
0.000009 -0.000216 -0.000104 0.000000
0.000033 -0.000213 -0.000122 0.000000
-0.000001 -0.000221 -0.000089 0.000000
0.000004 -0.000203 -0.000111 0.000000
0.000012 -0.001475 -0.000590 0.000000
0.000240 -0.001453 -0.000735 0.000000
0.000538 -0.001969 -0.000173 0.000000
0.000055 -0.001394 -0.000786 0.000000
0.000590 -0.001532 0.000630 0.000000
-0.000345 -0.000455 0.000354 0.000000
0.000674 -0.001440 0.001008 0.000000
0.000330 -0.000888 0.000641 0.000000
-0.000162 -0.000651 0.000138 0.000000
-0.000283 -0.000476 0.000368 0.000000
-0.000335 -0.000172 -0.000047 0.000000
0.000207 -0.000711 0.001066 0.000000
-0.000279 -0.000029 0.000458 0.000000
0.000495 -0.001177 0.001051 0.000000
-0.000015 -0.000167 0.000167 0.000000
-0.000005 -0.000186 -0.000115 0.000000
0.000541 -0.000948 0.001347 0.000000
0.000159 -0.000879 0.000455 0.000000
0.000047 -0.000342 -0.000181 0.000000
0.000066 -0.000932 0.000664 0.000000
0.000279 -0.001283 0.000717 0.000000
0.000025 -0.000550 0.000777 0.000000
-0.000007 -0.000184 -0.000093 0.000000
0.000044 -0.000836 0.000409 0.000000
-0.000099 -0.000712 0.000489 0.000000
0.000108 -0.000782 0.000705 0.000000
-0.000011 -0.000738 0.000545 0.000000
0.000660 -0.001577 0.000883 0.000000
-0.000015 -0.000116 0.000094 0.000000
-0.000138 -0.000461 0.000629 0.000000
-0.000007 -0.000191 -0.000089 0.000000
-0.000149 -0.000612 0.000451 0.000000
-0.000003 -0.000205 -0.000097 0.000000
0.000004 -0.000232 -0.000110 0.000000
-0.000002 -0.000216 -0.000108 0.000000
0.000001 -0.000211 -0.000099 0.000000
-0.000015 -0.000175 -0.000077 0.000000
-0.000009 -0.000201 -0.000084 0.000000
-0.000005 -0.000211 -0.000097 0.000000
-0.000004 -0.000197 -0.000084 0.000000
-0.000010 -0.000201 -0.000103 0.000000
-0.000002 -0.000208 -0.000067 0.000000
0.000025 -0.000236 -0.000069 0.000000
0.000002 -0.000223 -0.000090 0.000000
0.000018 -0.000267 -0.000116 0.000000
0.000009 -0.000211 -0.000105 0.000000
-0.000002 -0.000201 -0.000080 0.000000
0.000001 -0.000190 -0.000118 0.000000
-0.000014 -0.000185 -0.000084 0.000000
-0.000006 -0.000197 -0.000100 0.000000
-0.000007 -0.000174 -0.000067 0.000000
-0.000001 -0.000192 -0.000111 0.000000
-0.000010 -0.000185 -0.000099 0.000000
-0.000014 -0.000184 -0.000095 0.000000
-0.000010 -0.000196 -0.000087 0.000000
0.000332 -0.001397 -0.000251 0.000000
-0.000000 -0.000189 -0.000054 0.000000
-0.000004 -0.000175 -0.000026 0.000000
-0.000001 -0.000183 -0.000071 0.000000
-0.000094 -0.000538 0.000206 0.000000
0.000543 -0.001316 0.001307 0.000000
-0.000021 -0.000143 -0.000012 0.000000
-0.000229 -0.000689 0.000066 0.000000
-0.000021 -0.000172 -0.000036 0.000000
-0.000135 -0.000663 -0.000124 0.000000
-0.000026 -0.000134 -0.000043 0.000000
-0.000067 -0.001105 -0.000141 0.000000
-0.000026 -0.000155 0.000004 0.000000
0.000360 -0.001618 -0.000302 0.000000
-0.000012 -0.000155 0.000004 0.000000
-0.000019 -0.000161 0.000013 0.000000
-0.000014 -0.000161 -0.000002 0.000000
0.000075 -0.001189 -0.000029 0.000000
-0.000001 -0.000213 -0.000003 0.000000
-0.000009 -0.000186 0.000010 0.000000
-0.000070 -0.001227 -0.000311 0.000000
0.000123 -0.001307 -0.000417 0.000000
-0.000006 -0.000195 -0.000000 0.000000
-0.000021 -0.000195 0.000034 0.000000
-0.000285 -0.000810 0.000315 0.000000
-0.000059 -0.000946 0.000063 0.000000
-0.000181 -0.000854 0.000076 0.000000
-0.000074 -0.000998 -0.000108 0.000000
-0.000125 -0.000837 -0.000079 0.000000
-0.000144 -0.000936 0.000041 0.000000
0.000274 -0.001189 -0.000267 0.000000
-0.000125 -0.000970 -0.000034 0.000000
0.000289 -0.001635 -0.000045 0.000000
0.000217 -0.001414 -0.000041 0.000000
-0.000285 -0.000677 0.000309 0.000000
0.000089 -0.001158 0.000908 0.000000
-0.000206 -0.000832 0.000119 0.000000
-0.000276 -0.000713 0.000282 0.000000
-0.000068 -0.000978 0.000574 0.000000
-0.000078 -0.000956 0.000397 0.000000
-0.000209 -0.000998 0.000247 0.000000
-0.000213 -0.000789 0.000236 0.000000
-0.000009 -0.001413 0.000089 0.000000
0.000588 -0.001787 0.000284 0.000000
-0.000018 -0.001394 0.000359 0.000000
0.000203 -0.001483 0.000486 0.000000
0.000372 -0.001670 0.000437 0.000000
-0.000242 -0.000860 0.000560 0.000000
0.000136 -0.001373 0.000630 0.000000
0.000128 -0.001178 0.000788 0.000000
-0.000129 -0.000896 0.000571 0.000000
0.000099 -0.001065 0.001007 0.000000
0.000769 -0.001981 0.000302 0.000000
0.000595 -0.001912 0.000354 0.000000
0.000612 -0.001713 0.000575 0.000000
0.000077 -0.001214 0.000728 0.000000
-0.000069 -0.000976 0.000593 0.000000
0.000121 -0.001299 0.000969 0.000000
-0.000243 -0.000636 0.000366 0.000000
-0.000277 -0.000753 0.000447 0.000000
-0.000268 -0.000624 0.000514 0.000000
-0.000064 -0.000748 0.000125 0.000000
-0.000287 -0.000652 0.000278 0.000000
0.000431 -0.001302 0.000240 0.000000
0.000022 -0.000180 0.000088 0.000000
0.000347 -0.001681 0.000125 0.000000
0.000595 -0.001806 0.000308 0.000000
0.000578 -0.001806 0.000309 0.000000
0.000332 -0.001422 0.000581 0.000000
0.000309 -0.001293 0.000889 0.000000
0.000071 -0.000187 0.000121 0.000000
0.000454 -0.001766 -0.000037 0.000000
0.000602 -0.001841 -0.000066 0.000000
0.000924 -0.002036 0.000910 0.000000
-0.000070 -0.000695 0.000698 0.000000
0.000923 -0.001628 0.001246 0.000000
0.000477 -0.001397 0.000841 0.000000
0.000229 -0.001128 0.001233 0.000000
0.000066 -0.000355 0.000029 0.000000
0.000713 -0.001988 -0.000085 0.000000
0.000134 -0.000706 0.000957 0.000000
0.000824 -0.001244 0.000631 0.000000
-0.000007 -0.000151 0.000055 0.000000
-0.000001 -0.000157 0.000064 0.000000
0.000004 -0.000172 0.000066 0.000000
0.000103 -0.000194 0.000184 0.000000
-0.000006 -0.000150 0.000060 0.000000
-0.000009 -0.000159 0.000048 0.000000
0.000021 -0.000150 0.000011 0.000000
0.000020 -0.000172 0.000068 0.000000
-0.000009 -0.000148 0.000047 0.000000
-0.000006 -0.000153 0.000045 0.000000
-0.000001 -0.000161 0.000047 0.000000
0.000021 -0.000239 0.000031 0.000000
0.000882 -0.001422 0.000854 0.000000
0.000047 -0.000584 0.000236 0.000000
0.001020 -0.001578 0.000596 0.000000
0.000081 -0.000536 0.000018 0.000000
0.000431 -0.001373 0.001187 0.000000
-0.000012 -0.000136 -0.000009 0.000000
0.000162 -0.000338 0.001157 0.000000
0.000772 -0.001346 0.000881 0.000000
0.000535 -0.001228 0.000301 0.000000
0.000712 -0.001146 0.000632 0.000000
0.000003 -0.000159 0.000028 0.000000
0.000644 -0.001526 0.001489 0.000000
-0.000007 -0.000138 -0.000002 0.000000
-0.000006 -0.000161 -0.000044 0.000000
0.000400 -0.000290 0.002091 0.000000
0.000007 -0.000118 0.000005 0.000000
-0.000004 -0.000123 0.000043 0.000000
-0.000005 -0.000119 -0.000012 0.000000
0.000006 -0.000129 -0.000016 0.000000
-0.000011 -0.000170 -0.000005 0.000000
0.000003 -0.000131 -0.000009 0.000000
-0.000005 -0.000132 -0.000019 0.000000
-0.000007 -0.000134 0.000000 0.000000
0.000006 -0.000139 0.000013 0.000000
0.000005 -0.000143 -0.000018 0.000000
-0.000000 -0.000189 -0.000054 0.000000
0.000133 -0.000208 0.001050 0.000000
-0.000008 -0.000145 -0.000016 0.000000
-0.000004 -0.000148 -0.000014 0.000000
-0.000004 -0.000146 -0.000004 0.000000
0.000487 -0.000876 0.000285 0.000000
-0.000005 -0.000141 -0.000004 0.000000
-0.000075 -0.000866 0.000288 0.000000
-0.000287 -0.000169 -0.000078 0.000000
0.000181 -0.001061 -0.000260 0.000000
-0.000246 -0.000521 -0.000026 0.000000
-0.000021 -0.000142 -0.000017 0.000000
-0.000196 -0.000167 0.000281 0.000000
-0.000014 -0.000151 -0.000007 0.000000
-0.000004 -0.000144 -0.000006 0.000000
-0.000012 -0.000143 -0.000015 0.000000
-0.000011 -0.000151 -0.000014 0.000000
-0.000007 -0.000159 -0.000013 0.000000
-0.000005 -0.000169 -0.000024 0.000000
-0.000003 -0.000161 -0.000026 0.000000
-0.000005 -0.000158 -0.000028 0.000000
-0.000012 -0.000171 -0.000071 0.000000
-0.000004 -0.000173 -0.000048 0.000000
-0.000002 -0.000153 -0.000036 0.000000
-0.000010 -0.000165 -0.000058 0.000000
-0.000007 -0.000171 -0.000060 0.000000
-0.000011 -0.000178 -0.000083 0.000000
-0.000000 -0.000159 -0.000038 0.000000
-0.000000 -0.000160 -0.000034 0.000000
-0.000016 -0.000163 -0.000061 0.000000
-0.000009 -0.000164 -0.000057 0.000000
-0.000005 -0.000172 -0.000061 0.000000
-0.000005 -0.000183 -0.000076 0.000000
-0.000012 -0.000178 -0.000082 0.000000
-0.000013 -0.000182 -0.000081 0.000000
-0.000015 -0.000171 -0.000071 0.000000
-0.000014 -0.000180 -0.000086 0.000000
-0.000012 -0.000190 -0.000089 0.000000
-0.000016 -0.000170 -0.000089 0.000000
-0.000002 -0.000225 -0.000123 0.000000
0.000900 -0.001331 0.001704 0.000000
-0.000028 -0.000556 0.000517 0.000000
0.000083 -0.000936 0.000571 0.000000
0.000305 -0.000912 0.000501 0.000000
-0.000007 -0.000218 -0.000142 0.000000
-0.000061 -0.000577 0.000228 0.000000
-0.000048 -0.000805 0.000270 0.000000
-0.000018 -0.000165 -0.000070 0.000000
-0.000014 -0.000175 -0.000076 0.000000
-0.000014 -0.000182 -0.000086 0.000000
-0.000005 -0.000195 -0.000109 0.000000
-0.000198 -0.000361 0.000328 0.000000
-0.000017 -0.000173 -0.000080 0.000000
-0.000018 -0.000143 -0.000035 0.000000
-0.000009 -0.000157 -0.000042 0.000000
-0.000065 -0.000523 0.000313 0.000000
-0.000021 -0.000153 -0.000093 0.000000
-0.000181 -0.000407 0.000126 0.000000
-0.000151 -0.000458 0.000230 0.000000
0.000383 -0.000917 0.000780 0.000000
0.000244 -0.000996 0.000354 0.000000
-0.000041 -0.000164 -0.000171 0.000000
-0.000150 -0.000370 0.000207 0.000000
-0.000113 -0.000511 0.000107 0.000000
-0.000181 -0.000314 0.000165 0.000000
-0.000018 -0.000184 -0.000110 0.000000
-0.000020 -0.000153 -0.000063 0.000000
-0.000029 -0.000166 -0.000116 0.000000
-0.000027 -0.000144 -0.000067 0.000000
-0.000001 -0.000150 -0.000019 0.000000
-0.000014 -0.000163 -0.000059 0.000000
-0.000015 -0.000158 -0.000052 0.000000
-0.000009 -0.000148 -0.000025 0.000000
-0.000008 -0.000150 -0.000025 0.000000
-0.000006 -0.000165 -0.000054 0.000000
-0.000017 -0.000154 -0.000049 0.000000
-0.000014 -0.000155 -0.000043 0.000000
-0.000006 -0.000159 -0.000045 0.000000
-0.000005 -0.000148 -0.000029 0.000000
-0.000004 -0.000151 -0.000026 0.000000
0.000002 -0.000149 -0.000021 0.000000
0.000007 -0.000149 -0.000024 0.000000
0.000002 -0.000152 -0.000023 0.000000
0.000008 -0.000148 -0.000012 0.000000
0.000004 -0.000153 -0.000026 0.000000
-0.000009 -0.000157 -0.000042 0.000000
-0.000004 -0.000158 -0.000039 0.000000
0.000012 -0.000142 -0.000002 0.000000
0.000011 -0.000146 -0.000013 0.000000
0.000006 -0.000145 -0.000001 0.000000
0.000008 -0.000143 0.000003 0.000000
0.000015 -0.000135 0.000006 0.000000
0.000014 -0.000138 -0.000003 0.000000
-0.000001 -0.000135 0.000016 0.000000
0.000014 -0.000141 0.000014 0.000000
0.000005 -0.000144 0.000000 0.000000
0.000000 -0.000125 0.000029 0.000000
-0.000001 -0.000124 0.000030 0.000000
0.000010 -0.000142 0.000017 0.000000
-0.000005 -0.000144 -0.000007 0.000000
-0.000001 -0.000147 -0.000010 0.000000
0.000000 -0.000143 0.000000 0.000000
0.000009 -0.000141 0.000019 0.000000
-0.000029 -0.000120 -0.000043 0.000000
-0.000020 -0.000130 -0.000021 0.000000
-0.000023 -0.000153 -0.000143 0.000000
-0.000024 -0.000137 -0.000055 0.000000
-0.000042 -0.000127 -0.000137 0.000000
-0.000031 -0.000132 -0.000091 0.000000
-0.000055 -0.000144 -0.000172 0.000000
-0.000043 -0.000124 -0.000095 0.000000
-0.000046 -0.000096 -0.000060 0.000000
-0.000030 -0.000127 -0.000055 0.000000
-0.000253 -0.000359 0.000047 0.000000
-0.000309 -0.000377 -0.000095 0.000000
-0.000011 -0.000138 -0.000008 0.000000
-0.000008 -0.000127 0.000011 0.000000
0.000011 -0.000132 0.000040 0.000000
0.000001 -0.000134 0.000019 0.000000
-0.000027 -0.000106 -0.000026 0.000000
-0.000021 -0.000118 -0.000008 0.000000
-0.000005 -0.000109 -0.000032 0.000000
-0.000006 -0.000105 0.000011 0.000000
-0.000022 -0.000117 -0.000040 0.000000
-0.000019 -0.000114 -0.000026 0.000000
-0.000056 -0.000135 -0.000158 0.000000
-0.000257 -0.000264 0.000151 0.000000
-0.000027 -0.000117 -0.000073 0.000000
0.000799 -0.001558 -0.000691 0.000000
-0.000001 -0.000058 0.000018 0.000000
-0.000027 -0.000086 -0.000074 0.000000
0.001053 -0.001580 -0.000780 0.000000
0.000006 -0.000123 -0.000086 0.000000
-0.000012 -0.000108 -0.000011 0.000000
0.000043 -0.000116 -0.000001 0.000000
-0.000009 -0.000095 -0.000024 0.000000
-0.000023 -0.000099 -0.000037 0.000000
0.000004 -0.000120 0.000043 0.000000
-0.000006 -0.000076 0.000008 0.000000
-0.000004 -0.000114 0.000025 0.000000
-0.000008 -0.000100 0.000015 0.000000
0.000019 -0.000141 0.000009 0.000000
0.000009 -0.000136 0.000032 0.000000
-0.000000 -0.000110 0.000039 0.000000
0.000008 -0.000100 0.000047 0.000000
0.000010 -0.000119 0.000008 0.000000
0.000019 -0.000138 0.000022 0.000000
0.000015 -0.000135 0.000006 0.000000
0.000017 -0.000140 0.000027 0.000000
0.000018 -0.000127 0.000014 0.000000
0.000022 -0.000137 0.000039 0.000000
0.000016 -0.000128 0.000009 0.000000
0.000020 -0.000139 0.000017 0.000000
0.000022 -0.000142 0.000040 0.000000
0.000016 -0.000132 0.000042 0.000000
0.000001 -0.000111 0.000014 0.000000
0.000736 -0.001277 0.000718 0.000000
-0.000051 -0.000391 0.000025 0.000000
0.000020 -0.000100 0.000053 0.000000
0.000756 -0.001019 0.000147 0.000000
-0.000069 -0.000411 -0.000187 0.000000
0.001797 -0.002482 0.002353 0.000000
0.002830 -0.003244 0.000893 0.000000
0.000088 -0.000456 -0.000145 0.000000
-0.000068 -0.000414 -0.000076 0.000000
-0.000006 -0.000083 0.000025 0.000000
0.000753 -0.001194 0.000512 0.000000
0.001498 -0.002142 0.002212 0.000000
0.000014 -0.000119 0.000006 0.000000
0.000010 -0.000113 -0.000017 0.000000
0.000014 -0.000123 -0.000001 0.000000
0.000001 -0.000097 0.000003 0.000000
0.000012 -0.000128 -0.000010 0.000000
0.000010 -0.000127 0.000003 0.000000
0.000011 -0.000128 0.000006 0.000000
0.001785 -0.001889 0.002797 0.000000
0.001476 -0.001638 0.002483 0.000000
0.000001 -0.000109 -0.000010 0.000000
0.000002 -0.000116 0.000012 0.000000
0.000991 -0.001492 0.000452 0.000000
0.000077 -0.000653 0.000079 0.000000
0.000684 -0.001216 0.000709 0.000000
-0.000010 -0.000075 0.000057 0.000000
-0.000076 -0.000480 -0.000190 0.000000
0.000668 -0.001244 0.000981 0.000000
-0.000080 -0.000457 -0.000085 0.000000
0.000764 -0.001310 0.000911 0.000000
0.001195 -0.001932 0.001851 0.000000
0.001159 -0.001356 0.002106 0.000000
-0.000106 -0.000417 -0.000063 0.000000
0.000210 -0.000783 0.000055 0.000000
0.000049 -0.000530 0.000213 0.000000
0.000031 -0.000543 -0.000222 0.000000
-0.000001 -0.000117 -0.000004 0.000000
-0.000018 -0.000109 0.000008 0.000000
0.000052 -0.000564 0.000089 0.000000
-0.000006 -0.000128 -0.000066 0.000000
-0.000006 -0.000137 0.000024 0.000000
-0.000000 -0.000143 0.000025 0.000000
-0.000015 -0.000114 0.000023 0.000000
-0.000008 -0.000129 0.000032 0.000000
-0.000001 -0.000156 -0.000001 0.000000
-0.000009 -0.000153 0.000016 0.000000
-0.000010 -0.000130 0.000020 0.000000
0.000001 -0.000157 0.000024 0.000000
0.000025 -0.000634 -0.000145 0.000000
-0.000006 -0.000165 0.000034 0.000000
0.000067 -0.001152 -0.000576 0.000000
-0.000007 -0.000130 0.000021 0.000000
0.000078 -0.000671 -0.000203 0.000000
0.000026 -0.000730 -0.000288 0.000000
0.000130 -0.000739 -0.000293 0.000000
0.000051 -0.000632 -0.000185 0.000000
-0.000129 -0.000401 -0.000236 0.000000
0.000032 -0.000676 -0.000126 0.000000
0.000218 -0.000610 -0.000436 0.000000
-0.000030 -0.000494 -0.000276 0.000000
0.000016 -0.000333 -0.000144 0.000000
0.000000 -0.000094 -0.000024 0.000000
0.000299 -0.000877 -0.000695 0.000000
-0.000002 -0.000086 -0.000071 0.000000
0.000128 -0.000674 -0.000592 0.000000
0.000147 -0.000798 -0.000817 0.000000
-0.000069 -0.000425 -0.000240 0.000000
-0.000077 -0.000403 -0.000149 0.000000
0.000073 -0.001206 -0.000662 0.000000
0.000026 -0.000150 -0.000104 0.000000
0.000018 -0.000139 0.000041 0.000000
0.000115 -0.001168 -0.000574 0.000000
-0.000015 -0.000113 0.000023 0.000000
0.000389 -0.001039 0.000096 0.000000
0.000381 -0.001090 -0.000008 0.000000
0.000001 -0.000164 -0.000005 0.000000
0.000142 -0.000777 -0.000107 0.000000
-0.000070 -0.000686 -0.000452 0.000000
0.000056 -0.000862 -0.000279 0.000000
0.000293 -0.000853 0.000114 0.000000
0.000007 -0.000130 0.000019 0.000000
-0.000000 -0.000106 -0.000033 0.000000
0.000021 -0.000138 0.000011 0.000000
-0.000003 -0.000102 -0.000010 0.000000
0.000026 -0.000113 -0.000042 0.000000
0.000020 -0.000114 -0.000047 0.000000
0.000009 -0.000108 -0.000014 0.000000
-0.000019 -0.000106 -0.000050 0.000000
0.000703 -0.001250 -0.001191 0.000000
0.000466 -0.000956 -0.000713 0.000000
0.000101 -0.000896 -0.000470 0.000000
0.000220 -0.000764 -0.000745 0.000000
0.000740 -0.001162 -0.000659 0.000000
0.001112 -0.001983 0.000762 0.000000
0.000650 -0.001305 -0.001494 0.000000
0.000208 -0.001039 -0.000926 0.000000
0.000472 -0.001023 -0.001196 0.000000
0.000300 -0.001043 -0.001268 0.000000
0.000035 -0.000105 -0.000109 0.000000
0.000029 -0.000673 -0.000742 0.000000
-0.000139 -0.000566 -0.000303 0.000000
0.000039 -0.000739 -0.000227 0.000000
-0.000154 -0.000653 -0.000674 0.000000
0.000327 -0.001218 -0.001302 0.000000
0.000052 -0.000684 -0.000500 0.000000
0.000047 -0.000802 -0.000683 0.000000
0.000260 -0.001174 -0.000674 0.000000
0.000492 -0.001244 -0.001508 0.000000
0.000490 -0.001287 -0.001440 0.000000
0.000435 -0.001246 -0.001557 0.000000
0.000438 -0.001188 -0.001530 0.000000
0.000151 -0.001015 -0.000917 0.000000
0.000063 -0.000890 -0.000792 0.000000
0.000243 -0.000889 -0.001070 0.000000
-0.000183 -0.000629 -0.000306 0.000000
0.000136 -0.000862 -0.001000 0.000000
0.000060 -0.000763 -0.000587 0.000000
0.000054 -0.000814 -0.000743 0.000000
-0.000121 -0.000665 -0.000535 0.000000
-0.000144 -0.000703 -0.000365 0.000000
-0.000248 -0.000561 0.000075 0.000000
-0.000040 -0.000708 -0.000276 0.000000
-0.000121 -0.000569 -0.000126 0.000000
0.000047 -0.000694 -0.000347 0.000000
0.000157 -0.000880 -0.000008 0.000000
-0.000057 -0.000701 -0.000144 0.000000
-0.000012 -0.000157 -0.000092 0.000000
0.000200 -0.001049 -0.000161 0.000000
-0.000022 -0.000176 -0.000136 0.000000
-0.000005 -0.000178 -0.000081 0.000000
-0.000019 -0.000138 -0.000046 0.000000
-0.000064 -0.000773 -0.000026 0.000000
-0.000006 -0.000165 -0.000033 0.000000
-0.000008 -0.000163 -0.000078 0.000000
0.000006 -0.000176 -0.000027 0.000000
0.000004 -0.000174 -0.000037 0.000000
-0.000012 -0.000162 -0.000046 0.000000
-0.000314 -0.000514 -0.000138 0.000000
-0.000006 -0.000155 0.000029 0.000000
-0.000006 -0.000159 0.000013 0.000000
-0.000032 -0.000150 -0.000055 0.000000
-0.000025 -0.000163 -0.000078 0.000000
-0.000271 -0.000256 0.000279 0.000000
-0.000025 -0.000172 -0.000005 0.000000
-0.000052 -0.000143 -0.000062 0.000000
-0.000147 -0.000652 -0.000396 0.000000
-0.000305 -0.000470 -0.000283 0.000000
0.000055 -0.000299 0.000005 0.000000
-0.000019 -0.000166 -0.000023 0.000000
-0.000010 -0.000181 0.000042 0.000000
-0.000007 -0.000153 0.000047 0.000000
-0.000008 -0.000155 0.000045 0.000000
0.000011 -0.000148 0.000129 0.000000
-0.000025 -0.000161 0.000006 0.000000
-0.000006 -0.000154 0.000040 0.000000
-0.000024 -0.000156 0.000017 0.000000
0.000043 -0.000183 0.000108 0.000000
-0.000018 -0.000166 0.000068 0.000000
0.000018 -0.000181 0.000091 0.000000
0.000023 -0.000168 0.000053 0.000000
0.000079 -0.000230 0.000004 0.000000
-0.000032 -0.000203 0.000070 0.000000
0.000038 -0.000283 0.000117 0.000000
-0.000028 -0.000157 0.000045 0.000000
-0.000152 -0.000666 -0.000328 0.000000
-0.000261 -0.000397 -0.000485 0.000000
-0.000273 -0.000503 -0.000402 0.000000
-0.000138 -0.000610 -0.000366 0.000000
-0.000273 -0.000319 -0.000277 0.000000
-0.000023 -0.000175 0.000008 0.000000
-0.000144 -0.000666 -0.000365 0.000000
0.000129 -0.001028 -0.000680 0.000000
-0.000148 -0.000705 -0.000242 0.000000
-0.000117 -0.000634 -0.000426 0.000000
0.000209 -0.001198 -0.000828 0.000000
-0.000046 -0.000779 -0.000432 0.000000
0.000043 -0.000840 -0.000569 0.000000
-0.000111 -0.000857 -0.000466 0.000000
-0.000019 -0.000177 -0.000011 0.000000
-0.000044 -0.001101 0.000298 0.000000
-0.000023 -0.000177 -0.000008 0.000000
0.000815 -0.001842 -0.001013 0.000000
0.000352 -0.001236 -0.001054 0.000000
0.000005 -0.001110 0.000310 0.000000
0.000817 -0.001619 -0.001058 0.000000
0.000484 -0.001312 -0.001367 0.000000
0.000983 -0.001873 -0.001278 0.000000
0.000368 -0.001144 -0.001026 0.000000
0.000487 -0.001192 -0.001176 0.000000
0.000797 -0.001507 -0.000646 0.000000
0.000391 -0.001233 -0.001310 0.000000
0.000303 -0.001045 -0.001200 0.000000
-0.000043 -0.000806 -0.000450 0.000000
0.000111 -0.000912 -0.000935 0.000000
-0.000017 -0.000784 -0.000521 0.000000
-0.000192 -0.000527 -0.000173 0.000000
-0.000006 -0.000858 -0.000584 0.000000
-0.000062 -0.000698 -0.000415 0.000000
-0.000094 -0.000641 -0.000346 0.000000
-0.000064 -0.000762 -0.000596 0.000000
0.000271 -0.000924 -0.000980 0.000000
0.000115 -0.001174 0.000227 0.000000
0.000386 -0.001380 -0.000809 0.000000
0.000470 -0.001275 -0.001554 0.000000
0.000206 -0.001026 -0.001005 0.000000
0.000251 -0.000989 -0.001267 0.000000
0.000353 -0.001355 0.000458 0.000000
0.000446 -0.000672 0.000489 0.000000
0.000345 -0.001423 0.000234 0.000000
0.000411 -0.001440 0.000613 0.000000
0.001005 -0.001821 -0.001416 0.000000
0.000903 -0.001261 -0.000852 0.000000
0.001119 -0.002346 0.000704 0.000000
0.000945 -0.002032 0.000540 0.000000
0.000381 -0.001683 -0.001279 0.000000
0.000849 -0.002426 -0.000111 0.000000
0.000418 -0.001721 0.000539 0.000000
0.000019 -0.000198 0.000045 0.000000
0.000068 -0.001177 0.000281 0.000000
0.000267 -0.001364 0.000600 0.000000
0.000412 -0.001423 -0.000381 0.000000
0.000042 -0.001132 0.000290 0.000000
0.000069 -0.001214 0.000365 0.000000
0.000071 -0.000224 0.000067 0.000000
0.000035 -0.001115 0.000196 0.000000
-0.000003 -0.000186 0.000040 0.000000
-0.000012 -0.001149 0.000365 0.000000
0.000017 -0.001209 0.000328 0.000000
-0.000024 -0.000179 0.000012 0.000000
-0.000014 -0.001119 0.000283 0.000000
0.000853 -0.001629 -0.000415 0.000000
0.000060 -0.001318 0.000344 0.000000
0.000054 -0.001244 0.000423 0.000000
0.000046 -0.000216 0.000058 0.000000
0.001776 -0.002359 -0.000729 0.000000
0.000594 -0.001827 0.000758 0.000000
0.000591 -0.001678 0.000745 0.000000
0.000225 -0.001423 0.000501 0.000000
0.000088 -0.001288 0.000287 0.000000
0.000250 -0.001560 0.000393 0.000000
0.000486 -0.001024 0.000821 0.000000
0.000360 -0.001235 -0.000946 0.000000
0.000479 -0.001375 -0.000704 0.000000
0.000268 -0.001685 -0.001094 0.000000
-0.000339 -0.000433 0.000311 0.000000
0.000276 -0.001587 -0.001248 0.000000
0.000188 -0.001546 -0.000242 0.000000
0.000577 -0.002087 -0.000242 0.000000
-0.000113 -0.000508 0.000070 0.000000
0.000174 -0.000727 -0.000092 0.000000
-0.000205 -0.000655 -0.000180 0.000000
-0.000309 -0.000371 -0.000045 0.000000
-0.000320 -0.000346 0.000053 0.000000
-0.000219 -0.000442 -0.000058 0.000000
-0.000369 -0.000330 0.000085 0.000000
-0.000365 -0.000315 0.000004 0.000000
-0.000336 -0.000426 0.000207 0.000000
-0.000224 -0.000532 0.000233 0.000000
-0.000253 -0.000724 0.000106 0.000000
-0.000043 -0.000643 0.000072 0.000000
0.000225 -0.001034 0.000083 0.000000
0.000189 -0.001357 -0.000637 0.000000
-0.000011 -0.000643 0.000059 0.000000
-0.000169 -0.000386 0.000077 0.000000
-0.000266 -0.000548 0.000239 0.000000
-0.000047 -0.000831 0.000143 0.000000
-0.000340 -0.000313 0.000020 0.000000
-0.000285 -0.000354 0.000079 0.000000
-0.000002 -0.000514 0.000073 0.000000
-0.000240 -0.000352 -0.000007 0.000000
-0.000263 -0.000427 0.000150 0.000000
-0.000154 -0.000430 0.000065 0.000000
-0.000170 -0.000386 0.000030 0.000000
0.000039 -0.000517 0.000141 0.000000
-0.000212 -0.000427 0.000126 0.000000
-0.000051 -0.000498 0.000031 0.000000
0.000149 -0.000623 -0.000039 0.000000
-0.000059 -0.000605 0.000096 0.000000
0.000500 -0.001070 0.000366 0.000000
0.000017 -0.000232 0.000104 0.000000
0.000515 -0.001169 0.000499 0.000000
0.000019 -0.000168 0.000060 0.000000
0.000042 -0.000196 0.000078 0.000000
0.001038 -0.001535 -0.001006 0.000000
0.000689 -0.001426 -0.000254 0.000000
0.000858 -0.001663 -0.000575 0.000000
0.000041 -0.000206 0.000070 0.000000
0.000003 -0.000193 0.000072 0.000000
0.001133 -0.002152 0.000816 0.000000
-0.000010 -0.000192 0.000026 0.000000
0.001096 -0.002193 0.000646 0.000000
0.000315 -0.001197 0.000167 0.000000
0.000238 -0.000796 -0.000747 0.000000
0.000455 -0.001424 -0.000421 0.000000
0.000366 -0.001145 -0.000680 0.000000
0.000006 -0.000125 0.000055 0.000000
0.000758 -0.001803 0.000085 0.000000
0.000384 -0.001296 -0.000117 0.000000
0.000443 -0.001094 -0.000407 0.000000
0.000017 -0.000194 0.000100 0.000000
0.000006 -0.000192 0.000059 0.000000
0.000032 -0.000208 0.000088 0.000000
0.000022 -0.000191 0.000070 0.000000
0.001026 -0.001541 0.001006 0.000000
0.000002 -0.000156 0.000070 0.000000
0.000037 -0.000196 0.000088 0.000000
0.000023 -0.000170 0.000078 0.000000
0.000021 -0.000153 0.000071 0.000000
0.000000 -0.000146 0.000066 0.000000
0.000027 -0.000152 0.000074 0.000000
0.000679 -0.001373 -0.001039 0.000000
0.000012 -0.000131 0.000044 0.000000
0.000833 -0.001058 0.000558 0.000000
0.000025 -0.000120 0.000054 0.000000
0.000003 -0.000094 0.000041 0.000000
0.000015 -0.000133 0.000121 0.000000
0.000001 -0.000081 0.000099 0.000000
0.000036 -0.000180 0.000080 0.000000
0.000062 -0.000225 0.000064 0.000000
0.000047 -0.000193 0.000070 0.000000
0.000047 -0.000194 0.000090 0.000000
0.000035 -0.000146 0.000070 0.000000
0.000020 -0.000127 0.000058 0.000000
0.000042 -0.000204 0.000049 0.000000
0.000054 -0.000197 0.000078 0.000000
0.000062 -0.000229 0.000027 0.000000
0.000053 -0.000214 0.000066 0.000000
0.000019 -0.000196 0.000060 0.000000
0.000048 -0.000214 0.000037 0.000000
0.000035 -0.000195 0.000041 0.000000
0.000037 -0.000191 0.000081 0.000000
0.000636 -0.001058 0.000167 0.000000
0.000155 -0.000450 -0.000050 0.000000
0.000598 -0.001090 -0.000148 0.000000
0.000009 -0.000195 -0.000538 0.000000
0.000338 -0.000726 -0.000007 0.000000
0.000642 -0.000915 -0.000119 0.000000
0.000223 -0.000696 -0.000088 0.000000
0.000725 -0.001100 -0.000072 0.000000
-0.000026 -0.000450 -0.000050 0.000000
0.000050 -0.000217 0.000042 0.000000
0.000595 -0.000914 0.000022 0.000000
0.000204 -0.000647 0.000003 0.000000
0.000497 -0.000716 0.000142 0.000000
0.000671 -0.001068 -0.000059 0.000000
0.000534 -0.000740 -0.000174 0.000000
-0.000047 -0.000229 0.000082 0.000000
0.000205 -0.000672 0.000111 0.000000
0.000174 -0.000492 -0.000034 0.000000
0.000037 -0.000478 0.000057 0.000000
0.000082 -0.000276 0.000017 0.000000
0.000049 -0.000135 0.000024 0.000000
0.000492 -0.000771 -0.000026 0.000000
0.000410 -0.000745 -0.000223 0.000000
0.000560 -0.000921 -0.000006 0.000000
0.000489 -0.000882 0.000007 0.000000
0.000229 -0.000474 -0.000031 0.000000
0.000542 -0.000747 -0.000157 0.000000
0.000177 -0.000353 -0.000171 0.000000
0.000095 -0.000273 -0.000014 0.000000
0.000509 -0.000714 -0.000197 0.000000
0.000159 -0.000363 -0.000077 0.000000
0.000073 -0.000225 0.000033 0.000000
0.000045 -0.000132 0.000017 0.000000
0.000106 -0.000264 -0.000043 0.000000
0.000625 -0.000681 0.000709 0.000000
0.000434 -0.000748 -0.000353 0.000000
0.000492 -0.000791 0.000043 0.000000
0.000679 -0.000949 -0.000280 0.000000
0.000398 -0.000890 -0.000873 0.000000
0.000348 -0.000425 0.000498 0.000000
0.000265 -0.000565 -0.000145 0.000000
0.000065 -0.000136 0.000010 0.000000
0.000241 -0.000223 0.000110 0.000000
0.000067 -0.000096 -0.000040 0.000000
0.000072 -0.000131 0.000001 0.000000
0.000053 -0.000097 0.000005 0.000000
0.000085 -0.000166 -0.000010 0.000000
0.000090 -0.000103 -0.000116 0.000000
0.000215 -0.000477 0.000047 0.000000
0.000232 -0.000628 -0.000115 0.000000
0.000529 -0.000731 -0.001299 0.000000
0.000514 -0.000590 -0.001091 0.000000
0.000495 -0.000526 -0.001261 0.000000
0.000511 -0.000164 -0.001883 0.000000
0.000474 -0.000555 -0.001607 0.000000
0.000178 -0.000099 -0.000093 0.000000
-0.000109 -0.000059 -0.000029 0.000000
0.000035 -0.000108 0.000015 0.000000
0.000060 -0.000128 -0.000055 0.000000
0.000667 -0.000405 -0.001866 0.000000
0.000422 -0.000245 -0.000720 0.000000
0.000053 -0.000186 0.000084 0.000000
0.000123 -0.000239 0.000050 0.000000
0.000058 -0.000171 0.000012 0.000000
0.000069 -0.000228 0.000053 0.000000
0.000050 -0.000182 0.000064 0.000000
0.000060 -0.000167 0.000034 0.000000
0.000043 -0.000173 0.000095 0.000000
0.000029 -0.000128 0.000050 0.000000
0.000053 -0.000145 0.000036 0.000000
0.000060 -0.000132 0.000028 0.000000
0.000686 -0.000529 -0.001795 0.000000
0.000069 -0.000127 -0.000050 0.000000
0.000711 -0.000365 -0.001648 0.000000
0.000314 -0.000114 -0.000716 0.000000
0.000699 -0.000349 -0.001261 0.000000
0.000040 -0.000103 0.000005 0.000000
0.000153 -0.000132 -0.000183 0.000000
0.000082 -0.000114 -0.000137 0.000000
0.000688 -0.000718 -0.001388 0.000000
0.000095 -0.000184 -0.000053 0.000000
0.000349 -0.000428 -0.000717 0.000000
0.000406 -0.000138 -0.001006 0.000000
0.000036 -0.000109 -0.000013 0.000000
0.000042 -0.000089 0.000015 0.000000
0.000024 -0.000109 -0.000015 0.000000
0.000023 -0.000091 0.000017 0.000000
0.000066 -0.000111 -0.000057 0.000000
0.000029 -0.000108 -0.000096 0.000000
0.000031 -0.000099 0.000008 0.000000
0.000049 -0.000111 -0.000053 0.000000
0.000025 -0.000111 -0.000014 0.000000
0.000025 -0.000108 -0.000046 0.000000
-0.000005 -0.000111 0.000001 0.000000
0.000021 -0.000102 0.000013 0.000000
0.000006 -0.000122 0.000021 0.000000
0.000017 -0.000109 0.000008 0.000000
0.000025 -0.000138 0.000009 0.000000
0.000001 -0.000152 -0.000038 0.000000
0.000021 -0.000123 0.000008 0.000000
0.000012 -0.000117 0.000006 0.000000
0.000029 -0.000134 -0.000025 0.000000
0.000032 -0.000159 -0.000010 0.000000
0.000012 -0.000111 -0.000015 0.000000
0.000025 -0.000100 0.000011 0.000000
0.000024 -0.000112 -0.000016 0.000000
0.000008 -0.000110 -0.000001 0.000000
0.000019 -0.000109 -0.000008 0.000000
0.000011 -0.000115 0.000010 0.000000
0.000017 -0.000107 0.000003 0.000000
0.000024 -0.000102 0.000013 0.000000
0.000024 -0.000113 0.000009 0.000000
0.000018 -0.000113 0.000003 0.000000
0.000022 -0.000113 0.000008 0.000000
0.000022 -0.000123 0.000008 0.000000
0.000028 -0.000134 -0.000001 0.000000
0.000021 -0.000105 -0.000047 0.000000
0.000026 -0.000119 0.000003 0.000000
0.000027 -0.000121 -0.000013 0.000000
0.000019 -0.000091 -0.000026 0.000000
0.000025 -0.000108 -0.000017 0.000000
0.000023 -0.000104 0.000010 0.000000
0.000023 -0.000109 0.000006 0.000000
0.000026 -0.000105 0.000002 0.000000
0.000023 -0.000083 0.000010 0.000000
0.000033 -0.000097 -0.000003 0.000000
0.000023 -0.000092 0.000020 0.000000
0.000028 -0.000099 0.000006 0.000000
0.000031 -0.000107 -0.000002 0.000000
0.000043 -0.000105 -0.000018 0.000000
0.000030 -0.000103 -0.000015 0.000000
0.000021 -0.000107 -0.000001 0.000000
0.000026 -0.000100 0.000012 0.000000
0.000412 -0.000649 -0.000321 0.000000
0.000057 -0.000147 -0.000020 0.000000
0.000041 -0.000098 -0.000020 0.000000
0.000027 -0.000092 0.000011 0.000000
0.000049 -0.000100 -0.000013 0.000000
0.000017 -0.000063 0.000038 0.000000
0.000034 -0.000101 -0.000006 0.000000
0.000035 -0.000092 0.000001 0.000000
0.000024 -0.000089 0.000014 0.000000
0.000025 -0.000089 0.000011 0.000000
0.000025 -0.000077 0.000021 0.000000
0.000022 -0.000082 0.000023 0.000000
0.000013 -0.000072 0.000015 0.000000
0.000016 -0.000078 0.000013 0.000000
0.000010 -0.000106 0.000110 0.000000
0.000016 -0.000076 0.000011 0.000000
0.000016 -0.000070 0.000001 0.000000
0.000011 -0.000069 -0.000011 0.000000
0.000014 -0.000072 0.000008 0.000000
0.000021 -0.000083 0.000025 0.000000
0.000018 -0.000075 0.000023 0.000000
0.000017 -0.000081 0.000020 0.000000
0.000017 -0.000077 0.000020 0.000000
0.000016 -0.000075 0.000021 0.000000
0.000020 -0.000086 0.000021 0.000000
0.000022 -0.000093 0.000019 0.000000
0.000024 -0.000098 0.000013 0.000000
0.000024 -0.000089 0.000014 0.000000
0.000025 -0.000107 0.000009 0.000000
0.000024 -0.000096 -0.000000 0.000000
0.000024 -0.000097 0.000009 0.000000
0.000024 -0.000099 -0.000008 0.000000
0.000026 -0.000109 -0.000004 0.000000
0.000027 -0.000105 -0.000012 0.000000
0.000023 -0.000088 -0.000005 0.000000
0.000026 -0.000096 -0.000001 0.000000
0.000022 -0.000089 -0.000014 0.000000
0.000023 -0.000078 -0.000004 0.000000
0.000018 -0.000079 0.000019 0.000000
0.000020 -0.000075 0.000005 0.000000
0.000021 -0.000087 0.000013 0.000000
0.000024 -0.000094 0.000010 0.000000
0.000024 -0.000086 0.000002 0.000000
0.000023 -0.000091 0.000008 0.000000
0.000018 -0.000072 0.000016 0.000000
0.000021 -0.000079 0.000014 0.000000
0.000018 -0.000063 0.000011 0.000000
0.000019 -0.000079 0.000015 0.000000
0.000022 -0.000076 0.000004 0.000000
0.000021 -0.000081 0.000010 0.000000
0.000021 -0.000078 -0.000002 0.000000
0.000022 -0.000085 0.000003 0.000000
0.000020 -0.000071 -0.000008 0.000000
0.000018 -0.000072 0.000011 0.000000
0.000017 -0.000060 -0.000006 0.000000
0.000021 -0.000080 -0.000010 0.000000
0.000009 -0.000044 0.000012 0.000000
0.000017 -0.000071 0.000016 0.000000
0.000018 -0.000063 0.000004 0.000000
0.000013 -0.000047 0.000007 0.000000
0.000625 -0.000764 0.000094 0.000000
0.000666 -0.001033 -0.000091 0.000000
0.000014 -0.000055 0.000018 0.000000
0.000014 -0.000073 0.000020 0.000000
0.000015 -0.000062 0.000014 0.000000
0.000014 -0.000062 0.000016 0.000000
0.000016 -0.000072 0.000019 0.000000
0.000014 -0.000068 0.000016 0.000000
0.000084 -0.000195 -0.000054 0.000000
0.000298 -0.000289 -0.000663 0.000000
0.000646 -0.000487 0.000942 0.000000
0.000334 -0.000262 0.000421 0.000000
0.000444 -0.000841 0.000348 0.000000
0.000570 -0.000660 -0.001542 0.000000
0.000802 -0.000850 -0.001102 0.000000
0.000607 -0.000639 -0.000510 0.000000
0.000766 -0.000965 0.000257 0.000000
0.000025 -0.000108 -0.000012 0.000000
0.000196 -0.000535 -0.000716 0.000000
0.000191 -0.000031 -0.000464 0.000000
0.000656 -0.000806 -0.000668 0.000000
0.000398 -0.000432 -0.001062 0.000000
0.000033 -0.000082 -0.000113 0.000000
0.000039 -0.000071 0.000057 0.000000
0.000930 -0.000590 0.000341 0.000000
0.000031 -0.000137 -0.000132 0.000000
0.000734 -0.001544 -0.000952 0.000000
0.000017 -0.000102 -0.000112 0.000000
0.001020 -0.001224 -0.000653 0.000000
0.000041 -0.000204 -0.000184 0.000000
0.000618 -0.000685 -0.001532 0.000000
0.000549 -0.000983 -0.000464 0.000000
0.000587 -0.000637 -0.001150 0.000000
0.000610 -0.000677 -0.001520 0.000000
0.000150 -0.000632 -0.000760 0.000000
0.000104 -0.000524 -0.001110 0.000000
0.000466 -0.000668 -0.001489 0.000000
0.000514 -0.000969 -0.001036 0.000000
0.000350 -0.000832 -0.000372 0.000000
0.000611 -0.000709 -0.001557 0.000000
0.000071 -0.000080 0.000240 0.000000
-0.000056 -0.000222 -0.000074 0.000000
0.000053 -0.000175 0.000023 0.000000
0.000389 -0.000443 0.000101 0.000000
0.000098 -0.000143 0.000029 0.000000
0.000229 -0.000518 0.000104 0.000000
0.000016 -0.000079 0.000100 0.000000
0.000609 -0.001587 -0.000745 0.000000
0.000050 -0.000168 -0.000098 0.000000
0.000043 -0.000182 0.000149 0.000000
0.001031 -0.001453 -0.000552 0.000000
0.000495 -0.000915 -0.000027 0.000000
0.000114 -0.000298 0.000016 0.000000
0.000705 -0.001931 -0.000606 0.000000
0.000001 -0.000060 0.000069 0.000000
0.000022 -0.000180 -0.000020 0.000000
0.000159 -0.000264 -0.000035 0.000000
0.000950 -0.001050 0.000384 0.000000
0.000010 -0.000084 0.000173 0.000000
0.000435 -0.001868 -0.001196 0.000000
0.000138 -0.000427 -0.000286 0.000000
0.000147 -0.000274 0.000102 0.000000
0.000093 -0.000279 0.000027 0.000000
0.000531 -0.000753 -0.000128 0.000000
0.000231 -0.000414 0.000087 0.000000
0.000353 -0.000381 0.000276 0.000000
0.000081 -0.000252 0.000113 0.000000
0.000175 -0.000309 -0.000000 0.000000
0.000096 -0.000186 -0.000006 0.000000
0.000417 -0.000558 0.000202 0.000000
0.000003 -0.000043 0.000063 0.000000
0.000284 -0.000514 0.000644 0.000000
0.000022 -0.000089 0.000105 0.000000
0.000081 -0.000043 0.000129 0.000000
0.000030 -0.000124 0.000119 0.000000
-0.000001 -0.000047 0.000074 0.000000
0.000018 -0.000065 0.000092 0.000000
-0.000007 -0.000049 0.000096 0.000000
0.000039 -0.000106 0.000065 0.000000
0.000023 -0.000078 0.000093 0.000000
0.000413 -0.000561 0.000211 0.000000
0.000025 -0.000076 0.000086 0.000000
-0.000001 -0.000041 0.000079 0.000000
0.000058 -0.000073 0.000093 0.000000
0.000361 -0.000413 0.001145 0.000000
0.000372 -0.000438 0.000219 0.000000
0.000025 -0.000065 0.000085 0.000000
0.000339 -0.000549 0.001019 0.000000
0.000298 -0.000279 0.000880 0.000000
0.000322 -0.000454 0.000298 0.000000
0.000390 -0.000632 0.000660 0.000000
0.000019 -0.000063 0.000073 0.000000
0.000038 -0.000061 0.000059 0.000000
0.000040 -0.000095 0.000053 0.000000
0.000052 -0.000084 0.000024 0.000000
0.000305 -0.000451 0.000175 0.000000
0.000036 -0.000094 0.000025 0.000000
0.000032 -0.000076 0.000085 0.000000
0.000044 -0.000103 0.000027 0.000000
0.000048 -0.000086 0.000051 0.000000
0.000030 -0.000093 -0.000098 0.000000
0.000045 -0.000082 0.000018 0.000000
0.000007 -0.000114 -0.000216 0.000000
0.000098 -0.000095 -0.000070 0.000000
0.000341 -0.000241 -0.000061 0.000000
0.000463 -0.000483 -0.001319 0.000000
0.000350 -0.000533 -0.000558 0.000000
0.000380 -0.000319 -0.000428 0.000000
0.000452 -0.000752 -0.000748 0.000000
0.000417 -0.000656 -0.000844 0.000000
0.000218 -0.000284 0.000348 0.000000
-0.000010 -0.000102 -0.000151 0.000000
0.000049 -0.000086 -0.000028 0.000000
0.000236 -0.000388 -0.000077 0.000000
0.000041 -0.000081 -0.000017 0.000000
0.000055 -0.000080 -0.000015 0.000000
0.000065 -0.000147 -0.000137 0.000000
0.000200 -0.000444 -0.000003 0.000000
0.000054 -0.000067 0.000011 0.000000
0.000191 -0.000357 -0.000144 0.000000
0.000068 -0.000080 -0.000009 0.000000
0.000053 -0.000068 -0.000011 0.000000
0.000070 -0.000079 -0.000187 0.000000
0.000528 -0.000786 -0.000793 0.000000
0.000529 -0.000575 -0.001007 0.000000
-0.000008 -0.000127 -0.000117 0.000000
0.000336 -0.000493 -0.000182 0.000000
0.000357 -0.000343 -0.000825 0.000000
0.000415 -0.000427 -0.001003 0.000000
0.000006 -0.000218 -0.000100 0.000000
0.000076 -0.000310 -0.000047 0.000000
0.000429 -0.000568 -0.000514 0.000000
0.000121 -0.000188 -0.000199 0.000000
0.000426 -0.000499 -0.000500 0.000000
0.000313 -0.000472 0.000065 0.000000
0.000301 -0.000415 0.000064 0.000000
0.000210 -0.000390 0.000033 0.000000
0.000230 -0.000408 -0.000031 0.000000
0.000190 -0.000541 -0.000122 0.000000
0.000050 -0.000066 0.000038 0.000000
0.000063 -0.000072 0.000065 0.000000
0.000054 -0.000074 0.000033 0.000000
0.000256 -0.000498 0.000088 0.000000
0.000120 -0.000233 0.000099 0.000000
0.000462 -0.000458 0.001018 0.000000
-0.000052 -0.000075 0.000064 0.000000
0.000135 -0.000449 0.000487 0.000000
0.000302 -0.000511 0.000111 0.000000
0.000261 -0.000444 0.000422 0.000000
0.000355 -0.000590 0.000534 0.000000
-0.000035 -0.000121 0.000069 0.000000
0.000311 -0.000337 0.000573 0.000000
0.000005 -0.000079 0.000026 0.000000
0.000082 -0.000291 0.000241 0.000000
0.000044 -0.000102 0.000069 0.000000
0.000289 -0.000407 0.000216 0.000000
0.000305 -0.000450 0.000049 0.000000
0.000354 -0.000391 0.000135 0.000000
0.000355 -0.000466 0.000225 0.000000
0.000306 -0.000442 -0.000045 0.000000
0.000412 -0.000441 0.000024 0.000000
-0.000011 -0.000102 0.000030 0.000000
0.000015 -0.000060 -0.000003 0.000000
0.000060 -0.000198 0.000095 0.000000
-0.000005 -0.000079 0.000006 0.000000
0.000052 -0.000064 0.000024 0.000000
0.000035 -0.000063 0.000026 0.000000
0.000048 -0.000050 -0.000011 0.000000
0.000051 -0.000054 0.000021 0.000000
0.000070 -0.000052 0.000008 0.000000
0.000108 -0.000089 0.000000 0.000000
0.000037 -0.000077 0.000057 0.000000
0.000289 -0.000406 0.000297 0.000000
0.000351 -0.000392 0.000237 0.000000
0.000373 -0.000453 0.000185 0.000000
0.000411 -0.000472 0.000007 0.000000
0.000377 -0.000400 0.000139 0.000000
0.000605 -0.000579 -0.000011 0.000000
0.000543 -0.000552 -0.000071 0.000000
0.000537 -0.000498 -0.000240 0.000000
0.000613 -0.000594 -0.000108 0.000000
0.000250 -0.000239 0.000037 0.000000
0.000154 -0.000140 -0.000082 0.000000
0.000013 -0.000022 -0.000029 0.000000
0.000011 -0.000047 -0.000025 0.000000
0.000060 -0.000056 -0.000003 0.000000
0.000303 -0.000521 -0.000619 0.000000
0.000005 -0.000045 -0.000067 0.000000
0.000155 -0.000194 -0.000121 0.000000
0.000029 -0.000027 -0.000029 0.000000
0.000034 -0.000031 -0.000032 0.000000
0.000119 -0.000161 -0.000157 0.000000
0.000446 -0.000482 -0.000138 0.000000
0.000053 -0.000048 -0.000251 0.000000
0.000467 -0.000562 -0.000398 0.000000
0.000438 -0.000501 -0.000215 0.000000
0.000537 -0.000559 -0.000239 0.000000
0.000366 -0.000509 -0.000299 0.000000
0.000462 -0.000471 -0.000359 0.000000
0.000321 -0.000422 -0.000087 0.000000
0.000204 -0.000405 -0.000129 0.000000
0.000284 -0.000404 -0.000277 0.000000
0.000329 -0.000467 -0.000333 0.000000
0.000363 -0.000434 -0.000276 0.000000
0.000321 -0.000440 -0.000403 0.000000
0.000037 -0.000139 -0.000097 0.000000
0.000002 -0.000087 0.000034 0.000000
0.000008 -0.000104 -0.000040 0.000000
-0.000030 -0.000087 -0.000040 0.000000
0.000285 -0.000306 0.000278 0.000000
0.000288 -0.000432 0.000247 0.000000
0.000353 -0.000355 0.000253 0.000000
0.000386 -0.000514 0.000288 0.000000
0.000170 -0.000253 0.000051 0.000000
0.000528 -0.000608 0.000386 0.000000
0.000148 -0.000279 -0.000004 0.000000
0.000502 -0.000506 0.000323 0.000000
0.000073 -0.000130 0.000111 0.000000
0.000228 -0.000222 0.000216 0.000000
0.000323 -0.000376 0.000201 0.000000
0.000045 -0.000033 0.000021 0.000000
0.000008 -0.000055 0.000010 0.000000
0.000010 -0.000042 -0.000016 0.000000
0.000006 -0.000076 0.000045 0.000000
0.000012 -0.000021 -0.000003 0.000000
0.000023 -0.000058 0.000026 0.000000
-0.000006 -0.000010 0.000007 0.000000
0.000024 -0.000053 0.000034 0.000000
0.000072 -0.000084 0.000064 0.000000
0.000010 -0.000020 -0.000009 0.000000
-0.000004 -0.000015 -0.000003 0.000000
0.000024 -0.000025 0.000000 0.000000
0.000184 -0.000144 0.000129 0.000000
0.000617 -0.000573 0.000233 0.000000
0.000353 -0.000443 0.000265 0.000000
0.000045 -0.000078 0.000059 0.000000
0.000184 -0.000244 0.000154 0.000000
0.000323 -0.000284 0.000176 0.000000
0.000150 -0.000171 0.000065 0.000000
0.000516 -0.000560 0.000370 0.000000
0.000502 -0.000565 0.000352 0.000000
0.000546 -0.000553 0.000280 0.000000
0.000308 -0.000298 0.000013 0.000000
0.000370 -0.000367 0.000078 0.000000
0.000419 -0.000369 -0.000009 0.000000
0.000295 -0.000256 -0.000026 0.000000
0.000164 -0.000222 -0.000143 0.000000
0.000139 -0.000176 -0.000098 0.000000
0.000270 -0.000279 -0.000078 0.000000
0.000153 -0.000219 -0.000106 0.000000
0.000187 -0.000165 -0.000038 0.000000
0.000186 -0.000218 -0.000090 0.000000
0.000195 -0.000210 -0.000073 0.000000
0.000044 -0.000154 -0.000019 0.000000
0.000163 -0.000221 -0.000093 0.000000
0.000055 -0.000127 -0.000065 0.000000
0.000226 -0.000278 -0.000010 0.000000
0.000308 -0.000330 -0.000021 0.000000
0.000170 -0.000253 0.000011 0.000000
0.000166 -0.000217 -0.000045 0.000000
0.000226 -0.000261 0.000035 0.000000
0.000053 -0.000173 -0.000016 0.000000
0.000092 -0.000183 -0.000028 0.000000
0.000165 -0.000203 -0.000017 0.000000
0.000030 -0.000175 -0.000007 0.000000
0.000057 -0.000223 -0.000014 0.000000
0.000092 -0.000169 -0.000036 0.000000
0.000065 -0.000173 -0.000035 0.000000
0.000161 -0.000304 -0.000063 0.000000
0.000160 -0.000264 -0.000059 0.000000
0.000053 -0.000226 -0.000033 0.000000
0.000065 -0.000203 -0.000044 0.000000
0.000018 -0.000052 -0.000016 0.000000
0.000138 -0.000264 -0.000107 0.000000
0.000011 -0.000191 0.000013 0.000000
0.000013 -0.000050 -0.000006 0.000000
0.000015 -0.000049 -0.000004 0.000000
0.000016 -0.000051 -0.000014 0.000000
0.000011 -0.000053 0.000013 0.000000
0.000013 -0.000192 0.000013 0.000000
0.000011 -0.000047 0.000004 0.000000
0.000011 -0.000048 -0.000002 0.000000
0.000025 -0.000193 -0.000022 0.000000
0.000011 -0.000191 0.000013 0.000000
0.000013 -0.000162 0.000004 0.000000
0.000029 -0.000211 -0.000020 0.000000
0.000515 -0.000689 0.000257 0.000000
0.000470 -0.000615 0.000236 0.000000
0.000011 -0.000207 -0.000002 0.000000
0.000148 -0.000257 0.000020 0.000000
-0.000024 -0.000091 0.000007 0.000000
-0.000038 -0.000110 0.000042 0.000000
0.000067 -0.000126 0.000206 0.000000
0.000148 -0.000355 0.000198 0.000000
-0.000038 -0.000099 0.000047 0.000000
0.000023 -0.000098 0.000123 0.000000
0.000496 -0.000675 0.000294 0.000000
0.000459 -0.000659 0.000241 0.000000
0.000306 -0.000405 0.000434 0.000000
0.000460 -0.000660 0.000236 0.000000
0.000008 -0.000044 0.000012 0.000000
0.000009 -0.000257 -0.000086 0.000000
0.000521 -0.000699 0.000270 0.000000
0.000087 -0.000231 0.000005 0.000000
0.000514 -0.000790 -0.000108 0.000000
0.000027 -0.000056 0.000035 0.000000
0.000016 -0.000064 0.000018 0.000000
0.000013 -0.000054 0.000008 0.000000
0.000220 -0.000386 -0.000013 0.000000
0.000466 -0.000672 0.000220 0.000000
0.000057 -0.000169 0.000151 0.000000
0.000464 -0.000683 0.000211 0.000000
0.000705 -0.000950 -0.000506 0.000000
0.000382 -0.000588 -0.000010 0.000000
0.000697 -0.000733 -0.000455 0.000000
0.000437 -0.000650 0.000325 0.000000
0.000013 -0.000057 0.000022 0.000000
0.000812 -0.000997 0.000061 0.000000
0.000583 -0.000931 -0.000074 0.000000
0.000717 -0.000902 0.000085 0.000000
0.000014 -0.000060 0.000016 0.000000
0.000010 -0.000050 0.000019 0.000000
0.000016 -0.000064 0.000015 0.000000
0.000015 -0.000062 0.000011 0.000000
0.000016 -0.000063 0.000008 0.000000
0.000012 -0.000045 0.000011 0.000000
0.000014 -0.000055 0.000014 0.000000
0.000015 -0.000061 0.000015 0.000000
0.000015 -0.000053 0.000011 0.000000
0.000011 -0.000047 0.000008 0.000000
0.000016 -0.000054 0.000007 0.000000
0.000014 -0.000047 0.000002 0.000000
0.000016 -0.000057 0.000003 0.000000
0.000019 -0.000061 -0.000008 0.000000
0.000019 -0.000067 0.000004 0.000000
0.000014 -0.000056 0.000003 0.000000
0.000021 -0.000069 -0.000002 0.000000
0.000016 -0.000058 -0.000001 0.000000
0.000018 -0.000059 -0.000002 0.000000
0.000019 -0.000068 -0.000001 0.000000
0.000019 -0.000056 -0.000021 0.000000
0.000298 -0.000480 -0.000089 0.000000
0.000020 -0.000056 -0.000026 0.000000
0.000017 -0.000073 -0.000028 0.000000
0.000021 -0.000054 -0.000025 0.000000
0.000199 -0.000367 -0.000102 0.000000
0.000182 -0.000361 -0.000163 0.000000
0.000211 -0.000371 -0.000177 0.000000
0.000101 -0.000211 -0.000207 0.000000
0.000170 -0.000322 -0.000230 0.000000
-0.000001 -0.000043 -0.000001 0.000000
-0.000047 -0.000129 0.000019 0.000000
0.000058 -0.000323 -0.000206 0.000000
0.000255 -0.000564 0.000046 0.000000
-0.000067 -0.000036 -0.000013 0.000000
-0.000050 -0.000074 0.000066 0.000000
0.000012 -0.000052 0.000021 0.000000
0.000000 -0.000042 0.000009 0.000000
0.000011 -0.000050 0.000020 0.000000
0.000001 -0.000038 0.000003 0.000000
0.000005 -0.000036 0.000015 0.000000
0.000004 -0.000039 0.000007 0.000000
0.000012 -0.000056 0.000030 0.000000
0.000006 -0.000048 0.000018 0.000000
0.000007 -0.000047 0.000021 0.000000
0.000001 -0.000035 0.000007 0.000000
0.000007 -0.000046 0.000023 0.000000
0.000013 -0.000027 0.000025 0.000000
0.000004 -0.000046 0.000008 0.000000
0.000029 -0.000169 0.000060 0.000000
0.000006 -0.000043 0.000014 0.000000
0.000001 -0.000039 0.000001 0.000000
0.000002 -0.000042 0.000011 0.000000
0.000004 -0.000036 0.000010 0.000000
-0.000006 -0.000140 0.000048 0.000000
-0.000006 -0.000110 0.000015 0.000000
-0.000016 -0.000087 0.000095 0.000000
0.000001 -0.000037 -0.000002 0.000000
0.000002 -0.000037 0.000005 0.000000
0.000002 -0.000036 -0.000001 0.000000
0.000001 -0.000034 0.000010 0.000000
0.000100 -0.000156 0.000112 0.000000
-0.000002 -0.000027 0.000004 0.000000
-0.000001 -0.000033 -0.000000 0.000000
0.000006 -0.000036 0.000016 0.000000
-0.000001 -0.000031 -0.000003 0.000000
0.000007 -0.000165 0.000034 0.000000
0.000029 -0.000171 0.000057 0.000000
0.000031 -0.000151 0.000077 0.000000
0.000006 -0.000110 0.000042 0.000000
0.000158 -0.000294 -0.000145 0.000000
-0.000001 -0.000084 -0.000007 0.000000
-0.000008 -0.000104 -0.000039 0.000000
-0.000005 -0.000104 0.000019 0.000000
0.000002 -0.000111 -0.000070 0.000000
-0.000007 -0.000114 -0.000059 0.000000
-0.000008 -0.000145 -0.000071 0.000000
-0.000027 -0.000096 -0.000031 0.000000
0.000060 -0.000355 0.000083 0.000000
0.000243 -0.000409 -0.000112 0.000000
0.000138 -0.000362 -0.000150 0.000000
0.000072 -0.000180 -0.000138 0.000000
0.000125 -0.000296 -0.000055 0.000000
0.000164 -0.000272 -0.000135 0.000000
0.000184 -0.000339 -0.000179 0.000000
0.000174 -0.000289 -0.000164 0.000000
0.000063 -0.000203 -0.000096 0.000000
0.000174 -0.000357 -0.000145 0.000000
0.000163 -0.000258 -0.000093 0.000000
0.000200 -0.000298 -0.000124 0.000000
0.000017 -0.000094 -0.000067 0.000000
0.000158 -0.000267 -0.000148 0.000000
0.000002 -0.000097 -0.000054 0.000000
-0.000002 -0.000075 0.000027 0.000000
0.000005 -0.000086 -0.000038 0.000000
-0.000008 -0.000091 -0.000021 0.000000
0.000059 -0.000148 -0.000098 0.000000
0.000027 -0.000027 -0.000016 0.000000
0.000058 -0.000113 -0.000091 0.000000
0.000062 -0.000145 -0.000106 0.000000
0.000139 -0.000119 -0.000084 0.000000
0.000159 -0.000182 -0.000096 0.000000
0.000028 -0.000053 -0.000040 0.000000
0.000147 -0.000226 -0.000126 0.000000
0.000054 -0.000075 -0.000059 0.000000
0.000048 -0.000044 -0.000011 0.000000
0.000023 -0.000073 -0.000054 0.000000
0.000017 -0.000023 -0.000007 0.000000
0.000146 -0.000156 -0.000136 0.000000
0.000027 -0.000025 -0.000019 0.000000
0.000046 -0.000034 -0.000025 0.000000
0.000008 -0.000016 -0.000000 0.000000
0.000013 -0.000043 -0.000001 0.000000
0.000023 -0.000055 -0.000034 0.000000
0.000017 -0.000078 -0.000042 0.000000
0.000014 -0.000050 -0.000012 0.000000
-0.000003 -0.000067 0.000005 0.000000
0.000007 -0.000064 -0.000005 0.000000
0.000013 -0.000017 0.000012 0.000000
0.000029 -0.000024 0.000026 0.000000
0.000000 -0.000063 0.000013 0.000000
0.000002 -0.000046 0.000031 0.000000
0.000026 -0.000098 0.000099 0.000000
0.000011 -0.000021 0.000020 0.000000
0.000028 -0.000062 0.000079 0.000000
0.000477 -0.000359 0.000045 0.000000
0.000346 -0.000471 0.000302 0.000000
0.002984 -0.002943 -0.002384 0.000000
0.000185 -0.000131 0.000015 0.000000
0.000029 -0.000144 0.000105 0.000000
0.000937 -0.000764 -0.000031 0.000000
0.000089 -0.000191 0.000210 0.000000
0.000351 -0.000303 0.000134 0.000000
0.000042 -0.000131 0.000104 0.000000
0.000538 -0.000631 0.000100 0.000000
0.000201 -0.000374 0.000341 0.000000
0.000011 -0.000042 0.000019 0.000000
0.000007 -0.000046 0.000008 0.000000
0.000135 -0.000201 0.000169 0.000000
0.000028 -0.000071 0.000043 0.000000
0.000002 -0.000061 0.000055 0.000000
0.000012 -0.000049 0.000030 0.000000
0.000027 -0.000159 0.000054 0.000000
0.000016 -0.000111 0.000061 0.000000
-0.000004 -0.000119 0.000031 0.000000
0.000211 -0.000196 0.000150 0.000000
0.000001 -0.000028 0.000003 0.000000
-0.000009 -0.000123 0.000073 0.000000
0.000037 -0.000122 0.000060 0.000000
0.000081 -0.000167 0.000020 0.000000
0.000034 -0.000068 -0.000015 0.000000
0.000543 -0.000624 0.000068 0.000000
0.001475 -0.001944 0.000337 0.000000
0.001332 -0.001332 -0.002481 0.000000
-0.000007 -0.000032 -0.000023 0.000000
0.003160 -0.003665 -0.002181 0.000000
0.000101 -0.000180 -0.000210 0.000000
0.001110 -0.001016 -0.001405 0.000000
0.001352 -0.001498 -0.002229 0.000000
0.001183 -0.001216 -0.000367 0.000000
0.002045 -0.001912 -0.002192 0.000000
0.002939 -0.003097 -0.001881 0.000000
0.000584 -0.000661 -0.000089 0.000000
0.000050 -0.000189 0.000200 0.000000
0.001334 -0.001570 -0.000234 0.000000
0.001322 -0.001267 -0.000281 0.000000
0.001179 -0.001224 -0.000334 0.000000
0.000725 -0.000820 0.000202 0.000000
0.002042 -0.002080 -0.001273 0.000000
0.001268 -0.001178 -0.000468 0.000000
0.002685 -0.002653 -0.002693 0.000000
0.001878 -0.002111 -0.001678 0.000000
0.001878 -0.001775 -0.001640 0.000000
0.000560 -0.000533 -0.001595 0.000000
0.003160 -0.002964 -0.002240 0.000000
0.002555 -0.002438 -0.003736 0.000000
0.000560 -0.000654 -0.001569 0.000000
0.001075 -0.001163 -0.000953 0.000000
0.001117 -0.001320 -0.001336 0.000000
0.000102 -0.000092 -0.000149 0.000000
0.000071 -0.000079 0.000007 0.000000
-0.000365 0.000308 -0.000495 0.000000
0.000031 -0.000057 0.000228 0.000000
-0.000131 0.000044 -0.000006 0.000000
-0.000007 -0.000003 -0.000005 0.000000
-0.000130 0.000047 0.000028 0.000000
-0.000008 -0.000005 0.000043 0.000000
0.000032 -0.000027 0.000155 0.000000
0.000476 -0.000533 -0.000004 0.000000
-0.000100 0.000047 0.000095 0.000000
-0.000007 -0.000024 0.000075 0.000000
0.000018 -0.000092 0.000028 0.000000
0.000076 -0.000125 0.000084 0.000000
0.000071 -0.000134 -0.000014 0.000000
0.000434 -0.000519 0.000904 0.000000
0.000448 -0.000540 0.000571 0.000000
0.001774 -0.002095 0.001749 0.000000
0.000192 -0.000283 -0.000213 0.000000
0.000190 -0.000192 -0.000249 0.000000
0.001258 -0.001187 -0.001623 0.000000
0.000323 -0.000311 -0.000248 0.000000
0.002119 -0.002188 -0.001538 0.000000
0.000650 -0.000731 0.000493 0.000000
0.000325 -0.000443 -0.000164 0.000000
0.000197 -0.000285 0.000028 0.000000
0.000197 -0.000203 0.000026 0.000000
0.001427 -0.001481 0.002407 0.000000
0.000080 -0.000110 0.000159 0.000000
0.000672 -0.000661 0.000658 0.000000
0.000638 -0.000659 0.000461 0.000000
0.001301 -0.001547 0.000633 0.000000
0.002406 -0.002481 -0.000723 0.000000
0.000639 -0.000738 -0.001021 0.000000
0.000498 -0.000513 -0.000135 0.000000
0.000927 -0.000997 -0.000166 0.000000
0.002360 -0.002480 -0.000586 0.000000
0.001274 -0.001416 -0.001531 0.000000
0.000715 -0.000876 -0.000211 0.000000
0.001303 -0.001389 0.001360 0.000000
0.002017 -0.002141 -0.002448 0.000000
0.000022 -0.000068 0.000020 0.000000
0.001409 -0.001390 -0.001674 0.000000
0.002553 -0.002820 -0.004508 0.000000
0.003122 -0.003251 -0.003353 0.000000
0.002085 -0.002188 -0.001505 0.000000
0.001913 -0.001969 -0.002548 0.000000
0.001654 -0.001811 -0.000471 0.000000
0.000844 -0.001318 0.001023 0.000000
0.000007 -0.000033 0.000008 0.000000
0.000038 -0.000043 -0.000045 0.000000
0.002911 -0.002915 -0.004375 0.000000
0.000522 -0.000798 0.000702 0.000000
0.000753 -0.000734 0.000056 0.000000
0.000018 -0.000046 0.000016 0.000000
0.000549 -0.000834 0.000737 0.000000
0.000008 -0.000042 0.000024 0.000000
0.000026 -0.000050 0.000023 0.000000
0.000012 -0.000028 0.000018 0.000000
0.000008 -0.000037 0.000018 0.000000
0.000007 -0.000041 0.000024 0.000000
0.000008 -0.000051 0.000016 0.000000
0.000015 -0.000050 -0.000011 0.000000
0.000017 -0.000046 0.000026 0.000000
0.000032 -0.000097 0.000025 0.000000
0.002989 -0.003072 -0.003411 0.000000
0.000028 -0.000085 -0.000010 0.000000
0.001373 -0.001997 -0.001584 0.000000
0.000036 -0.000073 -0.000030 0.000000
0.002488 -0.002575 -0.002311 0.000000
0.000012 -0.000048 0.000024 0.000000
0.000009 -0.000045 0.000028 0.000000
0.000011 -0.000040 0.000032 0.000000
0.000024 -0.000068 0.000029 0.000000
0.000025 -0.000065 0.000047 0.000000
0.000009 -0.000051 0.000024 0.000000
0.000024 -0.000059 0.000027 0.000000
0.000014 -0.000064 0.000038 0.000000
0.000019 -0.000075 0.000031 0.000000
0.000069 -0.000189 -0.000019 0.000000
0.002525 -0.002578 -0.004741 0.000000
0.001055 -0.002313 -0.003307 0.000000
0.002207 -0.002423 -0.000438 0.000000
0.000060 -0.000096 0.000063 0.000000
0.002176 -0.002333 -0.002074 0.000000
0.000497 0.000031 -0.001529 0.000000
0.002459 -0.002565 -0.000834 0.000000
0.002472 -0.002581 -0.001322 0.000000
0.002385 -0.002514 -0.000340 0.000000
0.002159 -0.002310 -0.001561 0.000000
0.002451 -0.002625 -0.000154 0.000000
0.002777 -0.002834 -0.001348 0.000000
0.001368 -0.001299 0.002715 0.000000
0.001357 -0.001509 0.000549 0.000000
0.000009 -0.000076 0.000033 0.000000
0.001813 -0.001938 0.001849 0.000000
0.002392 -0.002935 -0.001233 0.000000
0.003251 -0.003320 0.000662 0.000000
0.003520 -0.003414 -0.000722 0.000000
0.001267 -0.001630 0.002182 0.000000
-0.000012 -0.000047 -0.000028 0.000000
0.001198 -0.001108 0.002280 0.000000
0.002501 -0.002468 -0.001919 0.000000
0.002323 -0.002560 -0.000775 0.000000
0.000003 -0.000099 0.000070 0.000000
0.001146 -0.001044 0.002215 0.000000
0.004674 -0.004448 -0.002413 0.000000
0.003722 -0.003501 -0.001778 0.000000
0.003040 -0.003147 -0.002198 0.000000
0.002782 -0.003503 -0.001664 0.000000
0.003371 -0.003431 -0.004016 0.000000
0.002896 -0.003197 -0.001745 0.000000
0.001135 -0.001737 -0.002406 0.000000
0.003736 -0.004454 -0.002234 0.000000
0.001714 -0.001591 -0.000722 0.000000
0.000950 -0.000812 -0.002679 0.000000
0.002748 -0.003125 -0.001689 0.000000
0.001495 -0.001081 -0.003384 0.000000
0.001608 -0.001688 -0.002114 0.000000
0.000040 -0.000172 0.000064 0.000000
0.001508 -0.001957 -0.003592 0.000000
0.000065 -0.000208 0.000022 0.000000
0.001099 -0.001184 -0.000461 0.000000
0.001027 -0.001469 -0.000814 0.000000
0.001512 -0.001290 -0.004150 0.000000
0.001440 -0.001926 -0.000037 0.000000
0.000099 -0.000550 0.000255 0.000000
0.000434 -0.000785 0.001071 0.000000
0.001621 -0.001773 -0.002065 0.000000
0.001897 -0.002509 -0.002289 0.000000
0.000842 -0.001484 0.000113 0.000000
0.001588 -0.001191 -0.002703 0.000000
0.001389 -0.001734 -0.001698 0.000000
0.002191 -0.002005 -0.001474 0.000000
0.001791 -0.001636 -0.001545 0.000000
0.002613 -0.002505 -0.002802 0.000000
0.000334 -0.001493 0.000231 0.000000
0.000026 -0.000077 0.000025 0.000000
0.002222 -0.002582 -0.002312 0.000000
0.000479 -0.000683 0.000185 0.000000
0.001157 -0.001566 0.000412 0.000000
0.002244 -0.002685 -0.001148 0.000000
0.000886 -0.001179 -0.000038 0.000000
0.000882 -0.002084 -0.001313 0.000000
0.000240 -0.000516 0.000442 0.000000
0.000064 -0.000081 0.000024 0.000000
0.000799 -0.001939 0.000081 0.000000
0.000689 -0.002623 -0.001381 0.000000
0.000577 -0.000795 0.000691 0.000000
0.000082 -0.000155 -0.000014 0.000000
0.000203 -0.001280 -0.000179 0.000000
0.002040 -0.001756 0.000791 0.000000
0.000022 -0.000058 0.000031 0.000000
0.000077 -0.000096 0.000100 0.000000
0.000022 -0.000069 0.000013 0.000000
0.000060 -0.000121 0.000057 0.000000
0.002802 -0.002778 -0.004466 0.000000
0.000175 -0.000194 0.000063 0.000000
0.002562 -0.003041 -0.002062 0.000000
0.002879 -0.002942 -0.002840 0.000000
0.000619 -0.000281 -0.000165 0.000000
0.000039 -0.000112 -0.000028 0.000000
0.000592 -0.001376 -0.001157 0.000000
0.003097 -0.003162 -0.002207 0.000000
0.000024 -0.000074 0.000034 0.000000
0.000013 -0.000056 0.000016 0.000000
0.000130 -0.000283 -0.000075 0.000000
0.000045 -0.000130 -0.000005 0.000000
0.000027 -0.000096 0.000049 0.000000
0.000050 -0.000133 0.000019 0.000000
0.000011 -0.000055 0.000022 0.000000
0.000002 -0.000050 0.000017 0.000000
0.000016 -0.000057 0.000028 0.000000
0.000012 -0.000049 0.000022 0.000000
0.000011 -0.000056 0.000025 0.000000
0.000021 -0.000064 0.000035 0.000000
0.000013 -0.000058 0.000023 0.000000
0.000020 -0.000068 0.000038 0.000000
0.000012 -0.000054 0.000008 0.000000
0.000264 -0.000478 -0.000297 0.000000
0.000015 -0.000060 0.000020 0.000000
0.000013 -0.000063 0.000032 0.000000
-0.000002 -0.000046 0.000008 0.000000
0.000009 -0.000057 0.000013 0.000000
0.000011 -0.000052 0.000021 0.000000
0.000013 -0.000058 0.000014 0.000000
0.000346 -0.000571 -0.000050 0.000000
0.000019 -0.000058 -0.000024 0.000000
-0.000057 -0.000169 -0.000027 0.000000
0.000301 -0.000628 0.000054 0.000000
0.000021 -0.000070 -0.000009 0.000000
0.000019 -0.000067 -0.000019 0.000000
0.000027 -0.000060 -0.000039 0.000000
0.000021 -0.000065 -0.000024 0.000000
0.000020 -0.000074 -0.000016 0.000000
0.000020 -0.000072 -0.000013 0.000000
0.000020 -0.000069 -0.000019 0.000000
0.000017 -0.000073 -0.000025 0.000000
0.000020 -0.000066 -0.000023 0.000000
0.000012 -0.000072 -0.000014 0.000000
0.000357 -0.000316 -0.000666 0.000000
0.000363 -0.000642 -0.000254 0.000000
0.000016 -0.000046 -0.000021 0.000000
0.000398 -0.000520 -0.000396 0.000000
0.000023 -0.000073 -0.000016 0.000000
0.000293 -0.000462 -0.000319 0.000000
0.000005 -0.000069 -0.000011 0.000000
0.000298 -0.000469 -0.000336 0.000000
0.000023 -0.000093 -0.000014 0.000000
0.000019 -0.000081 -0.000021 0.000000
0.000017 -0.000076 -0.000020 0.000000
0.000013 -0.000066 -0.000011 0.000000
0.000024 -0.000101 -0.000030 0.000000
0.000019 -0.000083 -0.000020 0.000000
0.000021 -0.000098 -0.000028 0.000000
0.000009 -0.000072 -0.000015 0.000000
0.000016 -0.000074 -0.000030 0.000000
0.000016 -0.000083 -0.000030 0.000000
0.000014 -0.000080 -0.000029 0.000000
-0.000009 -0.000072 -0.000024 0.000000
0.000013 -0.000076 -0.000025 0.000000
0.000004 -0.000080 -0.000036 0.000000
-0.000041 -0.000303 -0.000088 0.000000
0.000005 -0.000074 -0.000015 0.000000
0.000232 -0.000628 0.000252 0.000000
0.000017 -0.000076 0.000032 0.000000
0.000177 -0.000229 -0.000553 0.000000
0.000105 -0.000394 -0.000308 0.000000
0.000014 -0.000067 0.000022 0.000000
0.000014 -0.000068 0.000027 0.000000
0.000019 -0.000065 0.000061 0.000000
0.000043 -0.000073 0.000046 0.000000
0.000022 -0.000064 0.000063 0.000000
0.000036 -0.000083 0.000075 0.000000
0.000024 -0.000429 0.000384 0.000000
0.000017 -0.000067 0.000057 0.000000
0.000276 -0.000608 0.000402 0.000000
0.000527 -0.000850 0.000540 0.000000
0.000004 -0.000499 0.000290 0.000000
0.000055 -0.000628 0.000142 0.000000
-0.000001 -0.000346 0.000073 0.000000
0.000221 -0.000551 0.000034 0.000000
0.000340 -0.000727 0.000346 0.000000
0.000037 -0.000401 0.000342 0.000000
0.000236 -0.000554 0.000259 0.000000
0.002666 -0.003208 0.000840 0.000000
0.000651 -0.001164 0.000461 0.000000
0.002707 -0.003124 0.001151 0.000000
-0.000127 -0.000189 -0.000026 0.000000
-0.000010 -0.000070 -0.000038 0.000000
-0.000146 -0.000187 -0.000082 0.000000
-0.000108 -0.000174 -0.000059 0.000000
0.000000 -0.000073 -0.000014 0.000000
-0.000009 -0.000071 -0.000016 0.000000
-0.000006 -0.000083 -0.000008 0.000000
-0.000120 -0.000173 -0.000064 0.000000
0.000009 -0.000081 -0.000040 0.000000
-0.000010 -0.000074 -0.000041 0.000000
0.000007 -0.000076 -0.000025 0.000000
-0.000001 -0.000075 -0.000036 0.000000
0.000024 -0.000116 -0.000032 0.000000
0.000013 -0.000088 -0.000036 0.000000
0.000015 -0.000092 -0.000046 0.000000
0.000006 -0.000093 -0.000051 0.000000
0.000029 -0.000114 -0.000027 0.000000
0.000015 -0.000107 -0.000055 0.000000
0.000026 -0.000125 -0.000052 0.000000
0.000014 -0.000110 -0.000070 0.000000
0.000005 -0.000082 -0.000057 0.000000
0.000014 -0.000097 -0.000059 0.000000
-0.000004 -0.000073 -0.000028 0.000000
-0.000004 -0.000080 -0.000048 0.000000
-0.000013 -0.000069 -0.000034 0.000000
-0.000008 -0.000074 -0.000051 0.000000
0.000014 -0.000128 -0.000088 0.000000
-0.000001 -0.000092 -0.000072 0.000000
0.000012 -0.000078 0.000005 0.000000
-0.000015 -0.000070 -0.000012 0.000000
0.000021 -0.000120 -0.000049 0.000000
0.000031 -0.000144 -0.000053 0.000000
0.000014 -0.000113 -0.000072 0.000000
0.000003 -0.000087 -0.000069 0.000000
-0.000005 -0.000114 -0.000099 0.000000
0.000026 -0.000138 -0.000051 0.000000
0.000005 -0.000107 -0.000085 0.000000
0.000012 -0.000118 -0.000081 0.000000
-0.000006 -0.000076 -0.000061 0.000000
0.000253 -0.000682 -0.000586 0.000000
-0.000008 -0.000072 -0.000048 0.000000
0.000034 -0.000600 -0.000442 0.000000
-0.000029 -0.000485 -0.000317 0.000000
-0.000148 -0.000094 -0.000034 0.000000
-0.000066 -0.000432 -0.000189 0.000000
0.002262 -0.002818 0.001718 0.000000
-0.000072 -0.000334 -0.000179 0.000000
-0.000037 -0.000358 -0.000067 0.000000
0.000048 -0.000524 0.000005 0.000000
0.002652 -0.003153 0.001030 0.000000
0.000399 -0.000912 0.000137 0.000000
0.000620 -0.001074 0.000301 0.000000
0.000777 -0.001171 0.000508 0.000000
0.000718 -0.001195 0.000026 0.000000
0.000427 -0.000928 0.000594 0.000000
0.000425 -0.000965 0.000122 0.000000
0.000585 -0.001142 0.000148 0.000000
0.002616 -0.003278 0.000724 0.000000
0.002859 -0.003314 0.000904 0.000000
-0.000002 -0.000105 0.000004 0.000000
0.000007 -0.000120 -0.000007 0.000000
0.000004 -0.000125 -0.000019 0.000000
0.000012 -0.000120 0.000050 0.000000
0.000020 -0.000131 0.000016 0.000000
0.000010 -0.000120 0.000055 0.000000
0.000005 -0.000101 0.000050 0.000000
0.000009 -0.000109 0.000058 0.000000
-0.000003 -0.000092 0.000033 0.000000
0.000006 -0.000105 0.000007 0.000000
0.000026 -0.000134 0.000026 0.000000
0.000020 -0.000133 0.000049 0.000000
0.000011 -0.000115 0.000058 0.000000
0.000024 -0.000157 0.000012 0.000000
0.000004 -0.000125 -0.000021 0.000000
0.000018 -0.000127 0.000062 0.000000
0.000020 -0.000134 0.000052 0.000000
0.000584 -0.001070 0.000250 0.000000
0.002912 -0.003378 0.001104 0.000000
0.000013 -0.000127 -0.000020 0.000000
0.000021 -0.000144 0.000009 0.000000
0.000522 -0.001028 0.000341 0.000000
0.002593 -0.003297 0.000589 0.000000
0.001328 -0.001281 0.001261 0.000000
0.002667 -0.003257 0.000761 0.000000
0.000055 -0.000112 -0.000010 0.000000
0.000130 -0.000543 0.000343 0.000000
0.000014 -0.000101 0.000030 0.000000
0.000017 -0.000099 0.000054 0.000000
0.000014 -0.000139 0.000010 0.000000
0.000007 -0.000178 -0.000087 0.000000
-0.000007 -0.000191 -0.000190 0.000000
0.000026 -0.000131 0.000047 0.000000
0.000020 -0.000109 0.000041 0.000000
-0.000002 -0.000086 -0.000033 0.000000
0.000480 -0.000750 0.001294 0.000000
0.000002 -0.000104 0.000038 0.000000
0.000527 -0.000817 0.000909 0.000000
0.000006 -0.000071 0.000037 0.000000
0.000648 -0.000696 -0.000173 0.000000
0.000314 -0.000766 0.001172 0.000000
0.000445 -0.000887 0.001060 0.000000
0.000385 -0.001008 0.000401 0.000000
0.002091 -0.002083 -0.000760 0.000000
0.001327 -0.001946 0.000045 0.000000
0.001456 -0.002220 -0.001369 0.000000
0.002194 -0.002290 -0.001939 0.000000
0.000648 -0.001081 -0.000041 0.000000
0.001063 -0.001305 -0.000990 0.000000
0.000824 -0.001428 -0.000635 0.000000
0.001638 -0.002343 -0.000827 0.000000
0.001207 -0.001904 -0.000906 0.000000
0.002197 -0.002816 -0.001516 0.000000
-0.000000 -0.000070 -0.000023 0.000000
0.000710 -0.001169 -0.000005 0.000000
0.000003 -0.000081 -0.000082 0.000000
0.000896 -0.001686 -0.000909 0.000000
0.000021 -0.000077 0.000009 0.000000
0.000011 -0.000100 0.000047 0.000000
0.000010 -0.000065 -0.000039 0.000000
-0.000000 -0.000078 0.000040 0.000000
-0.000004 -0.000096 0.000003 0.000000
-0.000000 -0.000085 0.000009 0.000000
-0.000003 -0.000102 -0.000027 0.000000
-0.000004 -0.000068 -0.000053 0.000000
-0.000002 -0.000080 -0.000043 0.000000
-0.000004 -0.000090 -0.000057 0.000000
0.000727 -0.001326 -0.000605 0.000000
-0.000002 -0.000086 -0.000049 0.000000
0.000009 -0.000070 -0.000151 0.000000
0.000994 -0.001698 -0.000835 0.000000
0.001373 -0.002196 -0.000406 0.000000
0.000789 -0.001275 -0.000708 0.000000
0.001327 -0.001848 -0.000087 0.000000
0.001304 -0.001887 -0.000330 0.000000
0.001155 -0.001890 0.000086 0.000000
0.001189 -0.001866 0.000223 0.000000
0.001144 -0.001996 0.000959 0.000000
0.001566 -0.002297 0.000244 0.000000
0.001221 -0.001679 0.001346 0.000000
0.001236 -0.001553 0.000304 0.000000
0.001569 -0.002292 0.001242 0.000000
0.000525 -0.000979 0.000528 0.000000
0.001608 -0.002144 -0.000724 0.000000
0.000920 -0.001336 -0.001095 0.000000
0.001541 -0.002023 -0.000483 0.000000
0.001561 -0.001846 -0.001787 0.000000
0.001350 -0.002091 -0.000211 0.000000
0.001658 -0.002542 0.001404 0.000000
0.001463 -0.001950 0.000045 0.000000
0.001691 -0.002359 -0.000136 0.000000
0.001783 -0.002564 -0.001924 0.000000
0.001573 -0.002164 -0.000216 0.000000
0.001440 -0.002076 0.000156 0.000000
0.001333 -0.002252 0.001091 0.000000
0.001595 -0.001963 0.000519 0.000000
0.001232 -0.001934 0.000154 0.000000
0.000020 -0.000095 -0.000000 0.000000
0.000020 -0.000098 -0.000004 0.000000
0.001159 -0.001665 0.000045 0.000000
0.001023 -0.001889 0.000840 0.000000
0.000695 -0.001408 0.001063 0.000000
0.000287 -0.001154 0.000969 0.000000
0.001423 -0.001891 0.001516 0.000000
0.001036 -0.001830 0.000167 0.000000
0.000013 -0.000096 0.000001 0.000000
0.001248 -0.001701 0.001141 0.000000
0.001263 -0.001632 0.000481 0.000000
0.001423 -0.002146 0.001953 0.000000
0.000004 -0.000101 -0.000019 0.000000
0.001344 -0.001661 -0.000356 0.000000
0.000953 -0.001303 0.000198 0.000000
0.000729 -0.000867 0.000221 0.000000
0.000934 -0.001283 0.000249 0.000000
0.000028 -0.000196 0.000329 0.000000
0.000487 -0.000611 0.000298 0.000000
0.000199 -0.000299 0.000587 0.000000
0.000528 -0.000957 -0.000026 0.000000
0.000457 -0.000979 0.000071 0.000000
0.000071 -0.000540 0.000225 0.000000
0.000000 -0.000101 -0.000012 0.000000
0.000908 -0.001433 0.001382 0.000000
0.000466 -0.000748 0.000251 0.000000
0.000469 -0.001053 0.000313 0.000000
0.000177 -0.000621 0.000038 0.000000
0.001161 -0.001598 0.001162 0.000000
0.001005 -0.001645 0.001698 0.000000
0.000649 -0.001191 0.000524 0.000000
0.000539 -0.000965 0.000384 0.000000
0.001620 -0.002235 0.001540 0.000000
0.001330 -0.001987 0.000941 0.000000
0.002135 -0.002918 0.000294 0.000000
0.000358 -0.000699 -0.000008 0.000000
0.000180 -0.000677 -0.000021 0.000000
-0.000020 -0.000102 0.000036 0.000000
0.000585 -0.000879 0.000025 0.000000
0.001434 -0.002097 0.001491 0.000000
0.000159 -0.000315 -0.000472 0.000000
0.000039 -0.000127 0.000210 0.000000
0.000313 -0.000523 -0.000952 0.000000
0.000002 -0.001067 0.000652 0.000000
-0.000011 -0.000101 0.000044 0.000000
0.000456 -0.000445 0.000447 0.000000
0.000005 -0.000104 0.000031 0.000000
-0.000004 -0.000111 0.000039 0.000000
0.000007 -0.000105 0.000042 0.000000
-0.000024 -0.000063 0.000121 0.000000
0.000034 -0.000118 0.000084 0.000000
0.000007 -0.000084 0.000183 0.000000
0.000015 -0.000100 0.000092 0.000000
0.000012 -0.000112 0.000110 0.000000
-0.000001 -0.000082 0.000113 0.000000
-0.000028 -0.000092 0.000076 0.000000
0.000053 -0.000168 0.000156 0.000000
0.000028 -0.000116 0.000109 0.000000
0.000042 -0.000137 0.000107 0.000000
0.000012 -0.000125 0.000200 0.000000
0.000076 -0.000160 0.000079 0.000000
0.000058 -0.000201 0.000139 0.000000
0.000085 -0.000161 0.000037 0.000000
0.000090 -0.000184 0.000066 0.000000
0.000097 -0.000187 0.000032 0.000000
0.000099 -0.000199 0.000071 0.000000
0.000069 -0.000152 0.000063 0.000000
0.000072 -0.000175 0.000094 0.000000
0.000076 -0.000161 0.000043 0.000000
0.000101 -0.000166 0.000005 0.000000
0.000038 -0.000127 0.000120 0.000000
0.000042 -0.000126 0.000090 0.000000
0.000056 -0.000137 0.000102 0.000000
0.000052 -0.000157 0.000123 0.000000
0.000062 -0.000149 0.000065 0.000000
0.000060 -0.000162 0.000095 0.000000
0.000056 -0.000124 0.000016 0.000000
0.000062 -0.000134 0.000045 0.000000
0.000063 -0.000126 0.000013 0.000000
0.000067 -0.000116 -0.000027 0.000000
0.000072 -0.000149 0.000009 0.000000
0.000096 -0.000144 -0.000060 0.000000
0.000086 -0.000147 -0.000002 0.000000
0.000085 -0.000170 0.000021 0.000000
0.000063 -0.000116 -0.000012 0.000000
0.000064 -0.000132 0.000001 0.000000
0.000031 -0.000078 -0.000019 0.000000
0.000067 -0.000133 -0.000018 0.000000
0.000038 -0.000109 0.000034 0.000000
0.000047 -0.000123 0.000060 0.000000
0.000046 -0.000115 0.000026 0.000000
0.000052 -0.000118 0.000027 0.000000
0.000020 -0.000111 0.000031 0.000000
0.000027 -0.000106 0.000077 0.000000
0.000034 -0.000091 0.000003 0.000000
0.000024 -0.000101 0.000037 0.000000
0.000024 -0.000115 0.000089 0.000000
0.000039 -0.000117 0.000056 0.000000
0.000037 -0.000104 0.000029 0.000000
0.000029 -0.000104 0.000048 0.000000
0.000015 -0.000115 0.000010 0.000000
-0.000001 -0.000110 0.000020 0.000000
0.000005 -0.000095 0.000065 0.000000
0.000005 -0.000104 0.000031 0.000000
0.000027 -0.000128 0.000016 0.000000
0.000017 -0.000111 -0.000011 0.000000
0.000023 -0.000098 0.000032 0.000000
0.000013 -0.000104 0.000050 0.000000
0.000022 -0.000109 0.000064 0.000000
0.000020 -0.000104 0.000057 0.000000
0.000771 -0.001213 -0.000042 0.000000
0.000385 -0.000845 0.000230 0.000000
0.000024 -0.000105 0.000029 0.000000
0.000039 -0.000126 -0.000001 0.000000
0.001429 -0.001808 0.000190 0.000000
0.000654 -0.000477 0.000882 0.000000
0.000882 -0.000698 0.001478 0.000000
0.000684 -0.001174 0.000688 0.000000
0.000051 -0.000097 -0.000017 0.000000
0.000026 -0.000100 0.000033 0.000000
0.000048 -0.000094 -0.000008 0.000000
0.000032 -0.000090 -0.000006 0.000000
0.000033 -0.000128 0.000014 0.000000
0.000024 -0.000104 0.000024 0.000000
0.000015 -0.000089 0.000020 0.000000
0.000018 -0.000100 0.000040 0.000000
0.000046 -0.000086 -0.000008 0.000000
0.000038 -0.000097 0.000006 0.000000
0.000044 -0.000103 0.000005 0.000000
0.000052 -0.000111 0.000001 0.000000
0.000062 -0.000119 -0.000019 0.000000
0.000073 -0.000128 -0.000064 0.000000
0.000057 -0.000116 -0.000032 0.000000
0.000012 -0.000062 -0.000025 0.000000
0.000063 -0.000109 -0.000022 0.000000
0.000048 -0.000088 -0.000020 0.000000
0.000066 -0.000492 0.000062 0.000000
0.000077 -0.000106 -0.000036 0.000000
0.000043 -0.000095 -0.000007 0.000000
0.000048 -0.000092 -0.000005 0.000000
0.000046 -0.000090 -0.000015 0.000000
0.000046 -0.000096 -0.000008 0.000000
0.000056 -0.000098 -0.000031 0.000000
0.000049 -0.000100 -0.000014 0.000000
0.000048 -0.000093 -0.000032 0.000000
0.000064 -0.000111 -0.000019 0.000000
0.000057 -0.000097 -0.000010 0.000000
0.000133 -0.000567 0.000089 0.000000
0.000058 -0.000465 -0.000009 0.000000
0.000061 -0.000103 -0.000005 0.000000
0.000051 -0.000091 0.000002 0.000000
0.000054 -0.000414 0.000055 0.000000
0.000081 -0.000347 -0.000196 0.000000
0.000078 -0.000606 -0.000045 0.000000
0.000070 -0.000386 -0.000035 0.000000
0.000048 -0.000438 0.000120 0.000000
-0.000036 -0.000228 0.000038 0.000000
0.000063 -0.000368 0.000136 0.000000
0.000060 -0.000373 -0.000129 0.000000
-0.000020 -0.000358 -0.000028 0.000000
0.001409 -0.001540 0.000735 0.000000
0.000757 -0.001183 0.000086 0.000000
0.000114 -0.000115 -0.000037 0.000000
0.000077 -0.000099 -0.000011 0.000000
0.000055 -0.000106 -0.000031 0.000000
0.000017 -0.000092 0.000017 0.000000
0.000050 -0.000340 0.000044 0.000000
0.000054 -0.000092 -0.000002 0.000000
0.001188 -0.000979 0.001904 0.000000
0.000981 -0.001555 0.001068 0.000000
0.000053 -0.000112 -0.000037 0.000000
0.001426 -0.001472 0.001025 0.000000
0.000185 -0.000339 -0.000298 0.000000
0.000332 -0.000501 -0.000286 0.000000
0.001166 -0.002012 -0.000003 0.000000
0.000084 -0.000334 0.001028 0.000000
0.000315 -0.000274 0.000012 0.000000
0.001553 -0.001617 0.000972 0.000000
0.000016 -0.000055 -0.000008 0.000000
0.000023 -0.000080 -0.000002 0.000000
0.000180 -0.000280 -0.000412 0.000000
-0.000036 0.000055 0.000447 0.000000
0.000020 -0.000071 -0.000008 0.000000
0.000016 -0.000063 -0.000013 0.000000
0.000276 -0.000305 -0.000411 0.000000
0.000017 -0.000061 -0.000012 0.000000
0.000016 -0.000059 -0.000010 0.000000
0.000017 -0.000061 -0.000012 0.000000
0.000019 -0.000067 -0.000005 0.000000
0.000019 -0.000063 -0.000002 0.000000
0.000011 -0.000050 0.000003 0.000000
0.000009 -0.000048 0.000002 0.000000
0.000124 -0.000404 -0.000182 0.000000
0.001688 -0.001797 0.000334 0.000000
0.000022 -0.000067 -0.000004 0.000000
0.001456 -0.001742 0.000125 0.000000
0.001514 -0.001610 -0.000074 0.000000
0.001255 -0.001144 0.000411 0.000000
0.000029 -0.000071 0.000023 0.000000
0.001209 -0.001661 0.000263 0.000000
0.001366 -0.001646 -0.000308 0.000000
0.000627 -0.001060 -0.000059 0.000000
0.000025 -0.000081 -0.000004 0.000000
0.000011 -0.000088 0.000013 0.000000
0.000021 -0.000070 -0.000011 0.000000
0.000017 -0.000074 0.000000 0.000000
0.000020 -0.000071 -0.000009 0.000000
0.000026 -0.000089 0.000007 0.000000
0.000027 -0.000087 0.000004 0.000000
0.000023 -0.000081 -0.000001 0.000000
0.000026 -0.000077 -0.000011 0.000000
0.000022 -0.000069 -0.000009 0.000000
0.000107 -0.000117 -0.000101 0.000000
0.000023 -0.000093 0.000001 0.000000
0.000022 -0.000080 0.000002 0.000000
0.000024 -0.000098 0.000001 0.000000
0.000023 -0.000095 0.000007 0.000000
0.000018 -0.000094 0.000005 0.000000
0.000023 -0.000093 0.000010 0.000000
0.000018 -0.000093 0.000014 0.000000
0.002060 -0.002318 0.000750 0.000000
0.000028 -0.000106 -0.000021 0.000000
0.000036 -0.000098 -0.000000 0.000000
0.000018 -0.000096 -0.000013 0.000000
0.000029 -0.000094 -0.000001 0.000000
0.000050 -0.000115 -0.000005 0.000000
0.000028 -0.000096 0.000012 0.000000
0.000066 -0.000109 -0.000049 0.000000
0.000018 -0.000087 0.000016 0.000000
0.000028 -0.000095 0.000004 0.000000
0.000016 -0.000083 0.000006 0.000000
0.000022 -0.000103 0.000021 0.000000
0.000022 -0.000087 0.000010 0.000000
0.000015 -0.000063 -0.000014 0.000000
0.000023 -0.000088 0.000007 0.000000
0.000020 -0.000079 0.000003 0.000000
0.000024 -0.000089 0.000006 0.000000
0.000026 -0.000089 0.000005 0.000000
0.000019 -0.000079 0.000003 0.000000
0.000018 -0.000070 -0.000007 0.000000
0.000015 -0.000064 -0.000012 0.000000
0.000019 -0.000070 -0.000007 0.000000
0.000019 -0.000085 0.000001 0.000000
0.000041 -0.000107 0.000026 0.000000
0.000017 -0.000078 -0.000003 0.000000
0.000020 -0.000098 0.000014 0.000000
0.000013 -0.000071 -0.000005 0.000000
0.000016 -0.000078 0.000002 0.000000
0.000015 -0.000077 0.000003 0.000000
0.000023 -0.000068 0.000011 0.000000
0.000022 -0.000089 0.000001 0.000000
0.000021 -0.000052 -0.000014 0.000000
0.000015 -0.000063 -0.000004 0.000000
0.000041 -0.000073 0.000008 0.000000
0.000017 -0.000071 0.000002 0.000000
0.000016 -0.000064 -0.000013 0.000000
0.000015 -0.000071 -0.000006 0.000000
0.000015 -0.000056 -0.000018 0.000000
0.000017 -0.000063 -0.000014 0.000000
0.000013 -0.000050 -0.000014 0.000000
0.000014 -0.000064 -0.000011 0.000000
0.000016 -0.000070 -0.000005 0.000000
0.000014 -0.000055 -0.000011 0.000000
0.000015 -0.000055 -0.000015 0.000000
0.000015 -0.000061 -0.000008 0.000000
0.000144 -0.000263 0.000172 0.000000
0.000014 -0.000054 -0.000007 0.000000
0.000010 -0.000053 0.000008 0.000000
0.000283 -0.000434 -0.000204 0.000000
0.000141 -0.000233 -0.000025 0.000000
-0.000002 -0.000164 0.000031 0.000000
0.000034 -0.000019 0.001064 0.000000
0.000035 -0.000169 0.000164 0.000000
0.000010 -0.000146 0.000145 0.000000
0.000041 -0.000149 0.001050 0.000000
0.001064 -0.000861 0.000735 0.000000
0.000014 -0.000055 -0.000012 0.000000
0.000014 -0.000049 -0.000003 0.000000
0.000428 -0.000523 -0.000235 0.000000
0.000012 -0.000048 -0.000005 0.000000
0.000376 -0.000457 -0.000202 0.000000
0.000013 -0.000051 0.000003 0.000000
0.000013 -0.000049 -0.000011 0.000000
0.000011 -0.000050 -0.000002 0.000000
0.000443 -0.000572 -0.000297 0.000000
0.000362 -0.000555 -0.000114 0.000000
0.000045 -0.000182 0.000218 0.000000
-0.000020 -0.000203 0.000643 0.000000
0.000013 -0.000012 0.000377 0.000000
0.000116 -0.000139 0.000445 0.000000
0.000050 -0.000094 -0.000044 0.000000
0.000028 -0.000069 0.000046 0.000000
0.000001 0.000002 0.000323 0.000000
0.000023 -0.000071 0.000053 0.000000
0.000168 -0.000288 -0.000148 0.000000
-0.000029 -0.000007 -0.000037 0.000000
0.000197 -0.000295 -0.000132 0.000000
0.000160 -0.000253 -0.000043 0.000000
0.000015 -0.000052 -0.000014 0.000000
0.000421 -0.000771 -0.000523 0.000000
0.000014 -0.000048 -0.000009 0.000000
0.000373 -0.000551 -0.000325 0.000000
0.000016 -0.000057 -0.000018 0.000000
0.000013 -0.000042 -0.000013 0.000000
0.000015 -0.000055 -0.000014 0.000000
0.000016 -0.000051 -0.000016 0.000000
0.000684 -0.001204 -0.000815 0.000000
0.000018 -0.000062 -0.000009 0.000000
0.000016 -0.000050 -0.000020 0.000000
0.000016 -0.000042 0.000001 0.000000
0.000045 -0.000120 0.000000 0.000000
0.000056 -0.000065 0.000051 0.000000
0.000965 -0.000814 -0.000095 0.000000
0.001468 -0.001518 0.002266 0.000000
0.000005 -0.000040 -0.000001 0.000000
0.000064 -0.000184 -0.000117 0.000000
0.000495 -0.000650 -0.000146 0.000000
0.001014 -0.001125 0.000949 0.000000
0.000189 -0.000253 -0.000309 0.000000
0.000495 -0.000584 -0.000118 0.000000
0.000105 -0.000316 -0.000150 0.000000
0.000327 -0.000407 -0.000656 0.000000
0.000248 -0.000357 -0.000608 0.000000
0.000197 -0.000287 -0.000436 0.000000
0.000054 -0.000226 -0.000168 0.000000
0.000414 -0.000424 -0.000391 0.000000
0.000224 -0.000342 -0.000291 0.000000
0.000240 -0.000305 -0.000607 0.000000
0.000511 -0.000552 -0.000029 0.000000
0.001498 -0.001429 0.001575 0.000000
0.000476 -0.000565 0.000014 0.000000
0.000664 -0.000613 -0.000024 0.000000
0.000551 -0.000449 0.000388 0.000000
0.000552 -0.000708 0.000614 0.000000
0.001063 -0.001057 0.000638 0.000000
0.001497 -0.001593 0.001638 0.000000
0.000374 -0.000435 0.000318 0.000000
0.001577 -0.001587 0.001334 0.000000
0.000543 -0.000576 -0.000024 0.000000
0.000754 -0.000698 -0.000127 0.000000
0.001063 -0.001087 0.000640 0.000000
0.000543 -0.000564 -0.000017 0.000000
0.000502 -0.000538 -0.000038 0.000000
0.000310 -0.000371 -0.000529 0.000000
0.000559 -0.000582 -0.000030 0.000000
0.000563 -0.000587 -0.000084 0.000000
0.000247 -0.000311 -0.000664 0.000000
0.000012 -0.000087 -0.000075 0.000000
0.000009 -0.000055 -0.000115 0.000000
0.000001 -0.000044 0.000002 0.000000
0.000113 -0.000092 -0.000054 0.000000
-0.000003 -0.000011 -0.000063 0.000000
-0.000047 0.000011 -0.000038 0.000000
-0.000066 0.000022 -0.000005 0.000000
0.000019 -0.000054 0.000201 0.000000
-0.000030 -0.000002 0.000022 0.000000
-0.000055 0.000021 0.000038 0.000000
0.000007 -0.000024 0.000023 0.000000
-0.000023 -0.000030 0.000007 0.000000
-0.000012 -0.000030 -0.000086 0.000000
-0.000029 -0.000035 0.000075 0.000000
-0.000015 -0.000027 0.000085 0.000000
-0.000006 -0.000055 -0.000044 0.000000
0.000260 -0.000333 -0.000630 0.000000
0.000008 -0.000078 -0.000095 0.000000
-0.000008 -0.000040 -0.000068 0.000000
0.000264 -0.000371 -0.000372 0.000000
0.000009 -0.000071 -0.000124 0.000000
0.000253 -0.000369 -0.000449 0.000000
-0.000007 -0.000041 -0.000076 0.000000
0.000010 -0.000078 -0.000108 0.000000
-0.000023 -0.000004 -0.000001 0.000000
-0.000008 -0.000039 -0.000038 0.000000
-0.000004 -0.000097 0.000276 0.000000
-0.000002 -0.000054 0.000014 0.000000
0.000028 -0.000111 0.000254 0.000000
-0.000017 -0.000017 0.000105 0.000000
0.000018 -0.000098 0.000219 0.000000
0.000026 -0.000075 0.000249 0.000000
0.000008 -0.000017 0.000008 0.000000
0.000007 -0.000031 0.000031 0.000000
0.000008 -0.000022 0.000013 0.000000
0.000026 -0.000097 -0.000040 0.000000
0.000235 -0.000366 -0.000101 0.000000
0.000098 -0.000074 -0.000107 0.000000
0.000003 -0.000015 0.000020 0.000000
0.000019 -0.000050 0.000138 0.000000
0.000220 -0.000274 -0.000083 0.000000
0.000247 -0.000291 0.000008 0.000000
0.000006 -0.000022 0.000025 0.000000
-0.000015 -0.000009 0.000066 0.000000
0.000008 -0.000020 0.000021 0.000000
0.000029 -0.000080 0.000163 0.000000
0.000006 -0.000023 0.000018 0.000000
0.000007 -0.000035 0.000048 0.000000
0.000002 -0.000014 0.000027 0.000000
0.000047 -0.000035 -0.000000 0.000000
0.000004 -0.000004 0.000087 0.000000
0.000051 -0.000061 0.000005 0.000000
0.000091 -0.000056 0.000001 0.000000
0.000262 -0.000258 -0.000042 0.000000
0.000260 -0.000237 -0.000059 0.000000
0.000006 -0.000013 0.000014 0.000000
0.000049 -0.000050 0.000031 0.000000
0.000061 -0.000043 0.000032 0.000000
0.000011 -0.000033 0.000035 0.000000
0.000260 -0.000212 -0.000084 0.000000
0.000252 -0.000268 -0.000016 0.000000
0.000036 -0.000016 -0.000032 0.000000
0.000094 -0.000108 -0.000084 0.000000
0.000139 -0.000111 -0.000031 0.000000
0.000126 -0.000123 -0.000006 0.000000
0.000038 -0.000046 -0.000025 0.000000
0.000825 -0.000804 0.000139 0.000000
0.000669 -0.000724 -0.000235 0.000000
0.000587 -0.000560 0.000034 0.000000
0.000657 -0.000652 -0.000059 0.000000
0.000680 -0.000676 -0.000023 0.000000
-0.000016 -0.000039 -0.000083 0.000000
0.000647 -0.000679 -0.000001 0.000000
0.000749 -0.000725 0.000260 0.000000
0.000158 -0.000211 -0.000290 0.000000
0.000573 -0.000572 0.000077 0.000000
0.000052 -0.000051 0.000040 0.000000
0.001179 -0.001336 0.000240 0.000000
0.000711 -0.000713 0.000269 0.000000
0.000611 -0.000557 0.000516 0.000000
0.000803 -0.000941 -0.000368 0.000000
0.000676 -0.000689 0.000277 0.000000
0.000803 -0.000807 0.000545 0.000000
0.000608 -0.000641 0.000349 0.000000
0.000788 -0.000819 -0.000150 0.000000
0.000592 -0.000681 0.000545 0.000000
0.000683 -0.000686 -0.000178 0.000000
0.000645 -0.000680 -0.000067 0.000000
0.000160 -0.000285 -0.000260 0.000000
0.000044 -0.000151 -0.000207 0.000000
0.000015 -0.000044 -0.000024 0.000000
0.000511 -0.000697 -0.000368 0.000000
0.000016 -0.000032 -0.000036 0.000000
0.000030 -0.000043 0.000022 0.000000
0.000020 -0.000074 -0.000015 0.000000
0.000607 -0.000820 -0.000397 0.000000
0.000009 -0.000052 -0.000018 0.000000
0.000011 -0.000056 -0.000024 0.000000
0.001369 -0.001620 0.000336 0.000000
0.000021 -0.000290 -0.000031 0.000000
0.000680 -0.000877 -0.000640 0.000000
0.000012 -0.000028 -0.000012 0.000000
0.001071 -0.001260 0.000186 0.000000
0.000837 -0.000654 0.001037 0.000000
0.000696 -0.000855 -0.000223 0.000000
0.000726 -0.000788 -0.000124 0.000000
0.000009 -0.000030 0.000029 0.000000
0.000007 -0.000025 0.000029 0.000000
0.000028 -0.000040 -0.000015 0.000000
0.000018 -0.000027 -0.000020 0.000000
0.000015 -0.000030 0.000038 0.000000
0.000008 -0.000031 0.000029 0.000000
0.000008 -0.000026 0.000027 0.000000
0.000007 -0.000026 0.000028 0.000000
0.000263 -0.000174 0.000902 0.000000
0.000040 -0.000061 0.000030 0.000000
0.000031 -0.000084 0.000082 0.000000
0.001410 -0.001483 0.000752 0.000000
0.000023 -0.000045 0.000041 0.000000
0.000077 -0.000070 0.000031 0.000000
0.000023 -0.000046 -0.000004 0.000000
0.000018 -0.000047 0.000030 0.000000
0.001387 -0.001254 0.000503 0.000000
0.001164 -0.001086 0.000547 0.000000
0.000022 -0.000045 0.000067 0.000000
0.001580 -0.002145 0.000272 0.000000
0.000440 -0.000557 0.000169 0.000000
0.000424 -0.000560 0.000115 0.000000
0.000007 -0.000019 0.000390 0.000000
0.000126 -0.000091 0.000073 0.000000
0.000211 -0.000406 0.000809 0.000000
0.000232 -0.000464 0.000458 0.000000
0.000188 -0.001157 -0.000284 0.000000
0.000016 -0.000484 0.000561 0.000000
0.000279 -0.001260 -0.000608 0.000000
0.000121 -0.000721 0.000040 0.000000
0.000991 -0.001747 -0.000347 0.000000
0.000242 -0.000704 0.000022 0.000000
0.001005 -0.001057 0.000160 0.000000
0.000286 -0.000585 0.000328 0.000000
0.001293 -0.001392 0.000617 0.000000
0.000233 -0.000564 0.000030 0.000000
0.000065 -0.000259 -0.000176 0.000000
-0.000003 -0.000255 -0.000060 0.000000
0.000008 -0.000088 0.000013 0.000000
0.000008 -0.000066 -0.000012 0.000000
0.000097 -0.000394 -0.000019 0.000000
0.000213 -0.000301 0.000127 0.000000
0.000011 -0.000061 -0.000006 0.000000
0.000020 -0.000076 0.000029 0.000000
0.000014 -0.000056 -0.000007 0.000000
0.000008 -0.000063 -0.000028 0.000000
0.000009 -0.000057 -0.000022 0.000000
0.000018 -0.000039 -0.000064 0.000000
0.000010 -0.000068 -0.000022 0.000000
0.000006 -0.000059 -0.000016 0.000000
0.000013 -0.000078 -0.000031 0.000000
0.000090 -0.000458 -0.000074 0.000000
0.000056 -0.000373 -0.000081 0.000000
0.000005 -0.000075 -0.000058 0.000000
0.000228 -0.000389 -0.000310 0.000000
0.000052 -0.000202 0.000111 0.000000
0.000138 -0.000207 -0.000318 0.000000
0.000124 -0.000267 -0.000570 0.000000
0.000040 -0.000041 -0.000281 0.000000
0.000026 -0.000253 -0.000148 0.000000
0.000103 -0.000264 -0.000054 0.000000
-0.000026 -0.000058 -0.000068 0.000000
0.000169 -0.000344 -0.000289 0.000000
-0.000008 -0.000041 0.000004 0.000000
0.000077 -0.000188 0.000058 0.000000
-0.000016 -0.000217 -0.000044 0.000000
0.000133 -0.000184 -0.000194 0.000000
0.000148 -0.000335 -0.000277 0.000000
0.000002 -0.000090 0.000086 0.000000
0.000000 -0.000059 -0.000025 0.000000
-0.000013 -0.000032 0.000004 0.000000
0.000000 -0.000058 -0.000022 0.000000
0.000016 -0.000182 0.000093 0.000000
-0.000000 -0.000040 -0.000007 0.000000
-0.000002 -0.000028 0.000031 0.000000
-0.000021 -0.000025 0.000015 0.000000
-0.000211 -0.000228 0.000707 0.000000
0.000287 -0.000513 0.000322 0.000000
0.000011 -0.000041 0.000034 0.000000
0.000447 -0.001109 -0.000309 0.000000
0.000048 -0.000065 -0.000020 0.000000
0.000048 -0.000055 0.000080 0.000000
-0.000007 -0.000033 0.000008 0.000000
0.000002 -0.000056 -0.000014 0.000000
-0.000001 -0.000031 0.000016 0.000000
0.000019 -0.000183 0.000060 0.000000
-0.000014 -0.000029 0.000025 0.000000
0.000045 -0.000147 0.000061 0.000000
0.000093 -0.000132 0.000007 0.000000
-0.000005 -0.000006 0.000043 0.000000
0.000006 -0.000021 0.000039 0.000000
0.000003 -0.000018 0.000027 0.000000
0.000011 -0.000033 0.000032 0.000000
0.000011 -0.000029 0.000049 0.000000
0.000015 -0.000046 0.000031 0.000000
0.001430 -0.001647 0.000509 0.000000
0.000005 -0.000018 0.000028 0.000000
0.000010 -0.000035 0.000043 0.000000
0.000021 -0.000032 0.000022 0.000000
0.000012 -0.000033 0.000033 0.000000
0.000006 -0.000022 0.000018 0.000000
0.000003 -0.000024 0.000027 0.000000
0.000003 -0.000012 0.000016 0.000000
0.000004 -0.000023 0.000025 0.000000
0.000051 -0.000121 0.000058 0.000000
-0.000013 -0.000030 -0.000040 0.000000
0.000077 -0.000191 0.000022 0.000000
0.000048 -0.000185 0.000064 0.000000
0.000058 -0.000180 0.000117 0.000000
0.000039 -0.000161 0.000043 0.000000
0.000057 -0.000160 0.000052 0.000000
0.000048 -0.000153 0.000053 0.000000
0.000097 -0.000271 -0.000086 0.000000
-0.000007 -0.000109 0.000033 0.000000
0.000024 -0.000149 -0.000069 0.000000
0.000023 -0.000162 0.000064 0.000000
-0.000019 -0.000065 -0.000012 0.000000
0.000016 -0.000159 -0.000179 0.000000
-0.000012 -0.000109 -0.000036 0.000000
-0.000005 -0.000104 0.000040 0.000000
-0.000015 -0.000045 -0.000063 0.000000
-0.000006 -0.000096 0.000031 0.000000
-0.000021 -0.000079 -0.000047 0.000000
-0.000006 -0.000059 -0.000026 0.000000
0.000006 -0.000112 0.000020 0.000000
0.000030 -0.000108 0.000025 0.000000
0.000066 -0.000138 0.000019 0.000000
-0.000039 0.000010 0.000024 0.000000
0.000047 -0.000107 0.000027 0.000000
0.000043 -0.000138 0.000015 0.000000
-0.000006 -0.000040 -0.000052 0.000000
0.000008 -0.000064 0.000004 0.000000
0.000015 -0.000061 -0.000008 0.000000
0.000017 -0.000059 0.000005 0.000000
0.000048 -0.000186 -0.000262 0.000000
0.000009 -0.000074 -0.000129 0.000000
-0.000006 -0.000032 -0.000065 0.000000
-0.000023 -0.000059 -0.000036 0.000000
0.000013 -0.000048 -0.000085 0.000000
0.000102 -0.000132 -0.000122 0.000000
-0.000015 -0.000004 -0.000038 0.000000
0.000013 -0.000033 -0.000068 0.000000
0.000527 -0.000464 0.000207 0.000000
0.000116 -0.000085 -0.000040 0.000000
-0.000038 0.000005 -0.000019 0.000000
-0.000047 0.000010 0.000002 0.000000
-0.000005 -0.000014 -0.000047 0.000000
-0.000016 -0.000008 -0.000006 0.000000
-0.000015 -0.000029 -0.000012 0.000000
-0.000018 -0.000023 0.000017 0.000000
-0.000018 -0.000008 0.000012 0.000000
-0.000014 -0.000024 0.000036 0.000000
0.000002 -0.000037 0.000026 0.000000
0.000008 -0.000020 0.000044 0.000000
-0.000002 -0.000034 0.000054 0.000000
0.000012 -0.000033 0.000064 0.000000
0.000019 -0.000022 0.000015 0.000000
0.000012 -0.000029 0.000030 0.000000
0.000217 -0.000124 -0.000016 0.000000
0.001561 -0.001515 -0.000462 0.000000
0.000069 -0.000059 0.000035 0.000000
0.000039 -0.000057 0.000059 0.000000
0.000009 -0.000088 0.000149 0.000000
0.000016 -0.000039 0.000035 0.000000
0.000001 -0.000032 0.000058 0.000000
0.000004 -0.000045 0.000083 0.000000
0.000130 -0.000204 0.000155 0.000000
0.000017 -0.000020 0.000006 0.000000
-0.000015 -0.000019 0.000048 0.000000
0.000003 -0.000059 0.000024 0.000000
-0.000010 -0.000031 0.000079 0.000000
-0.000008 -0.000025 0.000072 0.000000
0.000001 -0.000018 0.000021 0.000000
-0.000008 -0.000060 0.000040 0.000000
0.000005 -0.000021 0.000031 0.000000
-0.000001 -0.000011 0.000024 0.000000
0.000015 -0.000016 0.000011 0.000000
0.000003 -0.000012 0.000016 0.000000
0.000010 -0.000020 0.000018 0.000000
0.000011 -0.000023 0.000023 0.000000
0.000023 -0.000039 0.000022 0.000000
0.000018 -0.000033 0.000014 0.000000
0.000035 -0.000024 -0.000063 0.000000
0.000021 -0.000038 0.000019 0.000000
0.001551 -0.001683 -0.000408 0.000000
0.001286 -0.001480 -0.000886 0.000000
0.002027 -0.001931 -0.000057 0.000000
0.001863 -0.002018 -0.000989 0.000000
0.001659 -0.001575 -0.000366 0.000000
0.001935 -0.002049 -0.001166 0.000000
0.001556 -0.001553 -0.000702 0.000000
0.000683 -0.000615 -0.000727 0.000000
0.001351 -0.001287 -0.000342 0.000000
0.001599 -0.001778 -0.000123 0.000000
0.000637 -0.001023 0.000605 0.000000
0.000033 -0.000033 0.000002 0.000000
0.001579 -0.001601 -0.000633 0.000000
0.000179 -0.000305 0.000179 0.000000
0.000714 -0.000758 -0.000330 0.000000
0.000244 -0.000213 0.000020 0.000000
0.001226 -0.001314 -0.000222 0.000000
0.000908 -0.000837 -0.000188 0.000000
0.001284 -0.001264 -0.000823 0.000000
0.001202 -0.001227 -0.000278 0.000000
0.000840 -0.000892 -0.000283 0.000000
0.001356 -0.001529 -0.000254 0.000000
0.001237 -0.001295 -0.000540 0.000000
0.001236 -0.001158 -0.000420 0.000000
0.001594 -0.001542 -0.000337 0.000000
0.000786 -0.000848 -0.000006 0.000000
0.001227 -0.001114 -0.000143 0.000000
0.001192 -0.001335 -0.000094 0.000000
0.000934 -0.000824 -0.000135 0.000000
0.000676 -0.000612 0.000231 0.000000
0.000320 -0.000418 -0.000245 0.000000
0.001187 -0.001117 -0.000173 0.000000
0.000416 -0.000464 0.000140 0.000000
0.000505 -0.000507 0.000310 0.000000
0.000347 -0.000333 0.000109 0.000000
0.000348 -0.000314 0.000143 0.000000
0.001337 -0.001412 -0.000912 0.000000
0.000068 -0.000067 -0.000043 0.000000
0.000052 -0.000097 -0.000042 0.000000
0.000169 -0.000134 0.000012 0.000000
0.000039 -0.000080 -0.000052 0.000000
0.000070 -0.000055 -0.000021 0.000000
0.000052 -0.000125 -0.000025 0.000000
0.000138 -0.000151 0.000004 0.000000
0.000040 -0.000104 -0.000018 0.000000
0.000068 -0.000098 -0.000034 0.000000
0.000347 -0.000360 0.000131 0.000000
0.000676 -0.000732 0.000228 0.000000
0.000132 -0.000180 -0.000049 0.000000
0.001045 -0.001033 -0.000491 0.000000
0.000225 -0.000358 -0.000305 0.000000
0.000503 -0.000587 0.000022 0.000000
0.000060 -0.000165 -0.000061 0.000000
0.000320 -0.000381 -0.000227 0.000000
-0.000007 -0.000137 -0.000065 0.000000
0.000009 -0.000104 -0.000035 0.000000
0.000009 -0.000103 -0.000001 0.000000
0.000035 -0.000102 -0.000019 0.000000
0.000033 -0.000090 0.000001 0.000000
0.000036 -0.000063 -0.000035 0.000000
-0.000007 -0.000086 -0.000063 0.000000
-0.000042 -0.000110 0.000085 0.000000
0.000034 -0.000134 0.000031 0.000000
-0.000031 -0.000129 0.000011 0.000000
0.000806 -0.000896 -0.000813 0.000000
0.001045 -0.001303 -0.000991 0.000000
0.000227 -0.000355 -0.000344 0.000000
-0.000037 -0.000145 0.000021 0.000000
0.001179 -0.001346 -0.001387 0.000000
0.001335 -0.001419 -0.001082 0.000000
0.001511 -0.001590 -0.001534 0.000000
0.000798 -0.000915 -0.000933 0.000000
0.001618 -0.001738 -0.000659 0.000000
0.001635 -0.001706 -0.001269 0.000000
0.001015 -0.001207 -0.001260 0.000000
0.001042 -0.001152 -0.000586 0.000000
0.000849 -0.000669 0.000856 0.000000
0.000080 -0.000073 -0.000110 0.000000
0.001825 -0.001868 -0.001012 0.000000
0.001786 -0.001872 -0.000975 0.000000
0.000002 -0.000086 -0.000084 0.000000
-0.000010 -0.000037 0.000019 0.000000
0.001094 -0.000969 0.001369 0.000000
0.000853 -0.000667 0.000863 0.000000
0.000005 -0.000048 0.000002 0.000000
0.000017 -0.000042 0.000037 0.000000
0.000062 -0.000070 0.000061 0.000000
0.000929 -0.001379 0.000621 0.000000
0.001113 -0.001004 0.001415 0.000000
0.001284 -0.001504 -0.000651 0.000000
0.001710 -0.001792 -0.001502 0.000000
0.001943 -0.001982 -0.001228 0.000000
0.001091 -0.001200 -0.001591 0.000000
0.001913 -0.001918 -0.001140 0.000000
0.000808 -0.001055 -0.000942 0.000000
0.001579 -0.001790 -0.001522 0.000000
0.001249 -0.001446 -0.001338 0.000000
0.000951 -0.001306 -0.000963 0.000000
0.000047 -0.000139 -0.000009 0.000000
0.001294 -0.001873 0.000452 0.000000
0.000726 -0.001372 -0.000791 0.000000
0.000790 -0.001150 -0.000077 0.000000
0.001427 -0.001680 0.000475 0.000000
0.001092 -0.001145 -0.000091 0.000000
0.000680 -0.000927 0.000357 0.000000
0.001258 -0.001470 0.000939 0.000000
0.000215 -0.000572 0.000188 0.000000
0.000617 -0.000792 -0.000385 0.000000
0.000957 -0.001179 -0.000729 0.000000
0.000315 -0.000594 0.000030 0.000000
0.001264 -0.001332 -0.001248 0.000000
0.000345 -0.000646 -0.000323 0.000000
0.000996 -0.001136 -0.001310 0.000000
0.001190 -0.001299 -0.001338 0.000000
0.000730 -0.001107 -0.000956 0.000000
0.001133 -0.001321 -0.001019 0.000000
0.001010 -0.001228 -0.001374 0.000000
0.001257 -0.001485 -0.001624 0.000000
0.000915 -0.001009 -0.001281 0.000000
0.000103 -0.000166 -0.000427 0.000000
0.000092 -0.000332 -0.000342 0.000000
0.000639 -0.000898 -0.001055 0.000000
-0.000011 -0.000119 0.000041 0.000000
-0.000026 -0.000165 0.000014 0.000000
0.000288 -0.000216 -0.000868 0.000000
0.000216 -0.000606 -0.000526 0.000000
0.001115 -0.001462 -0.000887 0.000000
0.001036 -0.001448 -0.001060 0.000000
-0.000014 -0.000242 -0.000006 0.000000
-0.000015 -0.000161 -0.000040 0.000000
-0.000064 -0.000169 0.000035 0.000000
0.000634 -0.000336 -0.001687 0.000000
-0.000091 -0.000081 0.000073 0.000000
0.000025 -0.000107 -0.000306 0.000000
0.001156 -0.001445 -0.001020 0.000000
0.001211 -0.001451 -0.000799 0.000000
-0.000079 -0.000194 -0.000032 0.000000
0.000025 -0.000434 -0.000221 0.000000
0.000906 -0.001271 -0.000850 0.000000
0.000455 -0.000975 -0.000040 0.000000
0.001219 -0.001275 0.000395 0.000000
0.001098 -0.001635 -0.001314 0.000000
0.001431 -0.001616 -0.001373 0.000000
0.001175 -0.000690 -0.003575 0.000000
-0.000063 -0.000026 -0.000136 0.000000
0.001317 -0.001365 -0.001805 0.000000
0.001276 -0.001960 0.000265 0.000000
0.000013 -0.000664 -0.000572 0.000000
0.002044 -0.002797 -0.002143 0.000000
0.002488 -0.002930 -0.002030 0.000000
0.000741 -0.001472 0.001110 0.000000
0.000056 -0.000107 0.000020 0.000000
-0.000102 0.000228 -0.000643 0.000000
0.002383 -0.002452 -0.002850 0.000000
0.000053 -0.000087 -0.000035 0.000000
0.000037 -0.000098 0.000017 0.000000
0.001497 -0.001603 0.000715 0.000000
0.000032 -0.000086 -0.000031 0.000000
0.000098 -0.000528 0.000100 0.000000
0.000229 -0.000801 0.000234 0.000000
0.000453 -0.001211 0.000533 0.000000
0.000763 -0.000926 -0.000062 0.000000
0.001512 -0.002063 0.000587 0.000000
0.001971 -0.002037 0.000117 0.000000
0.000016 -0.000075 -0.000020 0.000000
-0.000018 -0.000399 0.000136 0.000000
0.000380 -0.000619 -0.000098 0.000000
0.000016 -0.000073 -0.000013 0.000000
0.000026 -0.000092 0.000026 0.000000
0.000044 -0.000117 0.000033 0.000000
-0.000007 -0.000073 0.000016 0.000000
0.000040 -0.000434 0.000168 0.000000
0.000044 -0.000107 0.000029 0.000000
0.000116 -0.000135 0.000026 0.000000
0.000041 -0.000094 0.000038 0.000000
0.000058 -0.000105 0.000033 0.000000
0.000032 -0.000091 0.000031 0.000000
0.001060 -0.001244 0.000423 0.000000
0.000028 -0.000095 0.000037 0.000000
0.000446 -0.000741 0.000111 0.000000
0.000276 -0.001282 -0.000959 0.000000
0.000134 -0.000896 -0.000329 0.000000
0.000005 -0.000082 0.000030 0.000000
0.000134 -0.000561 0.000190 0.000000
0.000016 -0.000074 0.000009 0.000000
0.000008 -0.000477 0.000083 0.000000
-0.000009 -0.000070 0.000009 0.000000
0.000173 -0.000535 0.000035 0.000000
0.000505 -0.000769 -0.000064 0.000000
0.000280 -0.000686 -0.000149 0.000000
0.000704 -0.000976 -0.000355 0.000000
0.000174 -0.000529 0.000038 0.000000
0.000850 -0.001504 -0.000069 0.000000
0.001191 -0.001962 0.000156 0.000000
0.001238 -0.001411 0.000815 0.000000
0.001320 -0.001785 0.000661 0.000000
0.000830 -0.000979 -0.000104 0.000000
0.000467 -0.001059 0.000071 0.000000
0.001367 -0.001516 0.000850 0.000000
0.000953 -0.001114 0.000668 0.000000
0.001369 -0.001976 -0.000408 0.000000
0.001671 -0.001945 -0.000034 0.000000
0.001484 -0.001339 0.002706 0.000000
-0.000021 -0.000030 0.000040 0.000000
0.001737 -0.002109 0.000140 0.000000
0.000784 -0.001217 0.000355 0.000000
-0.000018 -0.000030 0.000016 0.000000
-0.000018 -0.000032 0.000001 0.000000
-0.000014 -0.000037 0.000010 0.000000
-0.000293 0.000166 0.000482 0.000000
0.000288 -0.000657 0.000919 0.000000
-0.000023 -0.000023 0.000030 0.000000
-0.000022 -0.000023 0.000033 0.000000
0.000272 -0.000354 0.001481 0.000000
-0.000029 -0.000045 -0.000051 0.000000
0.000155 -0.000295 -0.000215 0.000000
-0.000007 -0.000046 -0.000024 0.000000
-0.000001 -0.000046 -0.000020 0.000000
0.000094 -0.000322 -0.000013 0.000000
0.000005 -0.000058 -0.000031 0.000000
0.000069 -0.000263 -0.000222 0.000000
-0.000005 -0.000247 -0.000054 0.000000
0.000153 -0.000406 -0.000203 0.000000
0.000044 -0.000081 -0.000015 0.000000
0.000194 -0.000360 -0.000295 0.000000
0.000015 -0.000062 -0.000075 0.000000
0.000195 -0.000487 -0.000161 0.000000
0.000364 -0.000690 -0.000391 0.000000
-0.000013 -0.000033 -0.000022 0.000000
0.000003 -0.000051 -0.000034 0.000000
-0.000018 -0.000027 0.000002 0.000000
-0.000014 -0.000033 -0.000001 0.000000
0.000226 -0.000412 -0.000307 0.000000
0.000036 -0.000324 0.000054 0.000000
0.000010 -0.000086 -0.000027 0.000000
0.000218 -0.000485 -0.000431 0.000000
0.000044 -0.000096 -0.000030 0.000000
0.000056 -0.000371 0.000136 0.000000
0.000016 -0.000311 0.000034 0.000000
0.000002 -0.000314 0.000048 0.000000
0.000058 -0.000099 -0.000030 0.000000
0.000066 -0.000111 -0.000047 0.000000
0.000050 -0.000106 -0.000051 0.000000
0.000033 -0.000073 -0.000029 0.000000
0.000030 -0.000087 -0.000048 0.000000
0.000050 -0.000089 -0.000045 0.000000
0.000043 -0.000084 -0.000065 0.000000
0.000037 -0.000084 -0.000096 0.000000
0.000212 -0.000537 -0.000202 0.000000
0.000019 -0.000059 -0.000087 0.000000
0.000026 -0.000069 -0.000091 0.000000
0.000626 -0.000875 0.001132 0.000000
0.000254 -0.000265 0.000593 0.000000
0.000819 -0.000958 0.001123 0.000000
0.000637 -0.001187 0.000453 0.000000
-0.000080 -0.000202 -0.000133 0.000000
-0.000011 -0.000166 -0.000009 0.000000
-0.000017 -0.000031 0.000018 0.000000
0.000985 -0.000923 0.001609 0.000000
0.000962 -0.001602 0.001318 0.000000
0.002338 -0.002814 0.001658 0.000000
0.001328 -0.001451 -0.000869 0.000000
0.000457 -0.000660 0.000781 0.000000
-0.000012 -0.000038 0.000009 0.000000
0.000621 -0.000893 0.001045 0.000000
0.000035 -0.000098 0.000055 0.000000
0.000041 -0.000187 -0.000101 0.000000
0.000520 -0.001754 -0.001917 0.000000
0.002686 -0.002923 0.002741 0.000000
0.002649 -0.002962 0.002709 0.000000
0.000037 -0.000109 0.000037 0.000000
0.000042 -0.000112 0.000011 0.000000
0.000069 -0.000143 0.000042 0.000000
0.002484 -0.002771 0.002885 0.000000
0.000073 -0.000141 0.000036 0.000000
0.000045 -0.000122 0.000021 0.000000
0.003097 -0.003061 0.002883 0.000000
0.000037 -0.000118 0.000021 0.000000
0.000068 -0.000102 0.000064 0.000000
0.000040 -0.000155 -0.000035 0.000000
0.000301 -0.000641 -0.000263 0.000000
0.000344 -0.000669 -0.000250 0.000000
0.000455 -0.000966 0.000744 0.000000
0.002959 -0.002883 0.003766 0.000000
0.000022 -0.000069 -0.000092 0.000000
0.000025 -0.000076 -0.000121 0.000000
0.000371 -0.000634 -0.000335 0.000000
0.000027 -0.000054 -0.000099 0.000000
0.000053 -0.000103 -0.000061 0.000000
0.000044 -0.000085 -0.000089 0.000000
0.000046 -0.000085 -0.000115 0.000000
0.000029 -0.000067 -0.000108 0.000000
0.000078 -0.000129 -0.000032 0.000000
0.000106 -0.000188 -0.000005 0.000000
0.000086 -0.000131 -0.000089 0.000000
0.000079 -0.000127 -0.000055 0.000000
0.000078 -0.000134 -0.000070 0.000000
0.000058 -0.000107 -0.000086 0.000000
0.000083 -0.000115 -0.000160 0.000000
0.000048 -0.000074 -0.000137 0.000000
0.001115 -0.002112 0.001661 0.000000
0.000015 -0.000053 -0.000104 0.000000
0.000101 -0.000140 -0.000112 0.000000
0.000066 -0.000109 -0.000111 0.000000
0.000088 -0.000144 -0.000088 0.000000
0.000124 -0.000151 -0.000142 0.000000
0.000079 -0.000149 -0.000041 0.000000
0.000090 -0.000171 -0.000009 0.000000
0.000114 -0.000157 -0.000073 0.000000
0.000139 -0.000173 -0.000087 0.000000
0.000133 -0.000182 -0.000032 0.000000
0.000110 -0.000206 0.000050 0.000000
0.000110 -0.000179 -0.000055 0.000000
0.000111 -0.000165 -0.000032 0.000000
0.000172 -0.000168 -0.000086 0.000000
0.000185 -0.000197 -0.000093 0.000000
0.000203 -0.000183 -0.000157 0.000000
0.000332 -0.000265 0.000016 0.000000
0.000199 -0.000166 -0.000106 0.000000
0.002626 -0.001942 0.007204 0.000000
0.000077 -0.000114 -0.000390 0.000000
0.002622 -0.001558 0.006362 0.000000
0.000086 -0.000111 -0.000183 0.000000
0.000231 -0.000171 -0.000231 0.000000
0.002516 -0.003066 0.003674 0.000000
0.002514 -0.001165 0.006724 0.000000
0.000162 -0.000166 0.000114 0.000000
0.000062 -0.000123 0.000018 0.000000
0.000077 -0.000139 0.000032 0.000000
0.000068 -0.000129 0.000040 0.000000
0.000155 -0.000198 -0.000009 0.000000
0.000191 -0.000252 -0.000142 0.000000
0.000133 -0.000182 -0.000020 0.000000
0.000212 -0.000206 -0.000214 0.000000
0.000090 -0.000150 0.000037 0.000000
0.000073 -0.000139 0.000029 0.000000
0.000091 -0.000155 0.000016 0.000000
0.000086 -0.000156 0.000020 0.000000
0.000094 -0.000158 -0.000032 0.000000
0.000063 -0.000133 0.000015 0.000000
0.000054 -0.000138 -0.000008 0.000000
0.000066 -0.000134 0.000017 0.000000
0.000044 -0.000113 0.000021 0.000000
0.000066 -0.000138 0.000004 0.000000
0.000053 -0.000122 0.000018 0.000000
0.000077 -0.000144 0.000014 0.000000
0.000073 -0.000137 0.000016 0.000000
0.000067 -0.000139 0.000007 0.000000
0.000064 -0.000128 0.000023 0.000000
0.000071 -0.000136 0.000028 0.000000
0.000067 -0.000136 0.000015 0.000000
0.000085 -0.000148 -0.000003 0.000000
0.000054 -0.000124 0.000019 0.000000
0.000043 -0.000103 0.000024 0.000000
0.000062 -0.000126 0.000022 0.000000
0.000051 -0.000114 0.000022 0.000000
0.000055 -0.000116 0.000029 0.000000
0.000042 -0.000104 0.000023 0.000000
0.000044 -0.000114 0.000021 0.000000
0.000053 -0.000115 0.000023 0.000000
0.000049 -0.000112 0.000021 0.000000
0.000022 -0.000096 0.000017 0.000000
0.000037 -0.000107 0.000019 0.000000
0.000032 -0.000091 0.000009 0.000000
0.000058 -0.000123 0.000023 0.000000
0.000052 -0.000110 0.000032 0.000000
0.000050 -0.000119 0.000019 0.000000
0.000058 -0.000129 0.000023 0.000000
0.000048 -0.000111 0.000017 0.000000
0.000054 -0.000119 0.000026 0.000000
0.000056 -0.000120 0.000023 0.000000
0.000058 -0.000134 0.000012 0.000000
0.000056 -0.000120 0.000029 0.000000
0.000054 -0.000118 0.000030 0.000000
0.000050 -0.000099 0.000005 0.000000
0.000038 -0.000100 0.000003 0.000000
0.000062 -0.000110 0.000036 0.000000
0.000087 -0.000109 0.000026 0.000000
0.000068 -0.000094 -0.000052 0.000000
0.000063 -0.000103 0.000008 0.000000
0.001071 -0.001991 0.001531 0.000000
0.000059 -0.000101 0.000055 0.000000
0.000153 -0.000122 -0.000058 0.000000
0.000071 -0.000121 -0.000035 0.000000
0.000043 -0.000098 0.000051 0.000000
0.000048 -0.000101 0.000048 0.000000
0.000063 -0.000100 0.000028 0.000000
0.000078 -0.000112 0.000071 0.000000
0.000044 -0.000119 0.000024 0.000000
0.000034 -0.000102 0.000036 0.000000
0.000042 -0.000099 0.000046 0.000000
0.000044 -0.000100 0.000039 0.000000
0.000048 -0.000130 0.000009 0.000000
0.000054 -0.000117 0.000034 0.000000
0.000053 -0.000120 0.000023 0.000000
0.000047 -0.000110 0.000036 0.000000
0.000059 -0.000130 0.000008 0.000000
0.000028 -0.000116 -0.000007 0.000000
0.000049 -0.000124 0.000004 0.000000
0.000027 -0.000112 0.000001 0.000000
0.000035 -0.000115 0.000006 0.000000
0.000024 -0.000102 0.000016 0.000000
0.000012 -0.000100 -0.000014 0.000000
0.000020 -0.000090 0.000025 0.000000
0.000018 -0.000103 0.000008 0.000000
-0.000048 -0.000127 0.000177 0.000000
0.000035 -0.000122 -0.000011 0.000000
0.000020 -0.000125 -0.000032 0.000000
0.000023 -0.000106 -0.000002 0.000000
0.000026 -0.000108 0.000004 0.000000
0.000011 -0.000115 -0.000013 0.000000
0.000024 -0.000113 -0.000004 0.000000
0.000010 -0.000112 -0.000000 0.000000
0.000015 -0.000080 0.000011 0.000000
0.000051 -0.000136 -0.000038 0.000000
0.000039 -0.000123 0.000006 0.000000
0.000035 -0.000118 0.000002 0.000000
0.000034 -0.000126 -0.000032 0.000000
0.000065 -0.000139 -0.000012 0.000000
0.000042 -0.000132 -0.000012 0.000000
0.000045 -0.000128 -0.000020 0.000000
0.000032 -0.000127 -0.000021 0.000000
0.000061 -0.000141 -0.000033 0.000000
0.000065 -0.000141 -0.000010 0.000000
0.000060 -0.000146 -0.000027 0.000000
0.000055 -0.000132 -0.000013 0.000000
0.000091 -0.000172 -0.000088 0.000000
0.000076 -0.000149 -0.000018 0.000000
0.000082 -0.000161 -0.000053 0.000000
0.000049 -0.000139 -0.000069 0.000000
0.000105 -0.000169 -0.000150 0.000000
0.000094 -0.000162 -0.000100 0.000000
0.000100 -0.000163 -0.000062 0.000000
0.000060 -0.000145 -0.000092 0.000000
0.000083 -0.000156 -0.000059 0.000000
0.000073 -0.000161 -0.000086 0.000000
0.000074 -0.000146 -0.000035 0.000000
0.000069 -0.000148 -0.000059 0.000000
0.000048 -0.000141 -0.000029 0.000000
0.000056 -0.000146 -0.000050 0.000000
0.000046 -0.000137 -0.000099 0.000000
0.000042 -0.000133 -0.000047 0.000000
0.000048 -0.000142 -0.000049 0.000000
0.000035 -0.000135 -0.000077 0.000000
0.000088 -0.000172 -0.000189 0.000000
0.000102 -0.000180 -0.000137 0.000000
0.000075 -0.000154 -0.000094 0.000000
0.000081 -0.000157 -0.000141 0.000000
0.000069 -0.000156 -0.000236 0.000000
0.000064 -0.000155 -0.000124 0.000000
0.000086 -0.000160 -0.000197 0.000000
0.000008 -0.000131 -0.000211 0.000000
0.000063 -0.000150 -0.000178 0.000000
0.000030 -0.000141 -0.000118 0.000000
0.000049 -0.000140 -0.000130 0.000000
0.000003 -0.000122 -0.000084 0.000000
0.000025 -0.000134 -0.000112 0.000000
0.000026 -0.000132 -0.000046 0.000000
0.000020 -0.000127 -0.000087 0.000000
-0.000006 -0.000118 -0.000041 0.000000
0.000033 -0.000139 -0.000062 0.000000
0.000028 -0.000128 -0.000058 0.000000
0.000012 -0.000127 -0.000054 0.000000
-0.000011 -0.000120 -0.000077 0.000000
0.000026 -0.000121 -0.000022 0.000000
0.000021 -0.000122 -0.000040 0.000000
0.000007 -0.000121 -0.000038 0.000000
0.000014 -0.000115 -0.000011 0.000000
0.000000 -0.000116 -0.000034 0.000000
0.000016 -0.000118 -0.000026 0.000000
-0.000001 -0.000114 -0.000019 0.000000
0.000003 -0.000115 -0.000020 0.000000
-0.000012 -0.000113 -0.000024 0.000000
-0.000004 -0.000113 -0.000017 0.000000
-0.000002 -0.000122 -0.000058 0.000000
-0.000021 -0.000120 -0.000069 0.000000
-0.000010 -0.000117 -0.000027 0.000000
-0.000019 -0.001262 -0.002874 0.000000
0.000005 -0.000131 -0.000104 0.000000
-0.000015 -0.000119 -0.000135 0.000000
0.000013 -0.000122 -0.000064 0.000000
0.000002 -0.000127 -0.000079 0.000000
-0.000001 -0.000118 -0.000065 0.000000
-0.000011 -0.000122 -0.000078 0.000000
-0.000019 -0.000119 -0.000077 0.000000
-0.000016 -0.000117 -0.000050 0.000000
-0.000009 -0.000116 -0.000035 0.000000
-0.000017 -0.000116 -0.000043 0.000000
-0.000018 -0.000119 -0.000041 0.000000
-0.000035 -0.000117 -0.000061 0.000000
-0.000255 -0.000692 -0.000595 0.000000
-0.000024 -0.000121 -0.000054 0.000000
-0.000000 -0.000149 -0.000052 0.000000
-0.000048 -0.000117 -0.000066 0.000000
-0.000284 -0.000836 -0.001442 0.000000
0.000607 -0.001298 -0.002993 0.000000
-0.000303 -0.000743 -0.000700 0.000000
0.000473 -0.001212 -0.002425 0.000000
-0.000053 -0.000085 -0.000151 0.000000
-0.000027 -0.000120 -0.000069 0.000000
0.000628 -0.001573 -0.002942 0.000000
0.000427 -0.001597 -0.002657 0.000000
-0.000053 -0.000105 -0.000145 0.000000
-0.000045 -0.000106 -0.000074 0.000000
-0.000022 -0.000115 -0.000071 0.000000
-0.000025 -0.000120 -0.000073 0.000000
-0.000012 -0.000122 -0.000068 0.000000
-0.000014 -0.000114 -0.000066 0.000000
-0.000059 -0.000081 -0.000215 0.000000
-0.000014 -0.000116 -0.000096 0.000000
-0.000131 -0.000072 -0.000214 0.000000
-0.000043 -0.000102 -0.000092 0.000000
0.000964 -0.001556 -0.003163 0.000000
-0.000084 -0.000091 -0.000124 0.000000
0.000728 -0.001375 -0.003253 0.000000
0.000494 -0.001497 -0.002870 0.000000
0.000475 -0.001598 -0.001500 0.000000
-0.000044 -0.001223 -0.001445 0.000000
-0.000684 -0.000625 -0.001542 0.000000
-0.000306 -0.000620 -0.001751 0.000000
-0.000301 -0.000752 -0.001549 0.000000
-0.000035 -0.000100 -0.000254 0.000000
-0.000486 -0.000757 -0.001368 0.000000
-0.000050 -0.000070 -0.000239 0.000000
-0.000253 -0.000868 -0.001541 0.000000
0.000094 -0.000161 -0.000273 0.000000
-0.000011 -0.000097 -0.000289 0.000000
0.000002 -0.000124 -0.000294 0.000000
0.000009 -0.000119 -0.000161 0.000000
-0.000020 -0.000116 -0.000182 0.000000
-0.000023 -0.000104 -0.000167 0.000000
-0.000036 -0.000111 -0.000112 0.000000
0.000031 -0.000143 -0.000151 0.000000
0.000008 -0.000132 -0.000153 0.000000
0.000006 -0.000123 -0.000110 0.000000
-0.000022 -0.000108 -0.000125 0.000000
0.000046 -0.000149 -0.000309 0.000000
0.000066 -0.000155 -0.000176 0.000000
0.000074 -0.000147 -0.000250 0.000000
0.000043 -0.000145 -0.000227 0.000000
0.000051 -0.000144 -0.000161 0.000000
0.000042 -0.000130 -0.000235 0.000000
0.001087 -0.001929 -0.001034 0.000000
0.000159 -0.000291 -0.000321 0.000000
0.000571 -0.001940 -0.000790 0.000000
0.000206 -0.000223 -0.000434 0.000000
0.000979 -0.002269 -0.001429 0.000000
0.000911 -0.002124 -0.000607 0.000000
0.001024 -0.002142 -0.000696 0.000000
0.000289 -0.001866 -0.000918 0.000000
0.000683 -0.001711 -0.001291 0.000000
0.000744 -0.001983 -0.002288 0.000000
0.001161 -0.002237 -0.001649 0.000000
-0.000090 -0.001281 -0.001305 0.000000
0.000635 -0.002008 -0.001608 0.000000
0.000524 -0.002002 -0.001995 0.000000
0.000117 -0.000176 -0.000354 0.000000
-0.000076 -0.001008 -0.001494 0.000000
0.000999 -0.002220 -0.002189 0.000000
0.000350 -0.001467 -0.001912 0.000000
0.000338 -0.001276 -0.001523 0.000000
0.000390 -0.001955 -0.001764 0.000000
0.000955 -0.002640 -0.000427 0.000000
0.002234 -0.003972 0.003501 0.000000
0.000418 -0.001661 -0.001885 0.000000
0.000039 -0.001203 -0.001667 0.000000
0.001377 -0.002471 -0.001028 0.000000
0.001942 -0.004026 0.003938 0.000000
0.001165 -0.002605 -0.001920 0.000000
0.000674 -0.002096 -0.001557 0.000000
0.000477 -0.001634 0.002832 0.000000
0.000817 -0.001878 0.001470 0.000000
0.001022 -0.002305 -0.002163 0.000000
0.000690 -0.002035 -0.001088 0.000000
0.000890 -0.002309 -0.002453 0.000000
0.000855 -0.002118 -0.001481 0.000000
0.000991 -0.002190 0.004490 0.000000
0.001616 -0.002899 0.003590 0.000000
0.001998 -0.003288 0.007778 0.000000
0.002259 -0.003578 0.007726 0.000000
0.001977 -0.002940 0.004141 0.000000
0.002498 -0.004199 0.002295 0.000000
0.002064 -0.004240 0.004594 0.000000
0.002022 -0.003720 0.004889 0.000000
0.002351 -0.003066 0.003329 0.000000
-0.000180 -0.000649 0.005065 0.000000
0.000769 -0.001954 0.004788 0.000000
0.002629 -0.003871 0.004135 0.000000
-0.000002 -0.000158 0.000215 0.000000
-0.001146 -0.001003 0.003693 0.000000
0.000275 -0.002105 0.004072 0.000000
0.000721 -0.001590 0.002824 0.000000
-0.000044 -0.000141 0.000277 0.000000
-0.000052 -0.000156 0.000193 0.000000
-0.000017 -0.000162 0.000197 0.000000
0.000018 -0.000147 0.000336 0.000000
0.000020 -0.000173 0.000228 0.000000
-0.000685 -0.001548 0.002754 0.000000
0.000028 -0.000187 0.000240 0.000000
-0.000211 -0.001796 0.001575 0.000000
0.000210 -0.002433 0.000896 0.000000
0.001795 -0.002294 0.008525 0.000000
0.000970 -0.000624 0.004927 0.000000
0.000187 -0.000247 0.000090 0.000000
0.000029 -0.000196 0.000238 0.000000
0.000018 -0.000163 0.000234 0.000000
0.000061 -0.000199 0.000252 0.000000
0.000121 -0.000241 0.000285 0.000000
0.000044 -0.000226 0.000210 0.000000
0.000082 -0.000353 0.000147 0.000000
0.000037 -0.000188 0.000138 0.000000
0.000024 -0.000194 0.000138 0.000000
0.000047 -0.000187 0.000158 0.000000
0.000015 -0.000174 0.000175 0.000000
0.000032 -0.000173 0.000190 0.000000
0.000051 -0.000183 0.000217 0.000000
0.000039 -0.000186 0.000237 0.000000
0.000165 -0.000203 -0.000025 0.000000
0.000079 -0.000206 0.000245 0.000000
0.000136 -0.000281 0.000255 0.000000
0.000212 -0.000278 -0.000279 0.000000
0.000192 -0.000220 0.000002 0.000000
0.000045 -0.000184 0.000221 0.000000
0.000062 -0.000219 0.000256 0.000000
0.001583 -0.003385 0.006730 0.000000
0.001084 -0.001842 -0.000192 0.000000
0.001970 -0.002204 0.008403 0.000000
0.000525 -0.000671 -0.000586 0.000000
0.000574 -0.000528 -0.000754 0.000000
0.000337 -0.000331 -0.000686 0.000000
0.000126 -0.000198 -0.000268 0.000000
0.000348 -0.000372 -0.000530 0.000000
0.000114 -0.000190 -0.000204 0.000000
0.000128 -0.000183 -0.000283 0.000000
0.000151 -0.000206 -0.000309 0.000000
0.000140 -0.000193 -0.000225 0.000000
0.000126 -0.000185 -0.000159 0.000000
0.000164 -0.000203 -0.000154 0.000000
0.002405 -0.002097 0.007356 0.000000
0.002474 -0.001990 0.007557 0.000000
0.002516 -0.001610 0.006760 0.000000
0.000216 -0.000194 -0.000061 0.000000
0.000512 -0.000597 -0.000295 0.000000
0.000399 -0.000381 -0.000535 0.000000
0.002584 -0.001817 0.007175 0.000000
0.000186 -0.000207 -0.000006 0.000000
0.002571 -0.001823 0.007200 0.000000
0.000175 -0.000120 -0.000059 0.000000
0.000343 -0.000333 -0.000435 0.000000
0.000348 -0.000251 -0.000175 0.000000
0.000384 -0.000454 -0.000461 0.000000
0.000331 -0.000357 -0.000311 0.000000
0.000150 -0.000192 -0.000111 0.000000
0.000150 -0.000205 -0.000059 0.000000
0.000133 -0.000195 -0.000096 0.000000
0.000116 -0.000185 -0.000051 0.000000
0.000327 -0.000347 -0.000296 0.000000
0.000341 -0.000391 -0.000110 0.000000
0.000338 -0.000270 -0.000356 0.000000
0.000155 -0.000216 -0.000127 0.000000
0.000169 -0.000197 -0.000095 0.000000
0.000190 -0.000202 -0.000096 0.000000
0.000145 -0.000227 0.000040 0.000000
0.000173 -0.000231 0.000132 0.000000
0.000216 -0.000231 0.000022 0.000000
0.000212 -0.000207 -0.000066 0.000000
0.000178 -0.000238 0.000132 0.000000
0.000165 -0.000242 0.000085 0.000000
0.000172 -0.000119 0.000046 0.000000
0.000186 -0.000205 0.000003 0.000000
0.000094 -0.000200 0.000097 0.000000
0.000066 -0.000200 0.000137 0.000000
0.000092 -0.000208 0.000196 0.000000
0.000101 -0.000207 0.000189 0.000000
0.000099 -0.000210 0.000142 0.000000
0.000099 -0.000207 0.000104 0.000000
0.000116 -0.000205 0.000090 0.000000
0.000115 -0.000209 0.000134 0.000000
0.000137 -0.000201 0.000027 0.000000
0.000154 -0.000215 0.000060 0.000000
0.000067 -0.000154 0.000109 0.000000
0.000052 -0.000174 0.000229 0.000000
0.000074 -0.000189 0.000122 0.000000
0.000082 -0.000202 0.000117 0.000000
0.000058 -0.000151 0.000180 0.000000
0.000038 -0.000141 0.000142 0.000000
0.000063 -0.000175 0.000125 0.000000
0.000055 -0.000144 0.000139 0.000000
0.000058 -0.000185 0.000185 0.000000
0.000034 -0.000148 0.000181 0.000000
0.000062 -0.000163 0.000214 0.000000
0.000069 -0.000165 0.000140 0.000000
0.000080 -0.000200 0.000116 0.000000
0.000087 -0.000188 0.000101 0.000000
0.000080 -0.000197 0.000118 0.000000
0.000077 -0.000201 0.000111 0.000000
0.000071 -0.000206 0.000132 0.000000
0.000076 -0.000187 0.000127 0.000000
0.000070 -0.000201 0.000131 0.000000
0.000073 -0.000198 0.000139 0.000000
0.000047 -0.000213 0.000141 0.000000
0.000070 -0.000204 0.000162 0.000000
0.000063 -0.000197 0.000126 0.000000
0.000046 -0.000195 0.000129 0.000000
0.003824 -0.003916 0.002437 0.000000
0.000040 -0.000162 0.000216 0.000000
0.000054 -0.000210 0.000180 0.000000
0.000065 -0.000197 0.000153 0.000000
0.000040 -0.000138 0.000263 0.000000
0.000065 -0.000210 0.000167 0.000000
0.000067 -0.000205 0.000203 0.000000
0.000069 -0.000179 0.000165 0.000000
0.000063 -0.000196 0.000165 0.000000
0.000062 -0.000214 0.000135 0.000000
0.003460 -0.003107 -0.000250 0.000000
-0.000016 -0.000113 0.000069 0.000000
0.000068 -0.000231 0.000201 0.000000
0.000049 -0.000137 0.000254 0.000000
0.000042 -0.000166 0.000323 0.000000
0.000010 -0.000254 0.000513 0.000000
0.003520 -0.002749 0.001136 0.000000
0.004331 -0.004593 -0.001245 0.000000
0.000159 -0.000186 0.000300 0.000000
0.000039 -0.000130 0.000198 0.000000
0.003243 -0.002687 -0.000473 0.000000
0.000054 -0.000161 0.000228 0.000000
0.000219 -0.000544 0.000780 0.000000
0.000739 -0.001284 0.001200 0.000000
0.003251 -0.003078 -0.000529 0.000000
0.000658 -0.001691 0.000674 0.000000
0.000874 -0.001644 0.001301 0.000000
0.000231 -0.001154 0.002031 0.000000
-0.000041 -0.000012 0.000195 0.000000
0.000764 -0.002135 -0.000844 0.000000
0.000037 -0.000134 0.000253 0.000000
-0.000019 -0.000091 0.000152 0.000000
0.000019 -0.000129 0.000245 0.000000
0.000033 -0.000084 0.000311 0.000000
-0.000037 -0.000064 0.000158 0.000000
-0.000019 -0.000057 0.000180 0.000000
0.000035 -0.000127 0.000161 0.000000
0.000017 -0.000109 0.000140 0.000000
0.002503 -0.002465 -0.000096 0.000000
0.000347 -0.001246 -0.000522 0.000000
0.001770 -0.002867 0.001817 0.000000
-0.000044 -0.000010 0.000078 0.000000
0.000745 -0.000787 -0.001467 0.000000
0.001363 -0.001222 -0.002668 0.000000
0.000973 -0.001206 -0.000169 0.000000
0.000850 -0.001573 0.001587 0.000000
0.001710 -0.002703 0.001520 0.000000
0.000780 -0.001719 0.002082 0.000000
0.001033 -0.001870 0.002231 0.000000
0.000234 -0.001011 0.001901 0.000000
0.000845 -0.001255 0.002264 0.000000
0.000996 -0.001792 0.001756 0.000000
0.000791 -0.001589 0.001735 0.000000
0.000810 -0.001767 0.002129 0.000000
0.000716 -0.001374 0.002577 0.000000
0.000807 -0.001434 0.001857 0.000000
0.000842 -0.001453 0.001791 0.000000
0.000274 -0.001064 0.001850 0.000000
0.001181 -0.001508 0.001294 0.000000
0.000775 -0.001366 0.001776 0.000000
0.001639 -0.002367 0.001573 0.000000
0.001634 -0.002366 0.001574 0.000000
0.000643 -0.001405 0.001335 0.000000
0.001113 -0.001865 0.001898 0.000000
0.000947 -0.001560 -0.000719 0.000000
-0.000013 -0.000078 -0.000168 0.000000
0.002564 -0.003395 0.000481 0.000000
0.001382 -0.002248 0.000358 0.000000
-0.000016 -0.000151 -0.000140 0.000000
-0.000062 -0.000087 -0.000104 0.000000
0.001908 -0.002898 0.001336 0.000000
0.001384 -0.001749 0.000467 0.000000
0.000869 -0.001400 0.000959 0.000000
0.001440 -0.002421 0.000703 0.000000
0.000740 -0.001642 0.000604 0.000000
0.001103 -0.002003 0.000997 0.000000
0.000340 -0.001002 0.001502 0.000000
0.000457 -0.001104 -0.000175 0.000000
0.000736 -0.001146 -0.000442 0.000000
0.001446 -0.002065 0.001322 0.000000
0.001691 -0.002533 0.001184 0.000000
0.000482 -0.001086 0.000993 0.000000
-0.000327 -0.000219 0.000145 0.000000
0.001221 -0.002167 0.000732 0.000000
-0.000152 -0.000573 0.000066 0.000000
0.000517 -0.001420 0.000996 0.000000
-0.000177 -0.000490 0.000193 0.000000
-0.000329 -0.000323 0.000005 0.000000
0.000438 -0.001107 0.000490 0.000000
0.000131 -0.001329 0.000266 0.000000
0.001234 -0.001593 0.001335 0.000000
0.001213 -0.001781 0.000786 0.000000
0.001562 -0.002345 0.000853 0.000000
0.000020 -0.000133 0.000085 0.000000
0.000888 -0.001988 0.000768 0.000000
0.000811 -0.001918 0.000182 0.000000
0.002521 -0.003483 -0.000444 0.000000
0.000902 -0.001396 0.000577 0.000000
-0.000186 -0.000251 0.001043 0.000000
0.002534 -0.003050 -0.000644 0.000000
0.002678 -0.003605 0.000290 0.000000
0.001448 -0.002005 0.000571 0.000000
0.000483 -0.001401 0.000128 0.000000
0.000800 -0.001459 0.000189 0.000000
0.000362 -0.000952 -0.000480 0.000000
0.000017 -0.000757 0.000652 0.000000
0.000051 -0.000143 0.000184 0.000000
-0.000039 -0.001310 0.001525 0.000000
0.000779 -0.001469 0.001908 0.000000
0.000009 -0.000506 0.001523 0.000000
0.000569 -0.001530 0.001683 0.000000
0.002307 -0.002397 0.000838 0.000000
0.000051 -0.000148 0.000196 0.000000
0.000042 -0.000151 0.000214 0.000000
0.000056 -0.000151 0.000197 0.000000
0.002308 -0.002435 0.000888 0.000000
0.000047 -0.000151 0.000199 0.000000
0.000051 -0.000150 0.000196 0.000000
0.000076 -0.000165 0.000206 0.000000
0.001551 -0.001987 0.000408 0.000000
0.000041 -0.001130 0.000958 0.000000
0.000043 -0.000153 0.000198 0.000000
0.000030 -0.000292 0.000371 0.000000
0.000060 -0.000154 0.000057 0.000000
0.000230 -0.000305 0.000020 0.000000
0.000118 -0.000230 0.000223 0.000000
0.001635 -0.001035 -0.000411 0.000000
0.000492 -0.001279 0.000395 0.000000
0.000069 -0.000235 0.000313 0.000000
0.000760 -0.001510 0.001700 0.000000
0.001325 -0.002290 0.000789 0.000000
0.000405 -0.000989 0.001021 0.000000
0.000156 -0.001252 -0.000439 0.000000
0.000020 -0.000197 0.000018 0.000000
-0.000180 -0.000459 0.000095 0.000000
-0.000112 -0.000463 0.000117 0.000000
0.001237 -0.001930 0.001435 0.000000
0.000351 -0.001055 0.000616 0.000000
0.001128 -0.001562 0.001932 0.000000
0.000480 -0.001032 0.000727 0.000000
-0.000004 -0.000135 0.000071 0.000000
0.001284 -0.001769 0.002057 0.000000
0.000031 -0.000163 0.000076 0.000000
0.000082 -0.000162 0.000114 0.000000
0.000053 -0.000220 0.000106 0.000000
0.000135 -0.000171 0.000098 0.000000
0.000106 -0.000232 0.000038 0.000000
0.000151 -0.000370 0.000172 0.000000
-0.000004 -0.000146 0.000089 0.000000
0.000020 -0.000142 0.000117 0.000000
-0.000003 -0.000141 0.000103 0.000000
0.000024 -0.000238 0.000166 0.000000
-0.000012 -0.000110 0.000080 0.000000
0.000002 -0.000135 0.000090 0.000000
-0.000004 -0.000117 0.000068 0.000000
0.000001 -0.000142 0.000111 0.000000
-0.000006 -0.000076 0.000163 0.000000
-0.000008 -0.000123 0.000084 0.000000
-0.000002 -0.000143 0.000076 0.000000
0.000013 -0.000166 0.000123 0.000000
0.000001 -0.000151 0.000100 0.000000
-0.000021 -0.000152 0.000125 0.000000
-0.000025 -0.000117 0.000219 0.000000
0.000004 -0.000189 0.000165 0.000000
0.000540 -0.001035 0.000087 0.000000
0.000119 -0.000428 0.000204 0.000000
0.000479 -0.001201 -0.000207 0.000000
0.002060 -0.002133 0.000035 0.000000
0.001450 -0.000753 -0.000515 0.000000
0.002447 -0.001194 -0.001280 0.000000
0.001512 -0.001883 -0.000186 0.000000
0.001644 -0.002070 0.000240 0.000000
0.000072 -0.000279 0.000280 0.000000
0.002096 -0.001443 -0.000904 0.000000
0.000040 -0.000146 0.000186 0.000000
0.000725 -0.001556 0.000928 0.000000
0.000525 -0.001197 0.000780 0.000000
0.000461 -0.000979 -0.000103 0.000000
0.000427 -0.001534 0.001605 0.000000
0.001575 -0.002385 0.000734 0.000000
0.001830 -0.002336 -0.000226 0.000000
0.001455 -0.002311 0.000445 0.000000
-0.000398 -0.000840 0.000778 0.000000
0.000198 -0.001254 0.001004 0.000000
-0.000353 -0.000684 0.000568 0.000000
-0.000383 -0.000370 0.000280 0.000000
-0.000238 -0.000632 0.000735 0.000000
0.000061 -0.000745 -0.000023 0.000000
0.000341 -0.001748 -0.000345 0.000000
-0.000056 -0.000169 -0.000060 0.000000
0.000241 -0.001101 0.001183 0.000000
-0.000431 -0.000349 0.000594 0.000000
0.004333 -0.004506 -0.000866 0.000000
-0.000312 -0.000642 0.000254 0.000000
0.000081 -0.000841 0.000799 0.000000
0.000033 -0.000153 0.000201 0.000000
-0.000253 -0.000477 0.001273 0.000000
0.000091 -0.001359 0.001222 0.000000
0.000041 -0.000132 0.000227 0.000000
0.000039 -0.000156 0.000193 0.000000
0.000177 -0.001148 0.001006 0.000000
0.000041 -0.000158 0.000226 0.000000
0.000040 -0.000151 0.000204 0.000000
0.000064 -0.000141 0.000323 0.000000
0.000046 -0.000108 0.000355 0.000000
0.000017 -0.000120 0.000253 0.000000
0.004181 -0.004737 0.002416 0.000000
0.002017 -0.002564 0.001125 0.000000
0.000046 -0.000165 0.000267 0.000000
0.004326 -0.004297 -0.001222 0.000000
0.002798 -0.002355 0.001716 0.000000
0.001899 -0.001862 -0.001023 0.000000
-0.000300 -0.000075 0.002295 0.000000
0.000195 -0.001183 0.000977 0.000000
0.001923 -0.002606 0.003348 0.000000
-0.001040 0.000067 0.001208 0.000000
0.000032 -0.000272 0.000344 0.000000
0.002341 -0.002937 0.001755 0.000000
0.000029 -0.000242 0.000083 0.000000
0.002993 -0.004745 0.004261 0.000000
0.000053 -0.000218 0.000139 0.000000
0.000057 -0.000250 0.000166 0.000000
0.002455 -0.004164 0.006159 0.000000
0.000053 -0.000208 0.000123 0.000000
0.000008 -0.000193 0.000116 0.000000
-0.000009 -0.000173 0.000146 0.000000
0.000017 -0.000194 0.000111 0.000000
0.000014 -0.000182 0.000166 0.000000
-0.000065 -0.000157 0.000096 0.000000
0.000012 -0.000206 0.000079 0.000000
-0.000010 -0.000208 0.000052 0.000000
-0.000030 -0.000172 0.000148 0.000000
0.002684 -0.003923 0.005687 0.000000
0.002137 -0.002851 0.006545 0.000000
0.002246 -0.003140 0.005305 0.000000
0.002181 -0.003726 0.005707 0.000000
-0.000200 -0.000127 0.000376 0.000000
-0.000108 -0.000142 0.000190 0.000000
0.002590 -0.004114 0.006399 0.000000
0.000350 -0.000682 -0.001099 0.000000
0.002671 -0.004122 0.006350 0.000000
0.000503 -0.002971 0.002840 0.000000
-0.000221 -0.000742 0.000297 0.000000
-0.000090 -0.000120 0.000001 0.000000
-0.000003 -0.001851 0.000992 0.000000
-0.000018 -0.000188 0.000040 0.000000
0.000650 -0.000920 0.000396 0.000000
0.002464 -0.003290 0.003898 0.000000
0.000004 -0.000229 0.000167 0.000000
-0.000419 -0.001172 0.002698 0.000000
0.002229 -0.002641 0.006267 0.000000
0.001498 -0.002824 0.006227 0.000000
-0.000011 -0.000306 0.000182 0.000000
-0.000602 -0.000304 0.000215 0.000000
0.000225 -0.001104 0.001846 0.000000
-0.000649 -0.000704 0.000912 0.000000
-0.000048 -0.000168 0.000072 0.000000
0.000077 -0.000226 0.000078 0.000000
-0.000023 -0.000327 0.000126 0.000000
0.000011 -0.000231 0.000096 0.000000
-0.000094 -0.000095 0.000041 0.000000
-0.000097 -0.000127 0.000000 0.000000
-0.000085 -0.000134 0.000033 0.000000
-0.000048 -0.000168 0.000093 0.000000
-0.000089 -0.000132 0.000051 0.000000
-0.000091 -0.000115 0.000015 0.000000
-0.000094 -0.000165 0.000035 0.000000
-0.000602 -0.000535 0.000276 0.000000
-0.000053 -0.000316 0.000179 0.000000
-0.000768 -0.000323 0.000272 0.000000
-0.000858 -0.000600 0.000917 0.000000
-0.000397 -0.000922 0.001089 0.000000
-0.000048 -0.000258 0.000156 0.000000
0.000216 -0.001623 0.001807 0.000000
0.001412 -0.003241 0.002246 0.000000
0.000203 -0.001690 0.002526 0.000000
-0.000247 -0.000911 -0.000586 0.000000
0.000330 -0.001809 -0.000576 0.000000
0.000015 -0.000898 -0.001993 0.000000
-0.000056 -0.000182 -0.000001 0.000000
-0.000085 -0.000118 -0.000007 0.000000
-0.000076 -0.000136 -0.000045 0.000000
-0.000090 -0.000156 -0.000002 0.000000
-0.000080 -0.000211 0.000086 0.000000
-0.000062 -0.000207 0.000121 0.000000
-0.000065 -0.000214 0.000052 0.000000
0.000842 -0.001782 -0.003222 0.000000
-0.000081 -0.000127 0.000009 0.000000
-0.000100 -0.000111 0.000007 0.000000
-0.000095 -0.000111 0.000024 0.000000
-0.000073 -0.000116 -0.000062 0.000000
-0.000208 -0.000883 -0.000422 0.000000
-0.000084 -0.000116 -0.000005 0.000000
-0.000067 -0.000129 -0.000054 0.000000
0.000008 -0.000179 -0.000131 0.000000
-0.000232 -0.000622 -0.001410 0.000000
0.000626 -0.001118 -0.003898 0.000000
-0.000074 -0.000102 -0.000055 0.000000
0.000952 -0.002401 -0.001408 0.000000
0.000970 -0.002178 0.000720 0.000000
-0.000442 -0.000185 0.000264 0.000000
-0.000072 -0.000892 0.000257 0.000000
0.000951 -0.001840 -0.001409 0.000000
-0.000056 -0.001311 0.000272 0.000000
0.000207 -0.001178 -0.000954 0.000000
-0.000349 -0.000423 0.000647 0.000000
-0.000083 -0.000112 0.000011 0.000000
-0.000400 -0.000550 0.000599 0.000000
-0.000098 -0.000109 0.000023 0.000000
-0.000090 -0.000110 -0.000013 0.000000
-0.000356 -0.000574 0.000487 0.000000
-0.000235 -0.000772 0.000157 0.000000
-0.000107 -0.000647 0.000585 0.000000
-0.000291 -0.000641 0.000562 0.000000
0.000212 -0.001258 -0.000826 0.000000
0.000838 -0.001429 0.000250 0.000000
0.000685 -0.001522 -0.000262 0.000000
-0.000357 -0.000610 0.000473 0.000000
-0.000238 -0.000648 -0.000014 0.000000
-0.000450 -0.000649 0.000120 0.000000
0.000515 -0.001231 -0.000196 0.000000
0.001142 -0.002309 -0.000002 0.000000
0.001542 -0.002546 -0.000781 0.000000
0.000635 -0.001440 -0.000830 0.000000
0.000364 -0.001655 0.000332 0.000000
-0.000040 -0.000135 0.000141 0.000000
0.000937 -0.001231 -0.000163 0.000000
0.000294 -0.001275 0.000084 0.000000
-0.000048 -0.000111 0.000159 0.000000
0.000003 -0.000148 0.000151 0.000000
0.000956 -0.001743 -0.000143 0.000000
0.001335 -0.002530 0.000308 0.000000
-0.000024 -0.000135 0.000138 0.000000
-0.000063 -0.000117 0.000213 0.000000
-0.000046 -0.000130 0.000117 0.000000
-0.000068 -0.000105 0.000140 0.000000
-0.000002 -0.000132 0.000065 0.000000
-0.000009 -0.000145 0.000076 0.000000
-0.000016 -0.000151 0.000096 0.000000
-0.000023 -0.000136 0.000121 0.000000
-0.000012 -0.000122 0.000043 0.000000
-0.000009 -0.000137 0.000079 0.000000
-0.000027 -0.000107 0.000096 0.000000
-0.000005 -0.000145 0.000069 0.000000
-0.000021 -0.000132 0.000062 0.000000
-0.000209 -0.000361 -0.000290 0.000000
-0.000029 -0.000138 0.000062 0.000000
-0.000015 -0.000135 0.000050 0.000000
-0.000011 -0.000150 0.000083 0.000000
-0.000020 -0.000142 0.000063 0.000000
-0.000009 -0.000147 0.000107 0.000000
-0.000040 -0.000141 0.000100 0.000000
-0.000042 -0.000135 0.000146 0.000000
-0.000025 -0.000146 0.000095 0.000000
-0.000027 -0.000137 0.000070 0.000000
-0.000018 -0.000141 0.000067 0.000000
-0.000016 -0.000147 0.000089 0.000000
-0.000026 -0.000148 0.000082 0.000000
-0.000029 -0.000128 0.000077 0.000000
-0.000036 -0.000117 0.000125 0.000000
-0.000037 -0.000139 0.000072 0.000000
-0.000022 -0.000135 0.000052 0.000000
-0.000043 -0.000152 0.000102 0.000000
-0.000037 -0.000137 0.000086 0.000000
-0.000040 -0.000131 0.000078 0.000000
-0.000034 -0.000122 0.000058 0.000000
-0.000047 -0.000136 0.000121 0.000000
-0.000065 -0.000106 0.000060 0.000000
-0.000038 -0.000137 0.000042 0.000000
-0.000025 -0.000141 0.000050 0.000000
-0.000041 -0.000144 0.000091 0.000000
-0.000032 -0.000141 0.000058 0.000000
-0.000041 -0.000150 0.000082 0.000000
0.000877 -0.002006 0.001592 0.000000
-0.000033 -0.000132 0.000094 0.000000
0.000941 -0.002145 0.001342 0.000000
-0.000029 -0.000129 0.000134 0.000000
-0.000021 -0.000141 0.000115 0.000000
0.000859 -0.002089 0.001377 0.000000
0.000951 -0.001992 0.001200 0.000000
-0.000025 -0.000180 0.000086 0.000000
-0.000029 -0.000166 0.000001 0.000000
-0.000028 -0.000166 0.000001 0.000000
0.000992 -0.001953 -0.001372 0.000000
-0.000016 -0.000179 0.000092 0.000000
0.000335 -0.001655 0.000338 0.000000
-0.000012 -0.000199 0.000090 0.000000
-0.000030 -0.000161 -0.000002 0.000000
-0.000002 -0.000201 -0.000003 0.000000
-0.000018 -0.000175 -0.000003 0.000000
-0.000002 -0.000212 -0.000048 0.000000
-0.000024 -0.000215 -0.000080 0.000000
0.000000 -0.000215 -0.000062 0.000000
-0.000014 -0.000200 -0.000052 0.000000
-0.000015 -0.000205 -0.000041 0.000000
-0.000005 -0.000213 -0.000066 0.000000
0.000060 -0.000857 -0.001886 0.000000
0.000039 -0.001096 -0.002158 0.000000
0.000025 -0.000244 0.000062 0.000000
-0.000015 -0.000189 0.000003 0.000000
-0.000002 -0.000230 -0.000010 0.000000
-0.000002 -0.000230 -0.000052 0.000000
-0.000007 -0.000199 0.000097 0.000000
0.000002 -0.000229 0.000061 0.000000
0.000002 -0.000197 0.000080 0.000000
0.000015 -0.000217 0.000036 0.000000
-0.000036 -0.000134 0.000005 0.000000
-0.000033 -0.000146 0.000048 0.000000
-0.000061 -0.000139 0.000101 0.000000
-0.000048 -0.000250 0.000283 0.000000
0.000542 -0.001064 0.000094 0.000000
-0.000035 -0.000144 0.000050 0.000000
-0.000031 -0.000182 0.000104 0.000000
-0.000014 -0.000164 0.000056 0.000000
-0.000050 -0.000155 0.000140 0.000000
-0.000059 -0.000138 0.000132 0.000000
-0.000034 -0.000154 0.000130 0.000000
-0.000016 -0.000216 0.000075 0.000000
-0.000042 -0.000151 0.000027 0.000000
-0.000033 -0.000151 0.000046 0.000000
0.000799 -0.001993 0.001785 0.000000
0.000337 -0.001410 0.001651 0.000000
0.000016 -0.000246 0.000073 0.000000
-0.000002 -0.000157 0.000195 0.000000
0.000325 -0.001163 0.000486 0.000000
-0.000005 -0.000165 0.000001 0.000000
0.000327 -0.001385 0.000421 0.000000
-0.000014 -0.001182 0.001877 0.000000
-0.000019 -0.001115 0.000471 0.000000
-0.000357 -0.000809 0.000622 0.000000
0.000955 -0.001583 0.000340 0.000000
-0.000015 -0.000177 0.000125 0.000000
-0.000378 -0.000800 0.000564 0.000000
0.000368 -0.001693 0.000993 0.000000
0.001159 -0.002761 0.002984 0.000000
0.000017 -0.000235 0.000134 0.000000
0.000381 -0.001575 -0.000458 0.000000
0.001336 -0.002954 0.002761 0.000000
-0.000099 -0.000068 0.000174 0.000000
0.000065 -0.001365 0.000979 0.000000
0.000018 -0.000336 0.000167 0.000000
0.000012 -0.000209 0.000143 0.000000
0.000018 -0.000253 0.000140 0.000000
0.000026 -0.000331 0.000011 0.000000
0.000666 -0.001149 0.002244 0.000000
0.000282 -0.000787 0.001873 0.000000
0.000012 -0.000180 0.000084 0.000000
0.000009 -0.000245 0.000120 0.000000
0.000021 -0.000280 0.000035 0.000000
0.000017 -0.000289 -0.000031 0.000000
0.000012 -0.000258 0.000013 0.000000
0.000011 -0.000224 -0.000029 0.000000
0.000009 -0.000303 -0.000078 0.000000
0.000003 -0.000235 -0.000074 0.000000
-0.000028 -0.000230 -0.000194 0.000000
0.000001 -0.000272 -0.000094 0.000000
-0.000010 -0.000234 -0.000129 0.000000
-0.000011 -0.000282 -0.000145 0.000000
-0.000101 -0.001003 -0.000617 0.000000
-0.000026 -0.000192 -0.000090 0.000000
-0.000032 -0.000137 -0.000072 0.000000
-0.000260 -0.000756 -0.000836 0.000000
0.001095 -0.002057 0.002188 0.000000
-0.000063 -0.000145 -0.000021 0.000000
-0.000032 -0.000217 0.000008 0.000000
-0.000232 -0.000939 -0.000352 0.000000
-0.000083 -0.001085 -0.000202 0.000000
0.000207 -0.001218 -0.001808 0.000000
-0.000025 -0.000184 -0.000027 0.000000
-0.000059 -0.000130 -0.000032 0.000000
-0.000025 -0.000215 -0.000110 0.000000
-0.000384 -0.000296 -0.002376 0.000000
-0.000042 -0.000930 -0.000332 0.000000
-0.000048 -0.001068 -0.003171 0.000000
0.000146 -0.001254 -0.001898 0.000000
-0.000313 -0.000358 -0.003224 0.000000
-0.000008 -0.001035 -0.000274 0.000000
-0.000048 -0.000134 -0.000107 0.000000
-0.000080 -0.000865 -0.001918 0.000000
-0.000115 -0.000699 -0.002109 0.000000
-0.000043 -0.000137 -0.000108 0.000000
-0.000084 -0.000142 -0.000014 0.000000
-0.000053 -0.000125 -0.000072 0.000000
-0.000086 -0.000124 -0.000011 0.000000
-0.000068 -0.000129 -0.000030 0.000000
-0.000019 -0.000207 -0.000027 0.000000
-0.000008 -0.001043 -0.000328 0.000000
-0.000045 -0.000141 -0.000042 0.000000
-0.000048 -0.000140 -0.000064 0.000000
-0.000011 -0.000156 -0.000084 0.000000
-0.000036 -0.000170 -0.000033 0.000000
0.000081 -0.001092 -0.000487 0.000000
-0.000018 -0.000186 -0.000041 0.000000
0.001332 -0.002412 0.002364 0.000000
-0.000008 -0.000236 0.000018 0.000000
-0.000012 -0.000221 -0.000037 0.000000
-0.000045 -0.000182 -0.000025 0.000000
-0.000046 -0.000167 -0.000020 0.000000
-0.000061 -0.000201 -0.000023 0.000000
-0.000026 -0.000207 -0.000035 0.000000
-0.000071 -0.000202 0.000084 0.000000
-0.000027 -0.000210 0.000030 0.000000
0.000258 -0.001241 0.002491 0.000000
-0.000056 -0.000174 0.000132 0.000000
-0.000016 -0.000224 0.000021 0.000000
-0.000037 -0.000217 0.000014 0.000000
0.001100 -0.002595 0.001924 0.000000
0.000869 -0.002103 0.002798 0.000000
0.001160 -0.002741 0.001914 0.000000
0.002942 -0.004600 0.002148 0.000000
-0.000019 -0.000238 0.000005 0.000000
0.005527 -0.006828 0.006766 0.000000
0.002169 -0.003131 0.002548 0.000000
0.002299 -0.003256 0.002703 0.000000
0.000031 -0.001340 -0.000247 0.000000
0.000757 -0.002369 -0.000895 0.000000
-0.000014 -0.000210 -0.000032 0.000000
0.001382 -0.003042 0.001137 0.000000
0.000990 -0.002408 0.000296 0.000000
0.000013 -0.000197 0.000076 0.000000
0.000719 -0.002278 0.000009 0.000000
0.001123 -0.002190 0.000771 0.000000
0.002131 -0.003527 0.003226 0.000000
0.001269 -0.002388 0.001831 0.000000
0.001583 -0.003199 0.002075 0.000000
0.001716 -0.002697 0.002687 0.000000
0.002233 -0.003679 0.002222 0.000000
0.002258 -0.003676 0.003001 0.000000
0.000006 -0.000345 -0.000030 0.000000
0.000003 -0.000290 0.000045 0.000000
-0.000016 -0.000246 0.000101 0.000000
-0.000011 -0.000272 0.000065 0.000000
-0.000028 -0.000238 -0.000004 0.000000
0.000007 -0.000252 -0.000012 0.000000
-0.000002 -0.000278 0.000087 0.000000
-0.000051 -0.000238 0.000065 0.000000
-0.000007 -0.000265 0.000063 0.000000
-0.000003 -0.000280 0.000060 0.000000
-0.000010 -0.000277 0.000061 0.000000
-0.000016 -0.000265 0.000066 0.000000
0.000006 -0.000293 0.000062 0.000000
-0.000003 -0.000279 0.000058 0.000000
-0.000028 -0.000263 0.000072 0.000000
-0.000009 -0.000278 0.000064 0.000000
0.000002 -0.000297 0.000060 0.000000
0.000016 -0.000307 0.000063 0.000000
0.000008 -0.000301 0.000070 0.000000
0.000007 -0.000300 0.000068 0.000000
0.000001 -0.000293 0.000103 0.000000
-0.000010 -0.000291 0.000081 0.000000
-0.000012 -0.000264 0.000107 0.000000
-0.000041 -0.000246 0.000135 0.000000
-0.000012 -0.000274 0.000106 0.000000
0.000000 -0.000291 0.000086 0.000000
-0.000038 -0.000275 0.000146 0.000000
-0.000055 -0.000291 0.000107 0.000000
-0.000043 -0.000258 0.000079 0.000000
-0.000004 -0.000286 0.000060 0.000000
-0.000011 -0.000285 0.000067 0.000000
-0.000003 -0.000295 0.000096 0.000000
-0.000008 -0.000290 0.000072 0.000000
-0.000035 -0.000263 0.000144 0.000000
-0.000027 -0.000274 0.000071 0.000000
-0.000023 -0.000280 0.000082 0.000000
-0.000057 -0.000276 0.000126 0.000000
-0.000015 -0.000280 0.000094 0.000000
-0.000019 -0.000289 0.000109 0.000000
-0.000015 -0.000285 0.000120 0.000000
-0.000031 -0.000260 0.000123 0.000000
0.001841 -0.003062 0.000224 0.000000
-0.000056 -0.000273 0.000173 0.000000
0.002011 -0.003142 -0.000249 0.000000
-0.000065 -0.000248 0.000180 0.000000
-0.000057 -0.000229 0.000151 0.000000
-0.000027 -0.000286 0.000097 0.000000
-0.000039 -0.000282 0.000132 0.000000
-0.000053 -0.000246 0.000151 0.000000
-0.000063 -0.000259 0.000131 0.000000
-0.000055 -0.000250 0.000045 0.000000
-0.000016 -0.000263 0.000068 0.000000
-0.000037 -0.000269 0.000048 0.000000
-0.000039 -0.000281 0.000077 0.000000
-0.000024 -0.000266 0.000064 0.000000
-0.000032 -0.000260 0.000061 0.000000
-0.000030 -0.000266 0.000062 0.000000
-0.000013 -0.000283 0.000059 0.000000
0.002203 -0.003017 0.004440 0.000000
0.000007 -0.000244 0.000135 0.000000
0.004854 -0.007265 -0.000813 0.000000
-0.000022 -0.000255 0.000081 0.000000
0.001064 -0.002372 0.002712 0.000000
0.002314 -0.004206 0.004431 0.000000
0.004051 -0.006444 -0.000459 0.000000
-0.000042 -0.000247 0.000091 0.000000
0.002891 -0.005056 -0.000120 0.000000
-0.000051 -0.000237 0.000069 0.000000
0.001718 -0.003408 0.002275 0.000000
0.002811 -0.004393 0.001957 0.000000
0.002908 -0.004545 0.001592 0.000000
0.002927 -0.004407 0.001695 0.000000
0.003317 -0.004753 0.002551 0.000000
0.003830 -0.005037 0.000735 0.000000
-0.000046 -0.000206 0.000143 0.000000
-0.000051 -0.000245 0.000057 0.000000
0.003351 -0.004443 0.001696 0.000000
0.001801 -0.003047 0.004323 0.000000
0.001069 -0.003175 0.002325 0.000000
0.002865 -0.004749 0.002520 0.000000
0.001535 -0.002854 0.002730 0.000000
0.000693 -0.001855 0.002218 0.000000
0.002210 -0.003388 0.001877 0.000000
0.002949 -0.004544 0.001620 0.000000
-0.000107 -0.000904 0.001232 0.000000
0.000571 -0.001978 0.001696 0.000000
0.002233 -0.003487 0.001888 0.000000
0.001823 -0.003328 0.004932 0.000000
0.001572 -0.003255 0.004844 0.000000
-0.000199 -0.001073 0.001837 0.000000
0.001857 -0.003428 0.004753 0.000000
0.002908 -0.004344 0.004091 0.000000
0.001314 -0.003133 0.003783 0.000000
0.001974 -0.004443 0.004071 0.000000
0.002186 -0.003862 0.004703 0.000000
0.001533 -0.003835 0.006220 0.000000
0.001808 -0.003740 0.004241 0.000000
0.002409 -0.004235 0.004514 0.000000
0.002291 -0.003908 0.004398 0.000000
0.003272 -0.004533 0.003685 0.000000
0.001099 -0.003422 0.001020 0.000000
0.002039 -0.002941 0.004848 0.000000
0.001614 -0.003267 0.001948 0.000000
0.001270 -0.002743 0.001736 0.000000
0.002294 -0.003901 -0.000209 0.000000
0.002454 -0.004240 -0.000471 0.000000
0.001025 -0.002905 0.002257 0.000000
0.001346 -0.002703 0.004001 0.000000
0.002493 -0.004566 -0.000252 0.000000
0.001710 -0.003743 -0.000827 0.000000
0.000924 -0.002353 -0.002240 0.000000
0.001131 -0.002712 -0.001416 0.000000
0.000720 -0.002147 -0.001874 0.000000
0.000315 -0.001577 -0.001477 0.000000
0.001407 -0.002674 -0.001323 0.000000
0.000993 -0.002369 -0.001887 0.000000
0.001223 -0.002451 -0.001281 0.000000
0.000802 -0.002157 -0.001851 0.000000
0.002841 -0.004204 -0.000777 0.000000
0.000836 -0.002164 -0.001448 0.000000
0.002486 -0.003852 -0.000709 0.000000
-0.000072 -0.000289 0.000100 0.000000
0.001193 -0.002714 -0.001102 0.000000
0.001731 -0.002745 -0.001273 0.000000
-0.000066 -0.000230 0.000095 0.000000
0.000815 -0.002846 0.000902 0.000000
-0.000081 -0.000253 0.000151 0.000000
-0.000120 -0.000297 0.000270 0.000000
-0.000095 -0.000232 0.000079 0.000000
-0.000049 -0.000261 0.000055 0.000000
-0.000071 -0.000263 0.000111 0.000000
-0.000042 -0.000275 0.000093 0.000000
-0.000073 -0.000273 0.000169 0.000000
0.001973 -0.003024 -0.001148 0.000000
0.002737 -0.004481 -0.000400 0.000000
0.003009 -0.004502 -0.000127 0.000000
0.003174 -0.004483 -0.000446 0.000000
0.003222 -0.004436 0.000167 0.000000
0.001686 -0.003116 -0.000261 0.000000
0.002138 -0.003398 0.001007 0.000000
0.000898 -0.001865 -0.000413 0.000000
0.001989 -0.003084 0.000301 0.000000
0.001056 -0.001966 -0.000578 0.000000
0.000213 -0.000972 -0.000767 0.000000
0.000902 -0.001985 -0.000686 0.000000
-0.000185 -0.000000 -0.001744 0.000000
0.000851 -0.002000 -0.002703 0.000000
0.000733 -0.001755 -0.000704 0.000000
0.000028 -0.000181 -0.000104 0.000000
-0.000005 -0.000207 -0.000115 0.000000
0.000982 -0.002314 -0.001767 0.000000
0.001367 -0.002488 -0.000367 0.000000
0.000744 -0.001669 -0.000767 0.000000
0.001580 -0.002283 -0.001997 0.000000
0.000642 -0.001789 -0.001181 0.000000
0.001166 -0.002649 -0.001595 0.000000
0.000989 -0.002275 -0.002034 0.000000
0.000002 -0.001091 -0.001652 0.000000
0.000460 -0.001741 -0.001387 0.000000
0.000400 -0.001475 -0.001410 0.000000
0.000345 -0.001475 -0.001364 0.000000
-0.000087 -0.001113 -0.001389 0.000000
0.000573 -0.001555 -0.003157 0.000000
-0.000235 -0.000122 -0.000740 0.000000
0.000745 -0.001478 -0.003026 0.000000
-0.000197 -0.000696 -0.000688 0.000000
0.000725 -0.001698 -0.000534 0.000000
0.000178 -0.001067 -0.000632 0.000000
0.001339 -0.002016 -0.002519 0.000000
0.000289 -0.001048 -0.000876 0.000000
0.000002 -0.000222 -0.000134 0.000000
-0.000021 -0.000170 -0.000161 0.000000
-0.000009 -0.000176 -0.000114 0.000000
-0.000024 -0.000140 -0.000145 0.000000
-0.000034 -0.000133 -0.000146 0.000000
0.000884 -0.001719 -0.002096 0.000000
-0.000035 -0.000122 -0.000152 0.000000
0.000743 -0.001563 -0.002406 0.000000
-0.000067 -0.000122 -0.000148 0.000000
-0.000379 -0.000921 -0.001230 0.000000
-0.000317 -0.000560 -0.000434 0.000000
-0.000012 -0.000713 -0.000946 0.000000
-0.000184 -0.000793 -0.000846 0.000000
0.002128 -0.002986 0.001575 0.000000
-0.000047 -0.000117 -0.000032 0.000000
-0.000041 -0.000117 -0.000141 0.000000
-0.000040 -0.000117 -0.000164 0.000000
-0.000170 -0.000844 -0.000639 0.000000
-0.000030 -0.000133 -0.000127 0.000000
-0.000054 -0.000045 -0.000011 0.000000
-0.000166 -0.000729 -0.000683 0.000000
0.002213 -0.003094 0.001207 0.000000
-0.000027 -0.000152 -0.000157 0.000000
-0.000028 -0.000142 -0.000164 0.000000
-0.000004 -0.000182 -0.000133 0.000000
-0.000029 -0.000105 -0.000149 0.000000
0.000007 -0.000159 -0.000166 0.000000
-0.000021 -0.000144 -0.000143 0.000000
-0.000021 -0.000135 -0.000118 0.000000
-0.000033 -0.000165 -0.000180 0.000000
-0.000035 -0.000133 -0.000145 0.000000
-0.000011 -0.000141 -0.000126 0.000000
-0.000013 -0.000178 -0.000150 0.000000
0.002575 -0.003358 0.001804 0.000000
0.001281 -0.001565 0.002100 0.000000
0.002231 -0.002183 0.002359 0.000000
0.000028 -0.000212 -0.000012 0.000000
0.000032 -0.000160 -0.000091 0.000000
0.000082 -0.000150 -0.000090 0.000000
0.002200 -0.002737 0.001225 0.000000
0.000168 -0.000214 0.000084 0.000000
0.000047 -0.000185 -0.000063 0.000000
0.003476 -0.003747 0.002279 0.000000
0.003611 -0.003092 0.003179 0.000000
0.002379 -0.004170 -0.001127 0.000000
0.000817 -0.001297 -0.002850 0.000000
0.001684 -0.003095 -0.002923 0.000000
-0.000002 -0.000189 0.000056 0.000000
0.000104 -0.000389 0.000063 0.000000
0.000011 -0.000184 -0.000148 0.000000
0.000019 -0.000241 -0.000041 0.000000
0.000068 -0.000425 0.000237 0.000000
0.000939 -0.001930 -0.000475 0.000000
0.001858 -0.003116 0.000673 0.000000
0.001762 -0.002603 -0.000172 0.000000
0.000326 -0.001753 -0.001903 0.000000
0.003311 -0.004529 -0.000173 0.000000
0.003120 -0.004514 0.000540 0.000000
0.001497 -0.002466 0.000053 0.000000
0.001306 -0.002442 -0.000002 0.000000
0.002158 -0.003398 0.001336 0.000000
-0.000060 -0.000202 0.000151 0.000000
0.001444 -0.002809 0.000389 0.000000
0.002313 -0.003183 0.000884 0.000000
0.002455 -0.003380 0.000772 0.000000
0.001172 -0.002362 0.000125 0.000000
0.001214 -0.002441 -0.002357 0.000000
0.001133 -0.002072 -0.000315 0.000000
0.000852 -0.002140 -0.000595 0.000000
0.001101 -0.002079 -0.000897 0.000000
0.002196 -0.003753 0.001521 0.000000
0.001990 -0.003388 0.001203 0.000000
0.002732 -0.003762 0.001358 0.000000
0.001308 -0.002399 -0.000534 0.000000
0.002878 -0.004241 0.000794 0.000000
0.003157 -0.004161 0.000312 0.000000
-0.000039 -0.000179 0.000025 0.000000
0.002968 -0.003812 0.000392 0.000000
0.002305 -0.003744 0.002126 0.000000
-0.000051 -0.000191 0.000053 0.000000
0.002412 -0.003771 0.002299 0.000000
-0.000044 -0.000182 0.000046 0.000000
0.002503 -0.003819 0.002092 0.000000
0.002370 -0.003689 0.001987 0.000000
0.001592 -0.002562 -0.000877 0.000000
0.002858 -0.005091 0.000262 0.000000
0.002719 -0.003491 -0.000012 0.000000
0.003583 -0.005221 0.002186 0.000000
0.001133 -0.002517 0.001412 0.000000
0.000191 -0.002108 0.000440 0.000000
0.001904 -0.002634 0.002147 0.000000
0.001969 -0.002328 0.000424 0.000000
0.002032 -0.002246 -0.004272 0.000000
0.003958 -0.005263 0.000414 0.000000
0.000579 -0.002351 -0.000378 0.000000
0.001133 -0.003056 -0.001509 0.000000
0.001306 -0.001565 0.003380 0.000000
-0.000041 -0.000125 -0.000080 0.000000
-0.000014 -0.000129 -0.000080 0.000000
0.000062 -0.000156 -0.000029 0.000000
0.001283 -0.002959 0.004636 0.000000
0.001205 -0.001847 -0.000979 0.000000
0.001282 -0.002639 0.002830 0.000000
0.000601 -0.002327 0.002561 0.000000
0.000564 -0.000873 0.001433 0.000000
0.001150 -0.001602 0.000797 0.000000
-0.000014 -0.000357 -0.000099 0.000000
-0.000015 -0.000393 -0.000049 0.000000
-0.000454 -0.000714 -0.001129 0.000000
-0.000559 -0.000733 -0.000481 0.000000
-0.000016 -0.000349 -0.000080 0.000000
-0.000026 -0.000356 -0.000122 0.000000
-0.000369 -0.000785 -0.000722 0.000000
-0.000698 -0.000316 0.000682 0.000000
-0.000472 -0.000832 -0.000386 0.000000
-0.000558 -0.000816 -0.000469 0.000000
-0.000115 -0.000177 0.000019 0.000000
0.000035 -0.000296 -0.000188 0.000000
-0.000498 -0.000844 -0.000977 0.000000
-0.000021 -0.000387 0.000047 0.000000
-0.000488 -0.000911 -0.000307 0.000000
-0.000569 -0.000822 -0.000308 0.000000
-0.000439 -0.000911 -0.000308 0.000000
0.000345 -0.002120 0.000487 0.000000
-0.000191 -0.001010 -0.000660 0.000000
-0.000014 -0.001273 -0.000612 0.000000
-0.000113 -0.000222 0.000044 0.000000
-0.000384 -0.001097 -0.000267 0.000000
0.000578 -0.001955 0.002508 0.000000
0.000826 -0.002217 0.001523 0.000000
-0.000102 -0.000230 0.000128 0.000000
-0.000079 -0.000313 0.000119 0.000000
-0.000046 -0.001877 0.001018 0.000000
0.000327 -0.003244 0.001364 0.000000
-0.000131 -0.000166 0.000072 0.000000
-0.000113 -0.000193 0.000081 0.000000
-0.000115 -0.000191 0.000059 0.000000
-0.000112 -0.000206 0.000061 0.000000
-0.000114 -0.000207 0.000057 0.000000
-0.000118 -0.000206 0.000063 0.000000
-0.000126 -0.000185 0.000050 0.000000
-0.000132 -0.000179 0.000032 0.000000
-0.000117 -0.000198 0.000049 0.000000
-0.000124 -0.000197 0.000050 0.000000
-0.000090 -0.000228 0.000141 0.000000
-0.000118 -0.000200 0.000065 0.000000
0.000067 -0.000315 0.000400 0.000000
-0.000093 -0.000236 0.000074 0.000000
-0.000120 -0.000204 0.000075 0.000000
-0.000039 -0.000315 0.000125 0.000000
-0.000027 -0.000311 0.000193 0.000000
-0.000166 -0.000375 -0.000157 0.000000
-0.000123 -0.000179 0.000057 0.000000
-0.000117 -0.000185 0.000045 0.000000
-0.000102 -0.000238 0.000099 0.000000
-0.000094 -0.000238 0.000115 0.000000
-0.000809 -0.000611 0.000274 0.000000
-0.000701 -0.000630 0.000797 0.000000
-0.000786 -0.000232 0.000306 0.000000
-0.000098 -0.000181 0.000067 0.000000
-0.000540 -0.000695 0.000751 0.000000
-0.000413 -0.000719 -0.000062 0.000000
-0.000830 -0.000225 0.000292 0.000000
-0.000142 -0.000189 -0.000021 0.000000
0.000018 -0.000418 -0.000028 0.000000
0.000015 -0.000444 -0.000054 0.000000
-0.000500 -0.000690 0.000437 0.000000
0.000092 -0.000628 0.000123 0.000000
0.000084 -0.000415 -0.000065 0.000000
0.000126 -0.000484 -0.000089 0.000000
-0.000137 -0.001242 -0.001504 0.000000
0.000112 -0.002625 -0.000478 0.000000
-0.000108 -0.000253 -0.000134 0.000000
0.000028 -0.002626 -0.000501 0.000000
-0.000099 -0.000246 -0.000055 0.000000
-0.000257 -0.001020 -0.000290 0.000000
-0.000104 -0.000210 -0.000105 0.000000
-0.000042 -0.000285 -0.000091 0.000000
-0.000138 -0.000192 -0.000054 0.000000
-0.000040 -0.000320 -0.000086 0.000000
-0.000119 -0.000224 -0.000025 0.000000
-0.000548 -0.000630 0.000807 0.000000
-0.000093 -0.000239 -0.000024 0.000000
-0.000097 -0.000214 -0.000066 0.000000
-0.000099 -0.000246 -0.000084 0.000000
-0.000725 -0.000243 -0.000192 0.000000
-0.000098 -0.000112 0.000026 0.000000
-0.000066 -0.000238 0.000121 0.000000
-0.000052 -0.000232 0.000098 0.000000
-0.000099 -0.000255 -0.000054 0.000000
0.000885 -0.002499 -0.000763 0.000000
0.000025 -0.000410 0.000032 0.000000
-0.000129 -0.000988 -0.000474 0.000000
-0.000096 -0.000201 0.000000 0.000000
0.001726 -0.003679 0.001190 0.000000
0.001352 -0.002724 0.001464 0.000000
0.001974 -0.003599 0.000679 0.000000
0.000885 -0.001607 0.002256 0.000000
0.000481 -0.002100 -0.000815 0.000000
-0.000610 -0.000373 -0.000476 0.000000
0.003804 -0.005103 0.001614 0.000000
0.000539 -0.002053 -0.000390 0.000000
-0.000096 -0.000180 -0.000116 0.000000
-0.000040 -0.000239 -0.000099 0.000000
0.000008 -0.001623 -0.000357 0.000000
0.000009 -0.000219 -0.000170 0.000000
0.000471 -0.001706 -0.000222 0.000000
0.000045 -0.000382 -0.000161 0.000000
0.000337 -0.002422 0.001357 0.000000
-0.000613 -0.000308 -0.000552 0.000000
-0.000767 -0.000701 0.000128 0.000000
0.000123 -0.001433 0.000743 0.000000
-0.000178 -0.001648 -0.000299 0.000000
-0.000217 -0.000989 0.000073 0.000000
0.004762 -0.005787 0.003559 0.000000
-0.000028 -0.000230 0.000061 0.000000
0.004074 -0.005365 0.002923 0.000000
0.003764 -0.004550 0.002676 0.000000
0.004148 -0.005296 0.002476 0.000000
0.006486 -0.008146 0.003590 0.000000
0.004341 -0.006431 0.005051 0.000000
-0.000023 -0.000265 0.000169 0.000000
0.005769 -0.006745 0.003906 0.000000
-0.000033 -0.003261 0.004716 0.000000
-0.000236 -0.001214 0.000336 0.000000
-0.000071 -0.000189 0.000059 0.000000
-0.000090 -0.000189 0.000049 0.000000
-0.000061 -0.000260 0.000110 0.000000
-0.000172 -0.000909 0.000716 0.000000
-0.000491 -0.000719 0.000107 0.000000
-0.000117 -0.000149 0.000039 0.000000
0.000054 -0.001155 0.000597 0.000000
-0.000126 -0.000155 0.000100 0.000000
-0.000798 -0.000866 0.000768 0.000000
-0.000120 -0.000179 0.000061 0.000000
-0.000064 -0.000225 0.000053 0.000000
-0.000087 -0.000215 0.000055 0.000000
-0.000099 -0.000216 0.000082 0.000000
-0.000064 -0.000313 0.000106 0.000000
0.004133 -0.005429 0.005001 0.000000
-0.000070 -0.000254 0.000107 0.000000
-0.000243 -0.000447 0.001668 0.000000
0.004523 -0.005361 0.003312 0.000000
-0.000031 -0.000246 0.000050 0.000000
0.003452 -0.005377 0.004232 0.000000
-0.000048 -0.000318 0.000125 0.000000
0.003623 -0.005406 0.006754 0.000000
0.004019 -0.005377 0.006161 0.000000
0.004126 -0.005357 0.006625 0.000000
0.000323 -0.002151 0.001080 0.000000
0.001073 -0.003522 0.004410 0.000000
0.003782 -0.005458 0.006205 0.000000
0.000294 -0.002370 0.001990 0.000000
0.002778 -0.003517 0.003614 0.000000
0.003568 -0.005419 0.004059 0.000000
0.000618 -0.001972 0.001834 0.000000
0.001391 -0.002573 0.002387 0.000000
0.002943 -0.005334 0.007702 0.000000
0.004303 -0.005817 0.004852 0.000000
0.004476 -0.005953 0.002466 0.000000
0.003748 -0.007005 0.007651 0.000000
0.005888 -0.007524 0.003774 0.000000
-0.000029 -0.000248 0.000073 0.000000
-0.000020 -0.000240 0.000045 0.000000
-0.000022 -0.002094 0.002443 0.000000
-0.000021 -0.000226 0.000089 0.000000
-0.000006 -0.000222 0.000038 0.000000
0.000376 -0.001618 0.000263 0.000000
0.000026 -0.000224 0.000026 0.000000
-0.000002 -0.001766 0.001071 0.000000
0.000402 -0.002793 0.004450 0.000000
0.002053 -0.002540 0.002219 0.000000
-0.000019 -0.001876 0.001686 0.000000
-0.000006 -0.000233 0.000065 0.000000
0.000568 -0.001815 0.001216 0.000000
0.000601 -0.002736 0.003116 0.000000
-0.000007 -0.000219 0.000016 0.000000
-0.000002 -0.001613 0.000677 0.000000
-0.000018 -0.000193 0.000016 0.000000
0.000005 -0.001557 0.000345 0.000000
-0.000007 -0.000200 0.000018 0.000000
0.000013 -0.000208 0.000000 0.000000
-0.000037 -0.000177 0.000049 0.000000
-0.000018 -0.000201 0.000002 0.000000
-0.000033 -0.000198 0.000055 0.000000
-0.000026 -0.000198 -0.000005 0.000000
-0.000031 -0.000223 0.000038 0.000000
0.000018 -0.000215 0.000007 0.000000
0.000020 -0.001654 -0.000010 0.000000
0.000492 -0.001779 -0.000020 0.000000
0.000917 -0.002250 0.000372 0.000000
-0.000370 -0.000907 0.000501 0.000000
0.000488 -0.002242 0.000092 0.000000
0.000896 -0.002805 0.000668 0.000000
0.000502 -0.001873 0.000591 0.000000
0.002398 -0.003831 0.001533 0.000000
0.000348 -0.001685 0.000728 0.000000
0.001239 -0.003546 0.002678 0.000000
0.003387 -0.005655 0.005457 0.000000
0.001052 -0.002204 0.000795 0.000000
0.004306 -0.006737 0.005478 0.000000
0.002318 -0.003959 0.002449 0.000000
0.005403 -0.006721 0.005214 0.000000
0.006228 -0.007609 0.001836 0.000000
0.001049 -0.003123 0.001408 0.000000
0.004834 -0.006898 0.004240 0.000000
0.003220 -0.004424 0.002347 0.000000
0.005312 -0.007488 0.002233 0.000000
0.001851 -0.003063 0.000864 0.000000
0.001781 -0.003878 0.001551 0.000000
0.003675 -0.005495 0.005666 0.000000
0.005794 -0.007403 0.005182 0.000000
0.000581 -0.002222 0.001281 0.000000
0.002257 -0.003651 0.001542 0.000000
-0.000036 -0.000284 0.000189 0.000000
0.001859 -0.004779 0.004930 0.000000
0.004469 -0.006312 0.007656 0.000000
0.004111 -0.005198 0.004845 0.000000
0.004089 -0.006530 0.003122 0.000000
-0.000022 -0.000263 0.000086 0.000000
0.005152 -0.006619 0.004872 0.000000
0.000796 -0.002399 0.001229 0.000000
0.003439 -0.004635 0.003858 0.000000
0.005302 -0.006734 0.005401 0.000000
0.002196 -0.002555 0.002802 0.000000
0.005302 -0.006582 0.003808 0.000000
0.004723 -0.006454 0.004817 0.000000
-0.000188 -0.002094 0.000921 0.000000
0.004570 -0.006519 0.005964 0.000000
0.000272 -0.000560 0.003748 0.000000
-0.000028 -0.000374 0.000102 0.000000
-0.000017 -0.000452 0.000125 0.000000
0.001438 -0.003501 0.001956 0.000000
0.000920 -0.002045 0.001543 0.000000
0.000968 -0.004020 0.000916 0.000000
0.000035 -0.002591 0.002181 0.000000
0.002103 -0.003711 0.001221 0.000000
0.001042 -0.003184 0.000200 0.000000
0.003140 -0.004646 0.001009 0.000000
0.002586 -0.003772 0.000899 0.000000
0.002279 -0.004158 0.001050 0.000000
-0.000108 -0.000244 0.000152 0.000000
0.005564 -0.006574 0.003111 0.000000
0.002996 -0.004982 0.002265 0.000000
-0.000151 -0.000228 0.000057 0.000000
0.002197 -0.004095 0.000884 0.000000
0.001926 -0.003246 0.001269 0.000000
0.001597 -0.003657 0.000506 0.000000
-0.000030 -0.000226 0.000282 0.000000
0.001699 -0.003431 0.002242 0.000000
0.002338 -0.004243 0.003500 0.000000
0.001827 -0.003760 0.001694 0.000000
0.002361 -0.005891 0.001654 0.000000
0.001029 -0.003741 0.003262 0.000000
0.001671 -0.003902 0.002564 0.000000
-0.000080 -0.000288 0.000220 0.000000
0.003980 -0.005740 0.002761 0.000000
0.000018 -0.000499 -0.000069 0.000000
-0.000010 -0.000277 0.000291 0.000000
0.001789 -0.004540 0.001086 0.000000
-0.000050 -0.000282 0.000179 0.000000
-0.000073 -0.000278 0.000194 0.000000
-0.000073 -0.000241 0.000131 0.000000
-0.000082 -0.000252 0.000149 0.000000
-0.000069 -0.000241 0.000133 0.000000
0.001039 -0.002474 0.000154 0.000000
-0.000055 -0.000258 0.000072 0.000000
-0.000011 -0.000227 0.000204 0.000000
-0.000067 -0.000240 0.000127 0.000000
-0.000041 -0.000271 0.000124 0.000000
-0.000155 -0.002397 0.001349 0.000000
0.000011 -0.002486 0.000384 0.000000
-0.000070 -0.000218 0.000106 0.000000
0.000070 -0.000269 0.000107 0.000000
-0.000069 -0.000238 0.000119 0.000000
-0.000061 -0.000221 0.000149 0.000000
-0.000052 -0.000247 0.000136 0.000000
-0.000096 -0.000236 0.000207 0.000000
-0.000051 -0.000252 0.000134 0.000000
-0.000126 -0.000249 0.000260 0.000000
-0.000060 -0.000252 0.000149 0.000000
-0.000056 -0.000268 0.000152 0.000000
-0.000069 -0.000211 0.000173 0.000000
-0.000061 -0.000234 0.000168 0.000000
0.004412 -0.005277 0.006919 0.000000
0.002226 -0.003472 0.004663 0.000000
0.003474 -0.005152 0.007588 0.000000
-0.000086 -0.000177 0.000164 0.000000
0.003960 -0.005569 0.007730 0.000000
0.000771 -0.002269 0.002100 0.000000
0.000421 -0.001754 0.002785 0.000000
0.002034 -0.003180 0.005084 0.000000
-0.000057 -0.000251 0.000177 0.000000
-0.000069 -0.000223 0.000185 0.000000
-0.000071 -0.000225 0.000161 0.000000
0.002138 -0.003779 0.005010 0.000000
-0.000052 -0.000242 0.000176 0.000000
0.004683 -0.006179 0.008062 0.000000
0.004857 -0.006308 0.007824 0.000000
0.004637 -0.005950 0.007978 0.000000
0.000702 -0.001866 0.000792 0.000000
0.000490 -0.001763 0.000695 0.000000
0.001829 -0.002972 0.001766 0.000000
0.004508 -0.006136 0.008289 0.000000
-0.000494 -0.000731 0.000475 0.000000
-0.000322 -0.000898 0.000472 0.000000
0.000735 -0.001828 0.002305 0.000000
-0.000272 -0.001107 0.000915 0.000000
0.002563 -0.004326 0.005105 0.000000
0.000743 -0.001968 0.001904 0.000000
0.002739 -0.003862 0.004524 0.000000
0.002248 -0.003446 0.005003 0.000000
0.004420 -0.005926 0.008143 0.000000
0.004731 -0.005614 0.007496 0.000000
0.000360 -0.001637 0.003128 0.000000
-0.000424 -0.000856 0.000620 0.000000
-0.000121 -0.000131 0.000198 0.000000
0.000387 -0.001687 0.003138 0.000000
-0.000257 -0.001231 0.001671 0.000000
-0.000348 -0.000665 0.000241 0.000000
0.000128 -0.001172 0.001364 0.000000
-0.000202 -0.000797 0.000381 0.000000
0.000441 -0.001284 0.000799 0.000000
0.000167 -0.000834 -0.000438 0.000000
-0.000131 -0.000122 0.000211 0.000000
-0.000134 -0.000110 0.000200 0.000000
0.000675 -0.001624 0.001163 0.000000
0.000148 -0.001598 0.001472 0.000000
0.000587 -0.001939 0.001977 0.000000
-0.000137 -0.000132 0.000210 0.000000
0.000193 -0.001622 0.002946 0.000000
-0.000098 -0.000963 0.000914 0.000000
0.000056 -0.001335 0.002689 0.000000
0.000542 -0.001798 0.002137 0.000000
0.001731 -0.003090 0.005294 0.000000
0.000501 -0.001620 0.002487 0.000000
-0.000347 -0.000899 0.002156 0.000000
-0.000286 -0.001056 0.001254 0.000000
-0.000084 -0.000178 0.000147 0.000000
-0.000089 -0.000155 0.000141 0.000000
0.001797 -0.003058 0.006820 0.000000
0.000416 -0.001545 0.002191 0.000000
0.000584 -0.001949 0.004688 0.000000
0.000995 -0.002068 0.003755 0.000000
0.001536 -0.002664 0.006835 0.000000
0.000995 -0.002412 0.004038 0.000000
0.000338 -0.001734 0.002452 0.000000
0.001423 -0.002643 0.003303 0.000000
0.002379 -0.003921 0.004087 0.000000
-0.000122 -0.000158 0.000194 0.000000
0.000387 -0.002006 0.002684 0.000000
0.001268 -0.002692 0.002916 0.000000
0.001082 -0.002157 0.001802 0.000000
-0.000135 -0.000146 0.000170 0.000000
0.000505 -0.001984 0.001493 0.000000
0.001416 -0.002869 0.002327 0.000000
-0.000125 -0.000139 0.000180 0.000000
0.000632 -0.001936 0.002380 0.000000
0.000447 -0.002063 0.001445 0.000000
0.000159 -0.001754 0.001159 0.000000
0.000819 -0.002137 0.001233 0.000000
0.001334 -0.002999 0.001740 0.000000
0.000554 -0.001857 0.001107 0.000000
0.000254 -0.001878 0.000787 0.000000
-0.000374 -0.001515 0.003089 0.000000
-0.000090 -0.001450 0.001032 0.000000
0.000156 -0.001642 0.002556 0.000000
0.000062 -0.001435 0.000907 0.000000
-0.000170 -0.001787 0.003374 0.000000
-0.000231 -0.001589 0.003399 0.000000
0.000252 -0.002073 0.001864 0.000000
0.000314 -0.001945 0.001835 0.000000
-0.000211 -0.000143 0.000279 0.000000
0.000281 -0.001584 0.002142 0.000000
0.000161 -0.002206 0.004657 0.000000
0.000804 -0.002359 0.001645 0.000000
0.000204 -0.001587 0.002450 0.000000
-0.000174 -0.000139 0.000196 0.000000
-0.000169 -0.001219 0.003083 0.000000
-0.000103 -0.000162 0.000186 0.000000
-0.000883 -0.001262 0.002290 0.000000
-0.000100 -0.000161 0.000171 0.000000
-0.000118 -0.000151 0.000183 0.000000
-0.000136 -0.000140 0.000205 0.000000
-0.000136 -0.000151 0.000195 0.000000
-0.000105 -0.000147 0.000270 0.000000
-0.000124 -0.000157 0.000229 0.000000
-0.000070 -0.000147 0.000134 0.000000
0.000950 -0.003495 0.003207 0.000000
0.000175 -0.001802 0.000608 0.000000
-0.000082 -0.000217 0.000236 0.000000
-0.000034 -0.001849 0.001018 0.000000
-0.000076 -0.000160 0.000118 0.000000
-0.000079 -0.000169 0.000144 0.000000
-0.000104 -0.000160 0.000178 0.000000
-0.000075 -0.000168 0.000195 0.000000
-0.000104 -0.000157 0.000169 0.000000
-0.000111 -0.000164 0.000196 0.000000
-0.000089 -0.000161 0.000161 0.000000
-0.000101 -0.000167 0.000185 0.000000
-0.000130 -0.000140 0.000200 0.000000
-0.000126 -0.000142 0.000186 0.000000
-0.000108 -0.000147 0.000170 0.000000
-0.000125 -0.000135 0.000173 0.000000
-0.000133 -0.000146 0.000171 0.000000
-0.000131 -0.000141 0.000198 0.000000
-0.000121 -0.000145 0.000178 0.000000
-0.000128 -0.000151 0.000172 0.000000
0.000379 -0.001865 0.001759 0.000000
0.000586 -0.001906 0.002169 0.000000
-0.000099 -0.000155 0.000168 0.000000
-0.000123 -0.000143 0.000172 0.000000
-0.000123 -0.000135 0.000183 0.000000
0.000898 -0.001904 0.001516 0.000000
-0.000147 -0.000137 0.000217 0.000000
0.000642 -0.002111 0.002013 0.000000
-0.000150 -0.000150 0.000233 0.000000
-0.000130 -0.000139 0.000177 0.000000
-0.000116 -0.000132 0.000162 0.000000
-0.000127 -0.000123 0.000192 0.000000
-0.000104 -0.000127 0.000151 0.000000
-0.000124 -0.000113 0.000174 0.000000
-0.000117 -0.000123 0.000170 0.000000
-0.000122 -0.000113 0.000178 0.000000
-0.000114 -0.000132 0.000168 0.000000
-0.000109 -0.000115 0.000153 0.000000
-0.000102 -0.000134 0.000156 0.000000
-0.000093 -0.000128 0.000138 0.000000
-0.000081 -0.000133 0.000132 0.000000
-0.000103 -0.000134 0.000154 0.000000
-0.000113 -0.000140 0.000171 0.000000
-0.000078 -0.000148 0.000133 0.000000
-0.000113 -0.000139 0.000170 0.000000
-0.000120 -0.000143 0.000181 0.000000
-0.000098 -0.000143 0.000156 0.000000
-0.000103 -0.000148 0.000165 0.000000
-0.000084 -0.000154 0.000142 0.000000
-0.000081 -0.000188 0.000173 0.000000
-0.000074 -0.000168 0.000117 0.000000
-0.000076 -0.000163 0.000151 0.000000
-0.000073 -0.000175 0.000119 0.000000
-0.000076 -0.000156 0.000134 0.000000
-0.000082 -0.000156 0.000144 0.000000
-0.000077 -0.000156 0.000133 0.000000
-0.000078 -0.000151 0.000107 0.000000
-0.000069 -0.000142 0.000131 0.000000
-0.000090 -0.000138 0.000143 0.000000
-0.000086 -0.000146 0.000141 0.000000
-0.000068 -0.000140 0.000128 0.000000
-0.000087 -0.000148 0.000149 0.000000
-0.000080 -0.000150 0.000145 0.000000
-0.000074 -0.000150 0.000138 0.000000
-0.000075 -0.000138 0.000131 0.000000
-0.000079 -0.000133 0.000136 0.000000
-0.000068 -0.000138 0.000128 0.000000
-0.000076 -0.000144 0.000140 0.000000
-0.000077 -0.000142 0.000132 0.000000
-0.000071 -0.000145 0.000138 0.000000
-0.000071 -0.000144 0.000129 0.000000
-0.000074 -0.000149 0.000127 0.000000
-0.000060 -0.000140 0.000133 0.000000
-0.000046 -0.000138 0.000128 0.000000
-0.000056 -0.000141 0.000139 0.000000
-0.000043 -0.000138 0.000149 0.000000
-0.000067 -0.000135 0.000132 0.000000
-0.000063 -0.000136 0.000125 0.000000
-0.000053 -0.000139 0.000136 0.000000
-0.000054 -0.000136 0.000128 0.000000
-0.000063 -0.000121 0.000121 0.000000
-0.000037 -0.000126 0.000127 0.000000
-0.000060 -0.000128 0.000121 0.000000
-0.000046 -0.000136 0.000124 0.000000
-0.000092 -0.000118 0.000137 0.000000
-0.000069 -0.000129 0.000130 0.000000
-0.000069 -0.000133 0.000129 0.000000
-0.000075 -0.000126 0.000129 0.000000
-0.000092 -0.000122 0.000137 0.000000
-0.000078 -0.000114 0.000132 0.000000
-0.000103 -0.000126 0.000153 0.000000
-0.000083 -0.000126 0.000131 0.000000
-0.000096 -0.000114 0.000139 0.000000
-0.000078 -0.000111 0.000131 0.000000
-0.000063 -0.000108 0.000137 0.000000
-0.000044 -0.000085 0.000171 0.000000
-0.000097 -0.000109 0.000138 0.000000
-0.000079 -0.000118 0.000126 0.000000
-0.000064 -0.000111 0.000134 0.000000
-0.000045 -0.000104 0.000196 0.000000
-0.000072 -0.000102 0.000159 0.000000
-0.000052 -0.000109 0.000131 0.000000
-0.000027 -0.000106 0.000270 0.000000
0.000159 -0.001180 0.001297 0.000000
-0.000062 -0.000129 0.000147 0.000000
-0.000033 -0.000095 0.000253 0.000000
-0.000108 -0.000116 0.000210 0.000000
-0.000020 -0.000967 0.001255 0.000000
-0.000075 -0.000117 0.000157 0.000000
-0.000046 -0.000129 0.000189 0.000000
-0.000104 -0.000107 0.000122 0.000000
-0.000065 -0.000117 0.000149 0.000000
-0.000124 -0.000098 0.000147 0.000000
-0.000100 -0.000102 0.000142 0.000000
-0.000132 -0.000115 0.000196 0.000000
-0.000138 -0.000101 0.000184 0.000000
-0.000115 -0.000112 0.000163 0.000000
-0.000100 -0.000109 0.000143 0.000000
-0.000129 -0.000123 0.000222 0.000000
-0.000138 -0.000114 0.000206 0.000000
-0.000130 -0.000134 0.000229 0.000000
-0.000135 -0.000121 0.000213 0.000000
-0.000450 -0.000695 0.000117 0.000000
-0.000164 -0.000143 0.000282 0.000000
-0.000145 -0.000135 0.000258 0.000000
-0.000373 -0.000405 -0.000217 0.000000
-0.000664 -0.000158 -0.000056 0.000000
-0.000562 -0.000567 0.000157 0.000000
-0.000147 -0.000111 0.000212 0.000000
-0.000135 -0.000096 0.000158 0.000000
-0.000140 -0.000112 0.000207 0.000000
-0.000116 -0.000106 0.000164 0.000000
-0.000169 -0.001250 0.000868 0.000000
-0.000453 -0.000551 0.000810 0.000000
-0.000436 -0.000816 0.000913 0.000000
-0.000111 -0.000171 0.000358 0.000000
-0.000546 -0.000688 0.000564 0.000000
-0.000230 -0.001052 0.000638 0.000000
-0.000683 -0.000459 0.000283 0.000000
-0.000514 -0.000531 0.000319 0.000000
0.000492 -0.002061 0.001098 0.000000
0.001155 -0.002479 0.000809 0.000000
-0.000370 -0.000935 0.000693 0.000000
-0.000221 -0.001144 0.000892 0.000000
0.001992 -0.003546 0.001731 0.000000
0.000034 -0.001361 0.000588 0.000000
-0.000359 -0.000905 0.000492 0.000000
0.000221 -0.001631 0.000840 0.000000
0.000092 -0.001594 0.000918 0.000000
0.000070 -0.001360 0.000610 0.000000
0.001962 -0.003541 0.001966 0.000000
0.000239 -0.001808 0.000548 0.000000
-0.000082 -0.001170 0.001121 0.000000
-0.000096 -0.001183 0.000932 0.000000
-0.000171 -0.000898 0.000680 0.000000
-0.000281 -0.001103 0.000469 0.000000
-0.000113 -0.000072 0.000319 0.000000
-0.000463 -0.000980 0.001015 0.000000
0.000032 -0.001128 0.001270 0.000000
0.000392 -0.001681 0.001162 0.000000
-0.000014 -0.001184 0.001374 0.000000
0.000040 -0.001173 0.001422 0.000000
-0.000025 -0.000232 0.000055 0.000000
0.001603 -0.002813 0.002771 0.000000
0.000125 -0.001363 0.000694 0.000000
0.001147 -0.002277 0.003297 0.000000
-0.000290 -0.000936 0.000511 0.000000
0.000183 -0.001367 0.001090 0.000000
-0.000020 -0.000281 -0.000026 0.000000
0.001268 -0.002819 0.003036 0.000000
0.000197 -0.001264 0.001331 0.000000
0.000235 -0.001358 0.001268 0.000000
0.000177 -0.001348 0.001302 0.000000
0.000167 -0.001299 0.001186 0.000000
0.000848 -0.001626 0.002738 0.000000
0.000411 -0.001477 0.001379 0.000000
-0.000026 -0.000190 0.000046 0.000000
0.001103 -0.002072 0.003401 0.000000
0.001020 -0.002294 0.002990 0.000000
0.000339 -0.001265 0.001408 0.000000
-0.000025 -0.000202 0.000053 0.000000
-0.000019 -0.000212 0.000008 0.000000
-0.000038 -0.000191 0.000027 0.000000
-0.000025 -0.000225 0.000035 0.000000
-0.000017 -0.000179 0.000032 0.000000
-0.000025 -0.000180 0.000045 0.000000
-0.000025 -0.000202 0.000041 0.000000
-0.000025 -0.000189 0.000052 0.000000
-0.000014 -0.000188 0.000043 0.000000
-0.000020 -0.000194 0.000050 0.000000
-0.000021 -0.000173 0.000039 0.000000
-0.000016 -0.000187 0.000041 0.000000
-0.000024 -0.000168 0.000060 0.000000
0.000324 -0.001351 0.001465 0.000000
0.000383 -0.001299 0.001292 0.000000
0.000537 -0.001330 0.001824 0.000000
-0.000032 -0.000180 0.000036 0.000000
0.000848 -0.002062 0.002571 0.000000
0.000704 -0.001783 0.002412 0.000000
0.000339 -0.001428 0.001539 0.000000
0.000336 -0.001284 0.001584 0.000000
0.000209 -0.001211 0.001363 0.000000
0.000329 -0.001279 0.001386 0.000000
0.000269 -0.001261 0.001368 0.000000
0.000387 -0.001254 0.001286 0.000000
0.000312 -0.001266 0.001390 0.000000
0.000561 -0.001493 0.001004 0.000000
0.000374 -0.001315 0.001389 0.000000
0.000421 -0.001240 0.001352 0.000000
0.000275 -0.001164 0.001301 0.000000
0.000160 -0.001068 0.001360 0.000000
0.000142 -0.001073 0.001525 0.000000
0.000267 -0.001089 0.001674 0.000000
0.000297 -0.001073 0.001446 0.000000
0.000277 -0.001185 0.001455 0.000000
-0.000050 -0.000082 0.000182 0.000000
0.000148 -0.001087 0.001349 0.000000
0.000269 -0.000996 0.001735 0.000000
0.000225 -0.001196 0.001387 0.000000
0.000210 -0.001200 0.001369 0.000000
0.000148 -0.001119 0.001268 0.000000
0.000136 -0.001184 0.001323 0.000000
0.000232 -0.001279 0.001373 0.000000
0.000223 -0.001277 0.001257 0.000000
0.000298 -0.001269 0.001352 0.000000
0.000269 -0.001290 0.001365 0.000000
0.000071 -0.001162 0.001366 0.000000
0.000083 -0.001190 0.001394 0.000000
-0.000057 -0.000099 0.000188 0.000000
0.000143 -0.001150 0.001355 0.000000
-0.000047 -0.000116 0.000196 0.000000
0.000143 -0.001167 0.001309 0.000000
-0.000058 -0.000111 0.000158 0.000000
-0.000042 -0.000075 0.000232 0.000000
-0.000054 -0.000091 0.000188 0.000000
-0.000044 -0.000109 0.000132 0.000000
-0.000053 -0.000105 0.000156 0.000000
-0.000061 -0.000098 0.000155 0.000000
-0.000060 -0.000124 0.000128 0.000000
-0.000028 -0.000132 0.000126 0.000000
-0.000051 -0.000099 0.000150 0.000000
-0.000046 -0.000053 0.000228 0.000000
-0.000043 -0.000096 0.000147 0.000000
-0.000045 -0.000099 0.000145 0.000000
-0.000042 -0.000117 0.000124 0.000000
-0.000050 -0.000123 0.000120 0.000000
-0.000035 -0.000106 0.000136 0.000000
-0.000040 -0.000124 0.000121 0.000000
-0.000050 -0.000117 0.000130 0.000000
-0.000057 -0.000131 0.000129 0.000000
-0.000040 -0.000117 0.000130 0.000000
-0.000045 -0.000132 0.000130 0.000000
-0.000047 -0.000125 0.000128 0.000000
-0.000048 -0.000130 0.000121 0.000000
-0.000036 -0.000136 0.000133 0.000000
-0.000046 -0.000140 0.000143 0.000000
-0.000042 -0.000140 0.000141 0.000000
-0.000043 -0.000139 0.000136 0.000000
-0.000032 -0.000139 0.000149 0.000000
-0.000043 -0.000137 0.000152 0.000000
-0.000026 -0.000138 0.000158 0.000000
-0.000033 -0.000139 0.000143 0.000000
-0.000036 -0.000136 0.000157 0.000000
-0.000027 -0.000138 0.000158 0.000000
-0.000028 -0.000125 0.000124 0.000000
-0.000033 -0.000124 0.000122 0.000000
-0.000017 -0.000139 0.000140 0.000000
-0.000027 -0.000139 0.000140 0.000000
-0.000033 -0.000139 0.000152 0.000000
-0.000024 -0.000139 0.000147 0.000000
-0.000024 -0.000140 0.000147 0.000000
-0.000020 -0.000131 0.000123 0.000000
-0.000008 -0.000140 0.000148 0.000000
-0.000017 -0.000139 0.000142 0.000000
-0.000015 -0.000136 0.000166 0.000000
-0.000007 -0.000138 0.000163 0.000000
-0.000022 -0.000135 0.000168 0.000000
-0.000016 -0.000139 0.000160 0.000000
-0.000006 -0.000140 0.000143 0.000000
-0.000011 -0.000134 0.000127 0.000000
-0.000014 -0.000119 0.000173 0.000000
-0.000009 -0.000132 0.000175 0.000000
-0.000022 -0.000106 0.000110 0.000000
-0.000019 -0.000122 0.000118 0.000000
-0.000013 -0.000137 0.000133 0.000000
-0.000013 -0.000132 0.000117 0.000000
-0.000031 -0.000098 0.000119 0.000000
-0.000036 -0.000087 0.000120 0.000000
-0.000029 -0.000107 0.000115 0.000000
-0.000031 -0.000112 0.000120 0.000000
-0.000043 -0.000079 0.000150 0.000000
-0.000042 -0.000108 0.000138 0.000000
-0.000029 -0.000113 0.000124 0.000000
-0.000032 -0.000117 0.000127 0.000000
-0.000050 -0.000078 0.000165 0.000000
-0.000043 -0.000098 0.000150 0.000000
-0.000039 -0.000107 0.000134 0.000000
-0.000041 -0.000087 0.000134 0.000000
0.000152 -0.000912 0.001671 0.000000
-0.000043 -0.000081 0.000163 0.000000
-0.000047 -0.000073 0.000140 0.000000
-0.000053 -0.000061 0.000157 0.000000
-0.000043 -0.000091 0.000143 0.000000
-0.000037 -0.000103 0.000131 0.000000
-0.000046 -0.000062 0.000127 0.000000
0.000462 -0.001117 0.001778 0.000000
-0.000035 -0.000070 0.000122 0.000000
-0.000045 -0.000070 0.000134 0.000000
-0.000034 -0.000077 0.000107 0.000000
0.000342 -0.000950 0.001768 0.000000
-0.000034 -0.000046 0.000086 0.000000
0.000435 -0.001029 0.002695 0.000000
-0.000027 -0.000062 0.000132 0.000000
-0.000036 -0.000079 0.000105 0.000000
-0.000490 -0.000673 0.001820 0.000000
-0.000010 -0.000102 0.000076 0.000000
-0.000027 -0.000101 0.000099 0.000000
-0.000036 -0.000081 0.000123 0.000000
-0.000036 -0.000068 0.000116 0.000000
-0.000029 -0.000086 0.000108 0.000000
-0.000017 -0.000100 0.000096 0.000000
0.000005 -0.000155 0.000172 0.000000
-0.000003 -0.000135 0.000109 0.000000
-0.000004 -0.000140 0.000132 0.000000
-0.000002 -0.000140 0.000163 0.000000
-0.000003 -0.000138 0.000129 0.000000
-0.000009 -0.000127 0.000174 0.000000
0.000005 -0.000148 0.000141 0.000000
0.000011 -0.000143 0.000152 0.000000
-0.000001 -0.000141 0.000168 0.000000
-0.000018 -0.000104 0.000171 0.000000
-0.000007 -0.000128 0.000181 0.000000
-0.000008 -0.000104 0.000084 0.000000
-0.000007 -0.000122 0.000087 0.000000
0.000017 -0.000151 0.000115 0.000000
0.000007 -0.000143 0.000134 0.000000
0.000005 -0.000139 0.000161 0.000000
0.000003 -0.000148 0.000172 0.000000
0.000006 -0.000137 0.000113 0.000000
-0.000006 -0.000153 0.000134 0.000000
0.000005 -0.000140 0.000181 0.000000
-0.000009 -0.000129 0.000193 0.000000
-0.000023 -0.000127 0.000234 0.000000
-0.000026 -0.000115 0.000193 0.000000
-0.000050 -0.000108 0.000221 0.000000
-0.000001 -0.000107 0.000153 0.000000
-0.000001 -0.000166 0.000126 0.000000
-0.000462 -0.000855 0.001847 0.000000
-0.000052 -0.000057 0.000175 0.000000
-0.000027 -0.000079 0.000142 0.000000
-0.000042 -0.000100 0.000227 0.000000
-0.000053 -0.000053 0.000166 0.000000
-0.000517 -0.000756 0.002004 0.000000
-0.000260 -0.000570 0.001653 0.000000
-0.000197 -0.000441 0.001395 0.000000
-0.000057 -0.000068 0.000185 0.000000
-0.000020 -0.000081 0.000151 0.000000
-0.000425 -0.000460 0.001668 0.000000
-0.000394 -0.000208 0.001409 0.000000
-0.000013 -0.000083 0.000080 0.000000
-0.000479 -0.000634 0.001908 0.000000
0.000026 -0.000112 0.000073 0.000000
0.000923 -0.001695 0.003542 0.000000
0.000398 -0.001097 0.001997 0.000000
-0.000317 -0.000555 0.001238 0.000000
-0.000001 -0.000082 0.000071 0.000000
0.000495 -0.000830 0.003379 0.000000
0.000852 -0.001288 0.003743 0.000000
0.000041 -0.000976 0.002638 0.000000
0.000253 -0.000522 0.003209 0.000000
-0.000047 -0.000064 0.000149 0.000000
0.000008 -0.000193 0.001928 0.000000
0.000607 -0.001464 0.002152 0.000000
0.001532 -0.002147 0.003666 0.000000
0.000857 -0.001616 0.003957 0.000000
0.001138 -0.001655 0.002868 0.000000
0.000428 -0.001284 0.001103 0.000000
0.000340 -0.000819 0.000733 0.000000
0.000986 -0.001690 0.003143 0.000000
0.000732 -0.001178 0.001591 0.000000
0.000200 -0.000694 0.001263 0.000000
0.000287 -0.000783 0.000885 0.000000
0.000140 -0.001068 0.000961 0.000000
0.000919 -0.001484 0.002263 0.000000
0.000605 -0.001471 0.001789 0.000000
0.000461 -0.001245 0.001810 0.000000
0.000734 -0.001452 0.001566 0.000000
0.000791 -0.001282 0.003429 0.000000
0.000906 -0.001482 0.002073 0.000000
0.000492 -0.001269 0.001599 0.000000
0.000590 -0.001241 0.002554 0.000000
0.000609 -0.001237 0.001723 0.000000
0.000492 -0.001216 0.001598 0.000000
0.000442 -0.001230 0.001408 0.000000
0.000340 -0.001097 0.001789 0.000000
0.000368 -0.001094 0.001619 0.000000
0.000397 -0.001275 0.001293 0.000000
0.000328 -0.001252 0.001232 0.000000
0.000469 -0.001311 0.001298 0.000000
0.000404 -0.001246 0.001147 0.000000
0.000657 -0.001448 0.001256 0.000000
0.000454 -0.001302 0.001179 0.000000
0.000597 -0.001470 0.001075 0.000000
0.000559 -0.001292 0.001403 0.000000
0.000644 -0.001429 0.001334 0.000000
0.000641 -0.001297 0.001606 0.000000
-0.000021 -0.000155 0.000037 0.000000
-0.000017 -0.000173 0.000032 0.000000
-0.000009 -0.000174 0.000076 0.000000
-0.000297 -0.000734 0.000938 0.000000
-0.000012 -0.000183 0.000043 0.000000
-0.000019 -0.000171 0.000026 0.000000
-0.000017 -0.000177 0.000049 0.000000
-0.000027 -0.000187 0.000107 0.000000
-0.000024 -0.000157 0.000040 0.000000
-0.000019 -0.000186 0.000044 0.000000
-0.000015 -0.000184 0.000034 0.000000
-0.000019 -0.000178 0.000037 0.000000
-0.000022 -0.000162 0.000025 0.000000
-0.000017 -0.000176 0.000032 0.000000
-0.000020 -0.000170 0.000030 0.000000
-0.000020 -0.000179 0.000036 0.000000
-0.000019 -0.000172 0.000025 0.000000
-0.000017 -0.000177 0.000030 0.000000
-0.000013 -0.000145 0.000044 0.000000
-0.000015 -0.000160 0.000046 0.000000
-0.000020 -0.000165 0.000031 0.000000
-0.000024 -0.000153 0.000031 0.000000
-0.000014 -0.000161 0.000028 0.000000
-0.000015 -0.000180 0.000028 0.000000
-0.000015 -0.000179 0.000057 0.000000
-0.000307 -0.000123 0.000366 0.000000
0.000109 -0.000373 -0.000625 0.000000
-0.000006 -0.000176 0.000045 0.000000
-0.000293 -0.000215 -0.000024 0.000000
-0.000034 -0.000859 0.000470 0.000000
-0.000019 -0.000149 0.000032 0.000000
-0.000023 -0.000155 0.000028 0.000000
-0.000017 -0.000158 0.000040 0.000000
-0.000021 -0.000165 0.000031 0.000000
0.000012 -0.000181 0.000031 0.000000
-0.000013 -0.000179 0.000042 0.000000
-0.000013 -0.000155 0.000047 0.000000
-0.000019 -0.000144 0.000048 0.000000
-0.000011 -0.000143 0.000050 0.000000
-0.000019 -0.000148 0.000043 0.000000
-0.000022 -0.000146 0.000044 0.000000
-0.000017 -0.000153 0.000045 0.000000
-0.000016 -0.000141 0.000055 0.000000
-0.000022 -0.000149 0.000033 0.000000
-0.000019 -0.000159 0.000042 0.000000
-0.000019 -0.000146 0.000050 0.000000
-0.000021 -0.000151 0.000046 0.000000
-0.000011 -0.000142 0.000058 0.000000
-0.000011 -0.000148 0.000054 0.000000
-0.000014 -0.000154 0.000050 0.000000
-0.000007 -0.000144 0.000057 0.000000
-0.000015 -0.000146 0.000053 0.000000
0.000002 -0.000147 0.000045 0.000000
-0.000008 -0.000151 0.000052 0.000000
-0.000005 -0.000146 0.000054 0.000000
-0.000009 -0.000149 0.000050 0.000000
-0.000001 -0.000166 0.000055 0.000000
0.000000 -0.000159 0.000058 0.000000
-0.000004 -0.000171 0.000050 0.000000
-0.000000 -0.000150 0.000057 0.000000
-0.000004 -0.000162 0.000052 0.000000
-0.000012 -0.000171 0.000040 0.000000
-0.000005 -0.000152 0.000051 0.000000
-0.000003 -0.000163 0.000052 0.000000
-0.000008 -0.000157 0.000048 0.000000
-0.000007 -0.000159 0.000050 0.000000
-0.000002 -0.000148 0.000052 0.000000
-0.000005 -0.000160 0.000050 0.000000
-0.000021 -0.000165 0.000038 0.000000
-0.000018 -0.000152 0.000049 0.000000
-0.000011 -0.000170 0.000042 0.000000
-0.000017 -0.000174 0.000034 0.000000
-0.000015 -0.000161 0.000044 0.000000
-0.000015 -0.000167 0.000042 0.000000
-0.000007 -0.000174 0.000045 0.000000
-0.000011 -0.000163 0.000046 0.000000
-0.000014 -0.000180 0.000033 0.000000
-0.000027 -0.000180 0.000024 0.000000
-0.000006 -0.000186 0.000043 0.000000
-0.000009 -0.000176 0.000042 0.000000
-0.000011 -0.000188 0.000034 0.000000
-0.000014 -0.000180 0.000034 0.000000
-0.000012 -0.000174 0.000040 0.000000
-0.000021 -0.000178 0.000028 0.000000
-0.000016 -0.000167 0.000039 0.000000
-0.000020 -0.000179 0.000027 0.000000
-0.000019 -0.000164 0.000040 0.000000
-0.000023 -0.000162 0.000035 0.000000
-0.000027 -0.000176 0.000024 0.000000
-0.000031 -0.000176 0.000048 0.000000
-0.000024 -0.000163 0.000040 0.000000
-0.000024 -0.000164 0.000038 0.000000
-0.000023 -0.000157 0.000043 0.000000
-0.000020 -0.000172 0.000031 0.000000
-0.000025 -0.000165 0.000037 0.000000
-0.000021 -0.000153 0.000040 0.000000
-0.000022 -0.000162 0.000030 0.000000
-0.000022 -0.000155 0.000036 0.000000
-0.000027 -0.000163 0.000040 0.000000
-0.000035 -0.000173 0.000032 0.000000
-0.000026 -0.000166 0.000039 0.000000
-0.000024 -0.000160 0.000034 0.000000
-0.000023 -0.000163 0.000028 0.000000
-0.000023 -0.000168 0.000033 0.000000
-0.000022 -0.000171 0.000036 0.000000
-0.000020 -0.000186 0.000044 0.000000
-0.000029 -0.000169 0.000041 0.000000
-0.000032 -0.000178 0.000023 0.000000
-0.000026 -0.000172 0.000039 0.000000
-0.000027 -0.000168 0.000038 0.000000
-0.000025 -0.000174 0.000042 0.000000
-0.000034 -0.000172 0.000041 0.000000
-0.000031 -0.000168 0.000036 0.000000
-0.000026 -0.000168 0.000033 0.000000
-0.000037 -0.000176 0.000045 0.000000
-0.000031 -0.000171 0.000037 0.000000
-0.000029 -0.000174 0.000042 0.000000
-0.000030 -0.000185 0.000027 0.000000
-0.000024 -0.000181 0.000047 0.000000
-0.000031 -0.000179 0.000049 0.000000
-0.000040 -0.000186 0.000035 0.000000
-0.000032 -0.000186 0.000055 0.000000
-0.000025 -0.000190 0.000054 0.000000
-0.000032 -0.000183 0.000057 0.000000
-0.000040 -0.000182 0.000058 0.000000
-0.000034 -0.000192 0.000066 0.000000
-0.000038 -0.000203 0.000068 0.000000
-0.000032 -0.000205 0.000068 0.000000
-0.000030 -0.000191 0.000019 0.000000
-0.000028 -0.000191 0.000034 0.000000
-0.000036 -0.000183 0.000022 0.000000
-0.000041 -0.000190 0.000065 0.000000
-0.000037 -0.000183 0.000041 0.000000
-0.000035 -0.000178 0.000024 0.000000
-0.000034 -0.000173 0.000031 0.000000
-0.000039 -0.000178 0.000041 0.000000
-0.000038 -0.000178 0.000033 0.000000
-0.000039 -0.000180 0.000046 0.000000
-0.000035 -0.000179 0.000025 0.000000
-0.000027 -0.000199 0.000016 0.000000
-0.000035 -0.000180 0.000027 0.000000
-0.000032 -0.000183 0.000014 0.000000
-0.000033 -0.000185 0.000017 0.000000
-0.000027 -0.000216 0.000025 0.000000
-0.000025 -0.000199 0.000026 0.000000
-0.000032 -0.000195 0.000023 0.000000
-0.000016 -0.000225 0.000026 0.000000
-0.000041 -0.000245 0.000112 0.000000
-0.000005 -0.000212 0.000041 0.000000
-0.000023 -0.000223 0.000014 0.000000
-0.000031 -0.000193 0.000006 0.000000
-0.000026 -0.000205 0.000005 0.000000
-0.000032 -0.000186 0.000018 0.000000
-0.000026 -0.000182 0.000019 0.000000
-0.000031 -0.000207 0.000048 0.000000
-0.000025 -0.000206 0.000038 0.000000
-0.000012 -0.000215 0.000047 0.000000
-0.000020 -0.000202 0.000016 0.000000
-0.000026 -0.000193 0.000008 0.000000
-0.000011 -0.000189 0.000036 0.000000
-0.000027 -0.000188 0.000017 0.000000
-0.000022 -0.000187 0.000019 0.000000
-0.000037 -0.000175 0.000034 0.000000
-0.000037 -0.000175 0.000036 0.000000
-0.000031 -0.000173 0.000030 0.000000
-0.000021 -0.000172 0.000033 0.000000
-0.000031 -0.000171 0.000029 0.000000
-0.000027 -0.000169 0.000036 0.000000
-0.000010 -0.000199 0.000045 0.000000
-0.000014 -0.000197 0.000030 0.000000
-0.000019 -0.000197 0.000017 0.000000
-0.000017 -0.000189 0.000025 0.000000
-0.000025 -0.000168 0.000034 0.000000
-0.000018 -0.000172 0.000035 0.000000
-0.000012 -0.000204 0.000055 0.000000
-0.000020 -0.000182 0.000045 0.000000
-0.000012 -0.000202 0.000041 0.000000
-0.000004 -0.000180 0.000046 0.000000
-0.000004 -0.000180 -0.000003 0.000000
-0.000011 -0.000186 0.000048 0.000000
-0.000034 -0.000189 0.000048 0.000000
-0.000017 -0.000205 0.000070 0.000000
-0.000026 -0.000213 0.000044 0.000000
-0.000024 -0.000189 0.000061 0.000000
-0.000032 -0.000179 0.000053 0.000000
-0.000017 -0.000205 0.000046 0.000000
0.005598 -0.006662 0.002224 0.000000
-0.000021 -0.000191 0.000075 0.000000
-0.000016 -0.000208 0.000032 0.000000
-0.000017 -0.000210 0.000057 0.000000
0.005597 -0.006999 0.003218 0.000000
-0.000023 -0.000221 0.000063 0.000000
-0.000017 -0.000209 0.000047 0.000000
-0.000037 -0.000186 0.000087 0.000000
-0.000071 -0.000172 0.000045 0.000000
0.006450 -0.007123 0.003412 0.000000
-0.000058 -0.000165 0.000157 0.000000
-0.000112 -0.000265 0.000305 0.000000
0.005656 -0.007377 0.002792 0.000000
0.001908 -0.003674 0.000948 0.000000
0.005807 -0.007283 0.002076 0.000000
-0.000030 -0.000211 0.000056 0.000000
0.005531 -0.006785 0.002452 0.000000
0.004439 -0.006255 0.002024 0.000000
0.005718 -0.006782 0.002404 0.000000
-0.000029 -0.000175 0.000031 0.000000
-0.000038 -0.000225 0.000100 0.000000
-0.000053 -0.000223 0.000017 0.000000
0.002683 -0.003890 0.003573 0.000000
0.003648 -0.004129 0.003522 0.000000
0.002624 -0.003769 0.000917 0.000000
0.005400 -0.006286 0.002200 0.000000
0.001956 -0.003043 0.000546 0.000000
0.005306 -0.006716 0.002647 0.000000
0.001281 -0.003025 0.000670 0.000000
0.003834 -0.005330 0.001562 0.000000
0.000021 -0.000255 0.000166 0.000000
-0.000005 -0.000265 0.000095 0.000000
0.001707 -0.002428 -0.001771 0.000000
0.002770 -0.003325 -0.000288 0.000000
0.003299 -0.004305 0.003269 0.000000
-0.000023 -0.000260 0.000254 0.000000
0.002799 -0.004007 0.003712 0.000000
-0.000027 -0.000243 0.000096 0.000000
0.003445 -0.004654 0.003465 0.000000
0.003432 -0.003957 0.001723 0.000000
0.002716 -0.003176 0.001912 0.000000
0.003132 -0.004625 0.002779 0.000000
0.002831 -0.004337 0.003134 0.000000
0.003236 -0.004657 0.004702 0.000000
0.003801 -0.005438 0.002646 0.000000
0.004131 -0.005432 0.002543 0.000000
0.002129 -0.003760 0.000714 0.000000
-0.000022 -0.000172 0.000048 0.000000
0.005029 -0.004889 -0.000942 0.000000
-0.000025 -0.000192 0.000066 0.000000
0.002073 -0.002912 0.000569 0.000000
0.003415 -0.004578 0.002181 0.000000
0.001609 -0.003172 0.002121 0.000000
0.002495 -0.002813 -0.000939 0.000000
0.003694 -0.003557 -0.000589 0.000000
0.002573 -0.004038 0.003717 0.000000
0.001843 -0.002270 -0.000877 0.000000
0.001770 -0.002425 0.000828 0.000000
0.000989 -0.002484 0.000052 0.000000
-0.000057 -0.000114 0.000003 0.000000
0.000762 -0.001483 -0.000991 0.000000
0.000620 -0.002051 -0.000199 0.000000
-0.000029 -0.000145 0.000010 0.000000
-0.000052 -0.000121 -0.000028 0.000000
-0.000045 -0.000127 0.000035 0.000000
-0.000010 -0.000163 0.000034 0.000000
-0.000021 -0.000153 0.000054 0.000000
-0.000018 -0.000181 0.000038 0.000000
-0.000045 -0.000139 0.000075 0.000000
-0.000031 -0.000143 0.000028 0.000000
-0.000052 -0.000182 0.000124 0.000000
-0.000025 -0.000173 0.000086 0.000000
-0.000024 -0.000187 0.000060 0.000000
-0.000011 -0.000173 0.000042 0.000000
-0.000019 -0.000182 0.000047 0.000000
-0.000011 -0.000194 0.000049 0.000000
-0.000014 -0.000195 0.000060 0.000000
-0.000009 -0.000193 0.000040 0.000000
-0.000009 -0.000194 0.000051 0.000000
-0.000008 -0.000188 0.000046 0.000000
-0.000005 -0.000183 0.000046 0.000000
-0.000007 -0.000188 0.000046 0.000000
-0.000001 -0.000182 0.000050 0.000000
-0.000004 -0.000186 0.000051 0.000000
-0.000008 -0.000183 0.000041 0.000000
-0.000008 -0.000181 0.000044 0.000000
-0.000003 -0.000181 0.000042 0.000000
-0.000001 -0.000183 0.000052 0.000000
-0.000015 -0.000185 0.000051 0.000000
-0.000007 -0.000188 0.000052 0.000000
0.000005 -0.000168 0.000066 0.000000
-0.000001 -0.000180 0.000050 0.000000
0.000001 -0.000180 0.000048 0.000000
-0.000001 -0.000174 0.000053 0.000000
-0.000001 -0.000165 0.000056 0.000000
0.000002 -0.000169 0.000062 0.000000
-0.000001 -0.000174 0.000054 0.000000
-0.000005 -0.000179 0.000048 0.000000
-0.000006 -0.000144 0.000065 0.000000
0.000003 -0.000168 0.000060 0.000000
0.000006 -0.000172 0.000063 0.000000
0.000003 -0.000176 0.000056 0.000000
0.000010 -0.000173 0.000065 0.000000
0.000002 -0.000174 0.000031 0.000000
0.000011 -0.000176 0.000049 0.000000
0.000006 -0.000177 0.000055 0.000000
0.000004 -0.000167 0.000067 0.000000
0.000007 -0.000173 0.000063 0.000000
0.000013 -0.000174 0.000063 0.000000
0.000011 -0.000167 0.000014 0.000000
0.000011 -0.000172 0.000045 0.000000
0.000007 -0.000174 0.000036 0.000000
-0.000002 -0.000176 0.000039 0.000000
0.000004 -0.000179 0.000044 0.000000
0.000008 -0.000176 0.000051 0.000000
0.000003 -0.000179 0.000045 0.000000
0.000010 -0.000157 -0.000021 0.000000
0.000024 -0.000157 -0.000048 0.000000
-0.000006 -0.000163 0.000009 0.000000
-0.000024 -0.000147 -0.000038 0.000000
0.000028 -0.000141 -0.000001 0.000000
0.000021 -0.000165 0.000014 0.000000
0.000010 -0.000158 -0.000032 0.000000
-0.000006 -0.000128 -0.000112 0.000000
0.000017 -0.000173 0.000059 0.000000
0.000018 -0.000169 0.000025 0.000000
0.000017 -0.000137 0.000010 0.000000
0.001552 -0.002742 0.001106 0.000000
0.000046 -0.000166 0.000018 0.000000
0.000003 -0.000145 0.000046 0.000000
0.002162 -0.002857 0.001737 0.000000
0.000004 -0.000144 0.000048 0.000000
0.000002 -0.000162 0.000074 0.000000
0.000015 -0.000165 0.000046 0.000000
0.002127 -0.003006 0.001528 0.000000
-0.000002 -0.000143 0.000061 0.000000
-0.000030 -0.000155 0.000018 0.000000
0.000002 -0.000160 0.000070 0.000000
0.000391 -0.001470 0.000402 0.000000
0.000823 -0.002045 0.000622 0.000000
0.002029 -0.002916 0.001537 0.000000
-0.000004 -0.000165 0.000040 0.000000
0.000506 -0.001203 0.000630 0.000000
0.002348 -0.003070 0.001642 0.000000
0.001981 -0.003098 0.001264 0.000000
0.002182 -0.003064 0.001936 0.000000
0.000228 -0.001251 -0.002172 0.000000
0.002164 -0.003039 0.001497 0.000000
0.000156 -0.000932 0.000081 0.000000
0.002115 -0.003068 0.001411 0.000000
0.001545 -0.002246 -0.000056 0.000000
0.000253 -0.001275 -0.000145 0.000000
-0.000016 -0.000134 -0.000022 0.000000
0.001309 -0.001990 0.001341 0.000000
0.000997 -0.002145 0.000822 0.000000
0.001009 -0.001511 0.000997 0.000000
0.002102 -0.002598 0.001909 0.000000
0.001144 -0.002242 0.000792 0.000000
0.002107 -0.003065 0.001878 0.000000
-0.000021 -0.000140 0.000053 0.000000
-0.000018 -0.000137 0.000053 0.000000
-0.000012 -0.000150 0.000084 0.000000
-0.000025 -0.000116 0.000030 0.000000
-0.000015 -0.000147 0.000057 0.000000
0.000400 -0.001292 0.000243 0.000000
0.000346 -0.000977 0.000090 0.000000
0.000163 -0.000917 0.000427 0.000000
0.000344 -0.001359 0.000005 0.000000
0.000406 -0.001163 0.000332 0.000000
0.000040 -0.000806 0.000417 0.000000
0.000115 -0.000967 0.000311 0.000000
0.000020 -0.000943 0.000237 0.000000
-0.000009 -0.000132 0.000032 0.000000
0.000119 -0.000892 0.000380 0.000000
0.000024 -0.000824 0.000389 0.000000
0.000039 -0.000833 0.000407 0.000000
-0.000013 -0.000130 0.000058 0.000000
-0.000001 -0.000131 0.000039 0.000000
-0.000001 -0.000142 0.000057 0.000000
-0.000005 -0.000131 0.000041 0.000000
-0.000012 -0.000146 0.000080 0.000000
-0.000009 -0.000135 0.000052 0.000000
-0.000003 -0.000156 0.000076 0.000000
-0.000005 -0.000136 0.000052 0.000000
0.000014 -0.000167 0.000072 0.000000
0.000012 -0.000171 0.000062 0.000000
0.000000 -0.000151 0.000076 0.000000
0.000007 -0.000166 0.000068 0.000000
0.000002 -0.000153 0.000069 0.000000
0.000006 -0.000160 0.000075 0.000000
-0.000003 -0.000143 0.000069 0.000000
0.000002 -0.000162 0.000068 0.000000
0.000002 -0.000160 0.000064 0.000000
-0.000002 -0.000153 0.000067 0.000000
-0.000000 -0.000152 0.000060 0.000000
0.000001 -0.000160 0.000063 0.000000
-0.000003 -0.000154 0.000052 0.000000
-0.000001 -0.000141 0.000052 0.000000
-0.000001 -0.000136 0.000051 0.000000
-0.000002 -0.000144 0.000059 0.000000
-0.000001 -0.000143 0.000055 0.000000
0.000059 -0.000819 0.000392 0.000000
0.000005 -0.000136 0.000034 0.000000
-0.000001 -0.000134 0.000048 0.000000
0.000000 -0.000143 0.000049 0.000000
0.000040 -0.000871 0.000521 0.000000
-0.000001 -0.000157 0.000054 0.000000
-0.000000 -0.000133 0.000043 0.000000
-0.000001 -0.000148 0.000048 0.000000
-0.000001 -0.000148 0.000052 0.000000
0.000004 -0.000138 0.000036 0.000000
0.000000 -0.000150 0.000051 0.000000
-0.000002 -0.000153 0.000049 0.000000
0.000001 -0.000148 0.000050 0.000000
0.000005 -0.000137 0.000038 0.000000
0.000002 -0.000143 0.000046 0.000000
0.000008 -0.000144 0.000045 0.000000
0.000007 -0.000144 0.000044 0.000000
0.000875 -0.001502 0.000938 0.000000
0.000003 -0.000135 0.000039 0.000000
0.000331 -0.001268 0.000967 0.000000
0.000007 -0.000138 0.000036 0.000000
-0.000000 -0.000141 0.000046 0.000000
0.000002 -0.000142 0.000043 0.000000
0.000004 -0.000130 0.000033 0.000000
0.000003 -0.000128 0.000034 0.000000
0.000002 -0.000142 0.000044 0.000000
0.000006 -0.000143 0.000042 0.000000
0.000004 -0.000128 0.000027 0.000000
0.000531 -0.001208 0.000730 0.000000
-0.000003 -0.000128 0.000034 0.000000
0.001210 -0.001814 0.000963 0.000000
0.000007 -0.000130 0.000020 0.000000
0.000257 -0.001134 0.000771 0.000000
0.000739 -0.001615 0.001186 0.000000
0.000499 -0.001183 0.000721 0.000000
0.000819 -0.001383 0.000834 0.000000
0.000056 -0.000979 0.000698 0.000000
0.001003 -0.001588 0.000786 0.000000
0.000755 -0.001368 0.000808 0.000000
0.000672 -0.001292 0.000813 0.000000
0.000295 -0.000941 0.000525 0.000000
0.000239 -0.001078 0.000878 0.000000
0.000397 -0.001089 0.000596 0.000000
0.000152 -0.000992 0.000697 0.000000
0.000497 -0.001040 0.000467 0.000000
0.000133 -0.000847 0.000422 0.000000
0.000431 -0.001203 0.000933 0.000000
-0.000001 -0.000124 0.000038 0.000000
0.000005 -0.000128 0.000033 0.000000
0.000205 -0.000914 0.000499 0.000000
0.000404 -0.001046 0.000708 0.000000
-0.000003 -0.000135 0.000052 0.000000
-0.000001 -0.000130 0.000043 0.000000
-0.000001 -0.000128 0.000042 0.000000
-0.000002 -0.000135 0.000050 0.000000
0.000027 -0.000806 0.000396 0.000000
0.002567 -0.003391 0.000387 0.000000
0.000001 -0.000128 0.000043 0.000000
0.000029 -0.000825 0.000421 0.000000
0.000316 -0.001139 0.000738 0.000000
0.000150 -0.000945 0.000538 0.000000
0.000375 -0.001004 0.000400 0.000000
0.000433 -0.001219 0.000526 0.000000
0.001574 -0.002662 -0.000211 0.000000
0.000822 -0.001357 0.000345 0.000000
0.002866 -0.003653 -0.000191 0.000000
0.000790 -0.001631 0.000151 0.000000
0.001182 -0.001768 0.001260 0.000000
0.001537 -0.001756 -0.000124 0.000000
0.001074 -0.001643 0.001070 0.000000
0.000748 -0.001432 0.000889 0.000000
0.000779 -0.001265 0.001537 0.000000
0.001122 -0.001639 0.001021 0.000000
0.000753 -0.001311 0.000803 0.000000
0.001107 -0.001618 0.000956 0.000000
0.000554 -0.001281 0.000903 0.000000
0.000613 -0.001328 0.000927 0.000000
0.000779 -0.001534 0.000898 0.000000
0.000907 -0.001467 0.000747 0.000000
0.000791 -0.001416 0.000741 0.000000
0.001475 -0.002036 0.001197 0.000000
0.001156 -0.001843 0.001074 0.000000
0.000792 -0.001455 0.000812 0.000000
0.001215 -0.001901 0.001086 0.000000
0.001164 -0.001772 0.000737 0.000000
0.001557 -0.002078 0.001256 0.000000
-0.000078 -0.000145 -0.000362 0.000000
0.001487 -0.002064 0.001387 0.000000
-0.000011 -0.000089 0.000040 0.000000
0.000703 -0.001369 0.000926 0.000000
0.001026 -0.001672 0.001082 0.000000
0.000066 -0.000440 0.000018 0.000000
0.001505 -0.002114 0.001624 0.000000
0.001158 -0.001696 0.000721 0.000000
0.001470 -0.002015 0.001612 0.000000
-0.000112 -0.000438 -0.000136 0.000000
0.002633 -0.003198 0.002638 0.000000
0.000065 -0.000595 0.000117 0.000000
0.000812 -0.001188 0.000682 0.000000
-0.000191 -0.000107 -0.000031 0.000000
0.000147 -0.000495 0.000014 0.000000
-0.000059 -0.000097 0.000163 0.000000
0.000297 -0.000452 0.000302 0.000000
-0.000000 -0.000058 0.000019 0.000000
0.000015 -0.000108 0.000028 0.000000
-0.000004 -0.000088 0.000014 0.000000
0.000012 -0.000090 0.000024 0.000000
-0.000060 -0.000255 0.000090 0.000000
0.000006 -0.000104 0.000005 0.000000
0.000218 -0.000831 0.000765 0.000000
0.000018 -0.000451 0.000292 0.000000
0.003774 -0.004103 0.002138 0.000000
0.000830 -0.001312 0.000291 0.000000
0.001928 -0.002423 0.000231 0.000000
0.000144 -0.000482 0.000208 0.000000
0.001905 -0.002395 0.001136 0.000000
0.001706 -0.002281 0.001858 0.000000
0.001833 -0.002278 0.001902 0.000000
0.000207 -0.000605 0.000313 0.000000
0.000043 -0.000216 0.000060 0.000000
0.002237 -0.002933 0.000509 0.000000
0.002217 -0.002628 0.002601 0.000000
0.002237 -0.002809 0.001939 0.000000
0.001377 -0.001370 0.001287 0.000000
0.000472 -0.001370 0.002581 0.000000
0.000039 -0.000168 -0.000116 0.000000
0.000407 -0.001287 0.001881 0.000000
0.003983 -0.004837 0.003314 0.000000
0.001503 -0.002546 0.000178 0.000000
0.000091 -0.000225 -0.000084 0.000000
0.000046 -0.000147 0.000030 0.000000
0.001689 -0.002350 0.003534 0.000000
0.001234 -0.001323 0.001987 0.000000
-0.000008 -0.000102 -0.000141 0.000000
0.000050 -0.000122 -0.000046 0.000000
0.000041 -0.000096 -0.000127 0.000000
0.002337 -0.002511 0.002453 0.000000
0.000028 -0.000181 -0.000048 0.000000
0.002445 -0.002934 -0.000553 0.000000
0.000027 -0.000141 -0.000045 0.000000
0.002583 -0.003247 0.000482 0.000000
0.002119 -0.002990 0.003060 0.000000
0.002491 -0.002974 0.002295 0.000000
0.003520 -0.003866 0.003218 0.000000
0.000016 -0.000127 0.000026 0.000000
0.002198 -0.002720 0.000435 0.000000
-0.000013 -0.000138 -0.000059 0.000000
0.000016 -0.000132 0.000027 0.000000
0.002532 -0.003325 0.000922 0.000000
0.000516 -0.001313 0.000447 0.000000
0.000633 -0.001274 0.000614 0.000000
0.000166 -0.001016 0.000361 0.000000
0.000565 -0.001329 0.000410 0.000000
0.001836 -0.002738 0.000584 0.000000
0.002343 -0.003238 0.001000 0.000000
0.002126 -0.002794 0.000724 0.000000
0.002540 -0.003278 0.001029 0.000000
-0.000004 -0.000132 -0.000039 0.000000
0.002552 -0.003356 0.000843 0.000000
0.002107 -0.002901 0.000631 0.000000
-0.000003 -0.000137 -0.000013 0.000000
0.001988 -0.002817 0.000548 0.000000
0.001999 -0.002722 0.000691 0.000000
-0.000044 -0.000161 -0.000132 0.000000
-0.000020 -0.000119 -0.000040 0.000000
-0.000013 -0.000123 -0.000012 0.000000
-0.000015 -0.000130 -0.000049 0.000000
0.001748 -0.002593 0.000444 0.000000
-0.000016 -0.000119 -0.000042 0.000000
0.001846 -0.002533 0.000674 0.000000
-0.000039 -0.000135 -0.000076 0.000000
-0.000024 -0.000120 -0.000016 0.000000
-0.000029 -0.000117 -0.000043 0.000000
-0.000033 -0.000118 -0.000022 0.000000
0.000539 -0.001535 -0.001597 0.000000
-0.000018 -0.000138 -0.000026 0.000000
-0.000017 -0.000114 -0.000029 0.000000
-0.000015 -0.000113 -0.000008 0.000000
-0.000003 -0.000122 -0.000022 0.000000
0.000031 -0.000146 -0.000005 0.000000
-0.000030 -0.000116 -0.000043 0.000000
0.000001 -0.000113 -0.000013 0.000000
-0.000002 -0.000112 -0.000008 0.000000
0.000011 -0.000111 -0.000007 0.000000
-0.000002 -0.000107 -0.000005 0.000000
0.000012 -0.000123 -0.000007 0.000000
0.000046 -0.000106 0.000012 0.000000
0.000027 -0.000119 -0.000090 0.000000
0.000007 -0.000120 -0.000036 0.000000
0.003385 -0.004210 0.002739 0.000000
0.003626 -0.004151 0.001876 0.000000
0.000018 -0.000116 -0.000017 0.000000
0.000040 -0.000174 -0.000096 0.000000
0.000016 -0.000104 0.000004 0.000000
0.000013 -0.000115 -0.000010 0.000000
0.000021 -0.000122 -0.000051 0.000000
0.000024 -0.000104 -0.000036 0.000000
0.000030 -0.000117 -0.000006 0.000000
0.000025 -0.000118 -0.000030 0.000000
0.000059 -0.000135 0.000062 0.000000
0.004744 -0.004870 -0.000843 0.000000
0.003870 -0.005119 0.001178 0.000000
0.003846 -0.004170 0.002344 0.000000
0.000072 -0.000193 0.000107 0.000000
0.001425 -0.000512 -0.001315 0.000000
0.000061 -0.000102 0.000033 0.000000
0.000031 -0.000095 0.000039 0.000000
0.000099 -0.000152 0.000013 0.000000
0.000064 -0.000130 0.000039 0.000000
0.000074 -0.000130 0.000032 0.000000
0.000050 -0.000115 0.000014 0.000000
0.002813 -0.004156 0.001677 0.000000
0.000032 -0.000000 -0.000228 0.000000
0.003118 -0.004160 0.002337 0.000000
0.000070 -0.000138 0.000021 0.000000
0.000021 -0.000070 -0.000031 0.000000
0.004083 -0.004233 0.002836 0.000000
0.000033 -0.000087 -0.000036 0.000000
0.000084 -0.000142 0.000006 0.000000
0.000099 -0.000108 0.000035 0.000000
0.000124 -0.000164 0.000069 0.000000
0.000580 -0.001699 0.003564 0.000000
0.000334 -0.000243 -0.000113 0.000000
0.000038 -0.000117 -0.000020 0.000000
0.000054 -0.000141 -0.000023 0.000000
0.000020 -0.000075 0.000017 0.000000
0.000051 -0.000117 0.000034 0.000000
0.000045 -0.000126 -0.000012 0.000000
0.000060 -0.000149 -0.000031 0.000000
0.000019 -0.000076 0.000036 0.000000
0.000017 -0.000073 0.000056 0.000000
0.000040 -0.000090 -0.000007 0.000000
0.000036 -0.000102 0.000014 0.000000
0.000031 -0.000086 0.000038 0.000000
0.000007 -0.000065 0.000036 0.000000
0.000035 -0.000091 0.000023 0.000000
0.000012 -0.000063 0.000027 0.000000
0.000022 -0.000076 0.000022 0.000000
0.000023 -0.000071 0.000009 0.000000
0.000017 -0.000071 0.000009 0.000000
0.000010 -0.000049 0.000017 0.000000
0.000009 -0.000051 0.000018 0.000000
0.000007 -0.000052 -0.000034 0.000000
0.000012 -0.000056 0.000016 0.000000
0.000008 -0.000050 0.000020 0.000000
0.000017 -0.000074 0.000039 0.000000
0.000008 -0.000059 0.000031 0.000000
0.000012 -0.000055 0.000022 0.000000
0.000001 -0.000033 0.000010 0.000000
0.000004 -0.000065 0.000048 0.000000
0.000021 -0.000078 0.000050 0.000000
0.000028 -0.000090 0.000049 0.000000
0.000022 -0.000074 0.000038 0.000000
0.000026 -0.000093 0.000054 0.000000
0.000108 -0.000140 0.000018 0.000000
0.000045 -0.000108 0.000046 0.000000
0.000024 -0.000090 0.000048 0.000000
0.000445 -0.001064 0.001040 0.000000
0.000025 -0.000091 0.000076 0.000000
0.000037 -0.000108 0.000075 0.000000
0.000037 -0.000109 0.000064 0.000000
0.000024 -0.000078 0.000810 0.000000
0.000035 -0.000120 0.000085 0.000000
-0.000095 -0.000130 0.000408 0.000000
0.000015 -0.000060 0.000083 0.000000
0.000008 -0.000075 0.000020 0.000000
-0.000000 -0.000072 0.000053 0.000000
-0.000042 -0.000165 0.000413 0.000000
0.000008 -0.000076 0.000034 0.000000
-0.000040 -0.000156 0.000424 0.000000
0.000003 -0.000059 0.000030 0.000000
0.000004 -0.000059 0.000031 0.000000
0.000033 -0.000209 0.000051 0.000000
-0.000002 -0.000050 0.000033 0.000000
0.000014 -0.000063 0.000039 0.000000
-0.000006 -0.000039 0.000020 0.000000
0.000005 -0.000042 0.000016 0.000000
0.000004 -0.000042 0.000014 0.000000
0.000021 -0.000060 -0.000052 0.000000
0.000118 -0.000363 0.000194 0.000000
-0.000041 -0.000132 0.000080 0.000000
0.000053 -0.000201 -0.000031 0.000000
0.000089 -0.000223 0.000112 0.000000
0.000034 -0.000122 0.000045 0.000000
0.000120 -0.000219 0.000146 0.000000
0.000036 -0.000092 0.000001 0.000000
0.000046 -0.000122 0.000005 0.000000
0.000040 -0.000035 -0.000036 0.000000
0.000040 -0.000066 -0.000030 0.000000
0.000033 -0.000029 -0.000026 0.000000
0.000024 -0.000022 -0.000012 0.000000
0.000031 -0.000028 -0.000017 0.000000
0.000055 -0.000082 0.000034 0.000000
0.000061 -0.000139 0.000057 0.000000
0.000059 -0.000135 -0.000013 0.000000
0.000038 -0.000067 0.000005 0.000000
-0.000002 -0.000094 0.000004 0.000000
0.000035 -0.000033 -0.000016 0.000000
0.000013 -0.000150 0.000034 0.000000
-0.000001 -0.000054 -0.000005 0.000000
0.000024 -0.000118 -0.000036 0.000000
0.000006 -0.000089 -0.000027 0.000000
0.000020 -0.000062 -0.000012 0.000000
0.000036 -0.000031 -0.000029 0.000000
0.000041 -0.000077 -0.000044 0.000000
0.000048 -0.000034 -0.000050 0.000000
0.000046 -0.000031 -0.000073 0.000000
0.000003 -0.000015 -0.000022 0.000000
0.000013 -0.000173 0.000058 0.000000
0.000007 -0.000133 0.000032 0.000000
0.000013 -0.000015 -0.000039 0.000000
0.000001 -0.000092 0.000007 0.000000
-0.000006 -0.000012 -0.000013 0.000000
0.000005 -0.000147 0.000048 0.000000
0.000003 -0.000050 0.000029 0.000000
0.000001 -0.000113 0.000024 0.000000
0.000001 -0.000036 0.000015 0.000000
0.000019 -0.000182 0.000036 0.000000
-0.000004 -0.000038 0.000017 0.000000
-0.000005 -0.000093 0.000001 0.000000
-0.000000 -0.000120 0.000006 0.000000
0.000007 -0.000062 0.000039 0.000000
0.000003 -0.000048 0.000026 0.000000
0.000006 -0.000045 0.000020 0.000000
0.000003 -0.000048 0.000027 0.000000
0.000003 -0.000045 0.000020 0.000000
-0.000000 -0.000036 0.000014 0.000000
0.000001 -0.000034 0.000011 0.000000
0.000011 -0.000134 0.000029 0.000000
0.000004 -0.000042 0.000016 0.000000
0.000001 -0.000033 0.000012 0.000000
0.000006 -0.000041 0.000016 0.000000
0.000009 -0.000049 0.000020 0.000000
0.000014 -0.000108 -0.000007 0.000000
0.000004 -0.000032 0.000010 0.000000
-0.000011 -0.000074 -0.000000 0.000000
0.000021 -0.000169 0.000227 0.000000
0.000005 -0.000030 0.000012 0.000000
0.000011 -0.000060 0.000016 0.000000
0.000013 -0.000120 0.000003 0.000000
0.000003 -0.000032 0.000011 0.000000
0.000010 -0.000115 0.000005 0.000000
-0.000098 0.000087 0.000195 0.000000
0.000001 -0.000032 0.000012 0.000000
0.000009 -0.000120 0.000005 0.000000
0.000002 -0.000032 0.000010 0.000000
-0.000006 -0.000075 -0.000008 0.000000
-0.000005 -0.000078 -0.000002 0.000000
-0.000006 -0.000083 0.000006 0.000000
-0.000017 -0.000038 -0.000006 0.000000
0.000009 -0.000127 0.000014 0.000000
-0.000004 -0.000084 0.000001 0.000000
-0.000015 -0.000008 0.000001 0.000000
-0.000008 -0.000078 -0.000003 0.000000
-0.000013 -0.000041 -0.000008 0.000000
-0.000013 -0.000041 -0.000009 0.000000
-0.000024 -0.000036 0.000001 0.000000
-0.000021 -0.000007 0.000009 0.000000
-0.000032 -0.000032 0.000016 0.000000
-0.000044 -0.000001 0.000035 0.000000
-0.000025 -0.000031 0.000005 0.000000
-0.000021 -0.000035 -0.000004 0.000000
-0.000037 0.000002 0.000023 0.000000
-0.000014 -0.000067 0.000014 0.000000
0.000006 -0.000103 0.000015 0.000000
-0.000050 0.000021 0.000034 0.000000
-0.000017 -0.000047 0.000064 0.000000
0.000012 -0.000042 0.000010 0.000000
-0.000151 0.000057 0.000298 0.000000
-0.000028 -0.000031 0.000045 0.000000
-0.000039 -0.000001 0.000276 0.000000
-0.000158 0.000126 0.000747 0.000000
-0.000282 0.000171 0.000933 0.000000
-0.000018 -0.000093 0.000304 0.000000
0.000294 -0.000397 0.001175 0.000000
-0.000354 0.000292 0.003215 0.000000
0.000209 -0.000226 0.001125 0.000000
0.000015 -0.000032 0.000989 0.000000
0.000105 -0.000261 0.000947 0.000000
0.000081 -0.000128 0.000968 0.000000
-0.000009 -0.000058 0.000000 0.000000
0.000011 -0.000032 0.000002 0.000000
0.000009 -0.000028 0.000391 0.000000
0.000012 -0.000075 -0.000014 0.000000
0.000091 0.000074 0.000835 0.000000
-0.000000 -0.000045 0.000117 0.000000
0.000081 -0.000387 0.000702 0.000000
0.000059 -0.000248 0.000477 0.000000
0.000287 -0.000447 0.000926 0.000000
0.000250 -0.000228 0.003377 0.000000
0.000309 -0.000287 0.001131 0.000000
0.000803 -0.000914 0.003220 0.000000
0.000245 -0.000330 0.001067 0.000000
0.000511 -0.000570 0.003093 0.000000
0.000621 -0.001071 0.002272 0.000000
0.000516 -0.000516 0.000847 0.000000
0.001077 -0.001022 0.003720 0.000000
0.000506 -0.000720 0.001447 0.000000
0.000001 -0.000576 0.002240 0.000000
0.001401 -0.001627 0.002907 0.000000
0.000696 -0.000823 0.003269 0.000000
0.000381 -0.000461 0.000509 0.000000
0.000110 0.000171 0.001555 0.000000
0.000007 -0.000058 0.000015 0.000000
0.001580 -0.001811 0.002740 0.000000
0.001855 -0.002413 0.002645 0.000000
0.000107 -0.000617 0.001379 0.000000
0.000007 -0.000028 0.000006 0.000000
0.000692 -0.000567 0.001806 0.000000
0.000582 -0.000878 0.001325 0.000000
0.000010 -0.000040 0.000018 0.000000
0.000008 -0.000041 0.000018 0.000000
0.000006 -0.000040 0.000024 0.000000
0.000006 -0.000045 0.000022 0.000000
0.000012 -0.000060 0.000020 0.000000
0.000008 -0.000047 0.000020 0.000000
0.000009 -0.000055 0.000021 0.000000
0.000006 -0.000040 0.000020 0.000000
0.000006 -0.000052 0.000021 0.000000
0.000008 -0.000047 0.000022 0.000000
0.000009 -0.000052 0.000019 0.000000
0.000004 -0.000052 0.000020 0.000000
0.000006 -0.000045 0.000024 0.000000
0.000008 -0.000052 0.000019 0.000000
0.000009 -0.000060 0.000017 0.000000
0.000013 -0.000066 0.000007 0.000000
0.000008 -0.000058 0.000018 0.000000
0.000012 -0.000069 0.000017 0.000000
0.000014 -0.000061 0.000010 0.000000
0.000014 -0.000072 0.000011 0.000000
0.000012 -0.000054 0.000001 0.000000
0.000028 -0.000091 0.000022 0.000000
0.000025 -0.000080 0.000003 0.000000
0.000020 -0.000068 0.000001 0.000000
0.000026 -0.000073 0.000012 0.000000
0.000015 -0.000070 0.000014 0.000000
0.000019 -0.000069 -0.000011 0.000000
0.000033 -0.000070 -0.000038 0.000000
0.000032 -0.000073 -0.000019 0.000000
0.000035 -0.000079 -0.000011 0.000000
0.000020 -0.000077 0.000019 0.000000
0.000022 -0.000071 -0.000030 0.000000
0.000027 -0.000101 0.000049 0.000000
0.000028 -0.000083 0.000035 0.000000
0.000046 -0.000084 -0.000018 0.000000
0.000026 -0.000095 0.000019 0.000000
0.000787 -0.000831 0.000859 0.000000
0.002160 -0.002094 0.003388 0.000000
0.000975 -0.001586 0.000908 0.000000
0.001979 -0.001979 0.003421 0.000000
-0.000052 0.000291 0.002302 0.000000
0.000012 -0.000061 0.000014 0.000000
0.000811 -0.001219 0.001933 0.000000
0.001274 -0.001557 0.002386 0.000000
0.000464 -0.001001 0.001669 0.000000
0.001423 -0.001674 0.001950 0.000000
0.000057 -0.000181 0.000042 0.000000
0.000986 -0.001102 0.002292 0.000000
0.000337 -0.000141 0.001366 0.000000
0.001212 -0.001018 0.001661 0.000000
0.000015 -0.000084 0.000041 0.000000
0.000539 -0.000196 0.002247 0.000000
0.000027 -0.000132 0.000040 0.000000
0.000027 -0.000077 0.000072 0.000000
-0.000018 -0.000080 0.000031 0.000000
-0.000013 -0.000086 0.000027 0.000000
-0.000013 -0.000082 0.000040 0.000000
-0.000009 -0.000062 0.000027 0.000000
-0.000017 -0.000086 0.000010 0.000000
-0.000016 -0.000077 0.000026 0.000000
-0.000017 -0.000074 0.000040 0.000000
0.000001 -0.000090 0.000024 0.000000
-0.000010 -0.000069 0.000033 0.000000
-0.000011 -0.000065 0.000037 0.000000
-0.000013 -0.000067 0.000033 0.000000
-0.000015 -0.000073 0.000044 0.000000
-0.000014 -0.000074 0.000039 0.000000
-0.000014 -0.000080 0.000041 0.000000
-0.000012 -0.000076 0.000032 0.000000
-0.000014 -0.000071 0.000042 0.000000
-0.000016 -0.000069 0.000036 0.000000
-0.000017 -0.000077 0.000042 0.000000
-0.000024 -0.000073 0.000043 0.000000
-0.000022 -0.000076 0.000037 0.000000
-0.000020 -0.000069 0.000033 0.000000
-0.000016 -0.000063 0.000040 0.000000
-0.000030 -0.000079 0.000038 0.000000
-0.000023 -0.000068 0.000035 0.000000
-0.000013 -0.000048 0.000033 0.000000
-0.000012 -0.000063 0.000040 0.000000
-0.000011 -0.000048 0.000031 0.000000
-0.000009 -0.000052 0.000028 0.000000
-0.000014 -0.000066 0.000036 0.000000
-0.000014 -0.000070 0.000039 0.000000
-0.000011 -0.000063 0.000033 0.000000
-0.000013 -0.000067 0.000042 0.000000
-0.000011 -0.000063 0.000033 0.000000
-0.000015 -0.000071 0.000045 0.000000
-0.000007 -0.000059 0.000031 0.000000
-0.000010 -0.000062 0.000036 0.000000
-0.000013 -0.000056 0.000035 0.000000
-0.000007 -0.000043 0.000029 0.000000
-0.000008 -0.000059 0.000034 0.000000
-0.000009 -0.000042 0.000027 0.000000
-0.000004 -0.000044 0.000021 0.000000
-0.000001 -0.000046 0.000023 0.000000
-0.000008 -0.000049 0.000026 0.000000
-0.000006 -0.000033 0.000020 0.000000
-0.000004 -0.000035 0.000025 0.000000
-0.000003 -0.000080 -0.000016 0.000000
-0.000003 -0.000054 0.000025 0.000000
-0.000005 -0.000055 0.000032 0.000000
-0.000003 -0.000053 0.000022 0.000000
-0.000006 -0.000052 0.000029 0.000000
-0.000007 -0.000065 0.000030 0.000000
0.000010 -0.000097 -0.000030 0.000000
0.000004 -0.000051 0.000009 0.000000
0.000002 -0.000050 0.000021 0.000000
0.000000 -0.000054 0.000024 0.000000
-0.000006 -0.000056 0.000020 0.000000
0.000001 -0.000053 0.000015 0.000000
-0.000002 -0.000057 0.000020 0.000000
-0.000006 -0.000076 0.000027 0.000000
-0.000008 -0.000056 0.000023 0.000000
-0.000013 -0.000069 0.000032 0.000000
-0.000011 -0.000062 0.000032 0.000000
0.000001 -0.000062 0.000041 0.000000
0.000005 -0.000084 0.000035 0.000000
-0.000003 -0.000071 0.000026 0.000000
-0.000003 -0.000049 0.000018 0.000000
-0.000005 -0.000059 0.000028 0.000000
-0.000006 -0.000065 0.000026 0.000000
0.000009 -0.000074 0.000031 0.000000
0.000005 -0.000046 0.000007 0.000000
0.000052 -0.000055 0.000065 0.000000
0.000193 -0.000754 0.000025 0.000000
0.000023 -0.000061 0.000013 0.000000
0.000016 -0.000048 0.000024 0.000000
0.000028 -0.000040 0.000052 0.000000
0.000006 -0.000050 0.000015 0.000000
0.000131 -0.000189 0.000579 0.000000
0.000009 -0.000047 0.000008 0.000000
-0.000002 -0.000082 0.000003 0.000000
0.000008 -0.000037 0.000030 0.000000
0.000174 -0.000460 0.000333 0.000000
0.000416 -0.000781 0.000510 0.000000
0.000135 -0.000242 0.000332 0.000000
0.000014 -0.000045 0.000027 0.000000
0.000519 -0.000834 0.000977 0.000000
0.000163 -0.000110 -0.000137 0.000000
0.000091 -0.000204 0.000177 0.000000
0.000195 -0.000302 0.000532 0.000000
0.000116 -0.000109 0.000191 0.000000
0.000268 -0.000530 0.000609 0.000000
0.000068 -0.000274 0.000293 0.000000
-0.000007 -0.000071 0.000079 0.000000
0.000018 -0.000086 0.000001 0.000000
0.000150 -0.000081 -0.000185 0.000000
0.000242 -0.000283 0.000551 0.000000
0.000048 -0.000165 0.000277 0.000000
-0.000010 -0.000087 0.000254 0.000000
0.000020 -0.000040 0.000046 0.000000
0.000003 -0.000161 0.000170 0.000000
-0.000014 -0.000156 0.000172 0.000000
0.000019 -0.000051 0.000081 0.000000
0.000005 -0.000088 0.000021 0.000000
-0.000003 -0.000050 -0.000010 0.000000
-0.000037 -0.000030 -0.000001 0.000000
-0.000054 -0.000077 0.000127 0.000000
-0.000034 -0.000007 -0.000039 0.000000
0.000062 -0.000034 -0.000117 0.000000
0.000014 -0.000007 -0.000061 0.000000
-0.000029 -0.000002 -0.000012 0.000000
-0.000005 -0.000045 0.000010 0.000000
-0.000008 -0.000002 -0.000014 0.000000
-0.000021 -0.000008 0.000021 0.000000
-0.000021 -0.000007 0.000008 0.000000
0.000015 -0.000091 -0.000017 0.000000
-0.000010 -0.000046 0.000018 0.000000
0.000013 -0.000093 -0.000014 0.000000
-0.000009 -0.000045 0.000011 0.000000
0.000010 -0.000051 0.000051 0.000000
0.000002 -0.000078 0.000027 0.000000
0.000008 -0.000047 0.000027 0.000000
0.000012 -0.000083 -0.000003 0.000000
0.000015 -0.000047 0.000022 0.000000
0.000003 -0.000050 0.000019 0.000000
-0.000001 -0.000039 0.000023 0.000000
0.000009 -0.000047 0.000024 0.000000
0.000013 -0.000053 0.000043 0.000000
0.000005 -0.000120 0.000000 0.000000
0.000001 -0.000050 0.000038 0.000000
0.000002 -0.000039 0.000030 0.000000
0.000010 -0.000125 -0.000012 0.000000
-0.000004 -0.000048 0.000006 0.000000
0.000001 -0.000034 0.000004 0.000000
-0.000000 -0.000035 0.000013 0.000000
-0.000010 -0.000045 0.000030 0.000000
-0.000002 -0.000043 0.000019 0.000000
-0.000015 -0.000074 0.000067 0.000000
0.000005 -0.000113 -0.000023 0.000000
-0.000072 -0.000088 0.000119 0.000000
-0.000055 -0.000188 0.000326 0.000000
-0.000010 -0.000146 0.000202 0.000000
-0.000179 0.000092 0.000341 0.000000
0.000025 -0.000288 0.000688 0.000000
-0.000061 -0.000028 0.000632 0.000000
-0.000005 -0.000039 0.000015 0.000000
0.000007 -0.000124 -0.000017 0.000000
-0.000045 -0.000038 0.000042 0.000000
0.000006 -0.000106 0.000016 0.000000
0.000007 -0.000085 -0.000004 0.000000
-0.000039 -0.000004 0.000059 0.000000
0.000007 -0.000123 -0.000012 0.000000
-0.000008 -0.000084 -0.000006 0.000000
-0.000019 -0.000007 0.000018 0.000000
-0.000010 -0.000046 0.000005 0.000000
-0.000034 -0.000042 0.000024 0.000000
-0.000035 0.000009 0.000044 0.000000
-0.000015 -0.000076 0.000005 0.000000
-0.000084 0.000022 0.000134 0.000000
-0.000023 -0.000040 0.000007 0.000000
-0.000011 -0.000077 -0.000000 0.000000
-0.000032 -0.000024 0.000026 0.000000
-0.000126 0.000125 0.000248 0.000000
-0.000002 -0.000045 0.000298 0.000000
-0.000099 0.000013 0.000247 0.000000
0.000009 -0.000139 0.000368 0.000000
-0.000136 0.000064 0.000654 0.000000
0.000209 -0.000201 0.001988 0.000000
0.000374 -0.000581 0.002075 0.000000
-0.000509 0.000376 0.001578 0.000000
-0.000230 0.000202 0.002308 0.000000
-0.000107 0.000079 0.001631 0.000000
-0.000528 0.000426 0.002531 0.000000
-0.000252 0.000190 0.002175 0.000000
0.000050 -0.000040 0.003109 0.000000
0.000496 -0.000468 0.000428 0.000000
0.000128 -0.000231 0.003125 0.000000
0.000563 -0.000718 0.001190 0.000000
0.000505 -0.000410 -0.000602 0.000000
0.000052 -0.000091 0.000812 0.000000
0.000064 -0.000123 0.000491 0.000000
0.000465 -0.000684 0.003313 0.000000
0.000431 -0.000456 0.002597 0.000000
0.000577 -0.000724 0.003259 0.000000
0.000339 -0.000737 0.003215 0.000000
0.000538 -0.000607 0.004395 0.000000
0.000447 -0.000601 0.002685 0.000000
0.000147 -0.000316 0.000158 0.000000
-0.000062 -0.000007 -0.000048 0.000000
0.000236 -0.000126 -0.000452 0.000000
0.000025 -0.000012 -0.000113 0.000000
-0.000078 0.000031 0.000099 0.000000
-0.000098 0.000034 0.000126 0.000000
-0.000076 0.000020 0.000002 0.000000
-0.000121 0.000026 0.000368 0.000000
-0.000149 0.000073 0.000451 0.000000
-0.000109 0.000007 0.000102 0.000000
0.000148 -0.000345 0.000435 0.000000
-0.000090 -0.000023 0.000066 0.000000
-0.000067 -0.000023 -0.000004 0.000000
-0.000078 0.000011 0.000063 0.000000
-0.000067 -0.000082 0.000046 0.000000
-0.000035 -0.000058 -0.000032 0.000000
-0.000040 0.000019 -0.000019 0.000000
0.000609 -0.000577 0.003715 0.000000
0.000488 -0.000777 0.002594 0.000000
0.000296 -0.000244 0.001334 0.000000
0.000281 -0.000273 0.001100 0.000000
-0.000071 -0.000105 0.000344 0.000000
-0.000030 -0.000083 0.000210 0.000000
0.000016 -0.000095 0.000721 0.000000
-0.000121 -0.000141 0.000450 0.000000
-0.000013 -0.000054 0.000029 0.000000
-0.000014 -0.000054 0.000033 0.000000
-0.000017 -0.000059 0.000030 0.000000
-0.000016 -0.000048 0.000039 0.000000
0.000461 -0.000781 0.004647 0.000000
0.000714 -0.000863 0.003763 0.000000
0.000012 -0.000277 0.000257 0.000000
0.001043 -0.001183 0.004934 0.000000
-0.000034 -0.000122 0.000252 0.000000
0.000255 -0.000704 0.000788 0.000000
-0.000172 -0.000298 0.000973 0.000000
-0.000101 -0.000276 0.001502 0.000000
0.000008 -0.000305 0.002523 0.000000
-0.000189 -0.000093 0.000446 0.000000
-0.000022 -0.000058 0.000027 0.000000
-0.000017 -0.000052 0.000036 0.000000
-0.000019 -0.000051 0.000032 0.000000
-0.000177 -0.000102 0.000333 0.000000
-0.000022 -0.000045 0.000040 0.000000
-0.000019 -0.000060 0.000038 0.000000
-0.000199 -0.000229 0.000402 0.000000
-0.000182 -0.000171 0.000344 0.000000
-0.000173 -0.000175 0.000351 0.000000
0.000260 -0.000663 0.005602 0.000000
-0.000126 -0.000070 0.001486 0.000000
-0.000255 -0.000303 0.000466 0.000000
0.000010 -0.000209 0.002489 0.000000
-0.000260 0.000079 0.001625 0.000000
0.000074 -0.000334 0.000748 0.000000
0.000562 -0.000909 0.004252 0.000000
0.000108 -0.000521 0.000728 0.000000
-0.000004 -0.000049 0.000087 0.000000
0.000356 -0.000550 0.004548 0.000000
0.000297 -0.000563 0.004541 0.000000
0.000830 -0.001028 0.005295 0.000000
0.000194 -0.000478 0.000864 0.000000
-0.000062 -0.000144 0.000261 0.000000
-0.000084 -0.000131 0.000169 0.000000
-0.000078 0.000014 0.000153 0.000000
-0.000090 -0.000003 0.000169 0.000000
-0.000011 -0.000157 0.000242 0.000000
-0.000020 -0.000288 0.000391 0.000000
-0.000048 -0.000100 0.000204 0.000000
-0.000105 -0.000022 0.000116 0.000000
-0.000104 -0.000014 0.000196 0.000000
-0.000147 0.000047 0.000754 0.000000
0.000057 -0.000315 0.000514 0.000000
-0.000081 -0.000066 0.000295 0.000000
-0.000184 -0.000075 0.001047 0.000000
-0.000135 -0.000004 0.000542 0.000000
-0.000015 -0.000045 0.000082 0.000000
-0.000021 -0.000043 0.000083 0.000000
0.000152 -0.000324 0.000497 0.000000
-0.000024 -0.000038 0.000054 0.000000
-0.000020 -0.000036 0.000074 0.000000
-0.000023 -0.000050 0.000078 0.000000
0.000003 -0.000239 0.000447 0.000000
-0.000022 -0.000039 0.000062 0.000000
-0.000011 -0.000169 0.000363 0.000000
-0.000142 -0.000111 0.000089 0.000000
-0.000130 -0.000138 0.000352 0.000000
-0.000091 -0.000021 0.001152 0.000000
-0.000138 -0.000026 0.000005 0.000000
-0.000204 -0.000077 0.000351 0.000000
-0.000160 -0.000071 0.000285 0.000000
-0.000032 -0.000013 0.000086 0.000000
-0.000023 -0.000058 0.000075 0.000000
-0.000022 -0.000059 0.000067 0.000000
-0.000023 -0.000050 0.000062 0.000000
-0.000021 -0.000067 0.000092 0.000000
-0.002045 0.002092 0.003800 0.000000
-0.000029 -0.000072 0.000108 0.000000
-0.000032 -0.000055 0.000083 0.000000
-0.000028 -0.000072 0.000106 0.000000
0.000980 -0.001689 0.005968 0.000000
-0.000023 -0.000060 0.000093 0.000000
-0.000031 -0.000057 0.000101 0.000000
-0.000048 -0.000057 0.000124 0.000000
-0.000022 -0.000062 0.000080 0.000000
-0.000027 -0.000045 0.000070 0.000000
-0.000224 -0.000154 0.000599 0.000000
0.000194 -0.000658 0.002781 0.000000
-0.000019 -0.000058 0.000108 0.000000
-0.000043 -0.000015 0.000122 0.000000
0.000018 -0.000585 0.002468 0.000000
-0.000372 0.000082 0.005069 0.000000
-0.000462 -0.000248 0.005431 0.000000
-0.000243 -0.000535 0.007471 0.000000
-0.000033 -0.000612 0.001414 0.000000
0.000099 -0.000578 0.001214 0.000000
-0.000163 -0.000507 0.002467 0.000000
0.000016 -0.000493 0.001698 0.000000
-0.000307 -0.000342 0.002121 0.000000
-0.000192 -0.000375 0.001169 0.000000
-0.000241 -0.000389 0.001165 0.000000
-0.000183 -0.000243 0.002354 0.000000
-0.000628 -0.000192 0.004311 0.000000
-0.000181 -0.000039 0.001049 0.000000
-0.000132 -0.000191 0.003046 0.000000
-0.000429 0.000234 0.002695 0.000000
0.000533 -0.000794 0.005003 0.000000
0.000350 -0.000940 0.005475 0.000000
0.000777 -0.001042 0.006030 0.000000
-0.000013 -0.000052 0.000119 0.000000
0.000351 -0.000908 0.005460 0.000000
0.000208 -0.000586 0.004234 0.000000
0.001039 -0.001558 0.005161 0.000000
0.000680 -0.001283 0.005719 0.000000
-0.000414 -0.000275 0.002719 0.000000
-0.000193 -0.000171 0.000393 0.000000
0.000054 -0.000555 0.004154 0.000000
-0.000301 -0.000337 0.001891 0.000000
0.000223 -0.000695 0.004173 0.000000
-0.000136 -0.000391 0.003107 0.000000
-0.000024 -0.000062 0.000035 0.000000
-0.000225 -0.000261 0.000627 0.000000
-0.000219 -0.000270 0.000415 0.000000
-0.000254 -0.000336 0.000508 0.000000
-0.000246 -0.000267 0.000327 0.000000
-0.000190 -0.000166 0.000350 0.000000
-0.000251 -0.000222 0.000327 0.000000
-0.000225 -0.000196 0.000335 0.000000
-0.000031 -0.000072 0.000026 0.000000
-0.000026 -0.000084 0.000032 0.000000
-0.000222 -0.000202 0.000411 0.000000
-0.000043 -0.000071 0.000028 0.000000
-0.000020 -0.000077 0.000046 0.000000
-0.000023 -0.000077 0.000040 0.000000
-0.000027 -0.000062 0.000035 0.000000
-0.000028 -0.000071 0.000028 0.000000
-0.000016 -0.000082 0.000041 0.000000
-0.000020 -0.000090 0.000042 0.000000
-0.000018 -0.000077 0.000044 0.000000
-0.000022 -0.000089 0.000033 0.000000
0.001428 -0.002083 0.001308 0.000000
-0.000019 -0.000087 0.000038 0.000000
-0.000014 -0.000091 0.000032 0.000000
0.001397 -0.002034 0.001322 0.000000
0.001441 -0.002038 0.001257 0.000000
0.001288 -0.001851 0.000950 0.000000
-0.000014 -0.000086 0.000030 0.000000
0.001419 -0.001968 0.001245 0.000000
0.001401 -0.001984 0.001210 0.000000
0.000945 -0.001828 0.001299 0.000000
-0.000022 -0.000082 0.000041 0.000000
-0.000020 -0.000082 0.000042 0.000000
-0.000025 -0.000088 0.000032 0.000000
-0.000022 -0.000083 0.000029 0.000000
0.001271 -0.001827 0.001024 0.000000
-0.000026 -0.000085 0.000041 0.000000
-0.000058 -0.000482 0.000133 0.000000
-0.000033 -0.000097 0.000062 0.000000
0.001054 -0.001796 0.000981 0.000000
0.001267 -0.001903 0.001052 0.000000
0.001223 -0.001979 0.001205 0.000000
0.001301 -0.001944 0.000987 0.000000
0.001059 -0.001708 0.001063 0.000000
0.001110 -0.001718 0.000833 0.000000
0.001211 -0.001850 0.001137 0.000000
0.001299 -0.001960 0.001085 0.000000
0.001530 -0.002147 0.000938 0.000000
0.001243 -0.001946 0.001167 0.000000
0.001166 -0.001816 0.001254 0.000000
0.001267 -0.001979 0.000964 0.000000
0.001329 -0.002200 0.001631 0.000000
0.001567 -0.002392 0.001425 0.000000
0.001329 -0.002025 0.001005 0.000000
0.001577 -0.002214 0.001639 0.000000
-0.000181 -0.000440 0.000290 0.000000
0.001031 -0.001409 0.000584 0.000000
-0.000034 -0.000087 0.000007 0.000000
-0.000018 -0.000095 0.000039 0.000000
-0.000129 -0.000485 0.000202 0.000000
-0.000210 -0.000356 0.000245 0.000000
-0.000223 -0.000231 0.000329 0.000000
-0.000249 -0.000284 0.000348 0.000000
-0.000253 -0.000255 0.000394 0.000000
-0.000253 -0.000251 0.000387 0.000000
-0.000189 -0.000403 0.000341 0.000000
-0.000095 -0.000399 0.000292 0.000000
-0.000246 -0.000259 0.001164 0.000000
-0.000194 -0.000316 0.000506 0.000000
-0.000140 -0.000488 0.000745 0.000000
-0.000347 -0.000166 0.001036 0.000000
0.000034 -0.000627 0.000999 0.000000
0.000022 -0.000539 0.000913 0.000000
0.000154 -0.000653 0.001849 0.000000
-0.000114 -0.000390 0.000912 0.000000
0.000603 -0.000984 0.000653 0.000000
0.000780 -0.001145 0.000136 0.000000
0.000528 -0.001279 0.002642 0.000000
0.001289 -0.002070 0.003026 0.000000
0.001185 -0.001981 0.001661 0.000000
0.000907 -0.001611 0.002083 0.000000
0.000964 -0.002142 0.002794 0.000000
0.000591 -0.000590 -0.001297 0.000000
0.000849 -0.001849 0.001152 0.000000
0.001254 -0.001853 0.001046 0.000000
0.000457 -0.001339 0.001129 0.000000
0.001394 -0.001903 0.001200 0.000000
0.000020 -0.000133 0.000015 0.000000
0.000786 -0.001866 0.002374 0.000000
0.001521 -0.002197 0.001495 0.000000
0.001199 -0.001836 0.001909 0.000000
0.000665 -0.001328 0.000921 0.000000
0.000012 -0.000139 0.000035 0.000000
0.000430 -0.001433 0.001249 0.000000
0.001072 -0.001897 0.001406 0.000000
0.000013 -0.000133 0.000022 0.000000
0.000008 -0.000131 0.000021 0.000000
0.000544 -0.001612 0.001583 0.000000
0.000902 -0.001505 0.001179 0.000000
0.000041 -0.000145 0.000007 0.000000
0.000988 -0.001638 0.001371 0.000000
0.000058 -0.000155 0.000024 0.000000
0.000650 -0.001834 0.001903 0.000000
0.000102 -0.000162 0.000004 0.000000
0.001416 -0.001941 0.002159 0.000000
0.000028 -0.000152 0.000027 0.000000
0.000031 -0.000135 -0.000002 0.000000
0.000030 -0.000147 0.000050 0.000000
0.000018 -0.000148 0.000025 0.000000
0.000000 -0.000147 0.000051 0.000000
0.000017 -0.000140 0.000034 0.000000
0.000009 -0.000139 0.000039 0.000000
0.000022 -0.000142 0.000014 0.000000
0.000001 -0.000142 0.000052 0.000000
-0.000002 -0.000145 0.000051 0.000000
-0.000002 -0.000141 0.000066 0.000000
0.000024 -0.000147 0.000032 0.000000
0.000014 -0.000146 0.000062 0.000000
-0.000012 -0.000137 0.000055 0.000000
0.000002 -0.000135 0.000072 0.000000
-0.000013 -0.000143 0.000053 0.000000
0.000125 -0.000190 -0.000048 0.000000
0.000025 -0.000174 0.000001 0.000000
0.001753 -0.002552 0.002275 0.000000
0.000290 -0.001234 -0.000374 0.000000
0.000059 -0.000272 0.000100 0.000000
0.001679 -0.002190 0.002732 0.000000
0.001782 -0.002312 0.002019 0.000000
0.001142 -0.002240 0.003321 0.000000
0.001392 -0.001851 0.002953 0.000000
0.001692 -0.002171 0.002725 0.000000
0.000669 -0.001277 0.002477 0.000000
0.001176 -0.002017 0.003333 0.000000
0.000568 -0.001318 0.001217 0.000000
0.000453 -0.001255 0.000576 0.000000
0.000927 -0.001728 0.001950 0.000000
0.001037 -0.001757 0.003283 0.000000
0.001083 -0.001735 0.002853 0.000000
0.000990 -0.001669 0.003764 0.000000
0.001122 -0.001602 0.002679 0.000000
0.000808 -0.001496 0.003547 0.000000
0.001540 -0.001943 0.003993 0.000000
0.001291 -0.001591 0.004283 0.000000
0.000906 -0.001827 0.004950 0.000000
0.000021 -0.000852 0.003762 0.000000
-0.000381 -0.000562 0.002816 0.000000
-0.000055 -0.000067 0.000119 0.000000
-0.000128 -0.000252 0.004602 0.000000
0.000464 -0.000854 0.003784 0.000000
-0.000492 -0.000263 0.003332 0.000000
-0.000044 -0.000086 0.000121 0.000000
0.000942 -0.001747 0.005269 0.000000
0.000848 -0.001430 0.004947 0.000000
-0.001205 0.000365 0.004149 0.000000
-0.000330 -0.000124 0.005287 0.000000
0.000795 -0.001438 0.003065 0.000000
0.000420 -0.001018 0.002189 0.000000
0.000591 -0.000942 0.006843 0.000000
-0.000036 -0.000137 0.000220 0.000000
0.000326 -0.000874 0.002527 0.000000
0.000193 -0.000779 0.001803 0.000000
0.000131 -0.000692 0.002937 0.000000
0.000444 -0.000855 0.005882 0.000000
-0.000046 -0.000132 0.000261 0.000000
-0.000212 -0.000009 0.006695 0.000000
-0.000043 -0.000090 0.000162 0.000000
-0.000019 -0.000074 0.000115 0.000000
-0.001005 0.000831 0.004314 0.000000
-0.000550 0.000466 0.004693 0.000000
-0.001584 0.001616 0.003022 0.000000
-0.000047 -0.000088 0.000163 0.000000
-0.000034 -0.000101 0.000148 0.000000
-0.000033 -0.000101 0.000150 0.000000
-0.000053 -0.000071 0.000129 0.000000
-0.000048 -0.000084 0.000178 0.000000
-0.000015 -0.000071 0.000081 0.000000
-0.000016 -0.000102 0.000194 0.000000
-0.000027 -0.000067 0.000099 0.000000
-0.000039 -0.000073 0.000135 0.000000
-0.000033 -0.000063 0.000099 0.000000
-0.000030 -0.000078 0.000128 0.000000
-0.000007 -0.000086 0.000106 0.000000
-0.000022 -0.000064 0.000082 0.000000
-0.000164 -0.000185 0.000541 0.000000
-0.000010 -0.000062 0.000059 0.000000
-0.000162 0.000037 0.000954 0.000000
-0.000017 -0.000067 0.000082 0.000000
0.000022 -0.000417 0.000951 0.000000
-0.000015 -0.000073 0.000085 0.000000
0.000082 -0.000435 0.000949 0.000000
-0.000160 -0.000289 0.000866 0.000000
-0.000027 -0.000092 0.000147 0.000000
-0.000038 -0.000085 0.000176 0.000000
-0.000010 -0.000115 0.000135 0.000000
-0.000017 -0.000080 0.000093 0.000000
-0.000037 -0.000079 0.000170 0.000000
-0.000041 -0.000080 0.000166 0.000000
-0.000020 -0.000088 0.000159 0.000000
-0.000042 -0.000081 0.000219 0.000000
-0.000037 -0.000101 0.000213 0.000000
-0.000039 -0.000099 0.000218 0.000000
0.000129 -0.000669 0.001110 0.000000
-0.000025 -0.000100 0.000175 0.000000
0.000114 -0.000627 0.001174 0.000000
0.000002 -0.000092 0.000089 0.000000
-0.000214 -0.000438 0.002287 0.000000
0.000087 -0.000579 0.001165 0.000000
-0.000202 -0.000336 0.000695 0.000000
-0.000073 -0.000066 0.000147 0.000000
-0.000074 -0.000167 0.000099 0.000000
-0.000074 -0.000149 0.000123 0.000000
-0.000070 -0.000175 0.000103 0.000000
-0.000090 -0.000133 0.000113 0.000000
-0.000081 -0.000152 0.000081 0.000000
-0.000109 -0.000124 0.000073 0.000000
-0.000093 -0.000153 0.000065 0.000000
-0.000245 -0.001198 0.000172 0.000000
-0.000089 -0.000139 0.000080 0.000000
-0.000134 -0.000124 0.000097 0.000000
-0.000091 -0.000127 0.000115 0.000000
-0.000105 -0.000139 0.000071 0.000000
-0.000078 -0.000160 0.000102 0.000000
-0.000086 -0.000152 0.000090 0.000000
-0.000079 -0.000149 0.000109 0.000000
-0.000094 -0.000141 0.000090 0.000000
-0.000076 -0.000142 0.000120 0.000000
-0.000095 -0.000107 0.000138 0.000000
-0.000071 -0.000135 0.000134 0.000000
-0.000082 -0.000140 0.000103 0.000000
-0.000055 -0.000135 0.000150 0.000000
-0.000085 -0.000142 0.000108 0.000000
-0.000068 -0.000123 0.000156 0.000000
-0.000062 -0.000134 0.000143 0.000000
-0.000071 -0.000127 0.000145 0.000000
-0.000083 -0.000119 0.000134 0.000000
-0.000051 -0.000123 0.000170 0.000000
-0.000069 -0.000120 0.000157 0.000000
-0.000080 -0.000128 0.000135 0.000000
-0.000078 -0.000135 0.000125 0.000000
-0.000101 -0.000131 0.000097 0.000000
-0.000079 -0.000132 0.000124 0.000000
-0.000087 -0.000131 0.000107 0.000000
-0.000093 -0.000125 0.000117 0.000000
-0.000097 -0.000113 0.000097 0.000000
-0.000095 -0.000118 0.000113 0.000000
-0.000094 -0.000127 0.000092 0.000000
-0.000301 -0.000444 0.003416 0.000000
-0.000077 -0.000098 0.000166 0.000000
-0.000088 -0.000114 0.000126 0.000000
-0.000104 -0.000090 0.000114 0.000000
-0.000389 -0.000782 0.002173 0.000000
-0.000918 -0.000127 0.002720 0.000000
-0.000121 -0.000065 0.000200 0.000000
-0.000639 -0.000542 0.002879 0.000000
-0.000859 -0.000233 0.003099 0.000000
-0.000911 -0.000179 0.002730 0.000000
-0.000091 -0.000132 0.000093 0.000000
-0.000499 -0.000638 0.003099 0.000000
-0.000853 -0.000209 0.003065 0.000000
-0.000886 -0.000291 0.002826 0.000000
-0.000810 -0.000382 0.003688 0.000000
-0.000106 -0.000089 0.000201 0.000000
-0.000634 -0.000435 0.003382 0.000000
-0.000876 -0.000153 0.002899 0.000000
-0.000916 -0.000137 0.002749 0.000000
-0.000892 -0.000309 0.003027 0.000000
-0.000896 -0.000160 0.003060 0.000000
-0.000097 -0.000130 0.000088 0.000000
-0.000098 -0.000136 0.000055 0.000000
-0.000095 -0.000136 0.000099 0.000000
-0.000098 -0.000136 0.000104 0.000000
-0.000977 -0.000343 0.003305 0.000000
-0.000854 -0.000427 0.003902 0.000000
-0.000776 -0.000558 0.004173 0.000000
-0.000330 -0.000815 0.001653 0.000000
-0.000178 0.000045 0.000220 0.000000
-0.000323 -0.000715 0.001644 0.000000
-0.000140 -0.000085 0.000189 0.000000
-0.000158 -0.000041 0.000228 0.000000
-0.000126 -0.000110 0.000224 0.000000
-0.000129 -0.000103 0.000185 0.000000
-0.000144 -0.000014 0.000205 0.000000
-0.000131 -0.000047 0.000189 0.000000
-0.000115 -0.000105 0.000244 0.000000
-0.000138 -0.000054 0.000229 0.000000
-0.000098 -0.000129 0.000262 0.000000
-0.000103 -0.000158 0.000253 0.000000
-0.000104 -0.000135 0.000232 0.000000
-0.000076 -0.000668 0.001981 0.000000
-0.000154 -0.000113 0.000160 0.000000
-0.000140 -0.000133 0.000206 0.000000
-0.000109 -0.000163 0.000210 0.000000
-0.000110 -0.000192 0.000240 0.000000
-0.000083 -0.000194 0.000228 0.000000
-0.000137 -0.000162 0.000225 0.000000
-0.000188 0.000028 0.000303 0.000000
-0.000391 -0.001549 0.002230 0.000000
-0.000151 -0.000042 0.000277 0.000000
-0.000374 -0.000135 0.001268 0.000000
-0.000148 -0.000012 0.000202 0.000000
-0.000110 -0.000030 0.000161 0.000000
-0.000104 -0.000021 0.000168 0.000000
-0.000032 -0.000209 0.000157 0.000000
-0.000372 -0.000453 0.002231 0.000000
-0.000126 -0.000008 0.000211 0.000000
-0.000069 -0.000216 0.000238 0.000000
-0.000054 -0.000327 0.000270 0.000000
-0.000329 -0.000720 0.001338 0.000000
-0.000261 -0.000440 0.001982 0.000000
-0.000404 -0.000523 0.002338 0.000000
-0.000378 -0.000505 0.001055 0.000000
-0.000054 -0.000129 0.000153 0.000000
-0.000029 -0.000265 0.000136 0.000000
-0.000032 -0.000186 0.000096 0.000000
-0.000296 -0.000661 0.002173 0.000000
-0.000245 -0.000592 0.001576 0.000000
-0.000302 -0.000428 0.001521 0.000000
0.000276 -0.000443 0.002479 0.000000
-0.000129 -0.000532 0.001751 0.000000
-0.000050 -0.000422 0.001817 0.000000
-0.000145 -0.000630 0.001836 0.000000
-0.000162 -0.000168 0.001313 0.000000
0.000624 -0.000998 0.002018 0.000000
-0.000012 -0.000134 0.000142 0.000000
0.000095 -0.000720 0.002377 0.000000
-0.000008 -0.000142 0.000101 0.000000
-0.000006 -0.000236 0.000105 0.000000
-0.000092 -0.000089 0.000224 0.000000
-0.000046 -0.000141 0.000248 0.000000
0.000066 -0.000172 0.000236 0.000000
-0.000035 -0.000154 0.000215 0.000000
-0.000074 -0.000132 0.000255 0.000000
-0.000093 -0.000135 0.000274 0.000000
-0.000049 -0.000201 0.000170 0.000000
-0.000068 -0.000128 0.000234 0.000000
-0.000087 -0.000122 0.000222 0.000000
-0.000119 -0.000066 0.000194 0.000000
-0.000092 -0.000089 0.000178 0.000000
-0.000098 -0.000108 0.000246 0.000000
-0.000457 -0.000895 0.002545 0.000000
-0.000260 -0.001020 0.002873 0.000000
-0.000059 -0.000122 0.000230 0.000000
-0.000110 -0.000073 0.000200 0.000000
-0.000066 -0.000136 0.000195 0.000000
-0.000092 -0.000083 0.000169 0.000000
0.000025 -0.001124 0.001008 0.000000
-0.000087 -0.000927 0.001048 0.000000
0.000259 -0.001041 0.001003 0.000000
-0.000112 -0.000114 0.000192 0.000000
0.000016 -0.001022 0.000982 0.000000
-0.000122 -0.000793 0.000456 0.000000
-0.000055 -0.000811 0.000614 0.000000
0.000254 -0.000937 0.001508 0.000000
-0.000135 -0.000712 0.000623 0.000000
0.000203 -0.000995 0.000884 0.000000
0.000292 -0.001082 0.000772 0.000000
-0.000068 -0.000798 0.000503 0.000000
-0.000007 -0.000723 0.000591 0.000000
0.000233 -0.001023 0.000765 0.000000
0.000136 -0.000969 0.001204 0.000000
-0.000041 -0.000940 0.000884 0.000000
0.000095 -0.000239 0.000138 0.000000
-0.000278 -0.000616 0.002644 0.000000
-0.000100 -0.000875 0.001092 0.000000
0.000198 -0.001106 0.002936 0.000000
0.000132 -0.000377 0.003437 0.000000
0.000154 -0.000796 0.000969 0.000000
-0.000234 -0.000403 0.001048 0.000000
-0.000321 -0.000074 0.003478 0.000000
0.000214 -0.000839 0.002055 0.000000
-0.000358 -0.000526 0.003409 0.000000
0.000135 -0.000803 0.003571 0.000000
-0.000240 -0.000500 0.003429 0.000000
0.000450 -0.001139 0.000782 0.000000
0.000213 -0.000968 0.000832 0.000000
-0.000004 -0.000586 0.000901 0.000000
0.000430 -0.001201 0.001068 0.000000
0.000422 -0.001192 0.001045 0.000000
0.000514 -0.001145 0.002517 0.000000
-0.000143 -0.000676 0.000704 0.000000
-0.000275 -0.000153 0.003049 0.000000
-0.000079 -0.000833 0.001184 0.000000
-0.000156 -0.000385 0.001916 0.000000
-0.000199 -0.000640 0.002127 0.000000
-0.000106 0.000020 0.000184 0.000000
-0.000217 -0.000273 0.002351 0.000000
-0.000210 -0.000435 0.003518 0.000000
0.000034 -0.001168 0.002617 0.000000
-0.000139 -0.000298 0.001585 0.000000
0.000126 -0.000287 0.001757 0.000000
-0.000451 0.000071 0.003199 0.000000
-0.000005 -0.000102 0.000108 0.000000
-0.000013 -0.000251 0.002511 0.000000
-0.000184 -0.000530 0.000783 0.000000
-0.000142 -0.000863 0.001774 0.000000
0.000186 -0.000888 0.000891 0.000000
-0.000096 -0.000584 0.000877 0.000000
0.000179 -0.000991 0.000963 0.000000
-0.000186 -0.000475 0.000780 0.000000
-0.000139 -0.000612 0.000669 0.000000
-0.000037 -0.000724 0.000891 0.000000
0.000288 -0.000943 0.000777 0.000000
0.000163 -0.001008 0.001072 0.000000
0.000674 -0.001627 0.000658 0.000000
0.000960 -0.001868 0.000705 0.000000
-0.000022 -0.000716 0.000207 0.000000
0.000297 -0.000818 0.000196 0.000000
0.000021 -0.000924 0.001047 0.000000
0.000698 -0.001216 0.000414 0.000000
0.000412 -0.001308 0.000738 0.000000
-0.000068 -0.000687 0.000832 0.000000
0.000193 -0.000903 0.000761 0.000000
-0.000063 -0.000682 0.000801 0.000000
-0.000004 -0.000097 0.000085 0.000000
-0.000069 -0.000080 0.000351 0.000000
0.001379 -0.001662 0.000062 0.000000
-0.000109 -0.000744 0.000799 0.000000
-0.000004 -0.000110 0.000159 0.000000
-0.000026 -0.000115 0.000191 0.000000
-0.000012 -0.000108 0.000169 0.000000
-0.000029 -0.000075 0.000222 0.000000
-0.000017 -0.000097 0.000196 0.000000
0.000214 -0.000991 0.003310 0.000000
-0.000040 -0.000096 0.000190 0.000000
-0.000059 -0.000097 0.000180 0.000000
-0.000021 -0.000064 0.000227 0.000000
-0.000052 -0.000064 0.000190 0.000000
-0.000064 0.000038 0.000303 0.000000
-0.000051 -0.000011 0.000249 0.000000
-0.000222 -0.000605 0.002150 0.000000
0.000011 -0.000660 0.000753 0.000000
-0.000090 -0.000733 0.002740 0.000000
-0.000022 -0.000807 0.000639 0.000000
-0.000331 -0.000701 0.003341 0.000000
-0.000457 -0.000434 0.002490 0.000000
-0.000242 -0.000943 0.003098 0.000000
-0.000137 -0.000122 0.000256 0.000000
-0.000147 -0.000550 0.002697 0.000000
-0.000092 -0.000075 0.000162 0.000000
-0.000539 -0.000836 0.002797 0.000000
-0.000512 -0.000464 0.003098 0.000000
-0.000073 -0.000058 0.000198 0.000000
-0.000046 -0.000081 0.000209 0.000000
-0.000233 -0.000978 0.003196 0.000000
-0.000056 -0.000053 0.000211 0.000000
0.000192 -0.000957 0.003418 0.000000
0.000124 -0.001027 0.003280 0.000000
-0.000040 -0.000124 0.000179 0.000000
-0.000052 -0.000113 0.000175 0.000000
-0.000034 -0.000122 0.000176 0.000000
-0.000040 -0.000116 0.000189 0.000000
-0.000054 -0.000117 0.000176 0.000000
-0.000036 -0.000134 0.000163 0.000000
-0.000074 -0.000102 0.000161 0.000000
-0.000072 -0.000110 0.000164 0.000000
-0.000035 -0.000134 0.000165 0.000000
-0.000048 -0.000134 0.000157 0.000000
-0.000052 -0.000128 0.000164 0.000000
-0.000048 -0.000133 0.000159 0.000000
-0.000025 -0.000135 0.000168 0.000000
-0.000018 -0.000130 0.000170 0.000000
-0.000029 -0.000123 0.000185 0.000000
-0.000039 -0.000130 0.000170 0.000000
-0.000030 -0.000130 0.000177 0.000000
-0.000036 -0.000130 0.000171 0.000000
-0.000020 -0.000130 0.000178 0.000000
-0.000016 -0.000121 0.000180 0.000000
-0.000021 -0.000122 0.000176 0.000000
-0.000013 -0.000109 0.000156 0.000000
-0.000017 -0.000112 0.000185 0.000000
-0.000012 -0.000114 0.000171 0.000000
-0.000026 -0.000100 0.000202 0.000000
-0.000023 -0.000116 0.000174 0.000000
-0.000015 -0.000109 0.000160 0.000000
-0.000014 -0.000114 0.000169 0.000000
-0.000009 -0.000109 0.000175 0.000000
-0.000012 -0.000112 0.000165 0.000000
-0.000012 -0.000129 0.000171 0.000000
-0.000017 -0.000121 0.000182 0.000000
-0.000012 -0.000133 0.000174 0.000000
-0.000015 -0.000127 0.000177 0.000000
-0.000014 -0.000125 0.000177 0.000000
-0.000015 -0.000120 0.000170 0.000000
-0.000026 -0.000088 0.000177 0.000000
-0.000015 -0.000100 0.000140 0.000000
-0.000018 -0.000100 0.000143 0.000000
-0.000026 -0.000103 0.000167 0.000000
0.000000 -0.000390 0.002077 0.000000
-0.000042 -0.000089 0.000166 0.000000
-0.000023 -0.000087 0.000126 0.000000
-0.000041 -0.000057 0.000113 0.000000
-0.000261 -0.000417 0.000788 0.000000
-0.000227 -0.000421 0.001908 0.000000
-0.000002 -0.000104 0.000132 0.000000
-0.000026 -0.000067 0.000088 0.000000
-0.000019 -0.000096 0.000152 0.000000
-0.000018 -0.000113 0.000169 0.000000
-0.000007 -0.000109 0.000116 0.000000
-0.000020 -0.000086 0.000122 0.000000
0.000010 -0.000126 0.000180 0.000000
-0.000002 -0.000095 0.000098 0.000000
-0.000007 -0.000110 0.000144 0.000000
-0.000001 -0.000112 0.000170 0.000000
0.001177 -0.001071 0.000054 0.000000
0.000004 -0.000109 0.000131 0.000000
0.000672 -0.000808 0.001297 0.000000
0.000009 -0.000102 0.000191 0.000000
0.000018 -0.000398 0.000821 0.000000
0.000018 -0.000118 0.000138 0.000000
0.000822 -0.001258 -0.000512 0.000000
0.000023 -0.000114 0.001626 0.000000
0.000237 -0.001108 0.000888 0.000000
0.000015 -0.000088 0.000058 0.000000
0.000711 -0.000936 0.000075 0.000000
0.000026 -0.000114 0.000068 0.000000
0.001172 -0.001325 -0.000379 0.000000
0.000022 -0.000141 0.000128 0.000000
-0.000243 -0.000190 0.000169 0.000000
-0.000074 -0.000347 0.000356 0.000000
-0.000243 -0.000087 0.001977 0.000000
-0.000032 -0.000038 0.000059 0.000000
-0.000286 -0.000302 0.001290 0.000000
-0.000214 -0.000270 0.000074 0.000000
0.000087 -0.000490 0.000286 0.000000
0.000541 -0.000533 0.001426 0.000000
-0.000218 -0.000184 0.000132 0.000000
-0.000030 -0.000037 0.000071 0.000000
-0.000333 -0.000033 0.000941 0.000000
-0.000082 -0.000006 0.000223 0.000000
-0.000041 -0.000041 0.000047 0.000000
-0.000310 -0.000231 0.000327 0.000000
-0.000112 -0.000236 0.000415 0.000000
-0.000573 0.000037 0.001754 0.000000
-0.000185 -0.000281 0.000577 0.000000
0.000307 -0.000625 0.000248 0.000000
-0.000163 -0.000281 0.000148 0.000000
-0.000180 -0.000309 0.000264 0.000000
-0.000098 -0.000653 0.001448 0.000000
0.000104 -0.000472 0.000406 0.000000
0.000062 -0.000700 0.000691 0.000000
0.000076 -0.000648 0.001364 0.000000
-0.000018 -0.000550 0.001505 0.000000
-0.000136 -0.000284 0.000208 0.000000
0.000073 -0.000648 0.001574 0.000000
-0.000028 -0.000421 0.000831 0.000000
-0.000161 -0.000173 0.000735 0.000000
-0.000266 -0.000189 0.000639 0.000000
-0.000087 -0.000129 -0.000025 0.000000
-0.000146 -0.000199 0.000190 0.000000
-0.000066 -0.000467 0.000440 0.000000
-0.000148 -0.000167 0.000328 0.000000
-0.000022 -0.000029 0.000067 0.000000
-0.000033 -0.000042 0.000099 0.000000
-0.000024 -0.000044 0.000069 0.000000
-0.000039 -0.000054 0.000097 0.000000
-0.000016 -0.000018 0.000061 0.000000
-0.000024 -0.000035 0.000074 0.000000
-0.000034 -0.000044 0.000069 0.000000
-0.000024 -0.000056 0.000064 0.000000
0.000092 -0.000362 0.001193 0.000000
-0.000100 -0.000075 0.000403 0.000000
-0.000107 -0.000095 0.000379 0.000000
-0.000115 -0.000162 0.001205 0.000000
-0.000019 -0.000023 0.000076 0.000000
-0.000119 -0.000143 0.001205 0.000000
-0.000016 -0.000024 0.000080 0.000000
-0.000110 -0.000148 0.001158 0.000000
-0.000091 -0.000107 0.000851 0.000000
-0.000196 0.000095 0.000882 0.000000
-0.000062 -0.000102 0.001064 0.000000
-0.000087 -0.000117 0.001206 0.000000
-0.000173 0.000108 0.000840 0.000000
-0.000165 0.000053 0.001003 0.000000
0.000001 -0.000032 0.000069 0.000000
-0.000059 0.000014 0.000133 0.000000
-0.000086 0.000005 0.000180 0.000000
-0.000045 -0.000004 0.000102 0.000000
-0.000059 -0.000087 0.000315 0.000000
-0.000057 -0.000034 0.000235 0.000000
-0.000100 -0.000027 0.000286 0.000000
-0.000072 -0.000040 0.000234 0.000000
-0.000104 0.000014 0.000180 0.000000
-0.000011 -0.000031 0.000069 0.000000
-0.000113 0.000056 0.000146 0.000000
-0.000010 -0.000036 0.000062 0.000000
-0.000542 0.000201 0.001886 0.000000
-0.000068 0.000008 0.000115 0.000000
-0.000039 -0.000050 0.000226 0.000000
-0.000151 0.000086 0.000364 0.000000
-0.000139 0.000058 0.000350 0.000000
-0.000588 0.000523 0.001571 0.000000
-0.000015 -0.000060 0.000029 0.000000
-0.000041 -0.000072 0.000093 0.000000
-0.000019 -0.000036 0.000066 0.000000
-0.000240 0.000109 0.001949 0.000000
-0.000140 -0.000005 0.001922 0.000000
-0.000307 0.000249 0.001594 0.000000
-0.000036 -0.000028 0.000062 0.000000
-0.000031 -0.000036 0.000062 0.000000
-0.000050 -0.000015 0.001509 0.000000
-0.000418 0.000308 0.001653 0.000000
-0.000032 -0.000037 0.000065 0.000000
-0.000026 -0.000038 0.000067 0.000000
-0.000043 -0.000036 0.000069 0.000000
-0.000019 -0.000038 0.000068 0.000000
-0.000043 -0.000027 0.000064 0.000000
-0.000037 -0.000041 0.000056 0.000000
-0.000166 -0.000105 0.000602 0.000000
0.000127 -0.000213 0.001396 0.000000
0.000010 -0.000056 0.002377 0.000000
-0.000030 -0.000038 0.000073 0.000000
-0.000694 0.000321 0.001860 0.000000
-0.000032 -0.000040 0.000076 0.000000
-0.000035 -0.000057 0.000102 0.000000
-0.000253 -0.000388 0.001265 0.000000
-0.000726 0.000360 0.001966 0.000000
-0.000612 0.000140 0.002226 0.000000
-0.000359 -0.000229 0.001696 0.000000
-0.000533 0.000173 0.002121 0.000000
-0.000640 0.000188 0.002155 0.000000
-0.000054 0.000047 0.000173 0.000000
-0.000047 0.000000 0.000167 0.000000
-0.000022 -0.000034 0.000138 0.000000
-0.000433 0.000213 0.000959 0.000000
-0.000048 0.000024 0.000176 0.000000
-0.000132 -0.000222 0.001601 0.000000
-0.000013 -0.000010 0.000216 0.000000
-0.000621 0.000339 0.001772 0.000000
-0.000626 0.000322 0.001800 0.000000
-0.000384 0.000077 0.001054 0.000000
-0.000768 0.000399 0.001980 0.000000
-0.000615 0.000318 0.002242 0.000000
-0.000191 -0.000084 0.001916 0.000000
-0.000219 -0.000030 0.002624 0.000000
-0.000059 -0.000086 0.000489 0.000000
-0.000356 0.000299 0.001851 0.000000
-0.000068 -0.000053 0.000730 0.000000
-0.000251 0.000173 0.001828 0.000000
-0.000172 0.000048 0.000573 0.000000
-0.000086 0.000045 0.000458 0.000000
-0.000459 0.000237 0.002138 0.000000
-0.000101 -0.000182 0.001628 0.000000
-0.000127 0.000008 0.000721 0.000000
-0.000121 0.000034 0.000276 0.000000
-0.000045 0.000019 0.000153 0.000000
-0.000266 0.000171 0.000414 0.000000
-0.000058 -0.000015 0.000321 0.000000
0.000571 -0.000616 0.000873 0.000000
0.000022 -0.000128 0.000471 0.000000
-0.000089 0.000046 0.000243 0.000000
-0.000268 0.000192 0.000723 0.000000
-0.000375 0.000293 0.000805 0.000000
-0.000112 0.000091 0.000516 0.000000
-0.000160 0.000053 0.000408 0.000000
-0.000078 0.000056 0.000304 0.000000
-0.000007 -0.000132 0.000582 0.000000
0.000099 -0.000132 0.000438 0.000000
0.000007 -0.000128 0.000432 0.000000
0.000288 -0.000328 0.000492 0.000000
0.000062 -0.000148 0.000379 0.000000
0.000289 -0.000310 0.002418 0.000000
-0.000053 -0.000015 0.001882 0.000000
-0.000225 0.000166 0.001792 0.000000
-0.000034 -0.000047 0.000175 0.000000
0.000557 -0.000624 0.000949 0.000000
-0.000019 -0.000053 0.000130 0.000000
0.000629 -0.000597 0.000492 0.000000
-0.000017 -0.000005 0.000183 0.000000
-0.000005 -0.000063 0.000141 0.000000
0.000003 -0.000072 0.000124 0.000000
-0.000021 -0.000057 0.000148 0.000000
0.000157 -0.000339 0.000634 0.000000
-0.000012 -0.000045 0.000096 0.000000
0.000182 -0.000325 0.000505 0.000000
0.000400 -0.000637 0.000491 0.000000
0.000201 -0.000237 0.002233 0.000000
0.000497 -0.000599 0.002545 0.000000
0.000511 -0.000661 0.002557 0.000000
0.000378 -0.000399 0.000274 0.000000
0.000389 -0.000523 0.002412 0.000000
0.000277 -0.000304 0.002240 0.000000
0.000006 -0.000075 0.000076 0.000000
-0.000001 -0.000054 0.000052 0.000000
0.000252 -0.000438 0.002173 0.000000
0.000293 -0.000487 0.001325 0.000000
0.000010 -0.000085 0.000111 0.000000
0.000008 -0.000072 0.000089 0.000000
0.000004 -0.000075 0.000105 0.000000
0.000549 -0.000622 0.000302 0.000000
0.000003 -0.000073 0.000126 0.000000
-0.000008 -0.000057 0.000091 0.000000
0.000001 -0.000055 0.000077 0.000000
0.000459 -0.000518 0.000317 0.000000
-0.000002 -0.000046 0.000148 0.000000
0.000017 -0.000087 0.000122 0.000000
0.000009 -0.000074 0.000131 0.000000
0.000007 -0.000074 0.000115 0.000000
-0.000104 -0.000651 0.001688 0.000000
0.000004 -0.000057 0.000149 0.000000
0.000002 -0.000025 0.000219 0.000000
0.000005 -0.000074 0.000134 0.000000
-0.000044 -0.000016 0.000219 0.000000
-0.000124 -0.000238 0.001786 0.000000
-0.000016 0.000106 0.000442 0.000000
-0.000044 0.000055 0.000220 0.000000
-0.000089 0.000070 0.000416 0.000000
0.000003 -0.000052 0.000142 0.000000
-0.000012 -0.000059 0.000168 0.000000
-0.000004 -0.000099 0.000091 0.000000
0.000012 -0.000078 0.000143 0.000000
0.000003 -0.000086 0.000109 0.000000
-0.000029 -0.000072 0.000193 0.000000
-0.000025 -0.000028 0.000218 0.000000
0.000013 -0.000095 0.000109 0.000000
0.000016 -0.000136 0.000139 0.000000
0.000129 -0.000630 0.001376 0.000000
0.000481 -0.001089 0.001500 0.000000
-0.000073 0.000015 0.000196 0.000000
0.000354 -0.000108 0.002230 0.000000
0.000408 -0.000453 0.001898 0.000000
-0.000008 -0.000057 0.000273 0.000000
0.000526 -0.000227 0.001569 0.000000
0.000585 -0.000078 0.000800 0.000000
0.001213 -0.000431 0.000678 0.000000
0.000014 -0.000268 0.000366 0.000000
0.000006 -0.000092 0.000249 0.000000
0.000040 -0.000148 0.000149 0.000000
-0.000008 -0.000130 0.000160 0.000000
0.000044 -0.000247 0.000263 0.000000
-0.000009 -0.000084 0.000117 0.000000
0.000004 -0.000111 0.000113 0.000000
-0.000016 -0.000078 0.000119 0.000000
0.000003 -0.000087 0.000106 0.000000
-0.000008 -0.000085 0.000102 0.000000
0.000007 -0.000082 0.000103 0.000000
-0.000014 -0.000078 0.000117 0.000000
-0.000004 -0.000092 0.000135 0.000000
0.000016 -0.000090 0.000090 0.000000
0.000005 -0.000077 0.000100 0.000000
0.000284 -0.000593 0.002555 0.000000
0.000255 -0.000505 0.002373 0.000000
-0.000018 -0.000090 0.000130 0.000000
-0.000015 -0.000099 0.000142 0.000000
-0.000011 -0.000091 0.000123 0.000000
0.000237 -0.000345 0.002446 0.000000
-0.000026 -0.000053 0.002753 0.000000
0.000002 -0.000149 0.000124 0.000000
-0.000239 -0.000288 0.000889 0.000000
-0.000130 -0.000035 0.000271 0.000000
-0.000323 -0.000296 0.000814 0.000000
-0.000042 -0.000458 0.001571 0.000000
-0.000085 -0.000036 0.000198 0.000000
-0.000054 -0.000031 0.000149 0.000000
0.000196 -0.000355 0.000628 0.000000
-0.000133 -0.000046 0.000298 0.000000
-0.000045 -0.000046 0.000288 0.000000
-0.000063 -0.000051 0.000192 0.000000
-0.000605 -0.000434 0.001635 0.000000
-0.000644 -0.000450 0.001667 0.000000
-0.000020 -0.000115 0.000253 0.000000
-0.000664 -0.000431 0.001634 0.000000
-0.000046 -0.000100 0.000226 0.000000
-0.000017 -0.000092 0.000273 0.000000
-0.000073 -0.000015 0.000213 0.000000
-0.000208 -0.000258 0.001233 0.000000
-0.000039 -0.000111 0.000173 0.000000
-0.000580 -0.000032 0.001265 0.000000
-0.000155 -0.000163 0.001295 0.000000
-0.000037 -0.000087 0.000154 0.000000
-0.000044 -0.000118 0.000216 0.000000
-0.000052 -0.000130 0.000223 0.000000
-0.000586 -0.000073 0.001234 0.000000
-0.000061 -0.000073 0.000270 0.000000
-0.000212 -0.000035 0.001471 0.000000
-0.000190 -0.000166 0.000048 0.000000
-0.000035 -0.000070 0.000224 0.000000
-0.000614 -0.000491 0.001745 0.000000
0.000001 -0.000292 0.000569 0.000000
-0.000700 -0.000462 0.001797 0.000000
-0.000031 -0.000029 0.000359 0.000000
-0.000002 -0.000073 0.000253 0.000000
-0.000080 -0.000219 0.000224 0.000000
-0.000027 -0.000064 0.000128 0.000000
0.000063 -0.000260 0.000438 0.000000
-0.000106 -0.000242 0.000784 0.000000
-0.000181 -0.000138 0.001251 0.000000
-0.000198 0.000022 0.001281 0.000000
-0.000133 -0.000101 0.000190 0.000000
-0.000221 -0.000166 0.000374 0.000000
-0.000084 -0.000065 0.001122 0.000000
-0.000025 -0.000272 0.000353 0.000000
-0.000019 -0.000159 0.000495 0.000000
-0.000131 -0.000133 0.000533 0.000000
0.000168 -0.000283 0.000452 0.000000
-0.000023 -0.000041 0.000077 0.000000
-0.000043 -0.000082 0.000369 0.000000
0.000053 -0.000333 0.000500 0.000000
-0.000051 -0.000047 0.000141 0.000000
-0.000079 -0.000034 0.000166 0.000000
-0.000018 -0.000039 0.000083 0.000000
-0.000032 -0.000040 0.000116 0.000000
-0.000035 -0.000123 0.000194 0.000000
-0.000006 -0.000055 0.000083 0.000000
-0.000023 -0.000089 0.000138 0.000000
-0.000399 -0.000176 0.001017 0.000000
-0.000066 -0.000042 0.000177 0.000000
-0.000293 -0.000308 0.003660 0.000000
-0.000082 -0.000044 0.000203 0.000000
-0.000058 -0.000043 0.000162 0.000000
-0.000068 -0.000029 0.000183 0.000000
-0.000053 -0.000037 0.000119 0.000000
-0.000186 -0.000196 0.000761 0.000000
-0.000468 0.000239 0.002949 0.000000
-0.000068 -0.000043 0.000189 0.000000
-0.000063 -0.000047 0.000179 0.000000
0.000211 -0.000419 0.001127 0.000000
0.000236 -0.000358 0.002608 0.000000
-0.000117 -0.000244 0.000765 0.000000
-0.000037 -0.000229 0.000286 0.000000
0.000117 -0.000559 0.001513 0.000000
0.000025 -0.000373 0.000296 0.000000
-0.000095 -0.000076 0.000242 0.000000
-0.000053 -0.000102 0.000098 0.000000
0.000021 -0.000012 -0.000104 0.000000
0.000043 -0.000112 0.000350 0.000000
-0.000053 -0.000121 0.000213 0.000000
-0.000091 -0.000008 0.000133 0.000000
0.000278 -0.000483 0.002484 0.000000
0.000245 -0.000332 0.001061 0.000000
-0.000092 -0.000015 0.000081 0.000000
-0.000006 -0.000122 0.000054 0.000000
0.000547 -0.000645 0.002256 0.000000
0.000302 -0.000343 0.001212 0.000000
0.000401 -0.000521 0.002365 0.000000
0.000399 -0.000487 0.002348 0.000000
-0.000239 0.000186 0.002000 0.000000
0.000047 -0.000066 0.000948 0.000000
-0.000006 -0.000065 0.000205 0.000000
0.000233 -0.000336 0.001248 0.000000
-0.000069 -0.000064 0.000067 0.000000
0.000050 -0.000161 0.000245 0.000000
-0.000050 -0.000047 0.000058 0.000000
-0.000044 -0.000050 -0.000001 0.000000
-0.000046 -0.000010 0.000018 0.000000
-0.000090 -0.000003 0.000045 0.000000
-0.000026 0.000012 -0.000028 0.000000
-0.000081 -0.000022 0.000134 0.000000
-0.000103 -0.000005 0.000248 0.000000
-0.000092 0.000028 0.000187 0.000000
-0.000056 -0.000002 0.000056 0.000000
-0.000069 0.000016 0.000045 0.000000
-0.000087 -0.000017 0.000178 0.000000
-0.000053 0.000017 0.000065 0.000000
-0.000078 -0.000013 0.000207 0.000000
-0.000095 -0.000055 0.000273 0.000000
-0.000083 0.000029 0.000105 0.000000
-0.000059 -0.000008 0.000132 0.000000
-0.000179 0.000085 0.000436 0.000000
-0.000106 0.000074 0.000181 0.000000
-0.000151 0.000081 0.000404 0.000000
-0.000106 0.000019 0.000234 0.000000
-0.000304 0.000303 0.000811 0.000000
-0.000190 0.000181 0.000397 0.000000
-0.000084 -0.000050 0.000124 0.000000
-0.000065 -0.000064 0.000239 0.000000
-0.000072 -0.000043 0.000525 0.000000
-0.000011 -0.000182 0.000494 0.000000
-0.000102 -0.000085 0.000452 0.000000
0.000023 -0.000180 0.000864 0.000000
-0.000107 -0.000135 0.000641 0.000000
0.000108 -0.000309 0.000801 0.000000
-0.000030 -0.000124 0.000367 0.000000
-0.000073 -0.000056 0.000269 0.000000
-0.000041 -0.000189 0.000387 0.000000
-0.000063 -0.000120 0.000429 0.000000
-0.000053 -0.000103 0.000542 0.000000
-0.000102 -0.000026 0.000445 0.000000
-0.000226 0.000093 0.000744 0.000000
-0.000336 -0.000046 0.001200 0.000000
-0.000225 -0.000031 0.001357 0.000000
-0.000248 -0.000122 0.001676 0.000000
-0.000332 0.000040 0.002976 0.000000
-0.000471 0.000030 0.002566 0.000000
-0.000225 0.000118 0.003997 0.000000
-0.000492 0.000063 0.004009 0.000000
-0.000165 0.000079 0.002413 0.000000
-0.000361 0.000205 0.003156 0.000000
-0.000156 0.000084 0.003483 0.000000
-0.000223 0.000012 0.002546 0.000000
-0.000262 0.000043 0.002052 0.000000
-0.000363 0.000196 0.002994 0.000000
-0.000229 -0.000029 0.002399 0.000000
-0.000258 0.000044 0.002368 0.000000
-0.000098 -0.000076 0.000619 0.000000
-0.000169 0.000076 0.001892 0.000000
-0.000143 0.000033 0.000934 0.000000
-0.000334 0.000272 0.003071 0.000000
-0.000225 0.000142 0.000835 0.000000
-0.000299 0.000205 0.002073 0.000000
-0.000310 0.000214 0.001706 0.000000
-0.000514 0.000426 0.001959 0.000000
-0.000423 0.000397 0.001575 0.000000
-0.000294 0.000177 0.001705 0.000000
-0.000453 0.000408 0.001874 0.000000
-0.000331 0.000192 0.002132 0.000000
-0.000533 0.000475 0.002759 0.000000
-0.000522 0.000426 0.002774 0.000000
-0.000332 0.000064 0.003773 0.000000
-0.000137 0.000136 0.000457 0.000000
-0.000302 0.000176 0.000972 0.000000
-0.000401 0.000177 0.002172 0.000000
-0.000631 0.000496 0.005239 0.000000
-0.000525 0.000313 0.005793 0.000000
-0.000165 0.000164 0.000777 0.000000
-0.000147 0.000157 0.000662 0.000000
-0.000314 0.000156 0.000907 0.000000
-0.000264 0.000107 0.001435 0.000000
-0.000385 0.000199 0.001170 0.000000
-0.000142 0.000098 0.001210 0.000000
-0.000334 0.000033 0.006526 0.000000
-0.000213 0.000196 0.000700 0.000000
-0.000319 0.000116 0.001455 0.000000
-0.000177 0.000101 0.000960 0.000000
-0.000087 0.000008 0.001834 0.000000
-0.000457 0.000427 0.001583 0.000000
-0.000484 0.000371 0.001218 0.000000
-0.000244 0.000228 0.006260 0.000000
-0.000203 0.000016 0.001929 0.000000
-0.000381 0.000094 0.004280 0.000000
-0.000963 0.000486 0.002007 0.000000
-0.000143 0.000034 0.006835 0.000000
-0.000543 0.000246 0.003309 0.000000
-0.000261 0.000200 0.001142 0.000000
-0.000432 0.000160 0.002164 0.000000
-0.000476 0.000217 0.003174 0.000000
-0.001234 0.000705 0.002456 0.000000
-0.000601 0.000553 0.002335 0.000000
0.000013 -0.000036 0.000050 0.000000
-0.000921 0.000780 0.002813 0.000000
-0.001066 0.000951 0.001578 0.000000
-0.000277 0.000241 0.002796 0.000000
0.000076 0.000025 0.000973 0.000000
-0.000063 -0.000082 0.000455 0.000000
-0.000058 -0.000007 0.000114 0.000000
-0.000214 0.000026 0.000933 0.000000
-0.000005 -0.000076 0.000116 0.000000
0.000151 -0.000082 0.000460 0.000000
-0.000028 -0.000018 0.000102 0.000000
-0.000184 0.000072 0.001778 0.000000
-0.000373 0.000216 0.003249 0.000000
-0.000464 0.000258 0.001727 0.000000
-0.000440 0.000177 0.002157 0.000000
-0.000610 0.000468 0.002833 0.000000
-0.000474 0.000228 0.002894 0.000000
-0.000319 0.000228 0.003071 0.000000
-0.000390 0.000142 0.004301 0.000000
-0.000517 0.000159 0.003255 0.000000
-0.000443 0.000102 0.002056 0.000000
-0.000186 -0.000086 0.001899 0.000000
-0.000542 0.000297 0.001959 0.000000
-0.000348 0.000049 0.000519 0.000000
-0.000470 0.000268 0.002973 0.000000
-0.000394 -0.000184 0.001101 0.000000
-0.000122 -0.000053 0.000689 0.000000
-0.000225 -0.000227 0.000364 0.000000
-0.000774 0.000182 0.002581 0.000000
-0.000448 0.000399 0.001929 0.000000
-0.000660 0.000292 0.004271 0.000000
-0.000183 -0.000086 0.006934 0.000000
-0.001074 0.000497 0.002143 0.000000
-0.000397 -0.000046 0.007312 0.000000
-0.000630 0.000478 0.002272 0.000000
-0.000807 0.000666 0.002620 0.000000
-0.000020 -0.000031 0.000110 0.000000
-0.000040 -0.000017 0.000094 0.000000
-0.000011 -0.000040 0.000092 0.000000
-0.000009 -0.000021 0.000075 0.000000
-0.001390 0.000946 0.006649 0.000000
-0.000489 0.000267 0.007304 0.000000
-0.000039 -0.000016 0.000116 0.000000
-0.000027 -0.000016 0.000107 0.000000
-0.000970 0.000703 0.001953 0.000000
-0.000481 -0.000103 0.000874 0.000000
-0.001186 0.000797 0.002074 0.000000
-0.001348 0.000806 0.003242 0.000000
-0.000905 0.000334 0.001776 0.000000
-0.001349 0.001133 0.003061 0.000000
-0.000056 -0.000015 0.000128 0.000000
-0.000030 -0.000017 0.000097 0.000000
0.000003 -0.000053 0.000067 0.000000
0.000001 -0.000037 0.000059 0.000000
0.000003 -0.000054 0.000067 0.000000
-0.000033 -0.000083 0.000203 0.000000
0.000005 -0.000072 0.000084 0.000000
-0.000020 -0.000172 0.000125 0.000000
0.000001 -0.000047 0.000061 0.000000
-0.000056 0.000001 0.000152 0.000000
-0.000056 -0.000041 0.000148 0.000000
-0.000059 -0.000070 0.000215 0.000000
-0.000027 -0.000098 0.000086 0.000000
-0.000063 -0.000045 0.000223 0.000000
-0.000038 -0.000015 0.000107 0.000000
-0.000222 0.000003 0.000333 0.000000
-0.000038 -0.000025 0.000115 0.000000
-0.000024 -0.000052 0.000115 0.000000
-0.000033 -0.000018 0.000082 0.000000
-0.000049 -0.000041 0.000085 0.000000
-0.000033 -0.000047 0.000112 0.000000
-0.000061 0.000005 0.000111 0.000000
-0.000646 0.000250 0.003050 0.000000
-0.000085 0.000060 0.000422 0.000000
-0.000279 0.000140 0.000560 0.000000
-0.000177 -0.000004 0.000319 0.000000
-0.000035 -0.000040 0.000099 0.000000
-0.000144 0.000037 0.000281 0.000000
-0.000046 0.000009 0.000186 0.000000
-0.000208 0.000088 0.000871 0.000000
-0.000076 -0.000016 0.000230 0.000000
-0.000457 0.000251 0.003357 0.000000
-0.000095 -0.000033 0.000335 0.000000
-0.000049 0.000054 0.000523 0.000000
-0.000425 0.000109 0.000933 0.000000
-0.000225 0.000217 0.001076 0.000000
-0.000322 0.000079 0.000815 0.000000
-0.000902 0.000840 0.001654 0.000000
-0.000800 0.000679 0.001379 0.000000
-0.000128 0.000163 0.000537 0.000000
-0.000739 0.000685 0.001445 0.000000
-0.000266 0.000144 0.000910 0.000000
-0.000278 0.000117 0.000827 0.000000
-0.000681 0.000591 0.001893 0.000000
-0.000349 0.000239 0.002984 0.000000
-0.000518 0.000215 0.001693 0.000000
-0.000025 -0.000024 0.000066 0.000000
-0.000395 0.000267 0.003295 0.000000
-0.000184 0.000051 0.001016 0.000000
-0.000593 0.000258 0.001159 0.000000
-0.000093 0.000022 0.001080 0.000000
-0.000937 0.000613 0.002714 0.000000
-0.000958 0.000821 0.001262 0.000000
-0.000015 -0.000086 0.000155 0.000000
-0.000172 -0.000087 0.000226 0.000000
-0.000194 -0.000294 -0.000150 0.000000
-0.002083 0.001089 0.003251 0.000000
-0.000144 -0.000321 0.001040 0.000000
-0.000035 -0.000008 0.000333 0.000000
-0.000432 0.000259 0.003385 0.000000
-0.000263 0.000066 0.000801 0.000000
-0.000050 -0.000137 0.000251 0.000000
-0.000077 -0.000045 0.000144 0.000000
-0.000090 -0.000199 0.000709 0.000000
-0.000007 -0.000058 0.000108 0.000000
-0.000075 -0.000029 0.000149 0.000000
-0.000020 -0.000039 0.000120 0.000000
-0.000032 -0.000055 0.000153 0.000000
0.000006 -0.000101 0.000149 0.000000
-0.000005 -0.000091 0.000116 0.000000
-0.000057 0.000024 0.000247 0.000000
-0.000065 -0.000020 0.000522 0.000000
0.000002 -0.000072 0.000090 0.000000
-0.000155 -0.000059 0.000076 0.000000
-0.000565 0.000136 0.000506 0.000000
-0.000130 -0.000017 0.000348 0.000000
-0.000308 0.000122 0.000652 0.000000
-0.000059 -0.000082 0.000127 0.000000
-0.000089 -0.000049 0.000184 0.000000
-0.000045 -0.000087 0.000064 0.000000
-0.000113 -0.000030 0.000126 0.000000
-0.000021 -0.000028 0.000104 0.000000
-0.000034 -0.000015 0.000107 0.000000
-0.000031 -0.000042 0.000140 0.000000
-0.000031 -0.000046 0.000139 0.000000
-0.000008 -0.000055 0.000082 0.000000
-0.000080 -0.000135 0.000435 0.000000
-0.000046 -0.000010 0.000110 0.000000
-0.000038 -0.000032 0.000133 0.000000
-0.000026 -0.000025 0.000106 0.000000
-0.000048 -0.000015 0.000123 0.000000
-0.000068 -0.000010 0.000130 0.000000
-0.001083 0.000272 0.006703 0.000000
-0.000041 -0.000025 0.000127 0.000000
-0.000062 -0.000016 0.000139 0.000000
-0.000046 -0.000116 0.000169 0.000000
-0.001015 0.000162 0.001145 0.000000
-0.000373 -0.000116 -0.000034 0.000000
-0.000334 -0.000199 0.000137 0.000000
-0.001215 0.000476 0.002539 0.000000
-0.001475 0.000921 0.007559 0.000000
-0.000959 0.000277 0.002548 0.000000
-0.000072 -0.000007 0.000105 0.000000
-0.000002 -0.000100 0.000212 0.000000
-0.000045 -0.000094 0.000296 0.000000
-0.000031 -0.000090 0.000196 0.000000
-0.000064 -0.000066 0.000202 0.000000
-0.000032 -0.000051 0.000106 0.000000
-0.000609 -0.000477 0.001585 0.000000
-0.000007 -0.000094 0.000148 0.000000
-0.000052 -0.000093 0.000144 0.000000
-0.000228 -0.000264 0.000830 0.000000
-0.000085 -0.000041 0.000129 0.000000
-0.000002 -0.000093 0.000126 0.000000
-0.000038 -0.000074 0.000123 0.000000
-0.000013 -0.000094 0.000159 0.000000
-0.000053 -0.000091 0.000171 0.000000
-0.000041 -0.000115 0.000153 0.000000
-0.000056 -0.000091 0.000183 0.000000
-0.000051 -0.000106 0.000155 0.000000
-0.000037 -0.000129 0.000165 0.000000
-0.000046 -0.000095 0.000165 0.000000
-0.000046 -0.000115 0.000170 0.000000
-0.000047 -0.000100 0.000152 0.000000
-0.000032 -0.000138 0.000166 0.000000
-0.000038 -0.000074 0.000130 0.000000
-0.000057 -0.000037 0.000145 0.000000
-0.000029 -0.000094 0.000165 0.000000
-0.000050 -0.000094 0.000147 0.000000
-0.000058 -0.000028 0.000115 0.000000
-0.000089 0.000001 0.000148 0.000000
-0.000069 -0.000047 0.000146 0.000000
-0.000087 -0.000020 0.000127 0.000000
-0.000045 -0.000084 0.000142 0.000000
-0.000071 -0.000065 0.000140 0.000000
-0.000029 -0.000095 0.000165 0.000000
-0.000047 -0.000084 0.000136 0.000000
-0.000044 -0.000109 0.000144 0.000000
-0.000045 -0.000112 0.000145 0.000000
-0.000044 -0.000119 0.000145 0.000000
-0.000044 -0.000115 0.000151 0.000000
-0.000037 -0.000127 0.000157 0.000000
-0.000035 -0.000128 0.000154 0.000000
-0.001007 0.000610 0.002144 0.000000
-0.000903 0.000624 0.000515 0.000000
-0.001130 0.000963 0.006978 0.000000
-0.001054 0.000383 0.002366 0.000000
-0.000066 -0.000021 0.000139 0.000000
-0.000056 -0.000024 0.000141 0.000000
-0.000056 -0.000028 0.000141 0.000000
-0.000049 -0.000040 0.000154 0.000000
-0.000067 -0.000006 0.000134 0.000000
-0.000074 0.000010 0.000111 0.000000
-0.000066 -0.000016 0.000144 0.000000
-0.001625 0.001386 0.007488 0.000000
-0.000066 -0.000032 0.000127 0.000000
-0.000064 -0.000029 0.000146 0.000000
-0.000053 -0.000017 0.000065 0.000000
-0.000040 -0.000026 0.000101 0.000000
-0.000324 0.000190 0.002930 0.000000
-0.000049 -0.000013 0.000056 0.000000
-0.000912 0.000657 0.003087 0.000000
-0.000087 -0.000011 0.000143 0.000000
-0.000486 0.000279 0.003554 0.000000
-0.000115 0.000036 0.000113 0.000000
-0.000102 -0.000038 0.000127 0.000000
-0.001208 0.000316 0.003749 0.000000
-0.000594 0.000432 0.003572 0.000000
-0.000838 0.000315 0.003567 0.000000
-0.001404 0.001360 0.007285 0.000000
-0.000066 -0.000035 0.000181 0.000000
-0.000078 -0.000035 0.000096 0.000000
-0.000075 -0.000020 0.000114 0.000000
-0.000026 -0.000140 0.000172 0.000000
-0.000036 -0.000130 0.000150 0.000000
-0.000392 0.000094 0.000525 0.000000
-0.000336 -0.000013 0.000147 0.000000
-0.000094 -0.000029 0.000179 0.000000
-0.000121 -0.000032 0.000205 0.000000
-0.000062 -0.000063 0.000121 0.000000
-0.000083 -0.000097 0.000176 0.000000
-0.000054 -0.000108 0.000157 0.000000
-0.000041 -0.000121 0.000144 0.000000
-0.000044 -0.000117 0.000150 0.000000
-0.000028 -0.000136 0.000157 0.000000
-0.000035 -0.000130 0.000157 0.000000
-0.000031 -0.000137 0.000182 0.000000
-0.000829 0.000485 0.003067 0.000000
-0.000798 0.000523 0.002607 0.000000
-0.001436 0.000686 0.006975 0.000000
-0.001541 0.001222 0.007591 0.000000
-0.000053 -0.000115 0.000157 0.000000
-0.000047 -0.000134 0.000182 0.000000
-0.000060 -0.000001 0.000109 0.000000
-0.000038 -0.000030 0.000135 0.000000
-0.000071 -0.000079 0.000147 0.000000
-0.000097 -0.000061 0.000164 0.000000
-0.000050 -0.000103 0.000146 0.000000
-0.000057 -0.000120 0.000181 0.000000
-0.000081 -0.000060 0.000141 0.000000
-0.000128 -0.000044 0.000200 0.000000
-0.000028 -0.000140 0.000165 0.000000
-0.000037 -0.000140 0.000206 0.000000
-0.000019 -0.000145 0.000167 0.000000
-0.000037 -0.000144 0.000195 0.000000
-0.000009 -0.000150 0.000209 0.000000
-0.000461 0.000235 0.002928 0.000000
-0.000802 -0.000265 0.001378 0.000000
-0.001277 0.000380 0.003731 0.000000
-0.002055 0.000282 0.003043 0.000000
-0.001270 -0.000002 0.001835 0.000000
-0.000055 -0.000031 0.000097 0.000000
-0.000059 -0.000030 0.000141 0.000000
-0.000084 -0.000027 0.000144 0.000000
-0.001430 0.000391 0.003058 0.000000
-0.000038 -0.000014 0.000079 0.000000
-0.000065 -0.000017 0.000121 0.000000
-0.000006 -0.000020 0.000061 0.000000
-0.000049 -0.000015 0.000098 0.000000
-0.000228 0.000034 0.000154 0.000000
-0.000065 -0.000071 0.000179 0.000000
-0.000087 -0.000002 0.000080 0.000000
-0.000080 -0.000030 0.000164 0.000000
-0.000074 0.000005 0.000062 0.000000
-0.000079 -0.000012 0.000111 0.000000
-0.000196 0.000130 0.000021 0.000000
-0.000040 -0.000007 -0.000007 0.000000
-0.000770 0.000723 -0.000035 0.000000
-0.000328 0.000256 -0.000014 0.000000
-0.000461 0.000223 0.000466 0.000000
-0.000478 0.000362 -0.000040 0.000000
-0.000346 0.000257 0.000012 0.000000
-0.000042 0.000005 -0.000004 0.000000
-0.000169 0.000053 0.000015 0.000000
-0.000439 0.000275 -0.000023 0.000000
-0.000016 -0.000023 0.000057 0.000000
-0.000030 -0.000014 0.000059 0.000000
-0.000117 -0.000045 0.000435 0.000000
-0.000269 0.000252 0.000329 0.000000
-0.000143 0.000060 0.000394 0.000000
-0.000019 -0.000022 0.000054 0.000000
-0.000353 0.000236 0.001225 0.000000
-0.000322 0.000254 0.001029 0.000000
-0.000406 0.000328 0.001358 0.000000
-0.000521 0.000404 0.000198 0.000000
-0.000705 0.000628 -0.000184 0.000000
-0.000706 0.000663 -0.000024 0.000000
-0.000730 0.000606 0.000126 0.000000
-0.000527 0.000435 0.000096 0.000000
-0.000260 0.000196 -0.000009 0.000000
-0.000080 0.000032 0.000040 0.000000
-0.000050 0.000013 0.000046 0.000000
-0.000154 0.000036 0.000062 0.000000
-0.000085 0.000022 -0.000017 0.000000
-0.000094 0.000025 -0.000018 0.000000
-0.000023 -0.000004 -0.000005 0.000000
-0.000086 0.000022 -0.000004 0.000000
-0.000088 0.000022 -0.000001 0.000000
-0.000059 0.000007 0.000013 0.000000
-0.000030 -0.000006 0.000012 0.000000
-0.000182 0.000100 0.000001 0.000000
-0.000330 0.000175 0.000060 0.000000
-0.000250 0.000161 0.000007 0.000000
-0.000124 0.000057 0.000020 0.000000
-0.000029 -0.000004 0.000015 0.000000
-0.000029 -0.000002 -0.000003 0.000000
-0.000026 -0.000005 -0.000009 0.000000
-0.000074 0.000016 -0.000012 0.000000
-0.000135 0.000055 -0.000018 0.000000
-0.000056 0.000006 -0.000014 0.000000
-0.000056 0.000010 -0.000006 0.000000
-0.000069 0.000011 -0.000018 0.000000
-0.000056 -0.000029 -0.000023 0.000000
-0.000083 0.000017 -0.000023 0.000000
-0.000093 -0.000005 -0.000049 0.000000
-0.000108 0.000032 -0.000017 0.000000
-0.000075 0.000016 0.000008 0.000000
-0.000053 0.000008 0.000003 0.000000
-0.000088 0.000022 0.000002 0.000000
-0.000053 0.000006 0.000008 0.000000
-0.000051 0.000005 -0.000002 0.000000
-0.000057 0.000008 -0.000018 0.000000
-0.000072 0.000016 -0.000013 0.000000
-0.000025 -0.000006 0.000008 0.000000
-0.000018 -0.000012 -0.000003 0.000000
-0.000116 0.000035 0.000038 0.000000
-0.000030 -0.000003 0.000031 0.000000
-0.000031 0.000002 0.000008 0.000000
-0.000029 0.000003 0.000009 0.000000
-0.000033 -0.000003 0.000011 0.000000
-0.000023 -0.000007 0.000008 0.000000
-0.000025 0.000001 0.000008 0.000000
-0.000031 -0.000004 0.000016 0.000000
-0.000030 -0.000008 -0.000016 0.000000
-0.000023 -0.000004 0.000013 0.000000
-0.000080 -0.000012 -0.000010 0.000000
-0.000082 -0.000009 -0.000006 0.000000
-0.000080 -0.000013 -0.000002 0.000000
-0.000068 -0.000082 0.000077 0.000000
-0.000018 -0.000010 0.000002 0.000000
-0.000029 -0.000005 0.000012 0.000000
-0.000079 -0.000032 -0.000031 0.000000
-0.000080 -0.000009 -0.000016 0.000000
-0.000205 0.000041 0.000069 0.000000
-0.000030 0.000002 0.000008 0.000000
-0.000037 -0.000037 -0.000029 0.000000
-0.000042 -0.000001 -0.000016 0.000000
-0.000039 -0.000038 -0.000032 0.000000
-0.000066 0.000012 -0.000018 0.000000
-0.000055 -0.000040 -0.000086 0.000000
-0.000094 -0.000058 -0.000028 0.000000
-0.000056 -0.000080 0.000069 0.000000
-0.000067 0.000010 0.000011 0.000000
-0.000059 -0.000033 0.000031 0.000000
-0.000043 -0.000029 0.000006 0.000000
-0.000079 -0.000014 0.000007 0.000000
-0.000078 0.000017 0.000009 0.000000
-0.000076 -0.000017 0.000017 0.000000
-0.000070 0.000012 0.000014 0.000000
-0.000138 -0.000006 -0.000036 0.000000
-0.000162 0.000093 -0.000007 0.000000
-0.000163 0.000082 0.000001 0.000000
-0.000053 -0.000026 0.000004 0.000000
-0.000044 -0.000066 -0.000080 0.000000
-0.000070 -0.000024 -0.000051 0.000000
-0.000084 -0.000033 -0.000078 0.000000
-0.000147 -0.000008 -0.000011 0.000000
-0.000158 0.000038 -0.000007 0.000000
-0.000091 -0.000009 -0.000055 0.000000
-0.000136 -0.000040 -0.000104 0.000000
-0.000105 -0.000021 -0.000074 0.000000
-0.000137 0.000001 -0.000049 0.000000
-0.000054 -0.000034 0.000022 0.000000
-0.000044 -0.000065 -0.000019 0.000000
-0.000077 -0.000013 -0.000051 0.000000
-0.000093 -0.000074 -0.000132 0.000000
-0.000082 -0.000041 -0.000005 0.000000
-0.000107 -0.000079 0.000041 0.000000
-0.000080 -0.000012 0.000011 0.000000
-0.000080 -0.000044 0.000005 0.000000
-0.000061 -0.000029 0.000038 0.000000
-0.000022 -0.000016 -0.000009 0.000000
-0.000057 -0.000060 -0.000060 0.000000
-0.000062 -0.000032 -0.000053 0.000000
-0.000142 -0.000032 -0.000050 0.000000
-0.000145 0.000014 -0.000020 0.000000
-0.000150 0.000014 -0.000003 0.000000
-0.000126 -0.000018 -0.000076 0.000000
-0.000144 -0.000018 -0.000052 0.000000
-0.000128 -0.000017 -0.000065 0.000000
-0.000148 -0.000031 -0.000024 0.000000
-0.000043 -0.000073 0.000013 0.000000
-0.000022 -0.000016 -0.000009 0.000000
-0.000093 -0.000042 -0.000087 0.000000
-0.000122 -0.000061 -0.000130 0.000000
-0.000075 -0.000014 0.000021 0.000000
-0.000079 -0.000044 0.000020 0.000000
-0.000068 -0.000019 0.000029 0.000000
-0.000022 -0.000026 -0.000006 0.000000
-0.000047 -0.000034 0.000027 0.000000
-0.000066 -0.000052 0.000058 0.000000
-0.000050 -0.000032 -0.000046 0.000000
-0.000026 -0.000017 0.000013 0.000000
-0.000074 -0.000010 -0.000029 0.000000
-0.000073 -0.000070 -0.000116 0.000000
-0.000079 -0.000012 -0.000022 0.000000
-0.000094 -0.000071 -0.000028 0.000000
-0.000080 -0.000036 -0.000014 0.000000
-0.000085 -0.000038 -0.000019 0.000000
-0.000144 0.000042 0.000087 0.000000
-0.000042 -0.000019 0.000025 0.000000
-0.000030 -0.000010 0.000018 0.000000
-0.000024 -0.000004 0.000017 0.000000
-0.000034 -0.000048 -0.000021 0.000000
-0.000030 -0.000031 -0.000019 0.000000
-0.000027 -0.000009 0.000018 0.000000
-0.000026 -0.000013 0.000010 0.000000
-0.000028 0.000003 0.000011 0.000000
-0.000037 -0.000012 0.000019 0.000000
-0.000020 -0.000000 0.000008 0.000000
-0.000028 0.000002 0.000010 0.000000
-0.000026 -0.000005 0.000012 0.000000
-0.000020 -0.000002 0.000009 0.000000
-0.000047 -0.000030 -0.000041 0.000000
-0.000041 -0.000086 -0.000066 0.000000
-0.000062 -0.000024 -0.000054 0.000000
-0.000084 -0.000040 -0.000072 0.000000
-0.000074 -0.000014 -0.000036 0.000000
-0.000086 -0.000036 -0.000041 0.000000
-0.000029 0.000003 0.000008 0.000000
-0.000027 -0.000004 0.000013 0.000000
-0.000027 -0.000029 -0.000007 0.000000
-0.000029 -0.000016 0.000019 0.000000
-0.000043 -0.000044 -0.000042 0.000000
-0.000051 -0.000068 -0.000068 0.000000
-0.000350 0.000167 0.000008 0.000000
-0.000293 0.000201 -0.000000 0.000000
-0.000263 0.000084 0.000036 0.000000
-0.000164 0.000046 0.000027 0.000000
-0.000106 0.000016 0.000016 0.000000
-0.000051 0.000007 0.000002 0.000000
-0.000091 0.000009 0.000010 0.000000
-0.000046 0.000005 -0.000003 0.000000
-0.000411 0.000277 0.000009 0.000000
-0.000250 0.000100 0.000022 0.000000
-0.000057 -0.000002 0.000007 0.000000
-0.000345 0.000144 0.000022 0.000000
-0.000355 0.000164 -0.000000 0.000000
-0.000261 0.000121 0.000028 0.000000
-0.000365 0.000164 0.000023 0.000000
-0.000261 0.000086 0.000028 0.000000
-0.000189 0.000029 0.000022 0.000000
-0.000037 0.000001 0.000004 0.000000
-0.000188 0.000046 0.000118 0.000000
-0.000037 -0.000002 0.000004 0.000000
-0.000312 0.000136 0.000014 0.000000
-0.000265 0.000071 0.000126 0.000000
-0.000204 0.000028 0.000030 0.000000
-0.000377 0.000110 0.000124 0.000000
-0.000045 -0.000001 -0.000004 0.000000
-0.000042 0.000005 0.000000 0.000000
-0.000050 0.000002 0.000004 0.000000
-0.000426 0.000114 0.000085 0.000000
-0.000353 0.000149 -0.000014 0.000000
-0.000039 0.000011 0.000014 0.000000
-0.000243 0.000075 0.000047 0.000000
-0.000046 -0.000004 -0.000007 0.000000
-0.000043 0.000002 0.000000 0.000000
-0.000038 0.000014 -0.000019 0.000000
-0.000523 0.000326 0.000072 0.000000
-0.000388 0.000335 -0.000072 0.000000
-0.000422 0.000325 -0.000034 0.000000
-0.000371 0.000107 0.000043 0.000000
-0.000050 0.000030 -0.000021 0.000000
-0.000063 0.000023 0.000022 0.000000
-0.000620 0.000338 0.000184 0.000000
-0.000657 0.000437 0.000075 0.000000
-0.000201 0.000007 0.000158 0.000000
-0.000643 0.000568 0.000129 0.000000
-0.000053 0.000000 -0.000019 0.000000
-0.000614 0.000393 0.000074 0.000000
-0.000169 0.000028 0.000020 0.000000
-0.000656 0.000443 0.000128 0.000000
-0.000042 -0.000001 -0.000012 0.000000
-0.000036 0.000003 -0.000008 0.000000
-0.000806 0.000721 0.000009 0.000000
-0.000699 0.000425 0.000110 0.000000
-0.000806 0.000661 0.000007 0.000000
-0.000317 0.000175 0.000170 0.000000
-0.000512 0.000393 0.000188 0.000000
-0.000656 0.000548 0.000155 0.000000
-0.000042 0.000005 -0.000007 0.000000
-0.000042 0.000012 0.000001 0.000000
-0.000394 0.000340 0.000063 0.000000
-0.000454 0.000281 0.000089 0.000000
-0.000494 0.000339 0.000150 0.000000
-0.000519 0.000281 0.000077 0.000000
-0.000500 0.000338 0.000313 0.000000
-0.000602 0.000524 0.000085 0.000000
-0.000115 0.000011 0.000037 0.000000
-0.000110 0.000033 0.000020 0.000000
-0.000064 0.000011 0.000030 0.000000
-0.000092 0.000003 0.000052 0.000000
-0.000805 0.000724 0.000001 0.000000
-0.000629 0.000501 -0.000092 0.000000
-0.000194 0.000127 -0.000041 0.000000
-0.000644 0.000498 0.000083 0.000000
-0.000522 0.000454 -0.000012 0.000000
-0.000374 0.000315 -0.000002 0.000000
-0.000707 0.000627 -0.000080 0.000000
-0.000671 0.000595 -0.000032 0.000000
-0.000067 0.000013 -0.000030 0.000000
-0.000042 0.000010 -0.000018 0.000000
-0.000503 0.000381 -0.000005 0.000000
-0.000526 0.000396 -0.000057 0.000000
-0.000136 0.000021 0.000028 0.000000
-0.000113 0.000033 0.000005 0.000000
-0.000110 0.000009 0.000026 0.000000
-0.000170 0.000020 0.000043 0.000000
-0.000500 0.000372 0.000079 0.000000
-0.000514 0.000396 -0.000013 0.000000
-0.000522 0.000370 0.000039 0.000000
-0.000422 0.000292 -0.000014 0.000000
-0.000379 0.000241 -0.000020 0.000000
-0.000344 0.000191 -0.000052 0.000000
-0.000202 0.000074 0.000009 0.000000
-0.000185 0.000107 0.000003 0.000000
-0.000188 0.000049 0.000031 0.000000
-0.000327 0.000240 0.000015 0.000000
-0.000327 0.000199 0.000007 0.000000
-0.000350 0.000205 0.000007 0.000000
-0.000231 0.000165 -0.000011 0.000000
-0.000293 0.000173 -0.000003 0.000000
-0.000312 0.000167 0.000016 0.000000
-0.000286 0.000217 0.000010 0.000000
-0.000326 0.000231 -0.000002 0.000000
-0.000192 0.000123 -0.000012 0.000000
-0.000198 0.000119 -0.000001 0.000000
-0.000185 0.000066 0.000007 0.000000
-0.000140 0.000063 0.000017 0.000000
-0.000110 0.000037 0.000072 0.000000
-0.000187 0.000112 -0.000004 0.000000
-0.000177 0.000099 -0.000005 0.000000
-0.000167 0.000083 0.000016 0.000000
-0.000314 0.000243 0.000033 0.000000
-0.000194 0.000049 -0.000018 0.000000
-0.000322 0.000247 -0.000020 0.000000
-0.000057 0.000040 0.000086 0.000000
-0.000402 0.000363 -0.000014 0.000000
-0.000367 0.000327 -0.000006 0.000000
-0.000515 0.000392 -0.000057 0.000000
-0.000034 0.000003 0.000015 0.000000
-0.000361 0.000296 -0.000035 0.000000
-0.000379 0.000287 -0.000005 0.000000
-0.000510 0.000414 0.000273 0.000000
-0.000044 0.000008 -0.000014 0.000000
-0.000054 0.000001 -0.000005 0.000000
-0.000104 0.000041 0.000003 0.000000
-0.000083 0.000022 0.000001 0.000000
-0.000097 0.000010 0.000048 0.000000
-0.000067 0.000006 0.000022 0.000000
-0.000301 0.000228 0.000001 0.000000
-0.000365 0.000279 -0.000009 0.000000
-0.000167 0.000084 0.000029 0.000000
-0.000474 0.000374 0.000001 0.000000
-0.000365 0.000301 -0.000041 0.000000
-0.000301 0.000120 0.000304 0.000000
-0.000248 0.000043 0.000202 0.000000
-0.000201 0.000081 0.000036 0.000000
-0.000169 0.000108 -0.000001 0.000000
-0.000201 0.000127 0.000029 0.000000
-0.000139 0.000033 0.000040 0.000000
-0.000655 0.000596 -0.000229 0.000000
-0.000583 0.000458 -0.000039 0.000000
-0.000357 0.000247 -0.000015 0.000000
-0.000478 0.000383 -0.000086 0.000000
-0.000438 0.000292 -0.000038 0.000000
-0.000328 0.000256 0.000014 0.000000
-0.000317 0.000199 -0.000004 0.000000
-0.000430 0.000332 -0.000015 0.000000
-0.000363 0.000297 0.000020 0.000000
-0.000130 0.000068 -0.000014 0.000000
-0.000033 -0.000004 -0.000000 0.000000
-0.000871 0.000696 0.000097 0.000000
-0.000473 0.000376 -0.000028 0.000000
-0.000331 0.000217 0.000308 0.000000
-0.000487 0.000230 0.001222 0.000000
-0.000228 0.000159 0.000063 0.000000
-0.000299 0.000243 0.000249 0.000000
-0.000442 0.000392 -0.000050 0.000000
-0.000978 0.000717 0.000011 0.000000
-0.000033 -0.000032 0.000092 0.000000
-0.000588 0.000628 0.000744 0.000000
-0.000371 0.000322 0.000556 0.000000
-0.000465 0.000323 0.001324 0.000000
-0.000071 -0.000011 0.000112 0.000000
-0.000061 -0.000014 0.000104 0.000000
-0.000443 0.000097 0.000721 0.000000
-0.000058 -0.000048 0.000156 0.000000
-0.000048 -0.000067 0.000108 0.000000
-0.000048 -0.000075 0.000142 0.000000
-0.000078 -0.000039 0.000164 0.000000
-0.000065 -0.000067 0.000124 0.000000
-0.000115 -0.000023 0.000179 0.000000
-0.000073 -0.000053 0.000158 0.000000
-0.000092 -0.000014 0.000135 0.000000
-0.000076 -0.000042 0.000159 0.000000
-0.000054 -0.000072 0.000150 0.000000
-0.000483 -0.000033 0.002074 0.000000
-0.000082 -0.000007 0.000116 0.000000
-0.000086 -0.000026 0.000147 0.000000
-0.000073 -0.000007 0.000100 0.000000
-0.000079 -0.000020 0.000141 0.000000
-0.000073 -0.000019 0.000132 0.000000
-0.000057 -0.000019 0.000111 0.000000
-0.000440 0.000354 0.001064 0.000000
-0.000377 0.000288 0.001049 0.000000
-0.000393 0.000284 0.000614 0.000000
-0.000120 -0.000008 0.000226 0.000000
-0.000072 -0.000080 0.000228 0.000000
-0.000038 -0.000020 0.000076 0.000000
-0.000054 -0.000006 0.000083 0.000000
-0.000238 0.000217 0.000685 0.000000
-0.000276 0.000010 0.000440 0.000000
-0.001507 0.001252 0.006538 0.000000
-0.000079 -0.000034 0.000107 0.000000
-0.000816 0.000129 0.003591 0.000000
-0.000850 0.000156 0.003383 0.000000
-0.001070 0.000586 0.008177 0.000000
-0.000848 0.000328 0.003635 0.000000
-0.000895 0.000238 0.003766 0.000000
-0.000849 0.000306 0.003546 0.000000
-0.000066 -0.000107 0.000166 0.000000
-0.000069 -0.000096 0.000165 0.000000
-0.000057 -0.000120 0.000172 0.000000
-0.000062 -0.000126 0.000194 0.000000
-0.000101 -0.000046 0.000165 0.000000
-0.000143 -0.000035 0.000261 0.000000
-0.000089 -0.000080 0.000168 0.000000
-0.000106 -0.000061 0.000205 0.000000
-0.000223 -0.000891 0.000641 0.000000
-0.000521 -0.000438 0.002205 0.000000
-0.000154 -0.000039 0.000179 0.000000
-0.000228 0.000029 0.000190 0.000000
-0.000064 -0.000191 0.000099 0.000000
-0.000079 -0.000168 0.000074 0.000000
-0.000085 -0.000150 0.000050 0.000000
-0.000485 -0.000886 0.000577 0.000000
-0.000105 -0.000152 0.000034 0.000000
-0.000348 -0.001034 0.000302 0.000000
-0.000108 -0.001016 0.000489 0.000000
-0.000523 -0.000696 0.000436 0.000000
-0.000180 0.000058 0.000248 0.000000
-0.000861 -0.000621 0.003982 0.000000
-0.000542 -0.001456 0.002492 0.000000
-0.000142 -0.000168 0.000186 0.000000
-0.000150 -0.000109 0.000325 0.000000
-0.000523 -0.001452 0.002152 0.000000
-0.000632 -0.000808 0.001678 0.000000
-0.000196 -0.000114 0.000177 0.000000
-0.000120 -0.000048 0.000217 0.000000
-0.000125 -0.000060 0.000336 0.000000
-0.000084 -0.000170 0.000041 0.000000
-0.000072 -0.000169 0.000060 0.000000
-0.000170 -0.000083 0.000133 0.000000
-0.000467 -0.000700 0.001685 0.000000
-0.000050 -0.000195 0.000122 0.000000
0.000120 -0.001468 0.000366 0.000000
-0.000436 -0.000903 0.000268 0.000000
-0.000363 -0.001021 0.000342 0.000000
-0.000434 -0.000789 0.000354 0.000000
-0.000484 -0.000746 0.001640 0.000000
-0.000184 -0.000092 0.000138 0.000000
-0.000229 -0.000053 0.000122 0.000000
-0.000126 -0.000058 0.000233 0.000000
-0.000093 -0.000125 0.000246 0.000000
-0.000101 -0.000086 0.000198 0.000000
-0.000092 -0.000066 0.000171 0.000000
-0.001404 0.001062 0.002599 0.000000
-0.000192 -0.000387 0.003020 0.000000
-0.000019 -0.000146 0.000199 0.000000
-0.000044 -0.000146 0.000226 0.000000
-0.000030 -0.000147 0.000207 0.000000
-0.000030 -0.000147 0.000217 0.000000
-0.000270 -0.000330 0.000938 0.000000
-0.000079 -0.000043 0.000031 0.000000
-0.000972 0.000327 0.003050 0.000000
-0.000856 -0.000161 0.001331 0.000000
-0.000925 0.000243 0.003999 0.000000
-0.001354 0.000517 0.002344 0.000000
-0.001711 0.001511 0.008365 0.000000
-0.000266 -0.000478 0.001316 0.000000
-0.000052 -0.000076 0.000112 0.000000
-0.000037 -0.000073 0.000142 0.000000
-0.000176 -0.000336 0.001012 0.000000
-0.000402 -0.000369 0.000796 0.000000
-0.000509 -0.000488 0.001075 0.000000
-0.000243 -0.000360 0.000881 0.000000
-0.002648 0.001750 0.005646 0.000000
-0.002018 0.001830 0.003951 0.000000
-0.000319 -0.000395 0.000687 0.000000
-0.000056 -0.000064 0.000071 0.000000
-0.000077 -0.000113 0.000200 0.000000
-0.000068 -0.000110 0.000184 0.000000
-0.000048 -0.000143 0.000219 0.000000
-0.000063 -0.000137 0.000222 0.000000
-0.000091 -0.000093 0.000203 0.000000
-0.000113 -0.000081 0.000228 0.000000
-0.000062 -0.000121 0.000196 0.000000
-0.000054 -0.000137 0.000205 0.000000
-0.000518 -0.000864 0.001969 0.000000
-0.000149 -0.001416 0.002136 0.000000
-0.000110 -0.000128 0.000401 0.000000
-0.000137 -0.000115 0.000419 0.000000
-0.000372 -0.000905 0.000313 0.000000
-0.000085 -0.001447 0.000114 0.000000
-0.000183 -0.000063 0.000097 0.000000
-0.000165 -0.000051 0.000188 0.000000
-0.000064 -0.000194 0.000129 0.000000
0.000452 -0.001840 0.000873 0.000000
-0.000483 -0.000790 0.000400 0.000000
-0.000482 -0.000850 0.000339 0.000000
-0.000541 -0.000551 0.001721 0.000000
-0.000732 -0.000149 0.003193 0.000000
-0.000120 -0.000108 0.000365 0.000000
-0.000153 -0.000084 0.000388 0.000000
-0.000116 -0.000097 0.000306 0.000000
-0.000135 -0.000071 0.000305 0.000000
-0.000100 -0.000094 0.000252 0.000000
-0.000109 -0.000072 0.000243 0.000000
-0.000098 -0.000078 0.000207 0.000000
-0.000102 -0.000087 0.000283 0.000000
-0.000260 -0.000993 0.001023 0.000000
-0.000051 -0.001578 0.001775 0.000000
0.000001 -0.001363 0.001652 0.000000
-0.000039 -0.000155 0.000328 0.000000
-0.000537 -0.000768 0.000563 0.000000
-0.000379 -0.001032 0.000218 0.000000
-0.000573 -0.000567 0.001710 0.000000
-0.000889 -0.000452 0.001918 0.000000
-0.000099 -0.000092 0.000327 0.000000
-0.000087 -0.000114 0.000364 0.000000
-0.000095 -0.000107 0.000218 0.000000
-0.000109 -0.000095 0.000261 0.000000
-0.000069 -0.000128 0.000212 0.000000
-0.000048 -0.000141 0.000220 0.000000
-0.000064 -0.000136 0.000221 0.000000
-0.000072 -0.000140 0.000232 0.000000
-0.000085 -0.000113 0.000204 0.000000
-0.000091 -0.000100 0.000199 0.000000
-0.000089 -0.000116 0.000217 0.000000
-0.000069 -0.000129 0.000211 0.000000
-0.000057 -0.000155 0.000242 0.000000
-0.001533 0.001252 0.003075 0.000000
-0.000458 -0.000345 0.001143 0.000000
-0.000273 -0.000282 0.000444 0.000000
-0.001847 0.000897 0.003298 0.000000
-0.001292 0.000157 0.002738 0.000000
-0.002290 0.001517 0.004646 0.000000
-0.000924 0.000616 0.001812 0.000000
-0.000296 -0.000315 0.000490 0.000000
-0.000053 -0.000064 0.000073 0.000000
-0.000066 -0.000065 0.000109 0.000000
-0.000056 -0.000069 0.000129 0.000000
-0.000092 -0.000027 0.000146 0.000000
-0.000082 -0.000014 0.000130 0.000000
-0.000872 0.000813 0.000826 0.000000
-0.000887 0.000429 0.001236 0.000000
-0.000404 0.000088 0.001103 0.000000
-0.000621 0.000267 0.000977 0.000000
-0.000085 -0.000022 0.000145 0.000000
-0.000093 -0.000016 0.000138 0.000000
-0.000063 -0.000022 0.000126 0.000000
-0.000084 -0.000024 0.000150 0.000000
-0.000062 -0.000068 0.000117 0.000000
-0.000068 -0.000056 0.000147 0.000000
-0.000063 -0.000052 0.000164 0.000000
-0.000074 -0.000056 0.000149 0.000000
-0.000051 -0.000063 0.000121 0.000000
-0.000055 -0.000068 0.000109 0.000000
-0.000076 -0.000042 0.000160 0.000000
-0.000077 -0.000051 0.000151 0.000000
-0.000087 -0.000030 0.000165 0.000000
-0.000077 -0.000045 0.000162 0.000000
-0.000084 -0.000025 0.000150 0.000000
-0.000085 -0.000021 0.000144 0.000000
-0.000077 -0.000011 0.000120 0.000000
-0.000084 -0.000014 0.000131 0.000000
-0.000500 0.000309 0.001290 0.000000
-0.000387 0.000249 0.001135 0.000000
-0.000050 -0.000030 0.000122 0.000000
-0.000072 -0.000024 0.000140 0.000000
-0.000034 -0.000042 0.000119 0.000000
-0.000058 -0.000027 0.000121 0.000000
-0.000420 0.000427 0.000515 0.000000
-0.000042 -0.000039 0.000118 0.000000
-0.000443 0.000214 0.001087 0.000000
-0.000352 0.000100 0.000526 0.000000
-0.000270 0.000065 0.000184 0.000000
-0.000231 0.000087 0.000107 0.000000
-0.000570 0.000314 0.001329 0.000000
-0.000463 0.000302 0.000990 0.000000
-0.000191 0.000060 0.000050 0.000000
-0.000209 0.000100 0.000073 0.000000
-0.000100 0.000034 0.000053 0.000000
-0.000211 0.000045 0.000063 0.000000
-0.000581 0.000498 -0.000084 0.000000
-0.000483 0.000348 0.000047 0.000000
-0.000627 0.000465 0.000007 0.000000
-0.000730 0.000632 0.000055 0.000000
-0.000662 0.000443 -0.000040 0.000000
-0.000431 0.000318 0.000006 0.000000
-0.000571 0.000359 -0.000091 0.000000
-0.000563 0.000422 -0.000116 0.000000
-0.000363 0.000168 -0.000011 0.000000
-0.000317 0.000199 -0.000002 0.000000
-0.000325 0.000195 -0.000016 0.000000
-0.000303 0.000182 -0.000006 0.000000
-0.000025 -0.000003 -0.000010 0.000000
-0.000029 -0.000006 -0.000011 0.000000
-0.000910 0.000682 0.000011 0.000000
-0.000887 0.000700 -0.000009 0.000000
-0.000564 0.000263 0.001166 0.000000
-0.000351 0.000053 0.000614 0.000000
-0.000277 0.000037 0.000245 0.000000
-0.000255 0.000093 0.000091 0.000000
-0.000258 0.000077 0.000183 0.000000
-0.000197 0.000035 0.000025 0.000000
-0.000128 0.000045 0.000072 0.000000
-0.000275 0.000062 0.000134 0.000000
-0.000032 -0.000002 0.000001 0.000000
-0.000044 0.000001 -0.000020 0.000000
-0.000375 0.000185 -0.000047 0.000000
-0.000572 0.000296 -0.000176 0.000000
-0.000571 0.000363 -0.000091 0.000000
-0.000442 0.000242 -0.000073 0.000000
-0.000036 0.000001 -0.000015 0.000000
-0.000040 -0.000002 -0.000006 0.000000
-0.000624 0.000437 0.000099 0.000000
-0.000908 0.000776 -0.000020 0.000000
-0.000046 -0.000007 -0.000014 0.000000
-0.000193 0.000062 0.000136 0.000000
-0.000922 0.000732 -0.000060 0.000000
-0.001086 0.000819 -0.000044 0.000000
-0.000572 0.000271 0.000048 0.000000
-0.000377 0.000183 0.000020 0.000000
-0.000325 0.000151 -0.000012 0.000000
-0.001010 0.000572 0.000154 0.000000
-0.000455 0.000158 -0.000047 0.000000
-0.000376 0.000149 -0.000021 0.000000
-0.000456 0.000206 -0.000078 0.000000
-0.000732 0.000439 -0.000056 0.000000
-0.000546 0.000236 0.000169 0.000000
-0.000510 0.000186 -0.000023 0.000000
-0.000431 0.000162 -0.000044 0.000000
-0.000364 0.000123 -0.000006 0.000000
-0.000276 -0.000011 0.000229 0.000000
-0.000297 0.000034 0.000461 0.000000
-0.000059 -0.000009 -0.000013 0.000000
-0.000251 0.000017 0.000172 0.000000
-0.000550 0.000276 0.001132 0.000000
-0.000564 0.000229 0.001140 0.000000
-0.000340 0.000067 0.000281 0.000000
-0.000362 0.000085 0.000203 0.000000
-0.000040 -0.000004 0.000008 0.000000
-0.000081 -0.000007 -0.000016 0.000000
-0.000117 -0.000022 0.000167 0.000000
-0.001119 0.000622 0.001302 0.000000
-0.000086 -0.000060 0.000211 0.000000
-0.000562 0.000187 0.001219 0.000000
-0.000088 -0.000038 0.000149 0.000000
-0.000073 -0.000048 0.000155 0.000000
-0.000128 -0.000072 0.000293 0.000000
-0.000068 -0.000049 0.000166 0.000000
-0.000074 -0.000066 0.000118 0.000000
-0.000061 -0.000069 0.000082 0.000000
-0.000083 -0.000050 0.000150 0.000000
-0.000081 -0.000043 0.000157 0.000000
-0.000082 -0.000049 0.000059 0.000000
-0.000064 -0.000058 0.000055 0.000000
-0.000074 -0.000060 0.000070 0.000000
-0.000077 -0.000063 0.000087 0.000000
-0.000109 -0.000042 0.000041 0.000000
-0.000064 -0.000058 0.000055 0.000000
-0.000073 -0.000065 0.000134 0.000000
-0.000059 -0.000068 0.000112 0.000000
-0.000100 -0.000033 0.000148 0.000000
-0.000103 -0.000027 0.000147 0.000000
-0.000090 -0.000017 0.000137 0.000000
-0.000115 -0.000018 0.000143 0.000000
-0.000083 -0.000050 0.000148 0.000000
-0.000081 -0.000039 0.000153 0.000000
-0.000074 -0.000033 0.000156 0.000000
-0.000083 -0.000021 0.000140 0.000000
-0.000243 -0.000388 0.000502 0.000000
-0.000938 0.000137 0.002094 0.000000
-0.000061 -0.000067 0.000096 0.000000
-0.000069 -0.000066 0.000103 0.000000
-0.000067 -0.000066 0.000150 0.000000
-0.000067 -0.000064 0.000126 0.000000
-0.000061 -0.000144 0.000226 0.000000
-0.000034 -0.000161 0.000234 0.000000
-0.000062 -0.000159 0.000233 0.000000
-0.000056 -0.000175 0.000269 0.000000
-0.000081 -0.000127 0.000219 0.000000
-0.000085 -0.000129 0.000225 0.000000
-0.002151 0.001376 0.004620 0.000000
-0.002538 0.001686 0.004655 0.000000
-0.000097 -0.000109 0.000239 0.000000
-0.000081 -0.000122 0.000215 0.000000
-0.000086 -0.000115 0.000212 0.000000
-0.000088 -0.000124 0.000221 0.000000
-0.000085 -0.000114 0.000304 0.000000
-0.000097 -0.000098 0.000231 0.000000
-0.000099 -0.000114 0.000259 0.000000
-0.000093 -0.000108 0.000244 0.000000
-0.000791 -0.000570 0.003936 0.000000
-0.000495 -0.000870 0.000373 0.000000
-0.000451 -0.000790 0.000957 0.000000
-0.000046 -0.000136 0.000282 0.000000
-0.000493 -0.000850 0.000329 0.000000
-0.000473 -0.000727 0.001724 0.000000
-0.000563 -0.000661 0.000629 0.000000
-0.000460 -0.000771 0.000456 0.000000
-0.000335 -0.001185 0.000616 0.000000
-0.000277 -0.001225 0.000331 0.000000
-0.000967 0.000126 0.003680 0.000000
-0.000938 -0.000359 0.003610 0.000000
-0.000496 -0.000702 0.000903 0.000000
-0.000612 -0.000371 0.001600 0.000000
-0.000065 -0.001311 0.001718 0.000000
-0.000218 -0.001244 0.001249 0.000000
-0.000061 -0.000149 0.000337 0.000000
-0.000053 -0.000124 0.000311 0.000000
-0.000328 -0.001046 0.001310 0.000000
-0.000369 -0.000786 0.001005 0.000000
-0.000055 -0.000151 0.000352 0.000000
-0.000046 -0.000161 0.000312 0.000000
-0.000018 -0.001674 0.001718 0.000000
-0.000413 -0.000997 0.000413 0.000000
-0.000535 -0.000760 0.000537 0.000000
-0.000204 -0.000187 0.000453 0.000000
0.000019 -0.001978 0.001994 0.000000
0.000407 -0.002465 0.001226 0.000000
0.000209 -0.001691 0.001593 0.000000
-0.000180 -0.001446 0.000580 0.000000
-0.000433 -0.001050 0.000584 0.000000
0.000244 -0.001040 0.000062 0.000000
-0.000060 -0.000113 0.000318 0.000000
-0.000014 -0.001181 0.001529 0.000000
-0.000101 -0.000117 0.000289 0.000000
-0.000092 -0.000108 0.000222 0.000000
-0.000087 -0.000122 0.000255 0.000000
-0.000092 -0.000148 0.000219 0.000000
-0.000068 -0.000142 0.000302 0.000000
-0.000098 -0.000127 0.000331 0.000000
-0.000086 -0.000140 0.000298 0.000000
-0.000092 -0.000109 0.000272 0.000000
-0.000075 -0.000132 0.000222 0.000000
-0.000072 -0.000140 0.000227 0.000000
-0.001083 0.000816 0.001929 0.000000
-0.002268 0.001378 0.004722 0.000000
-0.000093 -0.000115 0.000228 0.000000
-0.000087 -0.000123 0.000219 0.000000
-0.000069 -0.000148 0.000232 0.000000
-0.000060 -0.000153 0.000229 0.000000
-0.000079 -0.000145 0.000239 0.000000
-0.000069 -0.000137 0.000215 0.000000
-0.000076 -0.000155 0.000245 0.000000
-0.000073 -0.000163 0.000243 0.000000
-0.000085 -0.000055 0.000080 0.000000
-0.000069 -0.000060 0.000072 0.000000
-0.000102 -0.000050 0.000083 0.000000
-0.000093 -0.000055 0.000079 0.000000
-0.000089 -0.000058 0.000093 0.000000
-0.000073 -0.000062 0.000095 0.000000
-0.000089 -0.000117 0.000217 0.000000
-0.000094 -0.000145 0.000229 0.000000
-0.000087 -0.000142 0.000237 0.000000
-0.000065 -0.000160 0.000233 0.000000
-0.000090 -0.000129 0.000225 0.000000
-0.000075 -0.000133 0.000222 0.000000
-0.000085 -0.000132 0.000225 0.000000
-0.000081 -0.000136 0.000232 0.000000
-0.000044 -0.000146 0.000305 0.000000
-0.000038 -0.000163 0.000309 0.000000
-0.000092 -0.000132 0.000226 0.000000
-0.000091 -0.000120 0.000223 0.000000
0.000108 -0.001826 0.001833 0.000000
0.000175 -0.001510 0.001341 0.000000
-0.000617 -0.000628 0.000752 0.000000
-0.000715 -0.000878 0.003296 0.000000
-0.000379 -0.001057 0.000560 0.000000
-0.000145 -0.001539 0.001129 0.000000
-0.000602 -0.000725 0.001876 0.000000
-0.000183 -0.000186 0.000322 0.000000
-0.000402 -0.000856 0.001559 0.000000
-0.000433 -0.000724 0.001035 0.000000
-0.000043 -0.000155 0.000282 0.000000
-0.000041 -0.000169 0.000319 0.000000
-0.000070 -0.000161 0.000287 0.000000
-0.000053 -0.000158 0.000318 0.000000
-0.000071 -0.000167 0.000259 0.000000
-0.000092 -0.000131 0.000270 0.000000
-0.000069 -0.000151 0.000273 0.000000
-0.000087 -0.000141 0.000251 0.000000
0.000223 -0.001863 0.001683 0.000000
-0.000063 -0.000322 0.000175 0.000000
-0.000060 -0.000097 0.000343 0.000000
-0.000173 -0.001013 0.001478 0.000000
-0.000479 -0.000817 0.000838 0.000000
-0.000544 -0.000832 0.000602 0.000000
-0.000519 -0.001025 0.002450 0.000000
-0.000066 -0.000101 0.000308 0.000000
-0.000045 -0.000138 0.000314 0.000000
-0.000057 -0.000124 0.000290 0.000000
-0.000077 -0.000177 0.000243 0.000000
-0.000046 -0.000175 0.000277 0.000000
-0.000089 -0.000129 0.000224 0.000000
-0.000094 -0.000139 0.000226 0.000000
-0.000082 -0.000137 0.000227 0.000000
-0.000091 -0.000140 0.000232 0.000000
-0.000091 -0.000141 0.000230 0.000000
-0.000091 -0.000120 0.000238 0.000000
-0.000092 -0.000124 0.000228 0.000000
-0.000087 -0.000148 0.000237 0.000000
-0.000104 -0.000052 0.000084 0.000000
-0.000097 -0.000047 0.000064 0.000000
-0.000090 -0.000063 0.000124 0.000000
-0.000074 -0.000063 0.000112 0.000000
-0.000078 -0.000154 0.000235 0.000000
-0.000086 -0.000160 0.000234 0.000000
-0.000060 -0.000188 0.000212 0.000000
-0.000082 -0.000162 0.000248 0.000000
-0.001503 0.000560 0.003458 0.000000
-0.000101 -0.000052 0.000087 0.000000
-0.000109 -0.000043 0.000136 0.000000
-0.000114 -0.000034 0.000136 0.000000
-0.000093 -0.000033 0.000153 0.000000
-0.000105 -0.000040 0.000142 0.000000
-0.000071 -0.000053 0.000188 0.000000
-0.000236 -0.000178 0.000528 0.000000
-0.001581 0.000954 0.001838 0.000000
-0.001353 0.000820 0.001508 0.000000
-0.000102 -0.000018 0.000146 0.000000
-0.000123 -0.000021 0.000136 0.000000
-0.000098 -0.000022 0.000159 0.000000
-0.000128 -0.000017 0.000140 0.000000
-0.000083 -0.000063 0.000121 0.000000
-0.000090 -0.000063 0.000112 0.000000
-0.000109 -0.000032 0.000142 0.000000
-0.000103 -0.000021 0.000143 0.000000
-0.000080 -0.000058 0.000142 0.000000
-0.000096 -0.000055 0.000137 0.000000
-0.000096 -0.000041 0.000149 0.000000
-0.000091 -0.000046 0.000146 0.000000
-0.000096 -0.000036 0.000147 0.000000
-0.000105 -0.000035 0.000142 0.000000
-0.000100 -0.000027 0.000145 0.000000
-0.000109 -0.000027 0.000141 0.000000
-0.000113 -0.000021 0.000141 0.000000
-0.000104 -0.000022 0.000147 0.000000
-0.000103 -0.000020 0.000150 0.000000
-0.000103 -0.000018 0.000142 0.000000
-0.000089 -0.000032 0.000174 0.000000
-0.000116 -0.000017 0.000163 0.000000
-0.000107 -0.000035 0.000189 0.000000
-0.000107 -0.000027 0.000191 0.000000
-0.001108 0.001014 0.001022 0.000000
-0.000088 -0.000052 0.000229 0.000000
-0.000311 -0.000170 0.000480 0.000000
-0.000067 -0.000002 0.000012 0.000000
-0.000066 -0.000007 -0.000016 0.000000
-0.000071 -0.000002 -0.000006 0.000000
-0.000318 0.000003 0.000554 0.000000
-0.000499 0.000177 0.000915 0.000000
-0.000061 -0.000004 -0.000001 0.000000
-0.000054 -0.000004 0.000005 0.000000
-0.000066 0.000001 0.000017 0.000000
-0.001295 0.000920 -0.000179 0.000000
-0.000979 0.000745 0.000010 0.000000
-0.001003 0.000467 0.000328 0.000000
-0.001271 0.000979 0.000132 0.000000
-0.000896 0.000686 0.000154 0.000000
-0.000425 0.000115 0.000003 0.000000
-0.001140 0.000541 0.000087 0.000000
-0.000719 0.000398 0.000038 0.000000
-0.000608 0.000358 -0.000088 0.000000
-0.001101 0.000575 -0.000049 0.000000
-0.000529 0.000156 -0.000047 0.000000
-0.000639 0.000282 -0.000187 0.000000
-0.000644 0.000234 0.000076 0.000000
-0.000083 -0.000000 0.000026 0.000000
-0.000094 0.000006 0.000011 0.000000
-0.000895 0.000535 0.000188 0.000000
-0.001252 0.001057 -0.000350 0.000000
-0.000517 0.000039 0.000210 0.000000
-0.001623 0.000917 0.002524 0.000000
-0.000184 0.000013 0.000051 0.000000
-0.000071 -0.000010 -0.000005 0.000000
-0.000115 0.000004 0.000003 0.000000
-0.000100 0.000003 0.000001 0.000000
-0.000075 0.000001 -0.000009 0.000000
-0.000094 0.000001 -0.000007 0.000000
-0.000689 0.000284 -0.000008 0.000000
-0.001063 0.000516 0.000595 0.000000
-0.000649 0.000383 0.000120 0.000000
-0.000710 0.000418 0.000066 0.000000
-0.000548 0.000367 0.000653 0.000000
-0.000258 0.000116 0.000053 0.000000
-0.000086 -0.000001 -0.000003 0.000000
-0.000085 -0.000008 -0.000006 0.000000
-0.000077 -0.000006 -0.000016 0.000000
-0.000399 0.000097 -0.000049 0.000000
-0.000099 0.000003 -0.000015 0.000000
-0.000501 0.000150 -0.000238 0.000000
-0.000060 -0.000003 -0.000009 0.000000
-0.000779 0.000311 -0.000332 0.000000
-0.000081 0.000009 -0.000037 0.000000
-0.000509 0.000052 -0.000162 0.000000
-0.000688 0.000300 -0.000268 0.000000
-0.000490 0.000103 -0.000260 0.000000
-0.000460 0.000040 0.000195 0.000000
-0.000050 0.000010 -0.000008 0.000000
-0.000486 0.000126 0.000067 0.000000
-0.000413 -0.000001 0.000024 0.000000
-0.000065 -0.000008 0.000002 0.000000
-0.000056 -0.000007 0.000002 0.000000
-0.000350 -0.000007 0.000135 0.000000
-0.000053 -0.000006 0.000022 0.000000
-0.000057 -0.000006 -0.000004 0.000000
-0.000061 -0.000009 -0.000002 0.000000
-0.000366 0.000104 0.000093 0.000000
-0.000443 0.000090 0.000024 0.000000
-0.000062 -0.000005 -0.000006 0.000000
-0.000321 0.000048 0.000104 0.000000
-0.000053 -0.000007 -0.000009 0.000000
-0.000051 -0.000007 -0.000006 0.000000
-0.000068 -0.000020 0.000014 0.000000
-0.000070 -0.000018 -0.000002 0.000000
-0.000395 0.000101 0.000165 0.000000
-0.000486 0.000132 0.000178 0.000000
-0.000063 -0.000005 0.000007 0.000000
-0.000380 0.000092 0.000011 0.000000
-0.000054 -0.000011 0.000006 0.000000
-0.000445 0.000084 0.000013 0.000000
-0.000442 0.000118 0.000116 0.000000
-0.000410 0.000087 0.000001 0.000000
-0.000380 0.000108 0.000150 0.000000
-0.000373 0.000035 0.000243 0.000000
-0.000343 0.000071 0.000187 0.000000
-0.000052 -0.000010 0.000020 0.000000
-0.000484 0.000169 0.000146 0.000000
-0.000603 0.000316 0.000155 0.000000
-0.000052 -0.000007 -0.000008 0.000000
-0.000039 -0.000000 -0.000008 0.000000
-0.000053 -0.000003 -0.000004 0.000000
-0.000078 0.000000 0.000003 0.000000
-0.000065 0.000001 -0.000001 0.000000
-0.000057 0.000003 -0.000013 0.000000
-0.000106 -0.000107 0.000241 0.000000
-0.000061 0.000015 -0.000003 0.000000
-0.000175 -0.000062 -0.000105 0.000000
-0.000330 -0.000126 0.000099 0.000000
-0.000530 0.000211 -0.000217 0.000000
-0.000572 0.000227 -0.000331 0.000000
-0.000061 -0.000003 -0.000023 0.000000
-0.000699 0.000332 -0.000212 0.000000
-0.000571 0.000389 -0.000072 0.000000
-0.000106 0.000005 0.000346 0.000000
-0.000645 0.000336 -0.000250 0.000000
-0.000473 0.000134 -0.000154 0.000000
-0.000057 0.000001 -0.000022 0.000000
-0.000452 0.000227 -0.000064 0.000000
-0.000643 0.000359 -0.000068 0.000000
-0.000678 0.000335 0.000225 0.000000
-0.000591 0.000324 -0.000023 0.000000
-0.000697 0.000421 0.000018 0.000000
-0.000469 0.000165 0.000060 0.000000
-0.000316 -0.000046 0.000130 0.000000
-0.000064 -0.000002 -0.000015 0.000000
-0.000053 -0.000005 -0.000016 0.000000
-0.000065 0.000010 0.000003 0.000000
-0.000074 0.000018 0.000005 0.000000
-0.000061 0.000010 0.000006 0.000000
-0.000523 0.000207 0.000237 0.000000
-0.000053 -0.000001 -0.000013 0.000000
-0.000047 -0.000002 -0.000019 0.000000
-0.000050 0.000001 -0.000016 0.000000
-0.000055 -0.000001 -0.000018 0.000000
-0.000571 0.000314 -0.000036 0.000000
-0.000561 0.000379 -0.000058 0.000000
-0.000678 0.000467 -0.000029 0.000000
-0.000592 0.000423 -0.000046 0.000000
-0.000553 0.000398 -0.000023 0.000000
-0.000656 0.000413 -0.000098 0.000000
-0.000520 0.000296 -0.000024 0.000000
-0.000629 0.000432 -0.000048 0.000000
-0.000488 0.000201 0.000001 0.000000
-0.000524 0.000322 0.000137 0.000000
-0.000656 0.000338 -0.000174 0.000000
-0.000140 0.000006 0.000098 0.000000
-0.000580 0.000320 -0.000157 0.000000
-0.000503 0.000336 0.000201 0.000000
-0.000051 0.000008 0.000000 0.000000
-0.000049 0.000002 -0.000016 0.000000
-0.000395 0.000110 0.000166 0.000000
-0.000058 0.000027 0.000007 0.000000
-0.000288 0.000083 0.000039 0.000000
-0.000051 0.000000 -0.000003 0.000000
-0.000052 -0.000000 -0.000006 0.000000
-0.000045 -0.000005 -0.000009 0.000000
-0.000496 0.000302 0.000096 0.000000
-0.000539 0.000305 0.000167 0.000000
-0.000371 0.000190 0.000033 0.000000
-0.000325 0.000074 0.000066 0.000000
-0.000041 0.000000 0.000004 0.000000
-0.000049 -0.000005 0.000003 0.000000
-0.000381 0.000124 0.000007 0.000000
-0.000393 0.000112 0.000075 0.000000
-0.000042 -0.000002 -0.000005 0.000000
-0.000052 -0.000004 -0.000005 0.000000
-0.000042 -0.000002 -0.000001 0.000000
-0.000054 -0.000002 0.000009 0.000000
-0.000248 0.000044 0.000098 0.000000
-0.000057 -0.000004 -0.000000 0.000000
-0.000046 -0.000005 -0.000003 0.000000
-0.000052 -0.000005 -0.000001 0.000000
-0.000044 -0.000001 0.000004 0.000000
-0.000054 -0.000004 0.000002 0.000000
-0.000060 0.000017 0.000001 0.000000
-0.000484 0.000093 0.000007 0.000000
-0.000568 0.000238 0.000150 0.000000
-0.000599 0.000302 0.000171 0.000000
-0.000449 0.000151 0.000129 0.000000
-0.000496 0.000225 0.000108 0.000000
-0.000044 -0.000001 0.000008 0.000000
-0.000050 -0.000003 0.000001 0.000000
-0.000049 0.000002 -0.000001 0.000000
-0.000050 -0.000004 0.000005 0.000000
-0.000365 0.000136 0.000036 0.000000
-0.000409 0.000094 0.000029 0.000000
-0.000323 0.000101 0.000079 0.000000
-0.000394 0.000125 0.000071 0.000000
-0.000036 -0.000006 0.000013 0.000000
-0.000042 -0.000008 0.000016 0.000000
-0.000034 -0.000008 0.000017 0.000000
-0.000034 -0.000013 0.000019 0.000000
-0.000033 -0.000016 0.000017 0.000000
-0.000028 -0.000009 0.000018 0.000000
-0.000031 -0.000014 0.000015 0.000000
-0.000028 -0.000017 0.000014 0.000000
-0.000026 -0.000010 0.000014 0.000000
-0.000091 -0.000087 -0.000117 0.000000
-0.000086 -0.000050 -0.000044 0.000000
-0.000084 -0.000048 -0.000073 0.000000
-0.000032 -0.000003 0.000014 0.000000
-0.000036 -0.000011 0.000017 0.000000
-0.000032 -0.000008 0.000016 0.000000
-0.000035 -0.000012 0.000018 0.000000
-0.000036 -0.000003 0.000010 0.000000
-0.000042 -0.000004 0.000011 0.000000
-0.000029 -0.000012 0.000019 0.000000
-0.000030 -0.000009 0.000014 0.000000
-0.000031 -0.000003 0.000011 0.000000
-0.000037 -0.000007 0.000015 0.000000
-0.000029 -0.000003 0.000013 0.000000
-0.000033 -0.000007 0.000015 0.000000
-0.000025 -0.000007 0.000019 0.000000
-0.000028 -0.000008 0.000014 0.000000
-0.000080 -0.000039 -0.000001 0.000000
-0.000082 -0.000096 0.000010 0.000000
-0.000027 -0.000012 0.000017 0.000000
-0.000028 -0.000012 0.000014 0.000000
-0.000029 -0.000021 0.000019 0.000000
-0.000095 -0.000054 -0.000057 0.000000
-0.000021 -0.000027 0.000006 0.000000
-0.000095 -0.000064 -0.000062 0.000000
-0.000079 -0.000040 0.000012 0.000000
-0.000072 -0.000109 0.000015 0.000000
-0.000071 -0.000045 0.000044 0.000000
-0.000088 -0.000070 0.000033 0.000000
-0.000075 -0.000048 0.000035 0.000000
-0.000075 -0.000042 0.000026 0.000000
-0.000057 -0.000057 0.000053 0.000000
-0.000056 -0.000079 0.000097 0.000000
-0.000049 -0.000079 0.000048 0.000000
-0.000023 -0.000015 -0.000010 0.000000
-0.000076 -0.000042 -0.000082 0.000000
-0.000092 -0.000073 -0.000135 0.000000
-0.000023 -0.000017 -0.000004 0.000000
-0.000027 -0.000075 0.000027 0.000000
-0.000024 -0.000017 -0.000006 0.000000
-0.000060 -0.000070 -0.000108 0.000000
-0.000137 -0.000031 -0.000089 0.000000
-0.000159 -0.000050 -0.000049 0.000000
-0.000144 -0.000020 -0.000010 0.000000
-0.000046 -0.000082 0.000078 0.000000
-0.000039 -0.000079 0.000060 0.000000
-0.000119 -0.000031 -0.000094 0.000000
-0.000127 -0.000050 -0.000119 0.000000
-0.000079 -0.000070 0.000008 0.000000
-0.000083 -0.000070 0.000005 0.000000
-0.000073 -0.000067 0.000046 0.000000
-0.000079 -0.000067 0.000024 0.000000
-0.000022 -0.000022 0.000005 0.000000
-0.000025 -0.000021 0.000004 0.000000
-0.000023 -0.000022 -0.000008 0.000000
-0.000023 -0.000019 -0.000003 0.000000
-0.000148 -0.000045 -0.000089 0.000000
-0.000156 -0.000049 -0.000025 0.000000
-0.000032 -0.000023 -0.000015 0.000000
-0.000168 -0.000085 -0.000196 0.000000
-0.000106 -0.000081 -0.000154 0.000000
-0.000192 -0.000042 -0.000121 0.000000
-0.000150 -0.000041 -0.000069 0.000000
-0.000155 -0.000057 -0.000113 0.000000
-0.000151 -0.000042 -0.000013 0.000000
-0.000029 -0.000025 0.000014 0.000000
-0.000024 -0.000023 -0.000010 0.000000
-0.000026 -0.000021 -0.000011 0.000000
-0.000029 -0.000032 -0.000020 0.000000
-0.000085 -0.000075 0.000021 0.000000
-0.000080 -0.000073 0.000012 0.000000
-0.000019 -0.000035 -0.000008 0.000000
-0.000022 -0.000018 -0.000005 0.000000
-0.000025 -0.000020 0.000002 0.000000
-0.000033 -0.000035 0.000026 0.000000
-0.000075 -0.000081 -0.000128 0.000000
-0.000034 -0.000030 0.000024 0.000000
-0.000037 -0.000005 0.000008 0.000000
-0.000047 -0.000006 0.000013 0.000000
-0.000030 -0.000019 0.000016 0.000000
-0.000029 -0.000024 0.000016 0.000000
-0.000044 -0.000003 0.000006 0.000000
-0.000051 -0.000001 0.000014 0.000000
-0.000048 -0.000010 0.000022 0.000000
-0.000045 -0.000011 0.000021 0.000000
-0.000037 -0.000008 0.000013 0.000000
-0.000041 -0.000011 0.000016 0.000000
-0.000035 -0.000015 0.000022 0.000000
-0.000032 -0.000023 0.000021 0.000000
-0.000089 -0.000089 -0.000107 0.000000
-0.000107 -0.000081 -0.000042 0.000000
-0.000035 -0.000020 0.000022 0.000000
-0.000039 -0.000034 0.000027 0.000000
-0.000027 -0.000029 0.000019 0.000000
-0.000026 -0.000022 0.000012 0.000000
-0.000040 -0.000010 0.000018 0.000000
-0.000043 -0.000027 0.000030 0.000000
-0.000036 -0.000013 0.000019 0.000000
-0.000039 -0.000023 0.000024 0.000000
-0.000045 -0.000011 0.000021 0.000000
-0.000047 -0.000011 0.000022 0.000000
-0.000040 -0.000015 0.000020 0.000000
-0.000043 -0.000014 0.000022 0.000000
-0.000036 -0.000018 0.000019 0.000000
-0.000036 -0.000022 0.000020 0.000000
-0.000020 -0.000032 0.000013 0.000000
-0.000031 -0.000029 0.000022 0.000000
-0.000021 -0.000041 0.000023 0.000000
-0.000109 -0.000102 -0.000084 0.000000
-0.000096 -0.000101 -0.000004 0.000000
-0.000014 -0.000056 -0.000009 0.000000
-0.000025 -0.000026 -0.000013 0.000000
-0.000023 -0.000030 -0.000012 0.000000
-0.000057 -0.000119 -0.000017 0.000000
-0.000089 -0.000157 -0.000045 0.000000
-0.000021 -0.000025 -0.000004 0.000000
-0.000026 -0.000028 -0.000016 0.000000
-0.000030 -0.000029 -0.000020 0.000000
-0.000031 -0.000026 -0.000018 0.000000
-0.000134 -0.000077 -0.000158 0.000000
-0.000028 -0.000023 -0.000013 0.000000
-0.000028 -0.000026 -0.000015 0.000000
-0.000029 -0.000035 -0.000024 0.000000
-0.000125 -0.000087 -0.000182 0.000000
-0.000031 -0.000024 -0.000015 0.000000
-0.000171 -0.000055 -0.000082 0.000000
-0.000159 -0.000105 -0.000016 0.000000
-0.000030 -0.000030 -0.000018 0.000000
-0.000031 -0.000035 -0.000026 0.000000
-0.000160 -0.000063 -0.000010 0.000000
-0.000022 -0.000039 -0.000016 0.000000
-0.000024 -0.000049 -0.000030 0.000000
-0.000027 -0.000030 -0.000018 0.000000
-0.000034 -0.000029 -0.000022 0.000000
-0.000025 -0.000034 -0.000018 0.000000
-0.000032 -0.000037 -0.000025 0.000000
-0.000031 -0.000036 -0.000025 0.000000
-0.000031 -0.000037 -0.000023 0.000000
-0.000199 -0.000053 -0.000139 0.000000
-0.000193 -0.000074 -0.000097 0.000000
-0.000157 -0.000102 -0.000009 0.000000
-0.000160 -0.000072 -0.000017 0.000000
-0.000164 -0.000076 -0.000035 0.000000
-0.000174 -0.000104 -0.000034 0.000000
-0.000161 -0.000091 -0.000006 0.000000
-0.000164 -0.000102 -0.000020 0.000000
-0.000035 -0.000043 -0.000005 0.000000
-0.000192 -0.000046 -0.000083 0.000000
-0.000156 -0.000138 -0.000008 0.000000
-0.000155 -0.000126 -0.000002 0.000000
-0.000028 -0.000036 -0.000022 0.000000
-0.000031 -0.000045 -0.000031 0.000000
-0.000031 -0.000035 -0.000023 0.000000
-0.000033 -0.000040 -0.000018 0.000000
-0.000023 -0.000034 -0.000015 0.000000
-0.000021 -0.000048 -0.000022 0.000000
-0.000029 -0.000041 -0.000028 0.000000
-0.000029 -0.000033 -0.000022 0.000000
-0.000032 -0.000041 -0.000029 0.000000
-0.000032 -0.000032 -0.000022 0.000000
-0.000010 -0.000238 -0.000045 0.000000
0.000028 -0.000423 -0.000298 0.000000
-0.000018 -0.000040 0.000007 0.000000
-0.000018 -0.000047 -0.000018 0.000000
-0.000048 -0.000155 -0.000024 0.000000
0.000063 -0.000512 0.000067 0.000000
-0.000016 -0.000412 -0.000215 0.000000
-0.000016 -0.000304 -0.000128 0.000000
-0.000148 -0.000128 0.000059 0.000000
-0.000101 -0.000094 -0.000004 0.000000
-0.000044 -0.000226 0.000044 0.000000
-0.000070 -0.000215 0.000070 0.000000
-0.000147 -0.000140 0.000068 0.000000
-0.000090 -0.000115 0.000021 0.000000
-0.000071 -0.000179 0.000046 0.000000
-0.000114 -0.000181 0.000100 0.000000
-0.000138 -0.000085 -0.000077 0.000000
-0.000136 -0.000108 0.000012 0.000000
-0.000046 -0.000246 -0.000007 0.000000
-0.000067 -0.000211 0.000078 0.000000
-0.000048 -0.000103 -0.000149 0.000000
-0.000050 -0.000260 -0.000110 0.000000
-0.000021 -0.000032 -0.000006 0.000000
-0.000019 -0.000043 -0.000015 0.000000
-0.000052 -0.000171 0.000027 0.000000
-0.000067 -0.000154 0.000019 0.000000
-0.000019 -0.000030 0.000005 0.000000
-0.000020 -0.000042 -0.000013 0.000000
-0.000120 -0.000096 -0.000017 0.000000
-0.000135 -0.000116 0.000023 0.000000
-0.000109 -0.000120 0.000027 0.000000
-0.000088 -0.000168 0.000068 0.000000
-0.000073 -0.000147 0.000041 0.000000
-0.000094 -0.000125 0.000038 0.000000
-0.000028 -0.000042 0.000026 0.000000
-0.000027 -0.000030 0.000018 0.000000
-0.000029 -0.000036 0.000025 0.000000
-0.000028 -0.000053 0.000043 0.000000
-0.000030 -0.000036 0.000022 0.000000
-0.000028 -0.000036 0.000025 0.000000
-0.000135 -0.000110 -0.000053 0.000000
-0.000111 -0.000089 -0.000100 0.000000
-0.000041 -0.000022 0.000025 0.000000
-0.000041 -0.000021 0.000025 0.000000
-0.000033 -0.000025 0.000019 0.000000
-0.000038 -0.000030 0.000022 0.000000
-0.000038 -0.000024 0.000023 0.000000
-0.000037 -0.000018 0.000021 0.000000
-0.000035 -0.000025 0.000023 0.000000
-0.000033 -0.000020 0.000018 0.000000
-0.000453 0.000107 0.000055 0.000000
-0.000554 0.000100 0.000077 0.000000
-0.000430 0.000077 0.000109 0.000000
-0.000490 0.000100 0.000088 0.000000
-0.000283 -0.000051 0.000299 0.000000
-0.000057 -0.000007 0.000005 0.000000
-0.000081 -0.000007 0.000007 0.000000
-0.000059 -0.000009 0.000007 0.000000
-0.000060 -0.000031 0.000012 0.000000
-0.000067 -0.000013 -0.000005 0.000000
-0.000073 -0.000015 -0.000010 0.000000
-0.000065 -0.000009 -0.000002 0.000000
-0.000076 -0.000009 -0.000005 0.000000
-0.000094 -0.000007 -0.000015 0.000000
-0.000046 -0.000016 0.000027 0.000000
-0.000047 -0.000031 0.000038 0.000000
-0.000042 -0.000021 0.000025 0.000000
-0.000043 -0.000020 0.000026 0.000000
-0.000050 -0.000017 0.000029 0.000000
-0.000049 -0.000024 0.000039 0.000000
-0.000048 -0.000030 0.000038 0.000000
-0.000045 -0.000022 0.000029 0.000000
-0.000068 -0.000009 0.000001 0.000000
-0.000196 -0.000118 0.000228 0.000000
-0.000065 -0.000008 0.000008 0.000000
-0.000267 -0.000118 0.000184 0.000000
-0.000064 -0.000012 -0.000005 0.000000
-0.000070 -0.000024 -0.000006 0.000000
-0.000072 -0.000012 -0.000009 0.000000
-0.000231 -0.000087 0.000254 0.000000
-0.000047 -0.000023 0.000033 0.000000
-0.000051 -0.000023 0.000037 0.000000
-0.000043 -0.000035 0.000030 0.000000
-0.000042 -0.000027 0.000027 0.000000
-0.000041 -0.000035 0.000028 0.000000
-0.000040 -0.000028 0.000026 0.000000
-0.000040 -0.000030 0.000025 0.000000
-0.000041 -0.000029 0.000027 0.000000
-0.000037 -0.000034 0.000023 0.000000
-0.000041 -0.000032 0.000028 0.000000
-0.000035 -0.000027 0.000020 0.000000
-0.000037 -0.000027 0.000024 0.000000
-0.000031 -0.000031 0.000020 0.000000
-0.000036 -0.000037 0.000027 0.000000
-0.000033 -0.000043 0.000025 0.000000
-0.000032 -0.000040 0.000028 0.000000
-0.000035 -0.000042 0.000028 0.000000
-0.000024 -0.000047 0.000030 0.000000
-0.000031 -0.000047 0.000029 0.000000
-0.000032 -0.000059 0.000053 0.000000
-0.000028 -0.000051 0.000038 0.000000
-0.000166 -0.000114 -0.000015 0.000000
-0.000041 -0.000039 0.000026 0.000000
-0.000040 -0.000032 0.000024 0.000000
-0.000038 -0.000038 0.000027 0.000000
-0.000041 -0.000037 0.000028 0.000000
-0.000038 -0.000045 0.000027 0.000000
-0.000030 -0.000068 0.000042 0.000000
-0.000036 -0.000049 0.000029 0.000000
-0.000034 -0.000053 0.000032 0.000000
-0.000048 -0.000039 0.000042 0.000000
-0.000045 -0.000034 0.000034 0.000000
-0.000042 -0.000034 0.000028 0.000000
-0.000044 -0.000038 0.000033 0.000000
-0.000046 -0.000027 0.000033 0.000000
-0.000045 -0.000039 0.000038 0.000000
-0.000043 -0.000026 0.000027 0.000000
-0.000044 -0.000034 0.000032 0.000000
-0.000274 -0.000104 0.000201 0.000000
-0.000053 -0.000021 0.000047 0.000000
-0.000049 -0.000032 0.000043 0.000000
-0.000363 -0.000040 0.000356 0.000000
-0.000068 -0.000017 -0.000002 0.000000
0.000005 -0.000525 0.000134 0.000000
-0.000083 -0.000012 -0.000019 0.000000
-0.000070 -0.000016 -0.000012 0.000000
-0.000070 -0.000019 -0.000008 0.000000
-0.000070 -0.000023 -0.000009 0.000000
-0.000076 -0.000017 -0.000019 0.000000
-0.000070 -0.000024 -0.000016 0.000000
-0.000226 -0.000159 0.000119 0.000000
-0.000235 -0.000151 0.000116 0.000000
-0.000251 -0.000165 0.000179 0.000000
-0.000327 -0.000110 0.000283 0.000000
-0.000334 -0.000113 0.000332 0.000000
-0.000192 -0.000236 0.000023 0.000000
-0.000045 -0.000057 0.000053 0.000000
-0.000049 -0.000034 0.000042 0.000000
-0.000045 -0.000040 0.000038 0.000000
-0.000050 -0.000036 0.000045 0.000000
0.000008 -0.000519 -0.000075 0.000000
-0.000149 -0.000282 -0.000007 0.000000
-0.000226 -0.000163 0.000126 0.000000
-0.000280 -0.000158 0.000212 0.000000
-0.000194 -0.000239 0.000100 0.000000
-0.000172 -0.000320 0.000205 0.000000
-0.000207 -0.000198 0.000086 0.000000
-0.000143 -0.000278 0.000121 0.000000
-0.000053 -0.000034 0.000051 0.000000
-0.000103 -0.000178 -0.000139 0.000000
-0.000050 -0.000046 0.000055 0.000000
-0.000047 -0.000038 0.000041 0.000000
-0.000043 -0.000039 0.000029 0.000000
-0.000045 -0.000043 0.000037 0.000000
-0.000042 -0.000041 0.000030 0.000000
-0.000043 -0.000040 0.000031 0.000000
-0.000044 -0.000041 0.000035 0.000000
-0.000046 -0.000032 0.000036 0.000000
-0.000040 -0.000041 0.000029 0.000000
-0.000039 -0.000037 0.000024 0.000000
-0.000036 -0.000054 0.000029 0.000000
-0.000037 -0.000045 0.000027 0.000000
-0.000036 -0.000046 0.000026 0.000000
-0.000039 -0.000056 0.000032 0.000000
-0.000040 -0.000049 0.000028 0.000000
-0.000039 -0.000044 0.000027 0.000000
-0.000034 -0.000050 0.000028 0.000000
-0.000037 -0.000053 0.000030 0.000000
-0.000033 -0.000061 0.000033 0.000000
-0.000033 -0.000053 0.000031 0.000000
-0.000038 -0.000049 0.000046 0.000000
-0.000033 -0.000056 0.000037 0.000000
-0.000149 -0.000187 0.000416 0.000000
-0.000202 -0.000045 0.000012 0.000000
-0.000154 -0.000238 0.000152 0.000000
-0.000164 -0.000237 0.000134 0.000000
0.000039 -0.000566 -0.000345 0.000000
-0.000107 -0.000293 0.000101 0.000000
-0.000013 -0.000410 -0.000348 0.000000
-0.000010 -0.000349 -0.000053 0.000000
-0.000045 -0.000429 -0.000305 0.000000
-0.000020 -0.000056 -0.000030 0.000000
-0.000092 -0.000354 0.000171 0.000000
-0.000087 -0.000248 0.000081 0.000000
0.000025 -0.000449 -0.000234 0.000000
-0.000037 -0.000342 0.000109 0.000000
-0.000201 -0.000121 0.000050 0.000000
-0.000169 -0.000074 -0.000045 0.000000
-0.000115 -0.000212 0.000076 0.000000
-0.000143 -0.000210 0.000085 0.000000
-0.000118 -0.000155 0.000055 0.000000
-0.000138 -0.000186 0.000126 0.000000
-0.000088 -0.000214 0.000071 0.000000
-0.000125 -0.000240 0.000119 0.000000
-0.000052 -0.000315 0.000081 0.000000
-0.000052 -0.000259 0.000071 0.000000
0.000019 -0.000355 -0.000286 0.000000
-0.000005 -0.000410 -0.000358 0.000000
-0.000007 -0.000307 0.000036 0.000000
0.000000 -0.000359 0.000053 0.000000
-0.000013 -0.000370 -0.000233 0.000000
-0.000003 -0.000397 -0.000243 0.000000
-0.000037 -0.000410 -0.000328 0.000000
-0.000033 -0.000446 -0.000206 0.000000
-0.000028 -0.000049 -0.000034 0.000000
-0.000027 -0.000462 -0.000314 0.000000
-0.000039 -0.000046 -0.000037 0.000000
-0.000031 -0.000037 -0.000024 0.000000
-0.000027 -0.000041 -0.000027 0.000000
-0.000025 -0.000045 -0.000028 0.000000
-0.000031 -0.000045 -0.000028 0.000000
-0.000034 -0.000037 -0.000023 0.000000
-0.000029 -0.000040 -0.000016 0.000000
-0.000037 -0.000040 -0.000025 0.000000
-0.000201 -0.000044 -0.000026 0.000000
-0.000165 -0.000093 -0.000014 0.000000
-0.000034 -0.000044 -0.000032 0.000000
-0.000036 -0.000038 -0.000028 0.000000
-0.000050 -0.000227 0.000093 0.000000
-0.000162 -0.000180 0.000066 0.000000
-0.000151 -0.000138 -0.000007 0.000000
-0.000163 -0.000137 -0.000016 0.000000
-0.000153 -0.000141 -0.000008 0.000000
-0.000184 -0.000116 0.000013 0.000000
-0.000149 -0.000162 -0.000001 0.000000
-0.000030 -0.000047 -0.000034 0.000000
-0.000030 -0.000054 -0.000038 0.000000
-0.000032 -0.000046 -0.000030 0.000000
-0.000013 -0.000287 0.000064 0.000000
-0.000027 -0.000058 -0.000032 0.000000
-0.000021 -0.000464 -0.000178 0.000000
-0.000029 -0.000052 -0.000036 0.000000
0.000081 -0.000537 -0.000380 0.000000
-0.000034 -0.000056 -0.000043 0.000000
-0.000093 -0.000286 -0.000007 0.000000
-0.000087 -0.000172 0.000131 0.000000
-0.000135 -0.000225 0.000001 0.000000
-0.000135 -0.000225 0.000002 0.000000
-0.000145 -0.000175 -0.000003 0.000000
-0.000028 -0.000054 -0.000031 0.000000
-0.000057 -0.000400 -0.000168 0.000000
-0.000115 -0.000238 0.000033 0.000000
-0.000118 -0.000278 -0.000022 0.000000
-0.000136 -0.000249 0.000001 0.000000
-0.000124 -0.000292 -0.000021 0.000000
-0.000142 -0.000205 0.000003 0.000000
-0.000007 -0.000486 -0.000296 0.000000
-0.000017 -0.000459 -0.000291 0.000000
-0.000036 -0.000418 -0.000158 0.000000
-0.000041 -0.000438 -0.000185 0.000000
-0.000047 -0.000409 -0.000295 0.000000
-0.000036 -0.000489 -0.000288 0.000000
0.000002 -0.000440 -0.000374 0.000000
-0.000011 -0.000449 -0.000326 0.000000
-0.000035 -0.000094 -0.000043 0.000000
-0.000011 -0.000503 0.000153 0.000000
0.000101 -0.000659 0.000144 0.000000
-0.000038 -0.000402 0.000074 0.000000
-0.000038 -0.000051 0.000028 0.000000
-0.000039 -0.000050 0.000029 0.000000
-0.000132 -0.000276 0.000131 0.000000
-0.000201 -0.000267 0.000278 0.000000
-0.000037 -0.000057 0.000031 0.000000
-0.000037 -0.000063 0.000035 0.000000
-0.000032 -0.000067 0.000039 0.000000
-0.000034 -0.000058 0.000030 0.000000
-0.000028 -0.000062 0.000033 0.000000
-0.000032 -0.000061 0.000033 0.000000
-0.000078 -0.000276 0.000548 0.000000
-0.000093 -0.000496 0.000272 0.000000
-0.000028 -0.000091 -0.000009 0.000000
-0.000049 -0.000430 -0.000266 0.000000
-0.000130 -0.000323 0.000120 0.000000
-0.000146 -0.000316 0.000164 0.000000
-0.000035 -0.000475 0.000228 0.000000
-0.000031 -0.000085 -0.000025 0.000000
-0.000037 -0.000068 0.000042 0.000000
-0.000034 -0.000061 0.000033 0.000000
-0.000134 -0.000306 0.000186 0.000000
-0.000046 -0.000083 0.000005 0.000000
-0.000041 -0.000056 0.000030 0.000000
-0.000042 -0.000069 0.000033 0.000000
-0.000037 -0.000065 0.000037 0.000000
-0.000034 -0.000072 0.000046 0.000000
-0.000141 -0.000367 0.000383 0.000000
-0.000054 -0.000496 0.000240 0.000000
-0.000015 -0.000468 0.000293 0.000000
-0.000126 -0.000380 0.000137 0.000000
-0.000046 -0.000459 -0.000286 0.000000
-0.000030 -0.000083 -0.000001 0.000000
-0.000029 -0.000491 -0.000300 0.000000
-0.000003 -0.000575 -0.000174 0.000000
-0.000024 -0.000490 -0.000287 0.000000
-0.000005 -0.000493 -0.000258 0.000000
-0.000020 -0.000414 -0.000235 0.000000
0.000026 -0.000531 -0.000254 0.000000
-0.000041 -0.000367 -0.000189 0.000000
-0.000045 -0.000380 -0.000224 0.000000
-0.000052 -0.000363 -0.000049 0.000000
-0.000043 -0.000371 -0.000084 0.000000
-0.000094 -0.000362 -0.000076 0.000000
-0.000122 -0.000299 -0.000024 0.000000
-0.000125 -0.000258 -0.000007 0.000000
-0.000122 -0.000300 -0.000003 0.000000
-0.000136 -0.000246 -0.000013 0.000000
-0.000128 -0.000245 0.000001 0.000000
-0.000139 -0.000268 -0.000014 0.000000
-0.000132 -0.000268 -0.000009 0.000000
-0.000141 -0.000286 -0.000001 0.000000
0.000075 -0.000593 -0.000212 0.000000
0.000081 -0.000577 -0.000306 0.000000
-0.000084 -0.000338 0.000017 0.000000
-0.000132 -0.000322 -0.000052 0.000000
-0.000078 -0.000488 -0.000127 0.000000
0.000068 -0.000666 -0.000060 0.000000
-0.000107 -0.000329 -0.000037 0.000000
0.000037 -0.000543 0.000088 0.000000
-0.000099 -0.000388 -0.000066 0.000000
-0.000145 -0.000361 -0.000098 0.000000
-0.000158 -0.000327 -0.000053 0.000000
-0.000150 -0.000303 -0.000026 0.000000
-0.000137 -0.000387 -0.000099 0.000000
-0.000168 -0.000361 -0.000091 0.000000
-0.000158 -0.000311 -0.000008 0.000000
-0.000081 -0.000387 -0.000100 0.000000
0.000075 -0.000553 -0.000220 0.000000
-0.000185 -0.000343 -0.000035 0.000000
-0.000170 -0.000326 -0.000037 0.000000
-0.000031 -0.000099 -0.000010 0.000000
0.000012 -0.000547 0.000052 0.000000
-0.000033 -0.000090 0.000002 0.000000
-0.000092 -0.000565 0.000296 0.000000
0.000009 -0.000580 -0.000166 0.000000
-0.000033 -0.000093 0.000019 0.000000
-0.000034 -0.000470 0.000053 0.000000
-0.000016 -0.000134 0.000005 0.000000
-0.000023 -0.000487 0.000018 0.000000
0.000171 -0.000650 0.000021 0.000000
-0.000035 -0.000093 -0.000011 0.000000
-0.000030 -0.000095 -0.000001 0.000000
-0.000029 -0.000092 0.000004 0.000000
-0.000027 -0.000089 -0.000001 0.000000
-0.000028 -0.000093 0.000003 0.000000
-0.000028 -0.000111 0.000013 0.000000
-0.000027 -0.000092 0.000003 0.000000
-0.000029 -0.000105 0.000011 0.000000
-0.000048 -0.000074 0.000040 0.000000
-0.000042 -0.000092 0.000038 0.000000
-0.000035 -0.000103 0.000011 0.000000
-0.000095 -0.000476 0.000186 0.000000
-0.000047 -0.000074 0.000048 0.000000
-0.000038 -0.000093 0.000067 0.000000
-0.000113 -0.000492 0.001019 0.000000
-0.000090 -0.000515 0.000420 0.000000
-0.000029 -0.000099 0.000005 0.000000
-0.000029 -0.000093 -0.000004 0.000000
-0.000042 -0.000066 0.000036 0.000000
-0.000045 -0.000071 0.000036 0.000000
-0.000037 -0.000072 0.000047 0.000000
-0.000049 -0.000467 0.000966 0.000000
-0.000090 -0.000414 0.000419 0.000000
-0.000082 -0.000499 0.000396 0.000000
-0.000040 -0.000083 -0.000004 0.000000
-0.000044 -0.000083 -0.000016 0.000000
-0.000032 -0.000079 -0.000009 0.000000
-0.000032 -0.000081 -0.000001 0.000000
-0.000026 -0.000082 -0.000009 0.000000
-0.000017 -0.000083 -0.000022 0.000000
-0.000041 -0.000067 0.000039 0.000000
-0.000041 -0.000071 0.000043 0.000000
-0.000105 -0.000376 0.000159 0.000000
-0.000097 -0.000423 0.000231 0.000000
-0.000035 -0.000084 -0.000018 0.000000
0.000023 -0.000475 0.000244 0.000000
-0.000044 -0.000057 0.000033 0.000000
-0.000044 -0.000046 0.000042 0.000000
-0.000042 -0.000067 0.000032 0.000000
-0.000041 -0.000060 0.000033 0.000000
-0.000041 -0.000081 0.000034 0.000000
-0.000041 -0.000079 0.000042 0.000000
-0.000044 -0.000057 0.000035 0.000000
-0.000043 -0.000062 0.000040 0.000000
-0.000044 -0.000064 0.000035 0.000000
-0.000043 -0.000068 0.000037 0.000000
-0.000044 -0.000065 0.000035 0.000000
-0.000045 -0.000074 0.000039 0.000000
-0.000044 -0.000067 0.000038 0.000000
-0.000042 -0.000072 0.000034 0.000000
-0.000042 -0.000069 0.000032 0.000000
-0.000043 -0.000071 0.000034 0.000000
-0.000041 -0.000068 0.000033 0.000000
-0.000042 -0.000066 0.000035 0.000000
-0.000042 -0.000069 0.000033 0.000000
-0.000041 -0.000076 0.000031 0.000000
-0.000044 -0.000071 0.000037 0.000000
-0.000043 -0.000071 0.000038 0.000000
-0.000039 -0.000090 0.000037 0.000000
-0.000043 -0.000075 0.000031 0.000000
-0.000039 -0.000094 0.000044 0.000000
0.000046 -0.000568 -0.000414 0.000000
-0.000045 -0.000078 0.000042 0.000000
-0.000042 -0.000080 0.000040 0.000000
-0.000041 -0.000072 0.000040 0.000000
-0.000003 -0.000464 -0.000464 0.000000
-0.000045 -0.000073 0.000032 0.000000
-0.000038 -0.000078 0.000040 0.000000
-0.000044 -0.000066 0.000032 0.000000
-0.000041 -0.000069 0.000035 0.000000
-0.000017 -0.000558 0.000199 0.000000
-0.000063 -0.000472 0.000045 0.000000
-0.000041 -0.000073 0.000039 0.000000
-0.000014 -0.000381 -0.000357 0.000000
-0.000093 -0.000526 0.000367 0.000000
0.000054 -0.000739 0.000148 0.000000
-0.000041 -0.000545 -0.000072 0.000000
-0.000036 -0.000522 -0.000042 0.000000
0.000004 -0.000384 -0.000251 0.000000
-0.000025 -0.000456 0.000073 0.000000
-0.000133 -0.000400 0.000253 0.000000
-0.000239 -0.000356 -0.000053 0.000000
-0.000258 -0.000309 0.000192 0.000000
-0.000229 -0.000305 0.000108 0.000000
-0.000116 -0.000380 0.000292 0.000000
-0.000196 -0.000217 0.000103 0.000000
-0.000050 -0.000086 0.000087 0.000000
-0.000128 -0.000284 -0.000037 0.000000
-0.000114 -0.000433 -0.000087 0.000000
-0.000193 -0.000304 0.000066 0.000000
-0.000181 -0.000381 0.000279 0.000000
-0.000188 -0.000213 0.000098 0.000000
-0.000017 -0.000466 0.000094 0.000000
-0.000131 -0.000345 0.000098 0.000000
-0.000063 -0.000326 0.000025 0.000000
-0.000035 -0.000407 -0.000134 0.000000
-0.000038 -0.000077 0.000046 0.000000
-0.000047 -0.000048 0.000046 0.000000
-0.000057 -0.000080 0.000062 0.000000
-0.000020 -0.000508 -0.000109 0.000000
0.000122 -0.000473 -0.000287 0.000000
-0.000069 -0.000025 -0.000010 0.000000
-0.000199 -0.000295 0.000144 0.000000
-0.000209 -0.000199 0.000098 0.000000
-0.000195 -0.000274 0.000099 0.000000
-0.000176 -0.000305 0.000169 0.000000
-0.000183 -0.000282 0.000136 0.000000
-0.000121 -0.000328 0.000192 0.000000
-0.000063 -0.000415 0.000059 0.000000
0.000079 -0.000615 -0.000055 0.000000
-0.000159 -0.000307 0.000056 0.000000
-0.000184 -0.000240 0.000122 0.000000
-0.000165 -0.000311 0.000165 0.000000
-0.000113 -0.000331 0.000138 0.000000
-0.000039 -0.000066 0.000048 0.000000
-0.000041 -0.000063 0.000040 0.000000
-0.000139 -0.000337 0.000166 0.000000
-0.000135 -0.000236 0.000056 0.000000
-0.000108 -0.000368 -0.000066 0.000000
-0.000050 -0.000285 -0.000251 0.000000
-0.000044 -0.000053 0.000034 0.000000
-0.000043 -0.000063 0.000036 0.000000
-0.000042 -0.000056 0.000031 0.000000
-0.000043 -0.000060 0.000033 0.000000
-0.000041 -0.000052 0.000029 0.000000
-0.000042 -0.000062 0.000033 0.000000
-0.000041 -0.000056 0.000031 0.000000
-0.000041 -0.000062 0.000031 0.000000
-0.000044 -0.000046 0.000032 0.000000
-0.000044 -0.000051 0.000035 0.000000
-0.000043 -0.000059 0.000034 0.000000
-0.000042 -0.000057 0.000032 0.000000
-0.000041 -0.000066 0.000046 0.000000
-0.000043 -0.000060 0.000036 0.000000
-0.000044 -0.000059 0.000037 0.000000
-0.000043 -0.000054 0.000039 0.000000
-0.000044 -0.000058 0.000034 0.000000
-0.000044 -0.000045 0.000034 0.000000
-0.000058 -0.000046 0.000072 0.000000
-0.000040 -0.000057 0.000057 0.000000
-0.000041 -0.000055 0.000047 0.000000
-0.000044 -0.000056 0.000044 0.000000
-0.000043 -0.000053 0.000031 0.000000
-0.000042 -0.000052 0.000032 0.000000
-0.000040 -0.000056 0.000030 0.000000
-0.000040 -0.000045 0.000027 0.000000
-0.000041 -0.000050 0.000031 0.000000
-0.000042 -0.000044 0.000030 0.000000
-0.000039 -0.000056 0.000031 0.000000
-0.000039 -0.000050 0.000029 0.000000
-0.000044 -0.000053 0.000039 0.000000
-0.000045 -0.000047 0.000040 0.000000
-0.000044 -0.000052 0.000035 0.000000
-0.000044 -0.000043 0.000032 0.000000
-0.000044 -0.000051 0.000034 0.000000
-0.000043 -0.000051 0.000033 0.000000
-0.000219 -0.000198 0.000120 0.000000
-0.000190 -0.000218 0.000097 0.000000
-0.000226 -0.000207 0.000115 0.000000
-0.000179 -0.000261 0.000122 0.000000
-0.000258 -0.000153 0.000104 0.000000
-0.000167 -0.000213 0.000070 0.000000
-0.000047 -0.000059 0.000067 0.000000
-0.000046 -0.000044 0.000061 0.000000
-0.000190 -0.000246 0.000076 0.000000
-0.000194 -0.000249 0.000088 0.000000
-0.000185 -0.000257 0.000109 0.000000
-0.000188 -0.000258 0.000105 0.000000
-0.000126 -0.000337 -0.000041 0.000000
-0.000162 -0.000234 0.000052 0.000000
-0.000182 -0.000210 0.000105 0.000000
-0.000087 -0.000241 0.000100 0.000000
-0.000200 -0.000204 0.000096 0.000000
-0.000196 -0.000239 0.000095 0.000000
0.000004 -0.000460 -0.000114 0.000000
-0.000222 -0.000402 0.000466 0.000000
-0.000066 -0.000293 0.000019 0.000000
0.000042 -0.000510 0.000024 0.000000
-0.000035 -0.000594 0.000253 0.000000
-0.000242 -0.000374 0.000517 0.000000
0.000075 -0.000555 0.000059 0.000000
0.000046 -0.000465 -0.000012 0.000000
-0.000392 -0.000170 0.000550 0.000000
-0.000419 -0.000129 0.000406 0.000000
-0.000315 -0.000223 0.000592 0.000000
-0.000270 -0.000279 0.000378 0.000000
-0.000098 -0.000024 -0.000008 0.000000
-0.000588 0.000146 0.000098 0.000000
-0.000379 -0.000204 0.000442 0.000000
-0.000380 -0.000177 0.000391 0.000000
-0.000221 -0.000261 -0.000178 0.000000
-0.000401 -0.000188 -0.000238 0.000000
-0.000098 -0.000011 -0.000048 0.000000
-0.000090 -0.000014 -0.000027 0.000000
-0.000671 0.000017 0.000639 0.000000
-0.000102 -0.000012 0.000006 0.000000
-0.000704 -0.000113 0.001057 0.000000
-0.000712 -0.000005 0.000582 0.000000
-0.000123 -0.000005 0.000000 0.000000
-0.000867 0.000150 0.001042 0.000000
-0.000941 0.000226 0.001497 0.000000
-0.000119 -0.000001 0.000046 0.000000
-0.000506 -0.000029 0.000546 0.000000
-0.000754 0.000037 0.000895 0.000000
-0.000410 -0.000096 0.000367 0.000000
-0.000084 -0.000049 0.000069 0.000000
-0.000358 -0.000254 -0.000228 0.000000
-0.000533 -0.000008 -0.000210 0.000000
-0.000555 -0.000164 0.000664 0.000000
-0.000088 -0.000063 0.000048 0.000000
-0.000273 -0.000261 -0.000295 0.000000
-0.000353 -0.000261 -0.000115 0.000000
-0.001055 0.000448 0.001865 0.000000
-0.000838 -0.000033 0.000445 0.000000
-0.000550 -0.000114 0.000830 0.000000
-0.000667 0.000019 0.000809 0.000000
-0.000149 -0.000008 0.000007 0.000000
-0.001084 0.000430 0.001360 0.000000
-0.001113 0.000229 0.001621 0.000000
-0.000588 -0.000262 0.001064 0.000000
-0.000082 -0.000072 0.000054 0.000000
-0.000098 -0.000026 0.000120 0.000000
-0.000395 -0.000273 -0.000528 0.000000
-0.000094 -0.000046 0.000060 0.000000
-0.000390 -0.000186 0.000327 0.000000
-0.000430 -0.000147 0.000368 0.000000
-0.000366 -0.000244 0.000473 0.000000
-0.000372 -0.000206 0.000369 0.000000
-0.000280 -0.000228 -0.000344 0.000000
-0.000380 -0.000119 -0.000428 0.000000
-0.000388 -0.000142 0.000397 0.000000
-0.000130 -0.000021 0.000005 0.000000
-0.000386 -0.000185 0.000413 0.000000
-0.000369 -0.000212 0.000535 0.000000
-0.000056 -0.000079 0.000055 0.000000
0.000041 -0.000605 0.000145 0.000000
-0.000057 -0.000070 0.000051 0.000000
-0.000070 -0.000072 0.000089 0.000000
-0.000063 -0.000067 0.000057 0.000000
-0.000054 -0.000080 0.000080 0.000000
0.000078 -0.000615 0.000195 0.000000
-0.000059 -0.000066 0.000071 0.000000
-0.000400 -0.000210 0.000327 0.000000
-0.000380 -0.000244 0.000458 0.000000
-0.000058 -0.000073 0.000077 0.000000
-0.000057 -0.000067 0.000066 0.000000
-0.000305 -0.000250 -0.000079 0.000000
-0.000113 -0.000278 -0.000225 0.000000
-0.000369 -0.000220 0.000180 0.000000
-0.000096 -0.000047 0.000039 0.000000
-0.000383 -0.000219 0.000222 0.000000
-0.000377 -0.000241 0.000441 0.000000
-0.000062 -0.000072 0.000062 0.000000
-0.000056 -0.000076 0.000078 0.000000
-0.000060 -0.000076 0.000065 0.000000
-0.000057 -0.000079 0.000078 0.000000
-0.000043 -0.000074 0.000052 0.000000
-0.000055 -0.000074 0.000073 0.000000
-0.000062 -0.000079 0.000065 0.000000
-0.000063 -0.000072 0.000062 0.000000
-0.000057 -0.000079 0.000078 0.000000
-0.000056 -0.000079 0.000078 0.000000
-0.000414 -0.000137 0.000111 0.000000
-0.000356 -0.000261 0.000258 0.000000
-0.000058 -0.000081 0.000073 0.000000
-0.000056 -0.000077 0.000065 0.000000
-0.000092 -0.000041 0.000027 0.000000
-0.000346 -0.000349 0.000300 0.000000
-0.000376 -0.000230 0.000219 0.000000
-0.000397 -0.000185 0.000272 0.000000
-0.000341 -0.000233 -0.000192 0.000000
-0.000506 -0.000155 0.000157 0.000000
-0.000364 -0.000176 0.000121 0.000000
-0.000418 -0.000192 0.000149 0.000000
-0.000387 -0.000185 0.000182 0.000000
-0.000392 -0.000200 0.000283 0.000000
-0.000071 -0.000076 0.000051 0.000000
-0.000101 -0.000050 0.000049 0.000000
-0.000095 -0.000047 0.000032 0.000000
-0.000490 -0.000039 0.000057 0.000000
-0.000083 -0.000065 0.000042 0.000000
-0.000098 -0.000035 0.000049 0.000000
-0.000077 -0.000072 0.000047 0.000000
-0.000071 -0.000080 0.000057 0.000000
-0.000091 -0.000052 0.000057 0.000000
-0.000092 -0.000057 0.000053 0.000000
-0.000088 -0.000050 0.000052 0.000000
-0.000091 -0.000057 0.000054 0.000000
-0.000688 -0.000049 0.001553 0.000000
-0.000551 -0.000293 0.001663 0.000000
-0.000084 -0.000064 0.000039 0.000000
-0.000091 -0.000062 0.000049 0.000000
-0.000701 -0.000051 0.000738 0.000000
-0.000702 0.000092 0.001362 0.000000
-0.000086 -0.000052 0.000043 0.000000
-0.000559 -0.000255 0.000744 0.000000
-0.000082 -0.000066 0.000047 0.000000
-0.000095 -0.000054 0.000034 0.000000
-0.000464 -0.000129 0.000030 0.000000
-0.000248 -0.000219 -0.000328 0.000000
-0.000083 -0.000064 0.000038 0.000000
-0.000094 -0.000043 0.000047 0.000000
-0.000096 -0.000050 0.000045 0.000000
-0.000114 -0.000050 0.000085 0.000000
-0.000976 0.000227 0.001329 0.000000
-0.000123 -0.000010 0.000025 0.000000
-0.001152 0.000451 0.001401 0.000000
-0.000830 0.000151 0.001125 0.000000
-0.000087 -0.000031 0.000084 0.000000
-0.000406 -0.000237 0.000850 0.000000
-0.000139 -0.000010 0.000020 0.000000
-0.001292 0.000307 -0.000174 0.000000
-0.000142 -0.000011 0.000004 0.000000
-0.000836 0.000147 0.000928 0.000000
-0.000827 -0.000149 0.000726 0.000000
-0.001055 0.000033 0.000232 0.000000
-0.000716 -0.000349 0.000424 0.000000
-0.000135 -0.000014 0.000008 0.000000
-0.000769 -0.000231 0.000478 0.000000
-0.000740 -0.000219 0.000302 0.000000
-0.000784 -0.000207 0.000037 0.000000
-0.000135 -0.000036 0.000011 0.000000
-0.000781 0.000068 0.000778 0.000000
-0.000867 -0.000099 0.000579 0.000000
-0.000635 0.000213 0.001537 0.000000
-0.000848 0.000043 0.000854 0.000000
-0.000533 -0.000394 0.000450 0.000000
-0.000600 -0.000073 -0.000276 0.000000
-0.000141 -0.000023 -0.000015 0.000000
-0.000550 -0.000283 0.000294 0.000000
-0.000487 0.000012 0.001149 0.000000
-0.000518 -0.000372 0.000366 0.000000
-0.001074 0.000239 0.001265 0.000000
-0.000863 0.000147 0.000780 0.000000
-0.000157 -0.000016 0.000058 0.000000
-0.000158 -0.000036 0.000081 0.000000
-0.000662 -0.000498 0.000829 0.000000
-0.000637 -0.000398 0.000402 0.000000
-0.000804 -0.000346 0.000758 0.000000
-0.000737 -0.000345 0.000459 0.000000
-0.000591 -0.000457 0.000588 0.000000
-0.000853 -0.000250 0.000184 0.000000
-0.000614 -0.000242 0.000025 0.000000
-0.000705 -0.000275 0.000137 0.000000
-0.000162 -0.000018 0.000111 0.000000
-0.000153 -0.000048 0.000128 0.000000
-0.000156 -0.000043 0.000106 0.000000
-0.000158 -0.000006 0.000075 0.000000
-0.000160 -0.000039 0.000137 0.000000
-0.000161 -0.000037 0.000113 0.000000
-0.000155 -0.000034 0.000054 0.000000
-0.000155 -0.000049 0.000109 0.000000
-0.002070 0.001341 0.000787 0.000000
-0.000155 -0.000068 0.000143 0.000000
-0.000147 -0.000062 0.000149 0.000000
-0.000194 -0.000051 0.000222 0.000000
-0.002081 0.001074 0.001704 0.000000
-0.000732 -0.000294 0.000118 0.000000
-0.001723 0.000567 0.001273 0.000000
-0.000164 -0.000012 0.000118 0.000000
-0.000155 -0.000058 0.000163 0.000000
-0.000154 -0.000045 0.000163 0.000000
-0.000163 -0.000024 0.000107 0.000000
-0.000161 -0.000014 0.000081 0.000000
-0.000158 -0.000026 0.000087 0.000000
-0.000160 -0.000017 0.000062 0.000000
-0.000160 -0.000027 0.000069 0.000000
-0.000152 -0.000026 0.000065 0.000000
-0.000162 -0.000014 0.000099 0.000000
-0.000161 -0.000010 0.000087 0.000000
-0.000160 -0.000006 0.000091 0.000000
-0.000163 -0.000016 0.000094 0.000000
-0.000162 -0.000050 0.000176 0.000000
-0.000157 -0.000034 0.000146 0.000000
-0.000164 -0.000041 0.000163 0.000000
-0.000159 -0.000025 0.000126 0.000000
-0.000166 -0.000019 0.000127 0.000000
-0.000164 -0.000032 0.000143 0.000000
-0.000144 -0.000093 0.000179 0.000000
-0.001899 0.001182 0.001588 0.000000
-0.000168 -0.000010 0.000123 0.000000
-0.000163 -0.000018 0.000129 0.000000
-0.000167 -0.000048 0.000175 0.000000
-0.000163 -0.000026 0.000146 0.000000
-0.000170 -0.000016 0.000136 0.000000
-0.000170 -0.000033 0.000162 0.000000
-0.000164 -0.000023 0.000125 0.000000
-0.000160 -0.000002 0.000093 0.000000
-0.000157 -0.000009 0.000097 0.000000
-0.000162 -0.000012 0.000101 0.000000
-0.000163 -0.000007 0.000102 0.000000
-0.000160 -0.000015 0.000113 0.000000
-0.000154 -0.000003 0.000078 0.000000
-0.000158 -0.000009 0.000091 0.000000
-0.000145 -0.000004 0.000079 0.000000
-0.000161 -0.000013 0.000081 0.000000
-0.000926 -0.000213 0.000367 0.000000
-0.001055 0.000001 0.000018 0.000000
-0.000144 -0.000006 0.000006 0.000000
-0.000142 -0.000005 0.000002 0.000000
-0.001152 0.000434 0.001302 0.000000
-0.000136 -0.000009 0.000007 0.000000
-0.000140 -0.000016 -0.000001 0.000000
-0.000118 -0.000004 -0.000014 0.000000
-0.000155 -0.000006 0.000003 0.000000
-0.000131 -0.000006 0.000001 0.000000
-0.000140 -0.000000 0.000068 0.000000
-0.000160 -0.000005 0.000075 0.000000
-0.000154 -0.000029 0.000049 0.000000
-0.000930 0.000029 0.000329 0.000000
-0.000843 0.000041 -0.000166 0.000000
-0.000120 -0.000010 -0.000012 0.000000
-0.000855 0.000024 0.000159 0.000000
-0.001174 0.000499 0.000316 0.000000
-0.000749 -0.000119 -0.000061 0.000000
-0.000975 0.000086 -0.000130 0.000000
-0.000136 -0.000008 0.000005 0.000000
-0.000132 -0.000007 -0.000002 0.000000
-0.000132 -0.000009 0.000010 0.000000
-0.000128 -0.000010 0.000017 0.000000
-0.000128 -0.000005 -0.000007 0.000000
-0.000130 -0.000006 0.000005 0.000000
-0.000114 -0.000006 0.000001 0.000000
-0.000127 -0.000008 0.000009 0.000000
-0.001110 0.000318 -0.000078 0.000000
-0.000121 0.000004 -0.000015 0.000000
-0.000144 -0.000008 -0.000012 0.000000
-0.000139 -0.000003 -0.000011 0.000000
-0.000137 -0.000006 -0.000004 0.000000
-0.000132 -0.000004 -0.000006 0.000000
-0.000131 -0.000008 0.000046 0.000000
-0.000925 0.000276 0.000631 0.000000
-0.001005 0.000062 0.000390 0.000000
-0.001362 0.000492 0.000179 0.000000
-0.000145 -0.000001 0.000069 0.000000
-0.000155 -0.000003 0.000084 0.000000
-0.001021 0.000131 0.000434 0.000000
-0.001059 -0.000002 0.000518 0.000000
-0.000162 -0.000009 0.000109 0.000000
-0.000166 -0.000007 0.000108 0.000000
-0.000151 -0.000000 0.000085 0.000000
-0.000150 0.000000 0.000082 0.000000
-0.000184 -0.000021 0.000152 0.000000
-0.000142 -0.000115 0.000238 0.000000
-0.000176 -0.000005 0.000123 0.000000
-0.000170 -0.000056 0.000188 0.000000
-0.000168 -0.000001 0.000101 0.000000
-0.000172 0.000000 0.000106 0.000000
-0.000170 -0.000021 0.000160 0.000000
-0.000244 0.000138 0.000354 0.000000
-0.000185 0.000006 0.000093 0.000000
-0.000184 -0.000010 0.000117 0.000000
-0.000158 -0.000001 0.000087 0.000000
-0.000148 0.000000 0.000076 0.000000
-0.000141 0.000001 0.000078 0.000000
-0.000128 0.000001 0.000065 0.000000
-0.000124 0.000009 0.000044 0.000000
-0.000132 -0.000002 0.000046 0.000000
-0.000124 0.000000 0.000035 0.000000
-0.000905 0.000091 0.000465 0.000000
-0.000149 0.000002 0.000068 0.000000
-0.000142 0.000005 0.000053 0.000000
-0.000140 0.000001 0.000070 0.000000
-0.000111 0.000001 0.000048 0.000000
-0.000195 0.000002 0.000135 0.000000
-0.000123 0.000000 0.000015 0.000000
-0.000168 -0.000002 0.000086 0.000000
-0.000156 0.000002 0.000072 0.000000
-0.000149 0.000008 0.000036 0.000000
-0.000132 0.000007 0.000021 0.000000
-0.000134 0.000006 0.000031 0.000000
-0.000110 0.000000 0.000039 0.000000
-0.000129 0.000001 0.000052 0.000000
-0.000127 0.000003 0.000046 0.000000
-0.000899 0.000151 0.000653 0.000000
-0.000994 0.000277 0.000596 0.000000
-0.000131 0.000005 0.000040 0.000000
-0.000141 0.000002 0.000062 0.000000
-0.000111 0.000003 0.000036 0.000000
-0.000127 0.000004 0.000056 0.000000
-0.000114 0.000023 0.000034 0.000000
-0.000124 0.000017 0.000036 0.000000
-0.001313 0.000580 0.000352 0.000000
-0.000549 0.000181 0.000092 0.000000
-0.001152 0.000410 0.000196 0.000000
-0.001142 0.000453 -0.000385 0.000000
-0.001188 0.000594 0.000313 0.000000
-0.001143 0.000471 0.000575 0.000000
-0.001094 0.000422 0.000391 0.000000
-0.001153 0.000601 -0.000183 0.000000
-0.000115 -0.000004 -0.000004 0.000000
-0.000108 -0.000003 -0.000006 0.000000
-0.000102 -0.000010 0.000016 0.000000
-0.000104 -0.000006 0.000003 0.000000
-0.001104 0.000481 0.000030 0.000000
-0.000121 0.000002 -0.000026 0.000000
-0.000105 0.000027 0.000007 0.000000
-0.000109 -0.000005 -0.000017 0.000000
-0.000104 -0.000009 0.000004 0.000000
-0.000122 -0.000010 0.000013 0.000000
-0.000111 -0.000013 0.000011 0.000000
-0.000642 -0.000086 0.000409 0.000000
-0.000108 -0.000004 -0.000012 0.000000
-0.000116 -0.000004 -0.000021 0.000000
-0.000124 -0.000005 -0.000001 0.000000
-0.000115 -0.000008 0.000006 0.000000
-0.000973 0.000148 0.000500 0.000000
-0.001037 0.000353 0.000384 0.000000
-0.001222 0.000458 0.000461 0.000000
-0.001312 0.000528 0.000266 0.000000
-0.001270 0.000495 0.000297 0.000000
-0.001152 0.000340 -0.000183 0.000000
-0.001094 0.000218 -0.000013 0.000000
-0.000134 -0.000012 -0.000024 0.000000
-0.000106 -0.000004 -0.000022 0.000000
-0.000129 -0.000001 -0.000021 0.000000
-0.001031 0.000131 0.000538 0.000000
-0.000106 -0.000018 0.000017 0.000000
-0.000677 -0.000066 0.000213 0.000000
-0.000772 0.000085 0.000659 0.000000
-0.000554 -0.000154 0.000354 0.000000
-0.000543 -0.000053 0.000249 0.000000
-0.000574 0.000020 0.000425 0.000000
-0.000555 -0.000083 0.000653 0.000000
-0.000406 -0.000186 0.000571 0.000000
-0.000454 -0.000074 0.000256 0.000000
-0.000094 -0.000007 -0.000006 0.000000
-0.000094 0.000006 0.000001 0.000000
-0.000630 0.000109 0.000176 0.000000
-0.000426 -0.000052 0.000205 0.000000
-0.000444 -0.000140 -0.000122 0.000000
-0.000878 0.000318 0.000081 0.000000
-0.000088 -0.000034 -0.000008 0.000000
-0.000095 -0.000001 -0.000014 0.000000
-0.000085 -0.000029 0.000000 0.000000
-0.000098 -0.000024 0.000012 0.000000
-0.000315 -0.000246 0.000430 0.000000
-0.000139 -0.000335 0.000098 0.000000
-0.000056 -0.000348 0.000022 0.000000
-0.000019 -0.000323 -0.000044 0.000000
-0.000167 -0.000327 0.000041 0.000000
-0.000053 -0.000416 0.000091 0.000000
-0.000065 -0.000025 -0.000011 0.000000
-0.000057 -0.000337 -0.000021 0.000000
-0.000084 -0.000020 -0.000003 0.000000
-0.000078 -0.000005 -0.000027 0.000000
-0.000515 -0.000059 0.000528 0.000000
-0.000414 -0.000127 0.000505 0.000000
-0.000307 -0.000222 0.000077 0.000000
-0.000291 -0.000283 0.000318 0.000000
-0.000467 0.000054 -0.000063 0.000000
-0.000083 -0.000035 0.000018 0.000000
-0.000362 -0.000108 0.000098 0.000000
-0.000248 -0.000206 0.000197 0.000000
-0.000059 -0.000038 -0.000014 0.000000
-0.000062 -0.000013 -0.000005 0.000000
-0.000056 -0.000041 0.000005 0.000000
-0.000063 -0.000010 -0.000002 0.000000
-0.000359 -0.000130 0.000059 0.000000
-0.000066 -0.000027 0.000016 0.000000
-0.000068 -0.000033 0.000024 0.000000
-0.000067 -0.000024 -0.000006 0.000000
-0.000094 -0.000036 0.000050 0.000000
-0.000320 -0.000025 0.000174 0.000000
-0.000609 -0.000026 0.000153 0.000000
-0.000379 -0.000069 0.000038 0.000000
-0.000398 -0.000095 0.000126 0.000000
-0.000410 -0.000141 0.000210 0.000000
-0.000646 0.000223 0.000002 0.000000
-0.000672 0.000259 0.000105 0.000000
-0.000086 -0.000021 -0.000011 0.000000
-0.000386 -0.000015 -0.000149 0.000000
-0.000367 0.000081 0.000069 0.000000
-0.000600 0.000162 0.000017 0.000000
-0.000085 -0.000029 -0.000005 0.000000
-0.000075 -0.000029 -0.000002 0.000000
-0.000563 -0.000066 0.000306 0.000000
-0.000517 0.000003 -0.000216 0.000000
-0.000607 0.000108 0.000245 0.000000
-0.000732 0.000291 0.000221 0.000000
-0.000099 -0.000030 -0.000005 0.000000
-0.000582 -0.000034 0.000144 0.000000
-0.000628 -0.000022 0.000033 0.000000
-0.000610 -0.000057 0.000202 0.000000
-0.000631 -0.000033 0.000247 0.000000
-0.000529 0.000005 0.000059 0.000000
-0.000408 -0.000096 -0.000066 0.000000
-0.000564 0.000118 -0.000272 0.000000
-0.000528 0.000005 0.000084 0.000000
-0.000519 0.000177 -0.000166 0.000000
-0.000474 -0.000049 -0.000070 0.000000
-0.000416 -0.000050 -0.000166 0.000000
-0.000551 0.000147 -0.000334 0.000000
-0.000482 -0.000096 -0.000035 0.000000
-0.000618 0.000199 -0.000092 0.000000
-0.000081 0.000005 -0.000007 0.000000
-0.000071 0.000010 0.000003 0.000000
-0.000070 0.000003 0.000067 0.000000
-0.000218 0.000055 -0.000465 0.000000
-0.000394 0.000076 -0.000056 0.000000
-0.000626 0.000165 0.000275 0.000000
-0.000145 0.000034 0.000061 0.000000
-0.000457 -0.000082 0.000003 0.000000
-0.000399 0.000006 0.000065 0.000000
-0.000392 -0.000076 0.000059 0.000000
-0.000373 -0.000084 0.000033 0.000000
-0.000081 -0.000025 0.000026 0.000000
-0.000066 -0.000020 0.000001 0.000000
-0.000067 -0.000024 0.000004 0.000000
-0.000068 -0.000017 -0.000005 0.000000
-0.000072 -0.000019 0.000007 0.000000
-0.000058 -0.000009 -0.000009 0.000000
-0.000067 -0.000012 -0.000000 0.000000
-0.000062 -0.000008 0.000001 0.000000
-0.000115 -0.000005 0.000028 0.000000
-0.000415 -0.000056 0.000064 0.000000
-0.000109 -0.000017 0.000017 0.000000
-0.000080 -0.000032 0.000030 0.000000
-0.000420 -0.000055 0.000067 0.000000
-0.000066 -0.000022 -0.000002 0.000000
-0.000422 -0.000014 0.000127 0.000000
-0.000383 -0.000079 -0.000007 0.000000
-0.000065 -0.000017 0.000008 0.000000
-0.000430 0.000027 0.000054 0.000000
-0.000065 -0.000014 0.000003 0.000000
-0.000066 -0.000011 0.000008 0.000000
-0.000068 -0.000015 0.000000 0.000000
-0.000066 -0.000016 -0.000006 0.000000
-0.000064 -0.000015 -0.000006 0.000000
-0.000060 -0.000010 0.000000 0.000000
-0.000061 -0.000011 -0.000008 0.000000
-0.000065 -0.000011 -0.000002 0.000000
-0.000509 0.000104 -0.000009 0.000000
-0.000107 -0.000159 0.000051 0.000000
-0.000386 -0.000053 0.000019 0.000000
-0.000430 0.000048 0.000070 0.000000
-0.000084 0.000008 0.000022 0.000000
-0.000381 -0.000043 -0.000064 0.000000
-0.000074 0.000027 0.000019 0.000000
-0.000092 0.000038 0.000097 0.000000
-0.000481 0.000179 0.000136 0.000000
-0.000640 0.000081 0.000201 0.000000
-0.000323 0.000011 0.000176 0.000000
-0.000466 0.000064 0.000169 0.000000
-0.000470 -0.000036 -0.000128 0.000000
-0.000558 0.000056 -0.000284 0.000000
-0.000081 0.000005 0.000027 0.000000
-0.000118 0.000010 0.000011 0.000000
-0.000573 0.000066 -0.000463 0.000000
-0.000070 0.000010 -0.000041 0.000000
-0.000277 0.000099 -0.000769 0.000000
-0.000422 -0.000006 -0.000217 0.000000
-0.000118 0.000009 0.000040 0.000000
-0.000082 0.000008 0.000013 0.000000
-0.000089 -0.000003 -0.000015 0.000000
-0.000466 0.000066 -0.000114 0.000000
-0.000072 -0.000013 0.000001 0.000000
-0.000526 -0.000007 -0.000079 0.000000
-0.000829 0.000356 0.000139 0.000000
-0.000974 0.000477 -0.000108 0.000000
-0.000544 0.000171 -0.000011 0.000000
-0.000633 0.000240 0.000170 0.000000
-0.000727 0.000340 0.000148 0.000000
-0.001040 0.000710 0.000018 0.000000
-0.000923 0.000495 -0.000013 0.000000
-0.000606 0.000198 0.000053 0.000000
-0.000985 0.000497 0.000505 0.000000
-0.000096 0.000001 -0.000019 0.000000
-0.000085 0.000001 -0.000006 0.000000
-0.000087 -0.000009 -0.000002 0.000000
-0.000126 0.000004 -0.000037 0.000000
-0.001141 0.000612 0.000222 0.000000
-0.000084 -0.000016 0.000010 0.000000
-0.000081 -0.000013 0.000002 0.000000
-0.000110 0.000015 -0.000011 0.000000
-0.000097 -0.000004 -0.000018 0.000000
-0.000085 -0.000004 0.000006 0.000000
-0.000098 -0.000015 0.000018 0.000000
-0.000838 0.000501 0.000000 0.000000
-0.001061 0.000528 0.000249 0.000000
-0.001116 0.000497 0.000054 0.000000
-0.001135 0.000642 -0.000300 0.000000
-0.001034 0.000744 -0.000016 0.000000
-0.000960 0.000516 0.000862 0.000000
-0.001139 0.000570 0.000625 0.000000
-0.001029 0.000517 0.000156 0.000000
-0.000697 0.000255 0.000254 0.000000
-0.001023 0.000479 0.000225 0.000000
-0.000110 0.000034 0.000023 0.000000
-0.000911 0.000378 0.000662 0.000000
-0.000921 0.000194 0.000831 0.000000
-0.001053 0.000385 0.000669 0.000000
-0.000113 0.000006 0.000019 0.000000
-0.000113 0.000001 0.000037 0.000000
-0.000095 0.000010 0.000025 0.000000
-0.000097 0.000005 0.000005 0.000000
-0.000141 -0.000004 0.000051 0.000000
-0.000170 -0.000020 0.000120 0.000000
-0.000160 -0.000006 0.000066 0.000000
-0.000152 0.000000 0.000046 0.000000
-0.000518 0.000037 0.000198 0.000000
-0.000161 0.000013 0.000035 0.000000
-0.000094 -0.000005 -0.000011 0.000000
-0.000151 0.000011 0.000012 0.000000
-0.000096 -0.000003 0.000003 0.000000
-0.000138 0.000008 0.000016 0.000000
-0.000118 0.000004 -0.000019 0.000000
-0.000114 0.000002 0.000006 0.000000
-0.000095 0.000004 -0.000003 0.000000
-0.000092 0.000001 0.000001 0.000000
-0.000096 0.000004 0.000020 0.000000
-0.000087 0.000004 0.000014 0.000000
-0.000084 0.000009 0.000025 0.000000
-0.000101 0.000008 0.000016 0.000000
-0.000118 0.000005 0.000067 0.000000
-0.000105 0.000046 0.000021 0.000000
-0.001395 0.000826 0.000450 0.000000
-0.001062 0.000495 0.000698 0.000000
-0.000088 -0.000005 -0.000015 0.000000
-0.000092 -0.000001 0.000001 0.000000
-0.000085 -0.000002 -0.000001 0.000000
-0.000116 0.000005 0.000008 0.000000
-0.000097 0.000004 0.000008 0.000000
-0.000082 0.000000 -0.000011 0.000000
-0.000136 -0.000009 0.000159 0.000000
-0.000117 -0.000017 0.000149 0.000000
-0.000133 -0.000034 0.000219 0.000000
-0.000140 -0.000018 0.000175 0.000000
-0.000186 -0.000000 0.000177 0.000000
-0.000132 -0.000016 0.000203 0.000000
-0.001584 0.001432 0.001574 0.000000
-0.000126 -0.000035 0.000264 0.000000
-0.000127 -0.000027 0.000127 0.000000
-0.000113 -0.000026 0.000141 0.000000
-0.000142 -0.000018 0.000112 0.000000
-0.000115 -0.000021 0.000143 0.000000
-0.000100 -0.000047 0.000141 0.000000
-0.000091 -0.000048 0.000146 0.000000
-0.000139 -0.000016 0.000130 0.000000
-0.000134 -0.000013 0.000138 0.000000
-0.000086 -0.000059 0.000133 0.000000
-0.000092 -0.000063 0.000122 0.000000
-0.000092 -0.000060 0.000133 0.000000
-0.000096 -0.000052 0.000138 0.000000
-0.001541 0.000883 0.003465 0.000000
-0.001474 0.000841 0.003131 0.000000
-0.000092 -0.000062 0.000108 0.000000
-0.000082 -0.000062 0.000103 0.000000
-0.001628 0.000628 0.003809 0.000000
-0.000101 -0.000054 0.000081 0.000000
-0.000103 -0.000063 0.000113 0.000000
-0.000092 -0.000051 0.000081 0.000000
-0.000105 -0.000055 0.000095 0.000000
-0.000094 -0.000062 0.000109 0.000000
-0.000094 -0.000064 0.000116 0.000000
-0.000085 -0.000063 0.000115 0.000000
-0.000097 -0.000064 0.000117 0.000000
-0.000108 -0.000065 0.000123 0.000000
-0.000103 -0.000060 0.000104 0.000000
-0.000100 -0.000064 0.000110 0.000000
-0.000101 -0.000056 0.000131 0.000000
-0.000107 -0.000066 0.000119 0.000000
-0.001830 0.000764 0.004790 0.000000
-0.001976 0.001141 0.004502 0.000000
-0.000104 -0.000059 0.000101 0.000000
-0.000098 -0.000056 0.000095 0.000000
-0.000106 -0.000064 0.000107 0.000000
-0.000098 -0.000060 0.000104 0.000000
-0.000106 -0.000065 0.000119 0.000000
-0.000103 -0.000066 0.000116 0.000000
-0.000109 -0.000047 0.000135 0.000000
-0.000105 -0.000054 0.000133 0.000000
-0.000126 -0.000042 0.000120 0.000000
-0.000114 -0.000039 0.000135 0.000000
-0.000122 -0.000040 0.000126 0.000000
-0.000127 -0.000033 0.000124 0.000000
-0.000133 -0.000021 0.000127 0.000000
-0.000158 0.000000 0.000104 0.000000
-0.000134 -0.000034 0.000115 0.000000
-0.000123 -0.000026 0.000132 0.000000
-0.000128 -0.000020 0.000132 0.000000
-0.000139 -0.000038 0.000106 0.000000
-0.000243 0.000014 0.000266 0.000000
-0.000180 -0.000086 0.000403 0.000000
-0.000516 -0.000065 0.000521 0.000000
-0.001463 -0.000932 0.002821 0.000000
-0.000157 -0.000000 0.000142 0.000000
-0.000168 -0.000012 0.000179 0.000000
-0.000170 -0.000001 0.000339 0.000000
-0.000178 0.000023 0.000150 0.000000
-0.001088 0.000232 0.000359 0.000000
-0.001349 -0.000347 0.003267 0.000000
-0.000147 -0.000009 0.000118 0.000000
-0.000146 -0.000019 0.000100 0.000000
-0.000169 0.000031 0.000105 0.000000
-0.001494 0.000686 0.002637 0.000000
-0.000132 -0.000027 0.000121 0.000000
-0.000134 -0.000028 0.000117 0.000000
-0.000138 -0.000022 0.000115 0.000000
-0.000139 -0.000031 0.000107 0.000000
-0.000122 -0.000049 0.000122 0.000000
-0.000113 -0.000050 0.000128 0.000000
-0.000126 -0.000048 0.000120 0.000000
-0.000130 -0.000041 0.000118 0.000000
-0.000186 -0.000002 0.000122 0.000000
-0.000149 -0.000028 0.000051 0.000000
-0.002066 0.001199 0.002160 0.000000
-0.000231 0.000148 0.000182 0.000000
-0.000151 -0.000018 0.000083 0.000000
-0.000145 -0.000029 0.000093 0.000000
-0.000205 -0.000028 0.000188 0.000000
-0.000205 0.000015 0.000083 0.000000
-0.000233 0.000025 0.000090 0.000000
-0.000162 -0.000017 0.000070 0.000000
-0.000128 -0.000027 0.000032 0.000000
-0.000124 -0.000046 0.000057 0.000000
-0.000143 -0.000046 0.000106 0.000000
-0.000136 -0.000042 0.000110 0.000000
-0.000142 -0.000036 0.000098 0.000000
-0.000140 -0.000047 0.000103 0.000000
-0.000134 -0.000066 0.000115 0.000000
-0.000118 -0.000058 0.000123 0.000000
-0.000130 -0.000049 0.000116 0.000000
-0.000122 -0.000054 0.000121 0.000000
-0.000142 -0.000030 0.000101 0.000000
-0.000138 -0.000028 0.000111 0.000000
-0.000111 -0.000069 0.000115 0.000000
-0.000120 -0.000068 0.000118 0.000000
-0.000118 -0.000064 0.000123 0.000000
-0.000116 -0.000069 0.000122 0.000000
-0.000116 -0.000069 0.000113 0.000000
-0.000131 -0.000066 0.000116 0.000000
-0.000116 -0.000069 0.000115 0.000000
-0.000124 -0.000074 0.000113 0.000000
0.000023 -0.000238 0.000435 0.000000
-0.001498 0.000649 0.004050 0.000000
-0.000127 -0.000057 0.000045 0.000000
-0.000122 -0.000060 0.000102 0.000000
-0.000118 -0.000063 0.000085 0.000000
-0.000106 -0.000054 0.000093 0.000000
-0.000132 -0.000061 0.000098 0.000000
-0.000111 -0.000064 0.000101 0.000000
-0.000041 -0.000310 0.000324 0.000000
-0.001582 0.000585 0.004482 0.000000
-0.000113 -0.000050 0.000097 0.000000
-0.001559 0.000652 0.004009 0.000000
-0.000111 -0.000063 0.000103 0.000000
-0.000108 -0.000063 0.000109 0.000000
-0.000118 -0.000057 0.000120 0.000000
-0.000101 -0.000061 0.000129 0.000000
-0.000110 -0.000060 0.000127 0.000000
-0.000105 -0.000061 0.000127 0.000000
-0.000113 -0.000053 0.000128 0.000000
-0.000110 -0.000057 0.000126 0.000000
-0.001695 0.000730 0.004457 0.000000
-0.001592 0.000697 0.003978 0.000000
-0.000112 -0.000054 0.000091 0.000000
-0.000111 -0.000059 0.000096 0.000000
-0.000098 -0.000064 0.000123 0.000000
-0.000101 -0.000064 0.000123 0.000000
-0.000091 -0.000162 0.000230 0.000000
-0.000088 -0.000148 0.000233 0.000000
-0.000067 -0.000228 0.000273 0.000000
-0.001698 0.000898 0.004048 0.000000
-0.000093 -0.000156 0.000217 0.000000
-0.000095 -0.000140 0.000223 0.000000
-0.000093 -0.000152 0.000226 0.000000
-0.000094 -0.000150 0.000219 0.000000
-0.000092 -0.000156 0.000217 0.000000
-0.000090 -0.000157 0.000218 0.000000
-0.000095 -0.000147 0.000220 0.000000
-0.000090 -0.000162 0.000229 0.000000
-0.000083 -0.000176 0.000231 0.000000
-0.000085 -0.000185 0.000250 0.000000
-0.000073 -0.000206 0.000234 0.000000
-0.000079 -0.000203 0.000251 0.000000
-0.000057 -0.000231 0.000268 0.000000
-0.000050 -0.000217 0.000267 0.000000
-0.000059 -0.000230 0.000304 0.000000
-0.001728 0.000605 0.004423 0.000000
-0.000075 -0.000191 0.000240 0.000000
-0.000086 -0.000176 0.000233 0.000000
0.000403 -0.002540 0.002519 0.000000
0.000161 -0.002140 0.001570 0.000000
-0.000085 -0.000172 0.000219 0.000000
-0.000089 -0.000163 0.000219 0.000000
-0.000089 -0.000161 0.000226 0.000000
-0.000094 -0.000152 0.000225 0.000000
-0.000090 -0.000157 0.000216 0.000000
-0.000092 -0.000155 0.000221 0.000000
-0.000096 -0.000147 0.000221 0.000000
-0.000093 -0.000154 0.000218 0.000000
-0.000090 -0.000160 0.000228 0.000000
-0.000082 -0.000173 0.000234 0.000000
-0.000081 -0.000176 0.000222 0.000000
-0.000084 -0.000179 0.000218 0.000000
-0.000088 -0.000163 0.000220 0.000000
-0.000092 -0.000155 0.000217 0.000000
-0.000075 -0.000187 0.000249 0.000000
-0.000092 -0.000191 0.000272 0.000000
-0.000080 -0.000183 0.000231 0.000000
-0.000084 -0.000193 0.000242 0.000000
-0.000207 -0.000097 0.000394 0.000000
-0.000132 -0.000073 0.000367 0.000000
-0.000142 -0.000161 0.000337 0.000000
-0.000126 -0.000142 0.000314 0.000000
-0.000139 -0.000185 0.000360 0.000000
-0.000127 -0.000131 0.000276 0.000000
-0.000081 -0.000187 0.000242 0.000000
-0.000049 -0.000150 0.000281 0.000000
-0.000144 -0.000093 0.000305 0.000000
-0.000318 -0.000911 0.003635 0.000000
-0.000073 -0.000190 0.000233 0.000000
-0.000056 -0.000163 0.000287 0.000000
-0.000072 -0.000180 0.000237 0.000000
-0.000063 -0.000177 0.000250 0.000000
-0.000074 -0.000170 0.000238 0.000000
-0.000076 -0.000175 0.000230 0.000000
-0.000087 -0.000155 0.000221 0.000000
-0.000081 -0.000173 0.000227 0.000000
-0.000094 -0.000148 0.000217 0.000000
-0.000093 -0.000135 0.000224 0.000000
-0.000057 -0.000133 0.000268 0.000000
-0.000084 -0.000122 0.000272 0.000000
-0.000072 -0.000141 0.000290 0.000000
-0.000098 -0.000167 0.000283 0.000000
-0.000065 -0.000169 0.000273 0.000000
-0.000089 -0.000148 0.000251 0.000000
-0.000104 -0.000073 0.000344 0.000000
-0.000076 -0.000081 0.000309 0.000000
-0.000074 -0.000181 0.000264 0.000000
-0.000072 -0.000183 0.000238 0.000000
-0.000050 -0.000126 0.000327 0.000000
-0.000077 -0.000104 0.000341 0.000000
-0.000059 -0.000155 0.000253 0.000000
-0.000049 -0.000181 0.000250 0.000000
-0.000053 -0.000175 0.000269 0.000000
-0.000063 -0.000185 0.000242 0.000000
-0.000053 -0.000183 0.000251 0.000000
-0.000069 -0.000170 0.000245 0.000000
-0.000061 -0.000179 0.000254 0.000000
-0.000061 -0.000187 0.000248 0.000000
-0.000079 -0.000158 0.000247 0.000000
-0.000062 -0.000167 0.000262 0.000000
-0.000093 -0.000148 0.000219 0.000000
-0.000091 -0.000135 0.000237 0.000000
-0.000094 -0.000143 0.000220 0.000000
-0.000096 -0.000143 0.000220 0.000000
-0.000093 -0.000154 0.000231 0.000000
-0.000096 -0.000145 0.000225 0.000000
-0.000090 -0.000167 0.000235 0.000000
-0.000074 -0.000201 0.000240 0.000000
-0.000092 -0.000153 0.000234 0.000000
-0.000089 -0.000157 0.000243 0.000000
-0.000047 -0.000261 0.000277 0.000000
-0.001558 0.000574 0.003628 0.000000
-0.000083 -0.000150 0.000236 0.000000
-0.000082 -0.000160 0.000232 0.000000
-0.000089 -0.000151 0.000225 0.000000
-0.000094 -0.000141 0.000219 0.000000
-0.000092 -0.000141 0.000223 0.000000
-0.000095 -0.000138 0.000221 0.000000
-0.000091 -0.000127 0.000223 0.000000
-0.000093 -0.000137 0.000223 0.000000
-0.000091 -0.000147 0.000237 0.000000
-0.000089 -0.000135 0.000226 0.000000
-0.000073 -0.000204 0.000259 0.000000
-0.000075 -0.000169 0.000227 0.000000
-0.000053 -0.000222 0.000237 0.000000
-0.000074 -0.000185 0.000246 0.000000
-0.000091 -0.000135 0.000228 0.000000
-0.000094 -0.000139 0.000227 0.000000
-0.000085 -0.000151 0.000243 0.000000
-0.000080 -0.000144 0.000232 0.000000
-0.000093 -0.000138 0.000223 0.000000
-0.000094 -0.000133 0.000222 0.000000
-0.000092 -0.000134 0.000227 0.000000
-0.000092 -0.000133 0.000224 0.000000
-0.000092 -0.000127 0.000225 0.000000
-0.000093 -0.000134 0.000226 0.000000
-0.000044 -0.000170 0.000292 0.000000
-0.000041 -0.000164 0.000290 0.000000
-0.000044 -0.000172 0.000294 0.000000
-0.000047 -0.000178 0.000269 0.000000
-0.000080 -0.000150 0.000270 0.000000
-0.000072 -0.000157 0.000250 0.000000
-0.000089 -0.000142 0.000229 0.000000
-0.000091 -0.000131 0.000232 0.000000
-0.000400 -0.000739 0.002063 0.000000
-0.000068 -0.000036 0.000468 0.000000
-0.000043 -0.000171 0.000269 0.000000
-0.000053 -0.000174 0.000270 0.000000
-0.000291 -0.000893 0.001480 0.000000
-0.000055 -0.000071 0.000395 0.000000
-0.000052 -0.000143 0.000280 0.000000
-0.000062 -0.000114 0.000301 0.000000
-0.000047 -0.000157 0.000290 0.000000
-0.000050 -0.000167 0.000260 0.000000
-0.000748 -0.000815 0.000841 0.000000
-0.000491 -0.000760 0.000839 0.000000
-0.000427 -0.000783 0.003638 0.000000
-0.000574 -0.000832 0.001656 0.000000
-0.000096 -0.000236 0.000167 0.000000
-0.000152 -0.000258 0.000278 0.000000
-0.000048 -0.000295 0.000155 0.000000
-0.000136 -0.000192 0.000195 0.000000
-0.000139 -0.000191 0.000215 0.000000
-0.000086 -0.000242 0.000174 0.000000
-0.000222 -0.000730 -0.000113 0.000000
-0.000471 -0.001065 0.000613 0.000000
-0.000219 -0.001363 0.003370 0.000000
-0.000502 -0.000557 0.001360 0.000000
-0.000413 -0.001036 0.001943 0.000000
-0.000376 -0.000944 0.003531 0.000000
-0.000086 -0.000198 0.000105 0.000000
-0.000214 -0.000170 0.000386 0.000000
-0.000418 -0.000831 0.002364 0.000000
-0.000503 -0.000250 0.000056 0.000000
-0.000110 -0.000184 0.000200 0.000000
-0.000187 -0.000119 0.000235 0.000000
-0.000361 0.000108 0.002163 0.000000
-0.000586 -0.000710 0.003522 0.000000
-0.000000 -0.000278 0.000107 0.000000
-0.000118 -0.000206 0.000158 0.000000
-0.000071 -0.000241 0.000139 0.000000
-0.000128 -0.000182 0.000218 0.000000
0.000645 -0.002101 0.003047 0.000000
0.003185 -0.004047 0.000890 0.000000
-0.000100 -0.000260 0.000215 0.000000
-0.000049 -0.000289 0.000144 0.000000
-0.000122 -0.000221 0.000205 0.000000
-0.000084 -0.000235 0.000155 0.000000
0.002032 -0.003759 0.002420 0.000000
0.002413 -0.003861 0.001715 0.000000
-0.000075 -0.000242 0.000167 0.000000
-0.000032 -0.000296 0.000194 0.000000
0.001439 -0.002817 0.001459 0.000000
0.001348 -0.003016 0.001720 0.000000
-0.000044 -0.000288 0.000111 0.000000
0.000826 -0.002424 0.001812 0.000000
0.000517 -0.001803 0.002814 0.000000
0.002294 -0.003750 0.007908 0.000000
0.000295 -0.001999 0.001950 0.000000
0.002370 -0.004069 0.002944 0.000000
0.002497 -0.003418 0.001619 0.000000
0.002548 -0.003786 0.004764 0.000000
0.000871 -0.001984 0.000712 0.000000
0.002418 -0.004082 0.002340 0.000000
0.001911 -0.002829 0.002192 0.000000
0.003206 -0.003972 0.004952 0.000000
0.003551 -0.004242 0.003110 0.000000
0.003026 -0.003964 0.007133 0.000000
0.000564 -0.001741 0.000342 0.000000
0.001543 -0.003243 0.001290 0.000000
-0.000046 -0.000293 0.000132 0.000000
0.000530 -0.001760 0.002601 0.000000
0.000020 -0.001575 0.000639 0.000000
-0.000099 -0.001316 0.001099 0.000000
-0.000157 -0.001622 0.001644 0.000000
0.000526 -0.002338 0.002501 0.000000
0.002355 -0.003783 0.003219 0.000000
0.002771 -0.004149 0.002859 0.000000
0.001545 -0.002846 0.002587 0.000000
0.002852 -0.004198 0.003430 0.000000
0.000558 -0.002255 0.001308 0.000000
0.001681 -0.003006 0.001539 0.000000
-0.000074 -0.000195 0.000160 0.000000
-0.000075 -0.000179 0.000135 0.000000
-0.000047 -0.000166 0.000088 0.000000
0.002610 -0.004321 0.006074 0.000000
-0.000083 -0.000185 0.000158 0.000000
-0.000090 -0.000178 0.000168 0.000000
-0.000084 -0.000165 0.000125 0.000000
-0.000074 -0.000162 0.000109 0.000000
-0.000063 -0.000233 0.000175 0.000000
-0.000059 -0.000249 0.000146 0.000000
-0.000068 -0.000218 0.000171 0.000000
-0.000072 -0.000211 0.000175 0.000000
-0.000068 -0.000245 0.000150 0.000000
-0.000072 -0.000231 0.000133 0.000000
-0.000067 -0.000229 0.000183 0.000000
-0.000059 -0.000231 0.000168 0.000000
0.000426 -0.002369 0.000710 0.000000
0.001079 -0.002759 0.000926 0.000000
-0.000037 -0.000327 0.000173 0.000000
-0.000062 -0.000269 0.000173 0.000000
-0.000547 -0.000624 -0.001002 0.000000
-0.000029 -0.000355 0.000019 0.000000
-0.000025 -0.001595 -0.000487 0.000000
-0.000384 -0.001125 -0.000332 0.000000
-0.000035 -0.000340 -0.000052 0.000000
-0.000023 -0.000348 -0.000059 0.000000
-0.000722 -0.000754 -0.000508 0.000000
-0.000440 -0.001098 -0.000195 0.000000
0.003522 -0.006727 0.000699 0.000000
0.003985 -0.006126 0.003694 0.000000
-0.000039 -0.000299 0.000178 0.000000
-0.000031 -0.000349 0.000208 0.000000
-0.000051 -0.000280 0.000170 0.000000
-0.000074 -0.000247 0.000162 0.000000
0.003932 -0.005483 0.005370 0.000000
0.000248 -0.001586 0.000403 0.000000
-0.000011 -0.000378 0.000060 0.000000
0.000004 -0.000395 0.000177 0.000000
-0.000049 -0.000335 0.000008 0.000000
-0.000029 -0.000369 -0.000030 0.000000
-0.000664 -0.000531 -0.000783 0.000000
-0.000056 -0.000320 0.000004 0.000000
-0.000042 -0.000351 -0.000031 0.000000
-0.000035 -0.000341 -0.000083 0.000000
-0.000580 -0.000726 -0.000368 0.000000
-0.000208 -0.001480 0.000213 0.000000
-0.000376 -0.001089 -0.000042 0.000000
-0.000456 -0.000924 -0.000139 0.000000
0.000986 -0.002623 0.001054 0.000000
-0.000288 -0.001422 0.000014 0.000000
-0.000023 -0.000341 0.000134 0.000000
0.000020 -0.000335 -0.000033 0.000000
-0.000048 -0.000291 0.000165 0.000000
-0.000043 -0.000303 0.000172 0.000000
-0.000047 -0.000283 0.000171 0.000000
-0.000063 -0.000268 0.000179 0.000000
-0.000050 -0.000299 0.000175 0.000000
-0.000038 -0.000304 0.000158 0.000000
-0.000061 -0.000251 0.000147 0.000000
-0.000058 -0.000266 0.000170 0.000000
-0.000058 -0.000249 0.000160 0.000000
-0.000053 -0.000251 0.000155 0.000000
-0.000090 -0.000186 0.000158 0.000000
-0.000079 -0.000184 0.000163 0.000000
-0.000055 -0.000273 0.000175 0.000000
-0.000055 -0.000258 0.000159 0.000000
-0.000101 -0.000175 0.000158 0.000000
-0.000074 -0.000172 0.000152 0.000000
-0.000096 -0.000168 0.000154 0.000000
0.000505 -0.001838 0.003379 0.000000
-0.000054 -0.000258 0.000163 0.000000
-0.000053 -0.000267 0.000172 0.000000
-0.000064 -0.000238 0.000172 0.000000
-0.000055 -0.000267 0.000165 0.000000
-0.000057 -0.000254 0.000166 0.000000
-0.000057 -0.000255 0.000170 0.000000
-0.000070 -0.000223 0.000167 0.000000
-0.000064 -0.000246 0.000158 0.000000
-0.000040 -0.000292 0.000172 0.000000
-0.000059 -0.000268 0.000172 0.000000
-0.000050 -0.000278 0.000175 0.000000
-0.000053 -0.000268 0.000171 0.000000
-0.000040 -0.000304 0.000172 0.000000
-0.000041 -0.000296 0.000163 0.000000
-0.000048 -0.000283 0.000178 0.000000
-0.000053 -0.000267 0.000165 0.000000
-0.000022 -0.000334 0.000144 0.000000
-0.000033 -0.000300 0.000009 0.000000
-0.000028 -0.000334 0.000146 0.000000
-0.000021 -0.000330 0.000043 0.000000
-0.000038 -0.000335 -0.000084 0.000000
-0.000038 -0.000337 -0.000091 0.000000
-0.000192 -0.001443 -0.000036 0.000000
0.000071 -0.001402 0.000182 0.000000
-0.000041 -0.000328 -0.000051 0.000000
-0.000029 -0.000347 -0.000080 0.000000
-0.000067 -0.000331 -0.000023 0.000000
-0.000026 -0.000355 -0.000063 0.000000
-0.000583 -0.000751 -0.000184 0.000000
-0.000033 -0.000343 -0.000058 0.000000
-0.000325 -0.001065 0.000110 0.000000
-0.000248 -0.000974 0.000299 0.000000
0.000733 -0.002223 0.001023 0.000000
0.003288 -0.005411 0.004181 0.000000
-0.000036 -0.000251 0.000052 0.000000
0.000325 -0.001914 0.001323 0.000000
0.000729 -0.002134 0.000422 0.000000
0.003276 -0.004308 0.004827 0.000000
-0.000031 -0.000338 -0.000066 0.000000
-0.000036 -0.000340 -0.000080 0.000000
-0.000012 -0.000354 -0.000062 0.000000
-0.000644 -0.000372 0.000283 0.000000
-0.000026 -0.000349 -0.000076 0.000000
-0.000034 -0.000346 -0.000085 0.000000
0.000319 -0.001550 0.000350 0.000000
-0.000561 -0.000974 0.000393 0.000000
0.000031 -0.001653 -0.000019 0.000000
-0.000371 -0.001111 0.000010 0.000000
0.000359 -0.001893 0.000770 0.000000
-0.000039 -0.000301 0.000002 0.000000
-0.000032 -0.000294 -0.000003 0.000000
-0.000024 -0.000322 0.000096 0.000000
-0.000020 -0.000309 0.000039 0.000000
-0.000011 -0.000322 0.000064 0.000000
-0.000028 -0.000312 0.000148 0.000000
-0.000028 -0.000315 0.000143 0.000000
-0.000027 -0.000314 0.000151 0.000000
-0.000036 -0.000301 0.000165 0.000000
-0.000040 -0.000297 0.000176 0.000000
-0.000043 -0.000285 0.000170 0.000000
-0.000045 -0.000287 0.000176 0.000000
-0.000049 -0.000271 0.000168 0.000000
-0.000043 -0.000291 0.000170 0.000000
-0.000043 -0.000288 0.000163 0.000000
-0.000061 -0.000261 0.000151 0.000000
-0.000059 -0.000252 0.000172 0.000000
-0.000076 -0.000232 0.000156 0.000000
-0.000069 -0.000238 0.000170 0.000000
-0.000089 -0.000206 0.000149 0.000000
-0.000076 -0.000227 0.000154 0.000000
0.000323 -0.001937 0.001202 0.000000
0.000634 -0.002282 0.001541 0.000000
0.001844 -0.003270 0.001307 0.000000
0.002075 -0.003604 0.002228 0.000000
0.002362 -0.003635 0.002066 0.000000
0.002664 -0.004121 0.001748 0.000000
0.000098 -0.001772 0.000510 0.000000
0.002456 -0.003758 0.002745 0.000000
0.002868 -0.004261 0.002166 0.000000
0.002445 -0.004008 0.001512 0.000000
-0.000108 -0.000195 0.000136 0.000000
0.000516 -0.002269 0.002772 0.000000
0.000400 -0.001978 0.003880 0.000000
0.000650 -0.002079 0.003952 0.000000
-0.000102 -0.000167 0.000152 0.000000
0.000397 -0.001996 0.003740 0.000000
0.000460 -0.002060 0.003699 0.000000
0.000581 -0.001922 0.003342 0.000000
-0.000078 -0.000202 0.000167 0.000000
-0.000078 -0.000213 0.000169 0.000000
-0.000103 -0.000181 0.000148 0.000000
-0.000087 -0.000183 0.000167 0.000000
0.000768 -0.002328 0.001863 0.000000
0.001932 -0.003046 0.001310 0.000000
0.001242 -0.002954 0.001733 0.000000
0.001542 -0.003007 0.001500 0.000000
0.001310 -0.002625 0.002261 0.000000
0.000301 -0.001731 0.002028 0.000000
0.001873 -0.003490 0.001899 0.000000
0.002111 -0.003570 0.002114 0.000000
0.002683 -0.004186 0.001690 0.000000
0.002566 -0.004140 0.001834 0.000000
0.000826 -0.002317 0.001795 0.000000
0.002460 -0.003970 0.003757 0.000000
-0.000043 -0.000290 0.000152 0.000000
0.000257 -0.001246 0.001839 0.000000
0.001948 -0.003077 0.000440 0.000000
0.002464 -0.003914 0.001978 0.000000
-0.000025 -0.000304 0.000142 0.000000
-0.000004 -0.000331 0.000185 0.000000
-0.000033 -0.000242 0.000121 0.000000
0.000404 -0.000453 0.000035 0.000000
-0.000483 -0.001307 0.002808 0.000000
-0.000102 -0.000035 0.000533 0.000000
-0.000097 -0.000198 0.000147 0.000000
0.000282 -0.002782 0.012704 0.000000
0.000054 -0.000263 0.000125 0.000000
-0.000100 -0.000011 0.000111 0.000000
-0.000469 -0.001399 0.002823 0.000000
-0.000187 -0.000027 0.000333 0.000000
-0.000559 -0.000467 0.001452 0.000000
-0.000770 -0.000933 0.003741 0.000000
-0.000240 -0.000676 0.001821 0.000000
-0.000245 -0.000030 0.000409 0.000000
-0.000032 -0.000233 0.000112 0.000000
0.000001 -0.000341 0.000187 0.000000
-0.000024 -0.000252 0.000108 0.000000
-0.000275 -0.000654 0.001805 0.000000
0.001869 -0.003788 0.002752 0.000000
0.003027 -0.004242 0.004344 0.000000
0.003014 -0.004978 0.002753 0.000000
0.003132 -0.004699 0.003248 0.000000
-0.000029 -0.000300 0.000220 0.000000
0.002117 -0.002553 -0.001857 0.000000
0.000109 -0.000316 0.000082 0.000000
0.000205 -0.000398 0.000347 0.000000
0.000134 -0.000312 -0.000036 0.000000
0.000012 -0.000234 0.000058 0.000000
0.001057 -0.003344 0.000165 0.000000
0.000261 -0.002708 0.006228 0.000000
-0.000001 -0.000285 -0.000046 0.000000
-0.000045 -0.000199 0.000115 0.000000
0.000036 -0.000277 0.000116 0.000000
0.002254 -0.003719 0.003945 0.000000
0.004612 -0.004849 -0.000011 0.000000
0.003185 -0.005570 0.002174 0.000000
-0.000020 -0.000416 0.000500 0.000000
0.003374 -0.005289 0.005998 0.000000
0.000101 -0.000378 0.000403 0.000000
0.002917 -0.003680 0.008882 0.000000
0.003680 -0.005467 0.009663 0.000000
0.000052 -0.000345 0.000071 0.000000
0.000736 -0.001590 0.002206 0.000000
0.000191 -0.001362 0.001401 0.000000
0.000421 -0.001933 0.003562 0.000000
0.000574 -0.001367 0.001588 0.000000
0.001719 -0.001888 0.006057 0.000000
0.000622 -0.000809 0.003394 0.000000
0.003645 -0.003931 0.006833 0.000000
0.000563 -0.004523 0.010830 0.000000
0.004809 -0.005906 0.006176 0.000000
0.002986 -0.003517 0.003887 0.000000
0.000401 -0.002725 0.000888 0.000000
0.000387 -0.002593 0.012691 0.000000
0.001779 -0.003953 0.012921 0.000000
0.000539 -0.002763 0.012848 0.000000
0.000220 -0.003059 0.004498 0.000000
0.000563 -0.003317 0.008240 0.000000
0.000033 -0.000270 0.000161 0.000000
0.000458 -0.001787 -0.005384 0.000000
0.000677 -0.001461 -0.001110 0.000000
0.001631 -0.003995 0.010169 0.000000
0.001294 -0.002336 0.001729 0.000000
-0.000005 -0.000251 0.000119 0.000000
0.001917 -0.002816 0.003200 0.000000
0.000019 -0.000242 0.000110 0.000000
-0.000012 -0.000250 0.000173 0.000000
-0.000107 -0.001927 0.001308 0.000000
0.000009 -0.000269 0.000162 0.000000
0.000036 -0.000259 0.000154 0.000000
0.000294 -0.001951 0.001525 0.000000
0.000493 -0.002443 0.002297 0.000000
-0.000051 -0.000248 0.000178 0.000000
0.000083 -0.001816 0.000567 0.000000
0.000406 -0.002054 0.001907 0.000000
0.000651 -0.002553 0.003949 0.000000
0.000568 -0.002297 0.001005 0.000000
-0.000043 -0.001729 0.000571 0.000000
0.000286 -0.001870 0.003890 0.000000
0.000490 -0.002234 0.004600 0.000000
0.000643 -0.002372 0.004572 0.000000
0.000386 -0.002158 0.002451 0.000000
0.000315 -0.001928 0.001863 0.000000
0.000262 -0.002030 0.001288 0.000000
0.001787 -0.003055 0.001617 0.000000
0.000471 -0.001904 0.000972 0.000000
0.000753 -0.002110 0.000611 0.000000
0.000063 -0.001764 0.000644 0.000000
0.001280 -0.003286 0.002304 0.000000
0.000130 -0.002435 0.002611 0.000000
0.000428 -0.001960 0.002843 0.000000
0.000388 -0.001822 0.002393 0.000000
0.000289 -0.001993 0.001214 0.000000
0.000628 -0.002143 0.001515 0.000000
0.000287 -0.001917 0.001249 0.000000
0.000364 -0.001964 0.000464 0.000000
-0.000090 -0.000204 0.000153 0.000000
-0.000088 -0.000220 0.000135 0.000000
-0.000103 -0.000183 0.000155 0.000000
-0.000108 -0.000187 0.000133 0.000000
-0.000051 -0.000276 0.000157 0.000000
-0.000049 -0.000281 0.000168 0.000000
-0.000056 -0.000276 0.000142 0.000000
-0.000085 -0.000237 0.000122 0.000000
-0.000035 -0.000305 0.000168 0.000000
-0.000026 -0.000313 0.000153 0.000000
-0.000031 -0.000305 0.000166 0.000000
-0.000032 -0.000309 0.000170 0.000000
-0.000025 -0.000320 0.000130 0.000000
-0.000015 -0.000316 0.000095 0.000000
-0.000021 -0.000328 0.000120 0.000000
-0.000021 -0.000312 0.000115 0.000000
-0.000033 -0.000303 0.000022 0.000000
-0.000020 -0.000328 0.000075 0.000000
-0.000022 -0.000299 0.000008 0.000000
-0.000027 -0.000307 0.000062 0.000000
-0.000018 -0.000355 -0.000036 0.000000
-0.000028 -0.000351 -0.000071 0.000000
-0.000018 -0.000350 -0.000032 0.000000
-0.000437 -0.000521 0.000909 0.000000
-0.000032 -0.000354 -0.000069 0.000000
-0.000033 -0.000360 -0.000043 0.000000
0.000044 -0.000916 0.002771 0.000000
-0.000071 -0.001232 0.000610 0.000000
-0.000108 -0.001765 0.001709 0.000000
0.000001 -0.001830 0.000508 0.000000
0.000381 -0.002188 0.000352 0.000000
-0.000030 -0.000309 0.000025 0.000000
0.002799 -0.003799 0.004373 0.000000
-0.000044 -0.000306 -0.000025 0.000000
0.001391 -0.001723 0.005806 0.000000
-0.000041 -0.000290 -0.000036 0.000000
-0.000038 -0.000294 0.000006 0.000000
-0.000036 -0.000310 0.000006 0.000000
0.000865 -0.002204 0.000837 0.000000
0.000304 -0.001629 0.001018 0.000000
-0.000019 -0.000349 -0.000016 0.000000
0.000691 -0.002209 0.001126 0.000000
-0.000028 -0.000364 -0.000039 0.000000
-0.000029 -0.000379 -0.000007 0.000000
-0.000027 -0.000340 -0.000018 0.000000
0.000470 -0.001875 0.000708 0.000000
0.000428 -0.001887 0.001228 0.000000
0.000145 -0.001590 0.001158 0.000000
0.000827 -0.002673 0.004249 0.000000
0.000458 -0.002106 0.000823 0.000000
-0.000033 -0.000297 0.000070 0.000000
-0.000029 -0.000299 0.000130 0.000000
-0.000027 -0.000309 0.000165 0.000000
-0.000027 -0.000311 0.000150 0.000000
-0.000019 -0.000310 0.000069 0.000000
-0.000031 -0.000309 0.000069 0.000000
-0.000025 -0.000308 0.000128 0.000000
-0.000026 -0.000314 0.000154 0.000000
-0.000029 -0.000310 0.000164 0.000000
-0.000037 -0.000298 0.000167 0.000000
-0.000069 -0.000258 0.000133 0.000000
-0.000091 -0.000271 0.000015 0.000000
-0.000035 -0.000310 0.000149 0.000000
-0.000037 -0.000301 0.000156 0.000000
-0.000046 -0.000290 0.000150 0.000000
-0.000044 -0.000298 0.000143 0.000000
-0.000061 -0.000267 0.000149 0.000000
-0.000063 -0.000275 0.000118 0.000000
-0.000068 -0.000266 0.000125 0.000000
-0.000056 -0.000292 0.000104 0.000000
-0.000084 -0.000244 0.000115 0.000000
-0.000069 -0.000275 0.000083 0.000000
-0.000026 -0.000324 0.000133 0.000000
-0.000037 -0.000313 0.000126 0.000000
-0.000049 -0.000300 0.000119 0.000000
-0.000039 -0.000304 0.000138 0.000000
-0.000040 -0.000295 0.000016 0.000000
-0.000043 -0.000284 0.000040 0.000000
-0.000019 -0.000332 0.000132 0.000000
-0.000026 -0.000316 0.000162 0.000000
-0.000021 -0.000321 0.000156 0.000000
-0.000021 -0.000320 0.000153 0.000000
-0.000028 -0.000319 0.000152 0.000000
-0.000029 -0.000309 0.000160 0.000000
-0.000045 -0.000296 -0.000012 0.000000
-0.000019 -0.000303 -0.000026 0.000000
-0.000039 -0.000297 0.000035 0.000000
-0.000034 -0.000296 0.000026 0.000000
-0.000030 -0.000363 -0.000027 0.000000
0.000136 -0.002185 0.002800 0.000000
0.000592 -0.002152 0.001024 0.000000
0.000359 -0.002118 0.000922 0.000000
-0.000033 -0.000359 -0.000004 0.000000
-0.000029 -0.000358 -0.000022 0.000000
-0.000032 -0.000370 -0.000019 0.000000
-0.000030 -0.000360 -0.000001 0.000000
0.000543 -0.002123 0.000908 0.000000
0.000214 -0.001951 0.001040 0.000000
0.000412 -0.001820 0.001329 0.000000
0.000512 -0.002030 0.000962 0.000000
0.000650 -0.001350 0.004542 0.000000
0.000199 -0.001082 0.003384 0.000000
-0.000053 -0.000297 -0.000009 0.000000
-0.000046 -0.000295 -0.000018 0.000000
-0.000041 -0.000298 0.000032 0.000000
-0.000036 -0.000291 0.000002 0.000000
-0.000036 -0.000358 -0.000007 0.000000
0.000720 -0.002747 0.003490 0.000000
0.000517 -0.002182 0.001016 0.000000
-0.000614 -0.001285 0.001087 0.000000
-0.000034 -0.000381 0.000024 0.000000
0.000352 -0.002371 0.001950 0.000000
0.000363 -0.002090 0.001567 0.000000
0.000307 -0.002083 0.000688 0.000000
0.000091 -0.001964 0.001494 0.000000
-0.000013 -0.001728 0.000852 0.000000
0.000157 -0.001757 0.000941 0.000000
-0.000138 -0.000879 0.002463 0.000000
-0.000042 -0.000297 0.000064 0.000000
-0.000050 -0.000284 0.000006 0.000000
-0.000025 -0.000309 0.000141 0.000000
0.000008 -0.000371 0.000145 0.000000
-0.000038 -0.000304 0.000083 0.000000
-0.000034 -0.000306 0.000111 0.000000
-0.000019 -0.000323 0.000153 0.000000
-0.000029 -0.000314 0.000127 0.000000
-0.000055 -0.000298 0.000071 0.000000
-0.000078 -0.000266 0.000088 0.000000
-0.000067 -0.000298 0.000061 0.000000
0.000256 -0.001717 0.003769 0.000000
-0.000020 -0.000330 0.000152 0.000000
-0.000008 -0.000342 0.000151 0.000000
-0.000012 -0.000333 0.000143 0.000000
-0.000013 -0.000348 0.000135 0.000000
-0.000016 -0.000343 0.000118 0.000000
-0.000031 -0.000319 0.000123 0.000000
0.000336 -0.002216 0.003456 0.000000
0.000277 -0.001905 0.003400 0.000000
-0.000048 -0.000222 0.000262 0.000000
0.001118 -0.002857 0.005573 0.000000
-0.000037 -0.000267 0.000259 0.000000
-0.000015 -0.000267 0.000224 0.000000
-0.000024 -0.000266 0.000243 0.000000
-0.000004 -0.000249 0.000160 0.000000
-0.000031 -0.000217 0.000317 0.000000
-0.000043 -0.000225 0.000217 0.000000
-0.000033 -0.000254 0.000238 0.000000
0.000151 -0.001922 0.001169 0.000000
0.000163 -0.001933 0.003915 0.000000
-0.000097 -0.000250 0.000057 0.000000
0.000332 -0.002475 0.001514 0.000000
0.000522 -0.001918 0.005152 0.000000
0.000206 -0.001884 0.003444 0.000000
-0.000017 -0.001784 0.003458 0.000000
0.000759 -0.002407 0.002054 0.000000
-0.000052 -0.000244 0.000189 0.000000
0.000169 -0.001830 0.003761 0.000000
-0.000102 -0.000220 0.000102 0.000000
0.000374 -0.002020 0.004017 0.000000
0.000973 -0.002863 0.005482 0.000000
0.000516 -0.002098 0.002475 0.000000
0.000412 -0.002032 0.001908 0.000000
-0.000027 -0.000246 0.000202 0.000000
-0.000057 -0.001730 0.000456 0.000000
0.000236 -0.002124 0.001317 0.000000
-0.000047 -0.000214 0.000269 0.000000
-0.000029 -0.000262 0.000220 0.000000
-0.000018 -0.000271 0.000217 0.000000
-0.000013 -0.000266 0.000149 0.000000
-0.000005 -0.000279 0.000171 0.000000
0.000011 -0.000261 0.000173 0.000000
-0.000005 -0.000267 0.000198 0.000000
0.000113 -0.000277 0.000191 0.000000
0.000005 -0.000417 -0.000024 0.000000
0.000068 -0.000278 0.000104 0.000000
0.000018 -0.000266 0.000152 0.000000
0.000113 -0.000287 0.000151 0.000000
0.000030 -0.000262 0.000151 0.000000
0.000363 -0.000491 0.000055 0.000000
0.000004 -0.000267 0.000090 0.000000
0.001562 -0.003620 0.003257 0.000000
0.000094 -0.000347 0.000289 0.000000
0.000155 -0.000499 0.000575 0.000000
0.001202 -0.003445 0.003477 0.000000
0.002241 -0.003780 0.010019 0.000000
-0.000444 -0.001522 0.006401 0.000000
0.000230 -0.000289 0.000662 0.000000
0.000460 -0.000676 0.000995 0.000000
0.001738 -0.003451 0.001418 0.000000
0.000097 -0.000343 0.000353 0.000000
0.000066 -0.000330 0.000336 0.000000
0.003613 -0.004505 0.007168 0.000000
0.000568 -0.002419 -0.003949 0.000000
-0.000071 -0.000244 -0.000019 0.000000
0.001303 -0.003026 -0.000545 0.000000
0.001063 -0.003291 0.003802 0.000000
-0.000006 -0.000262 0.000200 0.000000
-0.000013 -0.000275 0.000223 0.000000
-0.000028 -0.000232 0.000113 0.000000
0.000020 -0.000304 0.000031 0.000000
0.000059 -0.000438 0.000007 0.000000
0.000073 -0.001264 -0.000881 0.000000
0.000109 -0.000360 0.000313 0.000000
0.000749 -0.003424 0.001385 0.000000
0.000022 -0.000360 0.000535 0.000000
0.000282 -0.000498 0.000526 0.000000
0.001175 -0.001483 0.002755 0.000000
0.003161 -0.003645 0.008548 0.000000
0.000632 -0.001911 0.001211 0.000000
0.002857 -0.003766 0.007170 0.000000
-0.000259 -0.000136 0.000560 0.000000
0.002313 -0.003266 0.002178 0.000000
-0.000127 -0.000206 0.000497 0.000000
0.002188 -0.003119 0.002113 0.000000
-0.000099 -0.000224 0.000400 0.000000
0.001657 -0.002789 0.002098 0.000000
-0.000076 -0.000238 0.000328 0.000000
-0.000082 -0.000221 0.000279 0.000000
-0.000072 -0.000242 0.000316 0.000000
0.003226 -0.004859 0.000682 0.000000
-0.000078 -0.000216 0.000307 0.000000
-0.000080 -0.000217 0.000288 0.000000
-0.000050 -0.000209 0.000285 0.000000
-0.000066 -0.000203 0.000268 0.000000
-0.000051 -0.000215 0.000267 0.000000
-0.000070 -0.000202 0.000261 0.000000
-0.000040 -0.000206 0.000241 0.000000
-0.000027 -0.002077 0.001378 0.000000
-0.000161 -0.000058 0.000294 0.000000
0.000233 -0.002177 0.002046 0.000000
-0.000294 -0.001377 0.000935 0.000000
-0.000034 -0.000213 0.000275 0.000000
-0.000356 -0.001332 0.001122 0.000000
-0.000038 -0.000208 0.000339 0.000000
-0.000082 -0.000194 0.000251 0.000000
-0.000073 -0.000208 0.000283 0.000000
-0.000047 -0.000203 0.000213 0.000000
-0.000027 -0.000206 0.000184 0.000000
-0.000081 -0.001459 0.001129 0.000000
-0.000403 -0.001376 0.001376 0.000000
-0.000055 -0.000194 0.000225 0.000000
-0.000082 -0.000177 0.000225 0.000000
-0.000072 -0.000188 0.000238 0.000000
-0.000048 -0.000197 0.000203 0.000000
-0.000228 -0.001372 0.001272 0.000000
-0.000476 -0.001386 0.001758 0.000000
0.000085 -0.002081 0.001946 0.000000
-0.000080 -0.000288 0.000084 0.000000
-0.000062 -0.000193 0.000225 0.000000
-0.000093 -0.000187 0.000269 0.000000
-0.000007 -0.002010 0.002240 0.000000
-0.000562 -0.000516 0.002031 0.000000
-0.000073 -0.000177 0.000219 0.000000
-0.000057 -0.000194 0.000221 0.000000
-0.000067 -0.000186 0.000220 0.000000
-0.000056 -0.000190 0.000205 0.000000
-0.000080 -0.000206 0.000246 0.000000
-0.000083 -0.000204 0.000270 0.000000
-0.000077 -0.000192 0.000243 0.000000
-0.000076 -0.000204 0.000260 0.000000
-0.000089 -0.000211 0.000271 0.000000
-0.000085 -0.000238 0.000312 0.000000
-0.000056 -0.000194 0.000241 0.000000
-0.000079 -0.000182 0.000231 0.000000
0.001529 -0.002433 0.008986 0.000000
0.001300 -0.001547 0.003564 0.000000
-0.000106 -0.000240 0.000375 0.000000
-0.000096 -0.000252 0.000502 0.000000
0.000189 -0.001566 0.002138 0.000000
-0.000266 -0.000093 0.000537 0.000000
-0.000199 -0.000182 0.000542 0.000000
0.001431 -0.001978 0.001059 0.000000
-0.000132 -0.000238 0.000459 0.000000
-0.000156 -0.000170 0.000477 0.000000
-0.000047 -0.000510 0.001351 0.000000
0.000656 -0.002022 0.005302 0.000000
0.001045 -0.001373 0.001083 0.000000
-0.000191 -0.000161 0.000436 0.000000
-0.000098 -0.000203 0.000325 0.000000
-0.000143 -0.000153 0.000382 0.000000
-0.000089 -0.000207 0.000270 0.000000
-0.000092 -0.000230 0.000312 0.000000
-0.000086 -0.000197 0.000249 0.000000
-0.000083 -0.000187 0.000227 0.000000
-0.000069 -0.000185 0.000235 0.000000
-0.000088 -0.000164 0.000216 0.000000
-0.000248 -0.000101 0.000499 0.000000
-0.000712 -0.000821 0.003803 0.000000
-0.000122 -0.000214 0.000372 0.000000
-0.000106 -0.000181 0.000295 0.000000
-0.000227 -0.000046 0.000404 0.000000
-0.000790 -0.000791 0.001831 0.000000
-0.000183 -0.000124 0.000476 0.000000
-0.000164 -0.000123 0.000341 0.000000
-0.000589 -0.000332 0.001499 0.000000
-0.000679 -0.000495 0.002383 0.000000
-0.000700 -0.000270 0.000680 0.000000
-0.000308 -0.000237 0.000314 0.000000
-0.000112 -0.000177 0.000319 0.000000
-0.000096 -0.000176 0.000265 0.000000
-0.000087 -0.000184 0.000232 0.000000
-0.000083 -0.000182 0.000223 0.000000
-0.000100 -0.000215 0.000311 0.000000
-0.000106 -0.000198 0.000307 0.000000
-0.000082 -0.000201 0.000242 0.000000
-0.000088 -0.000199 0.000268 0.000000
-0.000085 -0.000197 0.000244 0.000000
-0.000080 -0.000195 0.000242 0.000000
-0.000074 -0.000178 0.000217 0.000000
-0.000086 -0.000165 0.000222 0.000000
-0.000083 -0.000171 0.000234 0.000000
-0.000081 -0.000171 0.000217 0.000000
-0.000089 -0.000163 0.000217 0.000000
-0.000082 -0.000172 0.000223 0.000000
-0.000085 -0.000168 0.000222 0.000000
-0.000089 -0.000161 0.000218 0.000000
-0.000084 -0.000173 0.000233 0.000000
-0.000090 -0.000161 0.000224 0.000000
-0.000084 -0.000172 0.000233 0.000000
-0.000077 -0.000177 0.000231 0.000000
-0.000073 -0.000183 0.000248 0.000000
-0.000079 -0.000178 0.000241 0.000000
-0.000070 -0.000201 0.000259 0.000000
-0.000382 -0.001697 0.001872 0.000000
-0.000010 -0.000272 0.000257 0.000000
-0.002232 0.000936 0.005366 0.000000
-0.000043 -0.000247 0.000311 0.000000
-0.000020 -0.002247 0.002966 0.000000
0.000522 -0.002221 0.002021 0.000000
-0.000242 -0.000082 0.000198 0.000000
-0.000082 -0.000170 0.000225 0.000000
-0.000075 -0.000177 0.000223 0.000000
-0.000057 -0.000199 0.000273 0.000000
-0.000077 -0.000186 0.000253 0.000000
-0.000070 -0.000194 0.000241 0.000000
-0.000065 -0.000186 0.000229 0.000000
-0.000082 -0.000174 0.000224 0.000000
-0.000072 -0.000186 0.000227 0.000000
-0.000074 -0.000184 0.000236 0.000000
-0.000079 -0.000178 0.000227 0.000000
-0.000068 -0.000210 0.000298 0.000000
-0.000311 -0.001419 0.001443 0.000000
-0.000175 -0.002214 0.002061 0.000000
-0.000118 -0.001665 0.002419 0.000000
-0.000162 -0.000048 0.000072 0.000000
-0.000197 -0.000055 0.000126 0.000000
-0.000141 -0.000077 0.000105 0.000000
-0.000119 -0.000072 0.000113 0.000000
-0.000145 -0.000070 0.000104 0.000000
-0.000135 -0.000052 0.000114 0.000000
-0.000133 -0.000061 0.000114 0.000000
-0.000138 -0.000071 0.000105 0.000000
-0.000130 -0.000081 0.000114 0.000000
-0.000134 -0.000077 0.000108 0.000000
-0.000138 -0.000078 0.000116 0.000000
-0.000136 -0.000072 0.000115 0.000000
-0.001693 0.000789 0.002811 0.000000
-0.000147 -0.001179 0.003277 0.000000
-0.000131 -0.000073 0.000114 0.000000
-0.000169 -0.000043 0.000115 0.000000
-0.002990 0.001849 0.004021 0.000000
-0.000160 -0.000020 0.000085 0.000000
-0.000123 -0.000067 0.000111 0.000000
-0.000134 -0.000059 0.000111 0.000000
-0.001756 0.000904 0.004282 0.000000
0.000008 -0.000375 0.000344 0.000000
-0.001702 0.000669 0.004444 0.000000
-0.002351 0.000964 0.002386 0.000000
-0.000123 -0.000069 0.000112 0.000000
-0.000123 -0.000073 0.000120 0.000000
-0.000127 -0.000061 0.000118 0.000000
-0.000138 -0.000065 0.000105 0.000000
-0.000138 -0.000076 0.000124 0.000000
-0.000129 -0.000075 0.000120 0.000000
-0.000127 -0.000076 0.000111 0.000000
-0.000121 -0.000072 0.000121 0.000000
-0.000125 -0.000073 0.000111 0.000000
-0.000131 -0.000078 0.000118 0.000000
-0.000143 -0.000065 0.000105 0.000000
-0.000141 -0.000058 0.000105 0.000000
-0.000141 -0.000059 0.000112 0.000000
-0.000150 -0.000059 0.000113 0.000000
-0.000133 -0.000056 0.000111 0.000000
-0.000137 -0.000059 0.000106 0.000000
-0.000139 -0.000052 0.000112 0.000000
-0.000138 -0.000045 0.000105 0.000000
-0.000145 -0.000032 0.000080 0.000000
-0.000139 -0.000051 0.000098 0.000000
-0.001898 0.001065 0.001851 0.000000
-0.000139 -0.000033 0.000053 0.000000
-0.000143 -0.000052 0.000109 0.000000
-0.000144 -0.000051 0.000105 0.000000
-0.000133 -0.000047 0.000086 0.000000
-0.000136 -0.000049 0.000079 0.000000
-0.002106 0.000976 0.001616 0.000000
-0.000741 -0.000102 0.000684 0.000000
-0.000739 -0.000182 0.000515 0.000000
-0.002080 0.001158 0.001729 0.000000
-0.000148 -0.000063 0.000108 0.000000
-0.000143 -0.000052 0.000102 0.000000
-0.000142 -0.000048 0.000096 0.000000
-0.000144 -0.000057 0.000111 0.000000
-0.000141 -0.000065 0.000114 0.000000
-0.000144 -0.000058 0.000104 0.000000
-0.000146 -0.000064 0.000107 0.000000
-0.000154 -0.000071 0.000118 0.000000
-0.000147 -0.000057 0.000112 0.000000
-0.000144 -0.000054 0.000102 0.000000
-0.000130 -0.000064 0.000115 0.000000
-0.000126 -0.000055 0.000087 0.000000
-0.000669 -0.000341 0.000416 0.000000
-0.000763 -0.000247 0.000645 0.000000
-0.000678 -0.000539 0.001430 0.000000
-0.000734 -0.000144 0.000904 0.000000
-0.000704 -0.000428 0.000983 0.000000
-0.000555 -0.000449 0.000434 0.000000
-0.000652 -0.000209 0.001214 0.000000
-0.000611 -0.000583 0.000624 0.000000
-0.002109 0.001147 0.001593 0.000000
-0.000772 -0.000318 0.000226 0.000000
-0.000152 -0.000063 0.000115 0.000000
-0.000148 -0.000058 0.000111 0.000000
-0.000114 -0.000078 0.000108 0.000000
-0.000134 -0.000065 0.000108 0.000000
-0.000148 -0.000064 0.000113 0.000000
-0.000143 -0.000071 0.000114 0.000000
-0.000154 -0.000065 0.000112 0.000000
-0.000146 -0.000058 0.000105 0.000000
-0.000155 -0.000084 0.000109 0.000000
-0.000138 -0.000077 0.000111 0.000000
-0.000151 -0.000080 0.000105 0.000000
-0.000145 -0.000077 0.000115 0.000000
-0.000377 -0.001985 0.001903 0.000000
-0.000099 -0.000277 0.000219 0.000000
-0.000166 -0.000065 0.000139 0.000000
-0.000150 -0.000043 0.000118 0.000000
-0.002546 0.001506 0.005378 0.000000
-0.000196 -0.000063 0.000150 0.000000
-0.000151 -0.000074 0.000118 0.000000
-0.000142 -0.000067 0.000119 0.000000
-0.000156 -0.000081 0.000115 0.000000
-0.000141 -0.000079 0.000114 0.000000
-0.000156 -0.000081 0.000119 0.000000
-0.000144 -0.000080 0.000106 0.000000
-0.000157 -0.000079 0.000107 0.000000
-0.000154 -0.000074 0.000107 0.000000
-0.000156 -0.000057 0.000121 0.000000
-0.000173 -0.000071 0.000123 0.000000
-0.000162 -0.000085 0.000115 0.000000
-0.000148 -0.000082 0.000109 0.000000
-0.000139 -0.000184 0.000223 0.000000
-0.000148 -0.000171 0.000200 0.000000
-0.000159 -0.000135 0.000213 0.000000
-0.000160 -0.000132 0.000268 0.000000
-0.000115 -0.000186 0.000183 0.000000
-0.002768 0.001584 0.006035 0.000000
-0.002634 0.001086 0.005779 0.000000
-0.000213 -0.000064 0.000177 0.000000
-0.000167 -0.000051 0.000147 0.000000
-0.001645 0.001476 -0.000520 0.000000
-0.000167 -0.000086 0.000136 0.000000
-0.000161 -0.000084 0.000111 0.000000
-0.000149 -0.000082 0.000118 0.000000
-0.000167 -0.000086 0.000120 0.000000
-0.000165 -0.000083 0.000116 0.000000
-0.000158 -0.000074 0.000120 0.000000
-0.000152 -0.000068 0.000116 0.000000
-0.000156 -0.000070 0.000119 0.000000
-0.000150 -0.000069 0.000107 0.000000
-0.000150 -0.000069 0.000115 0.000000
-0.000154 -0.000069 0.000116 0.000000
-0.000150 -0.000063 0.000109 0.000000
-0.000158 -0.000068 0.000118 0.000000
-0.000150 -0.000058 0.000108 0.000000
-0.000151 -0.000057 0.000123 0.000000
-0.000163 -0.000062 0.000151 0.000000
-0.000155 -0.000066 0.000117 0.000000
-0.000150 -0.000063 0.000115 0.000000
-0.000156 -0.000060 0.000115 0.000000
-0.000153 -0.000055 0.000132 0.000000
-0.000565 -0.000406 0.000069 0.000000
-0.000749 -0.000075 -0.000081 0.000000
-0.000159 -0.000058 0.000122 0.000000
-0.000158 -0.000066 0.000117 0.000000
-0.000779 -0.000746 0.001528 0.000000
-0.000684 -0.000289 0.001563 0.000000
-0.000159 -0.000061 0.000120 0.000000
-0.000160 -0.000063 0.000116 0.000000
-0.000993 -0.000337 0.002147 0.000000
-0.000539 -0.000537 0.000779 0.000000
-0.000162 -0.000078 0.000113 0.000000
-0.000162 -0.000080 0.000122 0.000000
-0.000161 -0.000070 0.000118 0.000000
-0.000159 -0.000070 0.000120 0.000000
-0.000158 -0.000076 0.000124 0.000000
-0.000155 -0.000069 0.000112 0.000000
-0.000157 -0.000076 0.000124 0.000000
-0.000157 -0.000074 0.000120 0.000000
-0.000166 -0.000075 0.000137 0.000000
-0.000245 -0.000058 0.000240 0.000000
-0.000175 -0.000079 0.000129 0.000000
-0.000207 -0.000096 0.000200 0.000000
-0.000050 -0.000303 0.000060 0.000000
-0.000151 -0.000131 0.000286 0.000000
-0.000136 -0.000122 0.000178 0.000000
-0.002290 0.000832 0.005158 0.000000
-0.000108 -0.000184 0.000237 0.000000
-0.000125 -0.001491 0.002731 0.000000
-0.000196 -0.000052 0.000129 0.000000
-0.000757 -0.000629 0.001945 0.000000
-0.000184 -0.000082 0.000155 0.000000
-0.000212 -0.000083 0.000195 0.000000
-0.000172 -0.000088 0.000138 0.000000
-0.000187 -0.000089 0.000160 0.000000
-0.000162 -0.000085 0.000127 0.000000
-0.000184 -0.000105 0.000180 0.000000
-0.000178 -0.000086 0.000132 0.000000
-0.000193 -0.000081 0.000158 0.000000
-0.000171 -0.000085 0.000133 0.000000
-0.000168 -0.000086 0.000130 0.000000
-0.000027 -0.000448 0.000160 0.000000
-0.000115 -0.000163 0.000270 0.000000
-0.000509 -0.001231 0.003165 0.000000
-0.000037 -0.001922 0.003673 0.000000
-0.000718 -0.000316 0.002371 0.000000
-0.000965 0.000297 -0.000572 0.000000
-0.000681 -0.000871 0.001554 0.000000
-0.000733 -0.000670 0.000802 0.000000
-0.000192 -0.000090 0.000164 0.000000
-0.000190 -0.000098 0.000174 0.000000
-0.000169 -0.000088 0.000126 0.000000
-0.000178 -0.000089 0.000143 0.000000
-0.000169 -0.000083 0.000122 0.000000
-0.000165 -0.000088 0.000144 0.000000
-0.000160 -0.000073 0.000122 0.000000
-0.000162 -0.000074 0.000126 0.000000
-0.000164 -0.000074 0.000125 0.000000
-0.000167 -0.000077 0.000122 0.000000
-0.000164 -0.000043 0.000145 0.000000
-0.000168 -0.000060 0.000130 0.000000
-0.000146 -0.000085 0.000171 0.000000
-0.000997 -0.000524 0.000810 0.000000
-0.000158 -0.000081 0.000147 0.000000
-0.000522 -0.000651 0.000645 0.000000
-0.000175 -0.000011 0.000192 0.000000
-0.000170 -0.000051 0.000115 0.000000
-0.000709 -0.000675 0.001990 0.000000
-0.000754 -0.000589 0.001991 0.000000
-0.000158 -0.000098 0.000141 0.000000
-0.000825 -0.000522 0.001247 0.000000
-0.000960 -0.000398 0.001175 0.000000
-0.001377 -0.000081 0.000992 0.000000
-0.000169 -0.000101 0.000153 0.000000
-0.000144 -0.000054 0.000127 0.000000
-0.000170 -0.000080 0.000137 0.000000
-0.000171 -0.000085 0.000149 0.000000
-0.000164 -0.000081 0.000137 0.000000
-0.000170 -0.000086 0.000149 0.000000
-0.000165 -0.000089 0.000145 0.000000
-0.000159 -0.000083 0.000128 0.000000
-0.000162 -0.000091 0.000138 0.000000
-0.000164 -0.000088 0.000135 0.000000
-0.000180 -0.000072 0.000097 0.000000
-0.000167 -0.000073 0.000118 0.000000
-0.001128 -0.000013 0.001642 0.000000
-0.000731 -0.000605 0.000879 0.000000
-0.000180 -0.000051 0.000250 0.000000
-0.001453 0.000010 0.001351 0.000000
-0.000166 -0.000104 0.000213 0.000000
-0.000134 -0.000088 0.000175 0.000000
-0.001288 0.000084 0.001438 0.000000
-0.000748 -0.000581 0.000665 0.000000
-0.000175 -0.000103 0.000226 0.000000
-0.001484 0.000454 0.001247 0.000000
-0.000166 -0.000105 0.000146 0.000000
-0.000174 -0.000084 0.000149 0.000000
-0.000160 -0.000104 0.000126 0.000000
-0.000165 -0.000098 0.000147 0.000000
-0.000167 -0.000096 0.000155 0.000000
-0.000167 -0.000086 0.000149 0.000000
-0.000168 -0.000096 0.000146 0.000000
-0.000167 -0.000074 0.000101 0.000000
-0.000167 -0.000096 0.000138 0.000000
-0.000161 -0.000091 0.000109 0.000000
-0.000179 -0.000104 0.000187 0.000000
-0.000187 -0.000093 0.000181 0.000000
0.000698 -0.001467 0.000429 0.000000
-0.000174 -0.000091 0.000160 0.000000
0.000408 -0.001260 0.002617 0.000000
-0.000165 -0.000113 0.000201 0.000000
0.001382 -0.001912 0.001072 0.000000
0.000301 -0.001628 0.005840 0.000000
-0.000738 -0.000654 0.002342 0.000000
-0.000251 -0.001406 0.003116 0.000000
-0.000372 -0.000912 0.001492 0.000000
-0.000388 -0.001092 0.001534 0.000000
-0.000288 -0.001428 0.002845 0.000000
0.000529 -0.002270 0.002880 0.000000
-0.000299 -0.000553 -0.000253 0.000000
-0.000585 -0.000945 0.001068 0.000000
-0.000366 -0.001181 0.002734 0.000000
-0.000111 -0.001478 0.002978 0.000000
-0.000395 -0.001185 0.002671 0.000000
-0.000645 -0.000958 0.002520 0.000000
-0.000171 -0.000100 0.000152 0.000000
-0.000176 -0.000094 0.000150 0.000000
-0.000179 -0.000086 0.000140 0.000000
-0.000166 -0.000094 0.000157 0.000000
-0.000177 -0.000118 0.000183 0.000000
-0.000170 -0.000090 0.000131 0.000000
-0.000168 -0.000101 0.000141 0.000000
-0.000171 -0.000092 0.000135 0.000000
-0.000570 -0.000635 0.000506 0.000000
-0.001190 -0.000346 0.000319 0.000000
-0.000386 -0.000758 0.000585 0.000000
-0.000753 -0.000638 0.000246 0.000000
-0.000028 -0.000817 -0.000091 0.000000
0.000297 -0.001087 0.000162 0.000000
-0.000068 -0.001629 0.000648 0.000000
0.000261 -0.002047 0.002231 0.000000
-0.000578 -0.000461 -0.000016 0.000000
-0.000120 -0.001725 0.000961 0.000000
-0.000028 -0.002074 0.001708 0.000000
-0.000054 -0.000222 0.000298 0.000000
0.000185 -0.002073 0.001690 0.000000
-0.000007 -0.000233 0.000261 0.000000
0.000129 -0.002235 0.001838 0.000000
-0.000026 -0.000222 0.000298 0.000000
-0.000133 -0.002146 0.002035 0.000000
0.000155 -0.002076 0.001342 0.000000
-0.000069 -0.000255 0.000111 0.000000
-0.000506 -0.001270 0.000352 0.000000
-0.000005 -0.000237 0.000298 0.000000
-0.000257 -0.001619 0.001388 0.000000
0.000421 -0.002136 0.002402 0.000000
0.000148 -0.001735 0.001954 0.000000
0.000098 -0.000486 0.000334 0.000000
-0.000290 -0.001714 0.001728 0.000000
0.000140 -0.001883 0.001886 0.000000
0.000045 -0.002070 0.003771 0.000000
-0.000184 -0.001762 0.002076 0.000000
-0.000005 -0.001619 0.001716 0.000000
0.000124 -0.002144 0.001947 0.000000
-0.000242 -0.002240 0.002548 0.000000
-0.000017 -0.001886 0.002213 0.000000
0.000033 -0.002435 0.008409 0.000000
-0.000034 -0.002087 0.002194 0.000000
0.000031 -0.002020 0.001837 0.000000
0.000024 -0.001909 0.002289 0.000000
-0.000061 -0.002001 0.003968 0.000000
0.000122 -0.001695 0.001136 0.000000
-0.000102 -0.001786 0.002215 0.000000
0.005025 -0.005187 -0.000632 0.000000
-0.000697 -0.000814 0.003109 0.000000
0.000367 -0.002269 0.002716 0.000000
-0.000033 -0.000248 0.000375 0.000000
0.000334 -0.001969 0.003173 0.000000
0.000438 -0.002764 0.003051 0.000000
0.004721 -0.006165 0.001605 0.000000
0.001538 -0.003844 0.009051 0.000000
0.000145 -0.001235 0.002018 0.000000
-0.000718 -0.000860 0.001504 0.000000
0.001991 -0.003133 0.002707 0.000000
0.000324 -0.001345 0.001251 0.000000
0.000173 -0.001490 0.001711 0.000000
0.002565 -0.003452 0.002403 0.000000
0.000955 -0.002381 0.002547 0.000000
0.000339 -0.001527 0.001153 0.000000
0.001849 -0.002515 0.001407 0.000000
0.001524 -0.002204 0.001879 0.000000
0.001518 -0.002671 0.001049 0.000000
0.002143 -0.003076 0.002502 0.000000
-0.000015 -0.000641 0.001107 0.000000
0.000151 -0.000398 0.000900 0.000000
0.000005 -0.000254 0.000496 0.000000
-0.000043 -0.000314 0.000625 0.000000
0.001820 -0.002255 -0.000369 0.000000
0.004244 -0.004446 -0.000831 0.000000
0.000007 -0.000277 0.000430 0.000000
0.000040 -0.000279 0.000385 0.000000
0.001494 -0.002772 0.002195 0.000000
0.003219 -0.004199 0.005069 0.000000
0.002113 -0.003149 0.002224 0.000000
0.001986 -0.002693 0.001683 0.000000
0.002441 -0.003989 0.000817 0.000000
-0.000139 -0.000273 0.000577 0.000000
0.000817 -0.001736 0.001720 0.000000
0.001815 -0.003055 0.001685 0.000000
0.002436 -0.002882 0.001017 0.000000
0.002184 -0.003037 0.001790 0.000000
0.001968 -0.003029 0.001840 0.000000
0.003381 -0.003613 -0.000736 0.000000
-0.000066 -0.000382 0.000607 0.000000
-0.000109 -0.000274 0.000465 0.000000
-0.000074 -0.000236 0.000377 0.000000
0.000003 -0.000257 0.000426 0.000000
-0.000068 -0.000232 0.000355 0.000000
0.000008 -0.000279 0.000396 0.000000
-0.000079 -0.000249 0.000354 0.000000
-0.000038 -0.000502 0.000750 0.000000
-0.000031 -0.000232 0.000364 0.000000
-0.000036 -0.000257 0.000420 0.000000
0.000275 -0.002049 0.001138 0.000000
0.000007 -0.000274 0.000352 0.000000
0.000084 -0.002054 0.001536 0.000000
0.000092 -0.001853 0.001262 0.000000
0.000151 -0.001852 0.000995 0.000000
0.000021 -0.001878 0.001204 0.000000
-0.000111 -0.000188 0.000168 0.000000
-0.000078 -0.000256 0.000174 0.000000
-0.000163 -0.001481 0.001350 0.000000
0.000053 -0.001696 0.000874 0.000000
-0.000644 -0.000309 0.000676 0.000000
-0.000598 -0.001188 0.000627 0.000000
0.000002 -0.000247 0.000390 0.000000
0.000038 -0.000273 0.000345 0.000000
0.000035 -0.000266 0.000293 0.000000
-0.000025 -0.000243 0.000306 0.000000
0.000048 -0.002050 0.001163 0.000000
0.000136 -0.002019 0.000908 0.000000
0.000007 -0.000267 0.000305 0.000000
-0.000023 -0.000219 0.000232 0.000000
-0.000008 -0.000235 0.000216 0.000000
0.000296 -0.002023 0.001039 0.000000
0.000008 -0.001622 0.000784 0.000000
-0.000143 -0.001377 0.000531 0.000000
-0.000069 -0.000293 0.000136 0.000000
-0.000080 -0.000248 0.000155 0.000000
-0.000036 -0.001868 0.001654 0.000000
-0.000333 -0.001454 0.001046 0.000000
-0.000029 -0.000428 0.000195 0.000000
-0.000088 -0.000258 0.000107 0.000000
0.000002 -0.000251 0.000253 0.000000
0.000020 -0.000251 0.000251 0.000000
0.000142 -0.001596 0.000920 0.000000
-0.000007 -0.000235 0.000207 0.000000
-0.000208 -0.001597 0.000786 0.000000
-0.000379 -0.001370 0.000583 0.000000
-0.000056 -0.000249 0.000352 0.000000
-0.000080 -0.000227 0.000321 0.000000
-0.000053 -0.000216 0.000309 0.000000
-0.000027 -0.000226 0.000334 0.000000
-0.000070 -0.000251 0.000307 0.000000
-0.000083 -0.000310 0.000465 0.000000
-0.000028 -0.000248 0.000346 0.000000
0.000006 -0.000248 0.000344 0.000000
0.002197 -0.003356 0.002112 0.000000
0.001820 -0.002345 0.003046 0.000000
-0.000004 -0.000348 0.000474 0.000000
-0.000051 -0.000283 0.000381 0.000000
0.001974 -0.002960 0.001229 0.000000
0.002639 -0.002789 -0.000353 0.000000
0.001560 -0.003073 0.000871 0.000000
-0.000058 -0.000294 0.000505 0.000000
-0.000107 -0.000318 0.000587 0.000000
-0.000074 -0.000255 0.000398 0.000000
0.000065 -0.000372 0.000204 0.000000
0.000174 -0.000365 0.000465 0.000000
0.001181 -0.002548 0.004253 0.000000
0.003889 -0.004242 0.005801 0.000000
0.001722 -0.002214 0.000697 0.000000
0.001230 -0.003200 0.000935 0.000000
0.000380 -0.000482 0.000862 0.000000
0.000072 -0.000343 0.000321 0.000000
0.000179 -0.000418 0.000408 0.000000
0.000196 -0.000499 0.000366 0.000000
0.000188 -0.000417 0.000349 0.000000
0.000033 -0.000346 0.000179 0.000000
0.000061 -0.000367 0.000311 0.000000
0.000051 -0.000342 0.000300 0.000000
0.000868 -0.002039 0.003608 0.000000
0.004069 -0.004319 0.001733 0.000000
0.001862 -0.002338 0.002493 0.000000
-0.000365 -0.001229 0.003765 0.000000
0.002092 -0.002997 0.002987 0.000000
0.001730 -0.002461 0.003339 0.000000
-0.000001 -0.000357 0.000314 0.000000
0.000003 0.000100 0.002202 0.000000
0.001304 -0.002677 0.002098 0.000000
0.000793 -0.001296 0.003694 0.000000
0.000110 -0.000412 0.000340 0.000000
0.000008 -0.000305 0.000140 0.000000
0.000031 -0.000386 0.000300 0.000000
0.000057 -0.000353 0.000248 0.000000
0.000090 -0.000489 0.000569 0.000000
0.000287 -0.000610 0.000548 0.000000
0.000074 -0.000304 0.000397 0.000000
0.000095 -0.000458 0.000239 0.000000
0.000044 -0.000365 0.000178 0.000000
0.000050 -0.000345 0.000246 0.000000
0.000021 -0.000341 0.000063 0.000000
-0.000009 -0.000258 0.000134 0.000000
0.000076 -0.000354 0.000073 0.000000
-0.000013 -0.000247 0.000070 0.000000
-0.000000 -0.000279 0.000100 0.000000
-0.000017 -0.000300 0.000215 0.000000
0.000057 -0.000351 0.000103 0.000000
0.000707 -0.001777 -0.005179 0.000000
-0.000043 -0.000247 0.000268 0.000000
-0.000070 -0.000253 0.000317 0.000000
-0.000037 -0.000284 0.000281 0.000000
-0.000018 -0.000279 0.000240 0.000000
-0.000070 -0.000228 0.000295 0.000000
-0.000037 -0.000264 0.000262 0.000000
-0.000034 -0.000246 0.000239 0.000000
-0.000039 -0.000270 0.000274 0.000000
-0.000025 -0.000228 0.000325 0.000000
-0.000060 -0.000242 0.000287 0.000000
-0.000059 -0.000224 0.000273 0.000000
-0.000060 -0.000245 0.000292 0.000000
-0.000028 -0.000286 0.000263 0.000000
-0.000015 -0.000295 0.000240 0.000000
0.000112 -0.000315 0.000257 0.000000
0.000850 -0.001034 -0.000488 0.000000
0.000003 -0.000297 0.000003 0.000000
0.000054 -0.000361 0.000002 0.000000
0.000062 -0.000347 0.000041 0.000000
0.000095 -0.000407 0.000124 0.000000
-0.000014 -0.000283 0.000212 0.000000
-0.000010 -0.000267 0.000183 0.000000
-0.000013 -0.000304 0.000052 0.000000
-0.000004 -0.000275 0.000115 0.000000
0.000002 -0.000317 -0.000004 0.000000
-0.000036 -0.000276 0.000008 0.000000
-0.000054 -0.000306 0.000089 0.000000
0.000680 -0.002480 0.004027 0.000000
0.000578 -0.002221 0.003390 0.000000
0.000288 -0.002269 0.004791 0.000000
0.000638 -0.001933 0.004043 0.000000
-0.000147 -0.000118 0.000262 0.000000
0.000849 -0.002463 0.005566 0.000000
0.000439 -0.002215 0.003249 0.000000
-0.000014 -0.000338 0.000152 0.000000
0.000002 -0.000373 0.000116 0.000000
-0.000029 -0.000330 0.000106 0.000000
0.000001 -0.000355 0.000088 0.000000
-0.000043 -0.000314 0.000099 0.000000
-0.000024 -0.000341 0.000065 0.000000
-0.000050 -0.000308 0.000090 0.000000
-0.000009 -0.000460 -0.000051 0.000000
-0.000008 -0.001795 0.000695 0.000000
-0.000295 -0.001494 0.001075 0.000000
-0.000058 -0.000278 0.000021 0.000000
-0.000045 -0.000291 0.000032 0.000000
-0.000048 -0.000377 0.000020 0.000000
0.001478 -0.003954 0.005326 0.000000
0.001345 -0.002747 0.003958 0.000000
-0.000074 -0.000370 0.000012 0.000000
0.001360 -0.003478 0.003914 0.000000
-0.000054 -0.000368 0.000028 0.000000
-0.000117 -0.001414 0.001022 0.000000
-0.000192 -0.001503 0.000861 0.000000
-0.000044 -0.000326 -0.000029 0.000000
-0.000571 -0.001630 0.001485 0.000000
0.000060 -0.000334 0.000133 0.000000
-0.000039 -0.000282 0.000082 0.000000
-0.000003 -0.000344 0.000152 0.000000
-0.000007 -0.000334 0.000164 0.000000
0.000025 -0.000318 0.000142 0.000000
-0.000041 -0.000288 0.000053 0.000000
-0.000033 -0.000286 0.000120 0.000000
-0.000003 -0.000303 0.000103 0.000000
0.001467 -0.003110 0.004468 0.000000
0.001475 -0.003629 0.005314 0.000000
-0.000059 -0.000299 -0.000003 0.000000
-0.000045 -0.000347 -0.000034 0.000000
0.000215 -0.002060 0.002379 0.000000
-0.000074 -0.000391 0.000018 0.000000
-0.000268 -0.001493 0.000758 0.000000
-0.000102 -0.001812 0.001550 0.000000
-0.000466 -0.000728 0.001765 0.000000
-0.000416 -0.001301 0.001094 0.000000
-0.000064 -0.000267 0.000070 0.000000
-0.000080 -0.000294 -0.000011 0.000000
-0.000047 -0.000280 0.000089 0.000000
-0.000025 -0.000295 0.000078 0.000000
-0.000007 -0.000370 0.000040 0.000000
-0.000036 -0.000328 0.000050 0.000000
0.000000 -0.000371 0.000064 0.000000
-0.000040 -0.000324 0.000046 0.000000
-0.000020 -0.000294 0.000130 0.000000
-0.000010 -0.000328 0.000143 0.000000
-0.000005 -0.000359 0.000139 0.000000
0.000002 -0.000349 0.000161 0.000000
-0.000048 -0.000316 0.000072 0.000000
-0.000042 -0.000322 0.000069 0.000000
-0.000054 -0.000325 0.000052 0.000000
0.000941 -0.002345 0.004660 0.000000
-0.000039 -0.000317 0.000027 0.000000
-0.000049 -0.000327 0.000044 0.000000
0.000501 -0.001876 0.003633 0.000000
0.000302 -0.002133 0.002800 0.000000
-0.000074 -0.000214 0.000254 0.000000
-0.000051 -0.000285 0.000246 0.000000
-0.000031 -0.000341 0.000038 0.000000
-0.000005 -0.000348 -0.000005 0.000000
-0.000036 -0.000389 -0.000006 0.000000
-0.000023 -0.000342 0.000060 0.000000
-0.000019 -0.000344 0.000046 0.000000
-0.000001 -0.000363 0.000030 0.000000
-0.000026 -0.000329 0.000019 0.000000
0.000023 -0.000385 0.000084 0.000000
-0.000008 -0.000311 0.000084 0.000000
0.000044 -0.000325 0.000144 0.000000
0.001369 -0.003271 0.001510 0.000000
0.001747 -0.004280 0.002250 0.000000
0.000013 -0.000314 0.000103 0.000000
0.000104 -0.000345 0.000061 0.000000
-0.000015 -0.000394 0.000120 0.000000
-0.000011 -0.000368 0.000051 0.000000
-0.000757 -0.000633 0.001325 0.000000
-0.000073 -0.001641 0.001018 0.000000
0.000015 -0.000333 0.000111 0.000000
-0.000026 -0.000295 0.000109 0.000000
0.001493 -0.003415 0.004972 0.000000
-0.000087 -0.000385 0.000018 0.000000
0.000044 -0.001900 0.001362 0.000000
-0.000393 -0.001550 0.001673 0.000000
0.000162 -0.002443 0.002793 0.000000
0.001494 -0.003843 0.005008 0.000000
0.000102 -0.002281 0.002988 0.000000
-0.000284 -0.001763 0.001782 0.000000
0.000137 -0.002146 0.001935 0.000000
-0.000059 -0.000281 0.000104 0.000000
0.000179 -0.002330 0.002313 0.000000
-0.000025 -0.000296 0.000138 0.000000
-0.000002 -0.000314 0.000129 0.000000
0.000104 -0.002420 0.002485 0.000000
-0.000538 -0.001534 0.001465 0.000000
-0.000439 -0.001768 0.001772 0.000000
-0.000315 -0.001674 0.000783 0.000000
0.000085 -0.001957 0.001325 0.000000
0.000110 -0.002522 0.002925 0.000000
0.001450 -0.003794 0.005540 0.000000
-0.000553 -0.001729 0.001732 0.000000
-0.000439 -0.001770 0.001772 0.000000
-0.000622 -0.001484 0.001460 0.000000
-0.000324 -0.002197 0.002704 0.000000
-0.000748 -0.001390 0.000954 0.000000
-0.000812 -0.001331 0.001005 0.000000
0.000260 -0.002601 0.002574 0.000000
-0.000110 -0.002264 0.001678 0.000000
0.000419 -0.002900 0.002846 0.000000
0.000415 -0.002619 0.002263 0.000000
-0.000042 -0.000352 0.000131 0.000000
0.001686 -0.003897 0.002200 0.000000
0.002077 -0.004802 0.002199 0.000000
0.001315 -0.003900 0.002522 0.000000
-0.000021 -0.000333 0.000090 0.000000
0.001035 -0.003617 0.002285 0.000000
0.000002 -0.000391 0.000099 0.000000
-0.000002 -0.000384 0.000149 0.000000
-0.000004 -0.000382 0.000040 0.000000
-0.000025 -0.000384 0.000100 0.000000
-0.000084 -0.002060 0.001133 0.000000
-0.000232 -0.000932 0.003005 0.000000
0.000807 -0.003088 0.000644 0.000000
0.000051 -0.000372 0.000081 0.000000
0.000573 -0.003127 -0.000593 0.000000
0.000441 -0.002927 -0.000318 0.000000
-0.000044 -0.001724 0.001996 0.000000
0.001201 -0.002642 0.003239 0.000000
-0.000096 -0.000242 0.000363 0.000000
-0.000040 -0.000287 0.000290 0.000000
-0.000068 -0.000315 0.000349 0.000000
-0.000044 -0.000310 0.000312 0.000000
-0.000051 -0.000349 0.000335 0.000000
0.000000 -0.000354 0.000221 0.000000
0.000029 -0.000351 0.000154 0.000000
-0.000000 -0.000342 0.000273 0.000000
0.000016 -0.000334 0.000163 0.000000
0.000044 -0.000355 0.000205 0.000000
0.000089 -0.000362 0.000135 0.000000
0.000114 -0.000249 0.000479 0.000000
-0.000090 -0.000283 0.000368 0.000000
-0.000053 -0.000290 0.000310 0.000000
-0.000003 -0.000341 0.000194 0.000000
-0.000043 -0.000351 0.000297 0.000000
0.000426 -0.001835 0.003203 0.000000
-0.000273 -0.001967 0.003446 0.000000
-0.000109 -0.000224 0.000300 0.000000
-0.000108 -0.000243 0.000331 0.000000
-0.000094 -0.000216 0.000273 0.000000
0.000453 -0.001583 0.005618 0.000000
-0.000087 -0.000197 0.000280 0.000000
-0.000067 -0.000237 0.000288 0.000000
-0.000022 -0.000332 0.000250 0.000000
-0.000015 -0.000310 0.000228 0.000000
0.000058 -0.000355 0.000062 0.000000
0.000022 -0.000322 0.000100 0.000000
-0.000060 -0.000253 0.000294 0.000000
-0.000084 -0.000228 0.000293 0.000000
-0.000032 -0.000305 0.000271 0.000000
-0.000020 -0.000295 0.000242 0.000000
0.000003 -0.000307 0.000153 0.000000
-0.000012 -0.000317 0.000225 0.000000
0.000092 -0.000367 0.000157 0.000000
0.000096 -0.000326 0.000260 0.000000
0.000064 -0.000361 0.000196 0.000000
0.000104 -0.000415 0.000163 0.000000
0.001940 -0.001901 -0.002081 0.000000
0.000088 -0.000363 0.000352 0.000000
0.000037 -0.000347 0.000188 0.000000
0.000030 -0.000346 0.000177 0.000000
-0.000002 -0.000221 0.000323 0.000000
0.000033 -0.000339 0.000183 0.000000
-0.000101 -0.001061 0.000818 0.000000
0.001760 -0.002957 0.001562 0.000000
0.001572 -0.002999 0.005331 0.000000
-0.000533 0.000528 0.003659 0.000000
0.001574 -0.003021 0.005279 0.000000
0.000292 -0.001683 0.002986 0.000000
0.001161 -0.001863 0.000706 0.000000
0.000474 -0.001492 0.002776 0.000000
0.001235 -0.002815 0.005397 0.000000
0.000199 -0.001612 0.002980 0.000000
0.000262 -0.001383 0.002612 0.000000
0.000035 -0.001209 0.001445 0.000000
0.000061 -0.000352 0.000169 0.000000
-0.000004 -0.000341 0.000266 0.000000
0.002748 -0.004242 0.004868 0.000000
0.000056 -0.000413 0.000156 0.000000
0.001242 -0.002389 -0.000239 0.000000
0.001773 -0.003208 -0.001865 0.000000
0.001288 -0.003644 0.003052 0.000000
0.000123 -0.000609 0.000177 0.000000
0.000144 -0.000406 -0.000024 0.000000
0.000023 -0.000364 0.000207 0.000000
0.001542 -0.003130 0.005131 0.000000
-0.000011 -0.000373 0.000177 0.000000
0.000267 -0.001743 0.003177 0.000000
-0.000242 -0.000907 0.001477 0.000000
0.000026 -0.000366 0.000140 0.000000
0.000741 -0.003664 0.001721 0.000000
-0.000016 -0.000328 0.000134 0.000000
0.000683 -0.003137 0.002244 0.000000
-0.000021 -0.000342 0.000376 0.000000
0.000086 -0.000353 0.000320 0.000000
-0.000594 -0.001112 0.002778 0.000000
-0.000350 -0.002196 0.001702 0.000000
0.000007 -0.000443 0.000020 0.000000
0.001551 -0.003651 0.002735 0.000000
0.001542 -0.003096 0.005162 0.000000
0.001300 -0.003318 0.007390 0.000000
-0.000561 -0.001310 0.005252 0.000000
-0.000912 -0.000586 0.004131 0.000000
-0.000518 -0.001057 0.004219 0.000000
-0.000641 -0.000790 0.001564 0.000000
0.001405 -0.003698 0.002949 0.000000
0.000457 -0.001907 0.000198 0.000000
-0.000502 -0.001036 0.004265 0.000000
-0.000849 -0.001157 0.004584 0.000000
0.001618 -0.004426 0.003821 0.000000
0.001256 -0.003593 0.002857 0.000000
0.000234 -0.001833 0.005568 0.000000
0.002679 -0.005626 0.003879 0.000000
-0.000821 -0.001416 0.001472 0.000000
0.000015 -0.002538 0.002683 0.000000
-0.000897 -0.001359 0.001488 0.000000
-0.000734 -0.001228 0.002375 0.000000
-0.000035 -0.000299 0.000324 0.000000
-0.000034 -0.000298 0.000330 0.000000
-0.000813 -0.001066 0.002957 0.000000
-0.000098 -0.001986 0.002720 0.000000
-0.000011 -0.002840 0.001665 0.000000
0.001412 -0.003442 0.002720 0.000000
-0.000075 -0.000331 0.000288 0.000000
-0.000540 -0.002336 0.002282 0.000000
-0.000062 -0.000317 0.000275 0.000000
-0.000062 -0.000351 0.000328 0.000000
-0.000056 -0.000335 0.000270 0.000000
-0.000431 -0.000273 0.000844 0.000000
-0.000046 -0.000312 0.000290 0.000000
0.000000 -0.003035 0.005972 0.000000
-0.000198 -0.001634 0.004298 0.000000
-0.000176 -0.000213 0.000301 0.000000
-0.000043 -0.000360 0.000329 0.000000
-0.000182 -0.000297 0.000573 0.000000
-0.000136 -0.000206 0.000441 0.000000
0.000332 -0.002495 0.005826 0.000000
-0.000096 -0.000356 0.000433 0.000000
0.000958 -0.002355 0.004645 0.000000
-0.000190 -0.000210 0.000408 0.000000
-0.000159 -0.000184 0.000302 0.000000
-0.000063 -0.000339 0.000315 0.000000
-0.000075 -0.000318 0.000367 0.000000
-0.000007 -0.000344 0.000217 0.000000
-0.000074 -0.000324 0.000282 0.000000
-0.000024 -0.000333 0.000242 0.000000
-0.000031 -0.000331 0.000261 0.000000
-0.000039 -0.000345 0.000291 0.000000
-0.000054 -0.000331 0.000286 0.000000
-0.000022 -0.000346 0.000251 0.000000
-0.000034 -0.000333 0.000249 0.000000
-0.000875 -0.000321 0.001389 0.000000
-0.000118 -0.000204 0.000263 0.000000
-0.000162 -0.000208 0.000320 0.000000
-0.000177 -0.000185 0.000287 0.000000
-0.000130 -0.000288 0.000443 0.000000
-0.000160 -0.000193 0.000347 0.000000
0.001259 -0.004050 0.004047 0.000000
0.000910 -0.003009 -0.000118 0.000000
-0.000316 -0.001466 0.001497 0.000000
-0.000249 -0.001747 0.002193 0.000000
0.000917 -0.003279 0.000454 0.000000
0.001421 -0.003301 0.003408 0.000000
-0.000005 -0.001911 0.001544 0.000000
0.001492 -0.003921 0.001840 0.000000
0.000929 -0.003450 0.001055 0.000000
0.001988 -0.004581 0.002858 0.000000
0.000803 -0.003145 0.000388 0.000000
0.001209 -0.003503 0.002451 0.000000
-0.000218 -0.003064 0.001613 0.000000
-0.000095 -0.000403 0.000232 0.000000
0.000779 -0.003025 0.001220 0.000000
-0.000017 -0.000393 0.000119 0.000000
-0.000132 -0.001927 0.001179 0.000000
-0.000294 -0.002003 0.001134 0.000000
0.000189 -0.002649 0.001719 0.000000
-0.000271 -0.002101 0.001151 0.000000
-0.000558 -0.001825 0.001803 0.000000
-0.000810 -0.001478 0.001298 0.000000
-0.000463 -0.001851 0.001133 0.000000
-0.000475 -0.001688 0.000902 0.000000
-0.000771 -0.001495 0.001305 0.000000
-0.000502 -0.002023 0.003448 0.000000
-0.000789 -0.001396 0.001159 0.000000
-0.000657 -0.001858 0.002942 0.000000
-0.000774 -0.001383 0.000855 0.000000
-0.000652 -0.001467 0.002048 0.000000
-0.000007 -0.002512 0.002127 0.000000
0.000103 -0.002314 0.001666 0.000000
0.000224 -0.002614 0.001467 0.000000
0.000293 -0.002881 0.001442 0.000000
-0.000696 -0.001482 0.000882 0.000000
-0.000342 -0.002191 0.003152 0.000000
-0.000687 -0.001575 0.001000 0.000000
-0.000677 -0.001661 0.001176 0.000000
0.000076 -0.002668 0.003280 0.000000
0.002375 -0.004495 0.006918 0.000000
-0.000504 -0.001796 0.001882 0.000000
-0.000934 -0.001825 0.003303 0.000000
-0.000994 -0.001581 0.002442 0.000000
-0.000479 -0.001630 0.002704 0.000000
-0.000686 -0.001465 0.001587 0.000000
-0.000910 -0.001519 0.001810 0.000000
-0.000331 -0.001835 0.002191 0.000000
-0.000823 -0.001543 0.001375 0.000000
-0.000350 -0.001987 0.001168 0.000000
-0.000488 -0.001815 0.001080 0.000000
0.000583 -0.003426 0.001350 0.000000
-0.000175 -0.002493 0.000762 0.000000
0.001407 -0.003870 0.002475 0.000000
0.000433 -0.003912 0.003021 0.000000
-0.000259 -0.002208 0.000910 0.000000
0.000064 -0.002301 0.001608 0.000000
0.000940 -0.003631 0.001089 0.000000
0.000745 -0.003905 0.001998 0.000000
0.001232 -0.004524 0.002964 0.000000
0.000000 -0.002943 0.006174 0.000000
-0.000800 -0.000927 0.000482 0.000000
-0.000780 -0.000264 -0.000196 0.000000
0.001030 -0.003490 0.001913 0.000000
0.000000 -0.003599 0.004706 0.000000
0.000231 -0.002024 0.005318 0.000000
0.000093 -0.002111 0.002763 0.000000
-0.000434 -0.001273 0.004978 0.000000
-0.000191 -0.001579 0.002996 0.000000
-0.000191 -0.001616 0.004679 0.000000
-0.000232 -0.000666 -0.000381 0.000000
-0.000653 -0.000944 0.004424 0.000000
-0.000346 -0.001329 0.003492 0.000000
0.000000 -0.002678 0.007111 0.000000
0.000671 -0.002702 0.004764 0.000000
-0.000677 -0.001008 0.004319 0.000000
0.000474 -0.002328 0.007941 0.000000
0.001271 -0.003906 0.003729 0.000000
0.000000 -0.003632 0.003294 0.000000
0.001547 -0.003561 0.004944 0.000000
0.001263 -0.003204 0.006154 0.000000
-0.000170 -0.002348 0.001128 0.000000
-0.000128 -0.002351 0.001212 0.000000
0.001238 -0.004056 0.003484 0.000000
0.001391 -0.004152 0.003627 0.000000
-0.000520 -0.001950 0.001659 0.000000
-0.000613 -0.001598 0.001320 0.000000
-0.000356 -0.001963 0.001075 0.000000
-0.000240 -0.002074 0.001331 0.000000
0.000646 -0.003416 0.003899 0.000000
0.000307 -0.003809 0.007262 0.000000
0.000136 -0.002525 0.003912 0.000000
-0.000181 -0.001890 0.003707 0.000000
0.000000 -0.002785 0.003673 0.000000
0.000488 -0.002988 0.004455 0.000000
0.000000 -0.002465 0.003838 0.000000
-0.000132 -0.002123 0.003537 0.000000
0.000135 -0.002612 0.004025 0.000000
-0.000273 -0.001903 0.003109 0.000000
0.000000 -0.002179 0.002928 0.000000
-0.000661 -0.001822 0.002372 0.000000
0.000000 -0.002377 0.001520 0.000000
-0.000252 -0.002115 0.001138 0.000000
-0.000255 -0.002364 0.001060 0.000000
-0.000024 -0.002642 0.001047 0.000000
-0.000293 -0.002238 0.002315 0.000000
0.000000 -0.002215 0.002532 0.000000
-0.000585 -0.001878 0.001968 0.000000
-0.000136 -0.002377 0.003886 0.000000
-0.000274 -0.002249 0.003582 0.000000
0.000000 -0.002202 0.003342 0.000000
-0.000273 -0.002283 0.001967 0.000000
0.000000 -0.002706 0.000772 0.000000
0.000000 -0.001474 0.005727 0.000000
-0.000021 -0.002648 0.000663 0.000000
-0.000165 -0.002342 0.001001 0.000000
0.000000 -0.002572 0.000795 0.000000
-0.000167 -0.001757 0.008015 0.000000
0.000000 -0.001472 0.005916 0.000000
0.000248 -0.001826 0.005458 0.000000
0.000000 -0.001537 0.007473 0.000000
-0.000627 -0.001337 0.007285 0.000000
-0.000650 -0.001368 0.006011 0.000000
0.000021 -0.000383 0.000293 0.000000
0.000245 -0.002895 0.005599 0.000000
0.000000 -0.002770 0.005756 0.000000
-0.000647 -0.002559 0.005528 0.000000
-0.000066 -0.000453 0.000604 0.000000
-0.000196 -0.002860 0.006070 0.000000
-0.000140 -0.000319 0.000282 0.000000
-0.000151 -0.001473 0.005802 0.000000
0.001163 -0.002499 0.005799 0.000000
0.000000 -0.002043 0.006034 0.000000
0.000000 -0.003075 0.007952 0.000000
-0.000201 -0.000159 0.000520 0.000000
0.001090 -0.002631 0.006460 0.000000
0.000000 -0.002889 0.006566 0.000000
-0.000213 -0.000122 0.000356 0.000000
-0.000164 -0.000174 0.000242 0.000000
-0.000291 -0.000173 0.000448 0.000000
-0.000216 -0.000168 0.000400 0.000000
0.000000 -0.002837 0.005739 0.000000
-0.000903 -0.002505 0.004197 0.000000
0.000158 -0.002525 0.004132 0.000000
-0.000061 -0.000342 0.000264 0.000000
-0.001500 -0.003035 0.007855 0.000000
-0.001221 -0.002875 0.006421 0.000000
0.000245 -0.002513 0.004989 0.000000
-0.000862 -0.002401 0.003107 0.000000
-0.000814 -0.002168 0.003541 0.000000
0.000215 -0.002385 0.002796 0.000000
-0.000711 -0.001661 0.002961 0.000000
-0.000138 -0.002578 0.005729 0.000000
-0.000856 -0.001499 0.001848 0.000000
0.000000 -0.001834 0.004611 0.000000
-0.000487 -0.002045 0.003685 0.000000
-0.000056 -0.002221 0.002687 0.000000
-0.000841 -0.001530 0.003217 0.000000
-0.000610 -0.001658 0.002992 0.000000
-0.000608 -0.001647 0.001910 0.000000
0.000594 -0.002893 0.001907 0.000000
0.001286 -0.003829 0.001923 0.000000
0.000706 -0.003253 0.002515 0.000000
-0.000053 -0.002058 0.001417 0.000000
0.000000 -0.001894 0.003642 0.000000
0.000000 -0.002876 0.005484 0.000000
-0.000172 -0.001955 0.007741 0.000000
-0.000636 -0.000938 0.004491 0.000000
0.000000 -0.001481 0.006708 0.000000
-0.000744 -0.001270 0.006536 0.000000
-0.000000 -0.001142 0.005920 0.000000
-0.000392 -0.001826 0.003277 0.000000
0.000000 -0.002696 0.005422 0.000000
-0.000000 -0.002759 0.003035 0.000000
0.000000 -0.002306 0.005269 0.000000
-0.000522 -0.002094 0.005348 0.000000
-0.000876 -0.001864 0.004084 0.000000
-0.000529 -0.002101 0.002977 0.000000
0.001203 -0.002700 0.006568 0.000000
-0.000756 -0.000725 0.003460 0.000000
0.001065 -0.000927 0.002624 0.000000
0.000000 -0.001151 0.005038 0.000000
0.000000 -0.001068 0.001595 0.000000
0.001950 -0.004374 0.009026 0.000000
0.000816 -0.003113 0.006189 0.000000
0.001319 -0.003310 0.005032 0.000000
-0.000000 -0.003089 0.006831 0.000000
0.001849 -0.005192 0.007011 0.000000
0.000000 -0.003517 0.003931 0.000000
0.001194 -0.003074 0.006131 0.000000
0.000555 -0.002684 0.009073 0.000000
0.000000 -0.002492 0.009780 0.000000
0.000000 -0.002566 0.010907 0.000000
0.000253 -0.002413 0.010198 0.000000
0.000508 -0.002327 0.012902 0.000000
0.000000 -0.002193 0.012959 0.000000
-0.000000 -0.003059 0.005530 0.000000
0.000000 -0.002635 0.009333 0.000000
0.000000 -0.002971 0.007875 0.000000
0.000414 -0.002529 0.008463 0.000000
0.000000 -0.002728 0.008691 0.000000
0.000132 -0.002316 0.003300 0.000000
0.000389 -0.002568 0.009666 0.000000
0.000234 -0.002655 0.008780 0.000000
0.000410 -0.002518 0.007406 0.000000
-0.000000 -0.002593 0.011624 0.000000
0.000417 -0.002622 0.007237 0.000000
0.000613 -0.002579 0.011218 0.000000
0.000356 -0.002335 0.002440 0.000000
0.000636 -0.002660 0.007303 0.000000
0.000426 -0.002326 0.004027 0.000000
0.000309 -0.001997 0.007007 0.000000
0.000553 -0.002797 0.008709 0.000000
-0.000084 -0.002265 0.005231 0.000000
0.000484 -0.002482 0.010469 0.000000
0.000235 -0.002395 0.007331 0.000000
0.001363 -0.002998 0.002561 0.000000
0.000000 -0.002574 0.001989 0.000000
0.001276 -0.003885 0.008804 0.000000
0.001003 -0.003668 0.008846 0.000000
0.000820 -0.004137 0.004403 0.000000
0.001744 -0.002958 0.001934 0.000000
0.000405 -0.002797 0.005937 0.000000
0.000914 -0.003033 0.007426 0.000000
-0.001024 -0.000646 0.003906 0.000000
-0.000836 -0.001146 0.005565 0.000000
-0.001008 -0.000656 0.003731 0.000000
-0.001017 -0.000597 0.004059 0.000000
-0.000732 -0.001194 0.002854 0.000000
-0.000712 -0.001123 0.002107 0.000000
0.000000 -0.002410 0.001133 0.000000
0.004134 -0.005313 0.005390 0.000000
0.000180 -0.001921 0.000268 0.000000
0.000711 -0.002475 0.001337 0.000000
-0.000846 -0.000836 0.004566 0.000000
-0.000844 -0.000587 0.003946 0.000000
-0.000757 -0.000713 0.003682 0.000000
-0.000434 -0.000719 0.004083 0.000000
-0.000569 -0.000654 0.004779 0.000000
-0.000992 -0.000716 0.004428 0.000000
-0.000954 -0.000816 0.005769 0.000000
-0.000967 -0.000694 0.003598 0.000000
0.000315 -0.003452 0.009039 0.000000
0.004161 -0.004896 0.005205 0.000000
0.000603 -0.002454 0.004251 0.000000
0.001849 -0.004242 0.008715 0.000000
-0.000150 -0.001792 0.006491 0.000000
-0.000520 -0.000942 0.003224 0.000000
0.000151 -0.001764 0.001761 0.000000
0.001226 -0.002763 0.006729 0.000000
-0.000397 -0.000835 0.003915 0.000000
-0.000308 -0.000941 0.001601 0.000000
0.000959 -0.001774 0.002459 0.000000
-0.000390 -0.000733 0.005319 0.000000
-0.000236 -0.000998 0.001074 0.000000
-0.000279 -0.001024 0.001235 0.000000
0.001955 -0.002817 0.003121 0.000000
-0.000738 -0.001135 0.006593 0.000000
0.000031 -0.000921 0.002834 0.000000
0.004281 -0.005880 0.008713 0.000000
-0.000628 -0.002747 0.006910 0.000000
0.001566 -0.003428 0.008609 0.000000
0.005136 -0.005861 0.000649 0.000000
0.001113 -0.002108 0.006561 0.000000
0.003896 -0.006524 0.009808 0.000000
0.003086 -0.006120 0.010470 0.000000
-0.000294 -0.002608 0.004233 0.000000
0.001849 -0.004241 0.008158 0.000000
0.000593 -0.002970 0.008960 0.000000
0.000189 -0.002149 0.002416 0.000000
0.000748 -0.002897 0.005931 0.000000
0.000099 -0.002155 0.003176 0.000000
0.000162 -0.002806 0.004540 0.000000
-0.000116 -0.002333 0.003326 0.000000
0.000010 -0.002253 0.003360 0.000000
-0.000149 -0.002153 0.002493 0.000000
-0.000184 -0.001631 0.001900 0.000000
-0.000170 -0.001732 0.001966 0.000000
-0.000073 -0.001939 0.002596 0.000000
-0.000176 -0.001694 0.013456 0.000000
-0.000143 -0.001834 0.002781 0.000000
-0.000172 -0.001972 0.002995 0.000000
-0.000361 -0.001606 0.002395 0.000000
-0.000142 -0.001945 0.003948 0.000000
0.000312 -0.002306 0.004051 0.000000
0.000372 -0.002177 0.004338 0.000000
0.000084 -0.001963 0.002892 0.000000
0.000000 -0.002035 0.003056 0.000000
0.000223 -0.001932 0.001914 0.000000
0.000287 -0.002304 0.003959 0.000000
0.000859 -0.002786 0.004285 0.000000
0.000568 -0.003207 0.006813 0.000000
0.000129 -0.002495 0.005761 0.000000
0.000297 -0.002325 0.005377 0.000000
0.001056 -0.003511 0.009141 0.000000
0.001055 -0.003281 0.006115 0.000000
0.000721 -0.003046 0.008885 0.000000
0.000419 -0.002964 0.006230 0.000000
0.000617 -0.003186 0.009190 0.000000
0.000413 -0.002611 0.005670 0.000000
0.000246 -0.002179 0.004891 0.000000
-0.000081 -0.002285 0.007916 0.000000
0.000612 -0.002473 0.004001 0.000000
0.000535 -0.002563 0.007313 0.000000
0.000015 -0.001581 0.004081 0.000000
0.000298 -0.002254 0.007450 0.000000
-0.000707 -0.000865 0.006524 0.000000
-0.000501 -0.001072 0.002805 0.000000
-0.000658 -0.000686 0.005450 0.000000
0.000035 -0.001022 0.004105 0.000000
-0.001029 -0.000687 0.005588 0.000000
-0.000154 -0.000138 0.000202 0.000000
-0.000547 -0.000990 0.005481 0.000000
0.000000 -0.001619 0.010342 0.000000
0.000208 -0.001665 0.005960 0.000000
0.000290 -0.001551 0.005435 0.000000
-0.000317 -0.001260 0.002758 0.000000
-0.000097 -0.001744 0.004565 0.000000
-0.000513 -0.001064 0.006374 0.000000
-0.000712 -0.000898 0.003658 0.000000
0.000001 -0.001927 0.003100 0.000000
0.000377 -0.002188 0.004350 0.000000
-0.000605 -0.000997 0.003581 0.000000
-0.000656 -0.000896 0.001597 0.000000
-0.000369 -0.001335 0.004201 0.000000
-0.000257 -0.001442 0.002956 0.000000
-0.000571 -0.001050 0.003837 0.000000
-0.000710 -0.000991 0.002282 0.000000
-0.000426 -0.000930 0.001752 0.000000
-0.000281 -0.000991 0.002114 0.000000
-0.000192 -0.000132 0.000259 0.000000
0.000282 -0.001682 0.005973 0.000000
-0.000437 -0.000897 0.004888 0.000000
0.000223 -0.001640 0.004645 0.000000
0.000297 -0.001910 0.005364 0.000000
-0.000199 -0.001230 0.005767 0.000000
-0.000163 -0.000110 0.000177 0.000000
-0.000110 -0.000125 0.000149 0.000000
0.000262 -0.001691 0.005990 0.000000
-0.000164 -0.000108 0.000156 0.000000
-0.000160 -0.000105 0.000149 0.000000
0.000259 -0.001688 0.005995 0.000000
-0.000163 -0.000100 0.000140 0.000000
0.000169 -0.001724 0.006670 0.000000
-0.000182 -0.000099 0.000149 0.000000
-0.000166 -0.000087 0.000114 0.000000
-0.000157 -0.000110 0.000149 0.000000
-0.000356 -0.000877 0.004613 0.000000
-0.000650 -0.000821 0.001196 0.000000
-0.000707 -0.000644 0.000820 0.000000
-0.000168 -0.000138 0.000278 0.000000
-0.001380 0.000363 0.000961 0.000000
-0.000189 -0.000076 0.000343 0.000000
-0.000178 -0.000112 0.000272 0.000000
-0.000586 -0.001141 0.005837 0.000000
-0.000167 -0.000103 0.000147 0.000000
-0.000639 -0.000735 0.001345 0.000000
-0.000150 -0.001477 0.007261 0.000000
-0.000168 -0.000102 0.000144 0.000000
-0.000173 -0.000101 0.000145 0.000000
-0.000194 -0.000098 0.000159 0.000000
0.000296 -0.001682 0.005936 0.000000
0.000102 -0.001681 0.006467 0.000000
0.000271 -0.001685 0.005975 0.000000
0.000227 -0.001769 0.006830 0.000000
0.000233 -0.001686 0.005891 0.000000
-0.000694 -0.000709 0.001007 0.000000
0.000002 -0.001266 0.006830 0.000000
-0.000763 -0.000594 0.000917 0.000000
-0.000573 -0.000872 0.004486 0.000000
-0.000290 -0.000069 0.000328 0.000000
-0.000198 -0.000057 0.000225 0.000000
-0.000510 -0.000772 0.004305 0.000000
-0.000303 -0.001235 0.006676 0.000000
-0.000623 -0.000927 0.011441 0.000000
-0.000421 -0.000656 0.004377 0.000000
-0.000000 -0.001649 0.011751 0.000000
-0.000000 -0.001181 0.011416 0.000000
0.001023 -0.001244 0.003475 0.000000
0.000446 -0.001329 0.005814 0.000000
0.000350 -0.001643 0.010538 0.000000
0.000405 -0.001738 0.005769 0.000000
-0.000000 -0.001665 0.010775 0.000000
0.000367 -0.001653 0.011529 0.000000
0.000351 -0.001867 0.006982 0.000000
0.000417 -0.001856 0.007044 0.000000
-0.000568 -0.001023 0.004971 0.000000
-0.000171 -0.000974 0.005310 0.000000
0.000092 -0.001723 0.005889 0.000000
0.000217 -0.001604 0.006175 0.000000
0.000000 -0.001302 0.009571 0.000000
0.000000 -0.001478 0.012952 0.000000
-0.000311 -0.001318 0.006893 0.000000
-0.000846 -0.000792 0.005752 0.000000
-0.000295 -0.001030 0.006517 0.000000
-0.000398 -0.001416 0.012825 0.000000
-0.000499 -0.001042 0.006328 0.000000
-0.000554 -0.001137 0.012084 0.000000
-0.000907 -0.001067 0.010645 0.000000
0.000280 -0.001673 0.006358 0.000000
0.000036 -0.001438 0.009337 0.000000
0.000305 -0.001701 0.006553 0.000000
0.000000 -0.001547 0.009776 0.000000
0.000339 -0.001751 0.006735 0.000000
0.000271 -0.001604 0.010170 0.000000
0.000000 -0.001156 0.010368 0.000000
0.000000 -0.001570 0.009610 0.000000
-0.000424 -0.001297 0.009801 0.000000
0.000000 -0.001927 0.013144 0.000000
0.000000 -0.000948 0.011431 0.000000
-0.000395 -0.001363 0.012264 0.000000
0.000000 -0.001366 0.012058 0.000000
0.000000 -0.001292 0.010029 0.000000
-0.000292 -0.001216 0.010102 0.000000
0.000155 -0.001558 0.009719 0.000000
0.000394 -0.001661 0.011048 0.000000
0.000000 -0.001657 0.011278 0.000000
0.000221 -0.001568 0.009873 0.000000
0.000041 -0.001511 0.011991 0.000000
-0.000207 -0.001014 0.006083 0.000000
0.000000 -0.001374 0.011804 0.000000
-0.000074 -0.002030 0.008177 0.000000
0.000000 -0.000672 0.010643 0.000000
-0.000096 -0.001346 0.011787 0.000000
-0.000000 -0.001316 0.011679 0.000000
0.000000 -0.001398 0.010840 0.000000
0.000184 -0.000950 0.010040 0.000000
0.000000 -0.000850 0.011440 0.000000
-0.000527 -0.000677 0.003096 0.000000
0.000000 -0.000795 0.008544 0.000000
0.000000 -0.001182 0.009982 0.000000
-0.000682 -0.000593 0.001085 0.000000
0.000000 -0.000869 0.010039 0.000000
0.000175 -0.001198 0.007097 0.000000
-0.000943 -0.000213 0.001630 0.000000
-0.000000 -0.000995 0.011051 0.000000
-0.002198 -0.001216 0.009320 0.000000
-0.000000 -0.001757 0.012655 0.000000
-0.000363 -0.000029 0.000615 0.000000
0.000678 -0.002570 0.010049 0.000000
-0.000048 -0.000983 0.009753 0.000000
-0.000275 -0.000247 0.004604 0.000000
0.001727 -0.001264 0.005807 0.000000
0.002496 -0.002764 0.007405 0.000000
-0.002030 -0.000231 0.004591 0.000000
-0.000797 -0.000564 0.001684 0.000000
-0.000708 -0.000817 0.002661 0.000000
0.000000 -0.001165 0.007071 0.000000
-0.000337 -0.001102 0.007114 0.000000
0.000000 -0.001241 0.007291 0.000000
0.000000 -0.000946 0.007943 0.000000
-0.000753 -0.000804 0.003564 0.000000
-0.000242 -0.000848 0.003538 0.000000
-0.000527 -0.000891 0.008031 0.000000
-0.000115 -0.000947 0.002554 0.000000
-0.000224 -0.000863 0.002444 0.000000
-0.000834 -0.000529 0.006829 0.000000
-0.000179 -0.001083 0.005406 0.000000
0.001148 -0.000860 0.004056 0.000000
-0.000141 -0.000094 0.000189 0.000000
-0.000296 -0.000965 0.002625 0.000000
-0.000897 -0.000287 0.001160 0.000000
-0.000467 -0.000898 0.002620 0.000000
-0.000597 -0.000611 0.002731 0.000000
-0.001000 -0.000891 0.003531 0.000000
-0.000123 -0.000095 0.000193 0.000000
-0.000698 -0.000905 0.002312 0.000000
-0.000372 -0.000506 0.001333 0.000000
-0.001571 -0.001458 0.006352 0.000000
-0.000093 -0.000124 0.000221 0.000000
-0.000499 -0.000943 0.005814 0.000000
-0.000507 -0.000825 0.005074 0.000000
-0.000722 -0.000873 0.002352 0.000000
-0.000000 -0.000831 0.005325 0.000000
-0.000192 -0.001339 0.006465 0.000000
-0.000395 -0.000583 0.001642 0.000000
0.000000 -0.001233 0.007257 0.000000
-0.000470 -0.000542 0.002530 0.000000
-0.000350 -0.001079 0.007268 0.000000
-0.000000 -0.000978 0.006886 0.000000
0.000028 -0.001237 0.007269 0.000000
0.000000 -0.000883 0.005827 0.000000
-0.000187 -0.000328 0.005740 0.000000
-0.000000 -0.000883 0.005827 0.000000
0.000400 -0.001464 0.005660 0.000000
0.000000 -0.001032 0.005879 0.000000
-0.000000 -0.000750 0.003124 0.000000
-0.000140 -0.000918 0.001512 0.000000
0.000000 -0.000817 0.004760 0.000000
-0.000261 -0.000907 0.002352 0.000000
-0.000254 -0.000823 0.001526 0.000000
-0.000000 -0.000825 0.002647 0.000000
-0.000083 -0.000122 0.000149 0.000000
0.000000 -0.000991 0.002303 0.000000
0.000000 -0.001044 0.002068 0.000000
0.000049 -0.001289 0.001692 0.000000
-0.000362 -0.000799 0.001303 0.000000
0.000000 -0.000867 0.000518 0.000000
0.000000 -0.000993 0.000456 0.000000
-0.000318 -0.000849 0.002154 0.000000
-0.000202 -0.000852 0.000591 0.000000
0.000000 -0.001273 0.001676 0.000000
-0.000018 -0.000112 0.000137 0.000000
0.000000 -0.001067 0.002695 0.000000
0.000633 -0.001734 0.001535 0.000000
0.000556 -0.001698 0.003317 0.000000
0.000000 -0.001295 0.001728 0.000000
0.000000 -0.000866 0.002273 0.000000
-0.000372 -0.000551 0.000522 0.000000
-0.000363 -0.000545 0.000506 0.000000
-0.000000 -0.000804 0.001507 0.000000
-0.000336 -0.000570 0.000427 0.000000
-0.000358 -0.000557 0.000490 0.000000
-0.000038 -0.000118 0.000086 0.000000
-0.000056 -0.000933 0.000372 0.000000
-0.000294 -0.000561 0.000389 0.000000
-0.000326 -0.000482 0.000344 0.000000
-0.000313 -0.000816 0.000866 0.000000
0.000157 -0.000673 -0.000299 0.000000
0.000000 -0.000937 0.002568 0.000000
-0.000379 -0.000570 0.000576 0.000000
-0.000374 -0.000545 0.000533 0.000000
-0.000372 -0.000421 0.000288 0.000000
0.000052 -0.001310 0.001929 0.000000
-0.000068 -0.000127 0.000106 0.000000
0.000588 -0.001920 0.001744 0.000000
-0.000277 -0.000724 0.000929 0.000000
-0.000221 -0.000985 0.002039 0.000000
-0.000071 -0.001194 0.001598 0.000000
-0.000125 -0.001024 0.002781 0.000000
-0.000379 -0.000510 0.000532 0.000000
-0.000492 -0.000537 0.001316 0.000000
-0.000492 -0.000793 0.004545 0.000000
-0.000383 -0.000538 0.001385 0.000000
-0.000458 -0.000752 0.003415 0.000000
-0.000464 -0.000431 0.000415 0.000000
-0.000533 -0.000535 0.001478 0.000000
-0.000018 -0.000173 0.000168 0.000000
-0.000244 -0.000669 0.001305 0.000000
-0.000081 -0.000108 0.000113 0.000000
-0.000277 -0.000857 0.001463 0.000000
-0.000467 -0.000548 0.001310 0.000000
-0.000492 -0.000538 0.001309 0.000000
-0.000471 -0.000473 0.000488 0.000000
-0.000456 -0.000529 0.001346 0.000000
-0.000485 -0.000440 0.000443 0.000000
-0.000429 -0.000485 0.000498 0.000000
-0.000073 -0.000151 0.000114 0.000000
-0.000575 -0.000148 0.000177 0.000000
-0.000075 -0.000118 0.000073 0.000000
-0.000035 -0.000105 0.000165 0.000000
-0.000065 -0.000145 0.000081 0.000000
-0.000368 -0.000611 0.000678 0.000000
-0.000279 -0.000917 0.001427 0.000000
-0.000076 -0.000093 0.000100 0.000000
-0.000237 -0.001044 0.001315 0.000000
0.000269 -0.001034 0.000832 0.000000
-0.000366 -0.000571 0.000579 0.000000
-0.000354 -0.000507 0.000425 0.000000
-0.000199 -0.000692 0.000365 0.000000
-0.000066 -0.000106 0.000106 0.000000
-0.000289 -0.000629 0.000279 0.000000
-0.000053 -0.000925 0.000431 0.000000
0.000149 -0.000977 0.000611 0.000000
0.000007 -0.000838 0.000225 0.000000
-0.000300 -0.000531 0.000380 0.000000
-0.000280 -0.000418 0.000169 0.000000
-0.000044 -0.000114 0.000100 0.000000
-0.000025 -0.000120 0.000077 0.000000
-0.000015 -0.001062 0.001129 0.000000
-0.000372 -0.000619 0.000659 0.000000
-0.000381 -0.000505 0.000445 0.000000
-0.000354 -0.000504 0.000426 0.000000
-0.000351 -0.000514 0.000445 0.000000
-0.000329 -0.000433 0.000258 0.000000
-0.000066 -0.000112 0.000086 0.000000
-0.000014 -0.000799 0.001206 0.000000
-0.000381 -0.000423 0.000439 0.000000
-0.000395 -0.000492 0.000468 0.000000
-0.000242 -0.000562 0.000419 0.000000
0.000011 -0.000983 0.000526 0.000000
-0.000053 -0.000104 0.000095 0.000000
0.000070 -0.000835 0.000153 0.000000
-0.000302 -0.000451 0.000243 0.000000
-0.000205 -0.000496 0.000199 0.000000
-0.000047 -0.000111 0.000092 0.000000
-0.000055 -0.000103 0.000078 0.000000
-0.000312 -0.000425 0.000233 0.000000
-0.000374 -0.000474 0.000394 0.000000
-0.000311 -0.000469 0.000313 0.000000
-0.000294 -0.000512 0.000274 0.000000
-0.000069 -0.000117 0.000112 0.000000
-0.000070 -0.000100 0.000107 0.000000
-0.000065 -0.000114 0.000104 0.000000
-0.000071 -0.000098 0.000088 0.000000
-0.000078 -0.000097 0.000126 0.000000
-0.000066 -0.000128 0.000108 0.000000
-0.000065 -0.000123 0.000088 0.000000
-0.000066 -0.000119 0.000097 0.000000
-0.000544 -0.000466 0.000485 0.000000
-0.000506 -0.000483 0.000506 0.000000
-0.000092 -0.000079 0.000104 0.000000
-0.000078 -0.000105 0.000128 0.000000
-0.000502 -0.000397 0.000370 0.000000
-0.000474 -0.000435 0.000430 0.000000
-0.000535 -0.000311 0.000301 0.000000
-0.000487 -0.000423 0.000444 0.000000
-0.000632 -0.000070 0.000388 0.000000
-0.000082 -0.000105 0.000083 0.000000
-0.000543 -0.000400 0.000465 0.000000
-0.000499 -0.000446 0.000424 0.000000
-0.000519 -0.000388 0.000380 0.000000
-0.000579 -0.000519 0.000781 0.000000
-0.000843 -0.000426 0.001621 0.000000
-0.000134 -0.000091 0.000170 0.000000
-0.000120 -0.000086 0.000153 0.000000
-0.000129 -0.000093 0.000178 0.000000
-0.001070 -0.000089 0.002274 0.000000
-0.000146 -0.000058 0.000123 0.000000
-0.000834 -0.000394 0.001576 0.000000
-0.000114 -0.000099 0.000305 0.000000
-0.000104 -0.000092 0.000127 0.000000
-0.000113 -0.000097 0.000177 0.000000
-0.000495 -0.000445 0.000420 0.000000
-0.000475 -0.000358 0.001047 0.000000
-0.000096 -0.000124 0.000129 0.000000
-0.000111 -0.000120 0.000187 0.000000
-0.000473 -0.000692 0.000984 0.000000
-0.000543 -0.000487 0.000553 0.000000
-0.000095 -0.000146 0.000195 0.000000
-0.000087 -0.000115 0.000160 0.000000
-0.000494 -0.000479 0.000492 0.000000
-0.000552 -0.000538 0.001348 0.000000
0.000492 -0.000997 0.001831 0.000000
-0.000185 -0.000024 0.000169 0.000000
-0.000354 -0.000178 0.000671 0.000000
0.000195 -0.000186 0.000643 0.000000
-0.000488 -0.000780 0.002354 0.000000
-0.000545 -0.000670 0.000940 0.000000
-0.000138 -0.000052 0.000185 0.000000
-0.000808 -0.000438 0.001654 0.000000
-0.000137 -0.000094 0.000197 0.000000
-0.000324 -0.000050 0.000363 0.000000
-0.000718 -0.000534 0.000893 0.000000
-0.000776 -0.000564 0.001682 0.000000
-0.000674 -0.000645 0.000904 0.000000
-0.000954 -0.000309 0.001514 0.000000
-0.000610 -0.000804 0.003313 0.000000
-0.000190 -0.000801 0.003082 0.000000
-0.000736 -0.000706 0.001431 0.000000
-0.000628 -0.000606 0.000995 0.000000
-0.000369 -0.000106 0.000518 0.000000
-0.000165 -0.000071 0.000212 0.000000
-0.001339 -0.000195 0.002795 0.000000
-0.000737 -0.000765 0.002016 0.000000
-0.000343 -0.001353 0.002264 0.000000
-0.000837 -0.000553 0.000394 0.000000
-0.000423 -0.000347 -0.000211 0.000000
-0.000396 -0.000816 0.002168 0.000000
-0.000450 -0.000675 0.001385 0.000000
-0.000823 -0.000465 0.001645 0.000000
-0.001043 0.000108 0.001538 0.000000
-0.001023 -0.000074 0.001184 0.000000
-0.000767 -0.000432 0.001466 0.000000
-0.000743 -0.000665 0.001453 0.000000
-0.000737 -0.000531 0.001197 0.000000
-0.000746 -0.000484 0.001085 0.000000
-0.001075 -0.000180 0.001332 0.000000
-0.000151 -0.000060 0.000105 0.000000
-0.000159 -0.000145 0.000260 0.000000
-0.000119 -0.000072 0.000150 0.000000
-0.000727 -0.000489 0.001156 0.000000
-0.001168 0.000059 0.001936 0.000000
-0.000125 -0.000126 0.000223 0.000000
-0.000146 -0.000107 0.000219 0.000000
-0.000166 -0.000059 0.000176 0.000000
-0.000145 -0.000055 0.000172 0.000000
-0.000169 -0.000067 0.000206 0.000000
-0.000346 -0.000820 0.002095 0.000000
-0.000914 0.000468 0.000396 0.000000
-0.001369 0.000520 0.001574 0.000000
-0.000124 -0.000103 0.000124 0.000000
-0.000911 -0.000510 0.000455 0.000000
-0.000182 0.000042 -0.000040 0.000000
-0.000169 -0.000053 0.000177 0.000000
-0.000124 -0.000119 0.000129 0.000000
-0.000145 -0.000073 0.000101 0.000000
-0.000141 -0.000063 0.000109 0.000000
-0.000138 -0.000090 0.000101 0.000000
-0.000156 -0.000051 0.000110 0.000000
-0.000142 -0.000059 0.000125 0.000000
-0.000137 -0.000074 0.000091 0.000000
-0.000158 -0.000072 0.000114 0.000000
-0.000151 -0.000059 0.000111 0.000000
-0.000832 -0.000309 0.001518 0.000000
-0.000799 -0.000411 0.001086 0.000000
-0.000820 -0.000444 0.001264 0.000000
-0.000134 -0.000082 0.000166 0.000000
-0.000121 -0.000090 0.000166 0.000000
-0.000130 -0.000086 0.000159 0.000000
-0.000128 -0.000080 0.000172 0.000000
-0.000509 -0.000328 0.000317 0.000000
-0.000593 -0.000202 0.000751 0.000000
-0.000846 -0.000428 0.001912 0.000000
-0.000145 -0.000084 0.000153 0.000000
-0.000134 -0.000062 0.000135 0.000000
-0.000112 -0.000069 0.000186 0.000000
-0.000151 -0.000061 0.000114 0.000000
-0.000890 -0.000296 0.001606 0.000000
-0.001035 -0.000213 0.001599 0.000000
-0.001020 -0.000137 0.002278 0.000000
-0.001087 -0.000205 0.001440 0.000000
-0.000809 -0.000373 0.001708 0.000000
-0.001118 -0.000054 0.001876 0.000000
-0.001250 0.000056 0.002365 0.000000
-0.000498 -0.000191 0.000515 0.000000
-0.000162 -0.000069 0.000186 0.000000
-0.000213 -0.000372 -0.000071 0.000000
-0.000172 -0.000064 0.000151 0.000000
-0.000524 -0.000322 0.000243 0.000000
-0.000658 -0.000369 0.000535 0.000000
-0.000603 -0.000404 0.001843 0.000000
-0.000706 -0.000428 0.001904 0.000000
-0.000511 -0.000314 0.000365 0.000000
-0.000471 -0.000467 0.000319 0.000000
-0.000901 -0.000388 0.001819 0.000000
-0.001156 -0.000023 0.002397 0.000000
-0.000558 -0.000505 0.001212 0.000000
-0.000785 -0.000552 0.002502 0.000000
-0.000152 -0.000057 0.000089 0.000000
-0.000161 -0.000025 0.000085 0.000000
-0.000755 -0.000438 0.001004 0.000000
-0.000871 -0.000257 0.001180 0.000000
-0.000156 -0.000050 0.000110 0.000000
-0.000149 -0.000057 0.000102 0.000000
-0.000989 -0.000200 0.001688 0.000000
-0.001274 0.000069 0.001904 0.000000
-0.000140 -0.000101 0.000155 0.000000
-0.000160 -0.000089 0.000164 0.000000
-0.000151 -0.000108 0.000230 0.000000
-0.001311 0.000787 0.000660 0.000000
-0.000154 -0.000060 0.000106 0.000000
-0.000220 -0.000577 0.000302 0.000000
-0.001644 0.000977 0.000609 0.000000
-0.000114 -0.000090 0.000178 0.000000
-0.000143 -0.000089 0.000163 0.000000
-0.000112 -0.000117 0.000146 0.000000
-0.000131 -0.000077 0.000135 0.000000
-0.000148 -0.000052 0.000157 0.000000
-0.000147 -0.000077 0.000128 0.000000
-0.000158 -0.000046 0.000128 0.000000
-0.000156 -0.000050 0.000110 0.000000
-0.000157 -0.000052 0.000122 0.000000
-0.000158 -0.000035 0.000100 0.000000
-0.000156 -0.000046 0.000109 0.000000
-0.000143 -0.000067 0.000184 0.000000
-0.000142 -0.000064 0.000148 0.000000
-0.000152 -0.000036 0.000087 0.000000
-0.000160 -0.000033 0.000106 0.000000
-0.000262 -0.000009 0.000090 0.000000
-0.002132 0.001192 0.001112 0.000000
-0.002119 0.000713 0.001333 0.000000
-0.000170 -0.000066 0.000195 0.000000
-0.000265 -0.000373 0.000029 0.000000
-0.002072 0.001243 0.000674 0.000000
-0.002106 0.001276 0.000602 0.000000
-0.000151 -0.000065 0.000181 0.000000
-0.000136 -0.000066 0.000175 0.000000
-0.000131 -0.000067 0.000125 0.000000
-0.000156 -0.000071 0.000168 0.000000
-0.000158 -0.000049 0.000155 0.000000
-0.000158 -0.000032 0.000121 0.000000
-0.000153 -0.000041 0.000139 0.000000
-0.000159 -0.000038 0.000094 0.000000
-0.000162 -0.000027 0.000099 0.000000
-0.000153 -0.000065 0.000140 0.000000
-0.000154 -0.000056 0.000143 0.000000
-0.000148 -0.000055 0.000121 0.000000
-0.000156 -0.000039 0.000114 0.000000
-0.000160 -0.000035 0.000101 0.000000
-0.000157 -0.000042 0.000110 0.000000
-0.000821 -0.000231 0.001106 0.000000
-0.000153 -0.000042 0.000070 0.000000
-0.000747 -0.000461 0.001058 0.000000
-0.000617 -0.000412 0.000368 0.000000
-0.000154 -0.000048 0.000097 0.000000
-0.000157 -0.000023 0.000075 0.000000
-0.000774 -0.000195 0.000904 0.000000
-0.000713 -0.000428 0.000659 0.000000
-0.000536 -0.000512 0.000486 0.000000
-0.000652 -0.000455 0.000910 0.000000
-0.000571 -0.000378 0.000306 0.000000
-0.000562 -0.000457 0.001002 0.000000
-0.000429 -0.000430 0.000449 0.000000
-0.000579 -0.000463 0.000503 0.000000
-0.000634 -0.000407 0.000555 0.000000
-0.000511 -0.000336 0.000232 0.000000
-0.000782 -0.000126 0.000596 0.000000
-0.000346 -0.000126 0.000700 0.000000
-0.000509 -0.000207 0.000276 0.000000
-0.000877 0.000070 0.000761 0.000000
-0.000858 0.000148 0.000764 0.000000
-0.000759 -0.000183 0.000450 0.000000
-0.000151 -0.000053 0.000094 0.000000
-0.000151 -0.000036 0.000077 0.000000
-0.000566 -0.000420 0.000387 0.000000
-0.000609 -0.000527 0.000665 0.000000
-0.000843 -0.000290 0.001185 0.000000
-0.000153 -0.000039 0.000084 0.000000
-0.000869 -0.000264 0.001071 0.000000
-0.000705 -0.000312 0.000799 0.000000
-0.000511 -0.000500 0.000804 0.000000
-0.000788 -0.000544 0.001517 0.000000
-0.000577 -0.000382 0.001034 0.000000
-0.000456 -0.000567 0.000581 0.000000
-0.000571 -0.000225 0.000277 0.000000
-0.000613 -0.000176 0.000439 0.000000
-0.000544 -0.000304 0.000400 0.000000
-0.000515 -0.000291 0.000254 0.000000
-0.000756 0.000079 0.001166 0.000000
-0.000504 -0.000291 0.000313 0.000000
-0.000088 -0.000085 0.000081 0.000000
-0.000085 -0.000061 0.000056 0.000000
-0.000091 -0.000074 0.000071 0.000000
-0.000087 -0.000077 0.000068 0.000000
-0.000764 -0.000084 0.001269 0.000000
-0.000755 -0.000140 0.001095 0.000000
-0.000078 -0.000081 0.000072 0.000000
-0.000077 -0.000074 0.000049 0.000000
-0.000541 -0.000235 0.000307 0.000000
-0.000797 0.000095 0.000764 0.000000
-0.000562 -0.000190 0.000446 0.000000
-0.000569 -0.000113 0.000477 0.000000
-0.000828 0.000091 0.000795 0.000000
-0.000650 -0.000188 0.000369 0.000000
-0.000368 -0.000454 0.000749 0.000000
-0.000088 -0.000074 0.000085 0.000000
-0.000737 -0.000130 0.000973 0.000000
-0.000572 -0.000115 0.000743 0.000000
-0.000776 0.000105 0.001344 0.000000
-0.000097 -0.000057 0.000085 0.000000
-0.000098 -0.000062 0.000067 0.000000
-0.000091 -0.000065 0.000054 0.000000
-0.000089 -0.000061 0.000046 0.000000
-0.000093 -0.000067 0.000059 0.000000
-0.000087 -0.000071 0.000053 0.000000
-0.000084 -0.000074 0.000050 0.000000
-0.000070 -0.000085 0.000069 0.000000
-0.000075 -0.000076 0.000048 0.000000
-0.000074 -0.000083 0.000063 0.000000
-0.000079 -0.000067 0.000041 0.000000
-0.000494 -0.000214 0.000337 0.000000
-0.000421 -0.000155 0.000159 0.000000
-0.000346 -0.000298 0.000269 0.000000
-0.000380 -0.000233 0.000211 0.000000
-0.000072 -0.000074 0.000051 0.000000
-0.000070 -0.000074 0.000050 0.000000
-0.000350 -0.000278 0.000203 0.000000
-0.000449 -0.000280 0.000575 0.000000
-0.000060 -0.000087 0.000075 0.000000
-0.000062 -0.000077 0.000061 0.000000
-0.000062 -0.000081 0.000070 0.000000
-0.000058 -0.000082 0.000074 0.000000
-0.000360 -0.000272 0.000227 0.000000
-0.000185 -0.000589 0.000005 0.000000
-0.000062 -0.000083 0.000069 0.000000
-0.000059 -0.000087 0.000080 0.000000
-0.000056 -0.000092 0.000063 0.000000
-0.000060 -0.000083 0.000072 0.000000
-0.000061 -0.000092 0.000069 0.000000
-0.000060 -0.000088 0.000078 0.000000
-0.000494 -0.000061 0.000234 0.000000
-0.000070 -0.000086 0.000066 0.000000
-0.000058 -0.000094 0.000073 0.000000
-0.000348 -0.000263 0.000205 0.000000
-0.000067 -0.000101 0.000084 0.000000
-0.000068 -0.000083 0.000061 0.000000
-0.000392 -0.000225 0.000235 0.000000
-0.000070 -0.000099 0.000099 0.000000
-0.000319 -0.000344 0.000272 0.000000
-0.000333 -0.000308 0.000234 0.000000
-0.000438 -0.000258 0.000335 0.000000
-0.000333 -0.000340 0.000254 0.000000
-0.000061 -0.000089 0.000073 0.000000
-0.000058 -0.000094 0.000080 0.000000
-0.000431 -0.000097 0.000240 0.000000
-0.000057 -0.000096 0.000080 0.000000
-0.000062 -0.000089 0.000072 0.000000
-0.000057 -0.000108 0.000086 0.000000
-0.000065 -0.000092 0.000053 0.000000
-0.000285 -0.000397 0.000143 0.000000
-0.000060 -0.000092 0.000080 0.000000
-0.000054 -0.000100 0.000090 0.000000
-0.000481 -0.000080 0.000437 0.000000
-0.000073 -0.000091 0.000079 0.000000
-0.000351 -0.000326 0.000130 0.000000
-0.000317 -0.000339 0.000225 0.000000
-0.000064 -0.000094 0.000061 0.000000
-0.000065 -0.000086 0.000055 0.000000
-0.000304 -0.000391 0.000249 0.000000
-0.000323 -0.000341 0.000237 0.000000
-0.000088 -0.000080 0.000081 0.000000
-0.000076 -0.000084 0.000068 0.000000
-0.000081 -0.000089 0.000084 0.000000
-0.000072 -0.000089 0.000084 0.000000
-0.000519 -0.000286 0.000251 0.000000
-0.000526 -0.000286 0.000263 0.000000
-0.000085 -0.000097 0.000083 0.000000
-0.000087 -0.000092 0.000085 0.000000
-0.000526 -0.000320 0.000340 0.000000
-0.000555 -0.000280 0.000414 0.000000
-0.000758 0.000044 0.000959 0.000000
-0.000544 -0.000261 0.000384 0.000000
-0.000081 -0.000117 0.000092 0.000000
-0.000089 -0.000082 0.000072 0.000000
-0.000088 -0.000082 0.000073 0.000000
-0.000080 -0.000097 0.000102 0.000000
-0.000068 -0.000106 0.000095 0.000000
-0.000064 -0.000091 0.000074 0.000000
-0.000092 -0.000081 0.000076 0.000000
-0.000091 -0.000086 0.000071 0.000000
-0.000078 -0.000086 0.000091 0.000000
-0.000087 -0.000081 0.000099 0.000000
-0.000489 -0.000384 0.000355 0.000000
-0.000562 -0.000328 0.000319 0.000000
-0.000511 -0.000370 0.000380 0.000000
-0.000523 -0.000311 0.000329 0.000000
-0.000500 -0.000358 0.000357 0.000000
-0.000535 -0.000341 0.000407 0.000000
-0.000537 -0.000326 0.000401 0.000000
-0.000714 0.000031 0.000672 0.000000
-0.000086 -0.000094 0.000082 0.000000
-0.000084 -0.000106 0.000074 0.000000
-0.000090 -0.000083 0.000083 0.000000
-0.000096 -0.000091 0.000094 0.000000
-0.000093 -0.000085 0.000087 0.000000
-0.000079 -0.000090 0.000122 0.000000
-0.000066 -0.000106 0.000092 0.000000
-0.000053 -0.000102 0.000071 0.000000
-0.000302 -0.000414 0.000877 0.000000
-0.000061 -0.000118 0.000094 0.000000
-0.000069 -0.000104 0.000090 0.000000
-0.000070 -0.000106 0.000096 0.000000
-0.000445 -0.000095 0.000753 0.000000
-0.000336 -0.000471 0.000242 0.000000
-0.000337 -0.000406 0.000195 0.000000
-0.000315 -0.000408 0.000316 0.000000
-0.000064 -0.000096 0.000080 0.000000
-0.000075 -0.000087 0.000074 0.000000
-0.000326 -0.000410 0.000202 0.000000
-0.000401 -0.000449 0.000392 0.000000
-0.000061 -0.000758 0.000035 0.000000
-0.000062 -0.000089 0.000089 0.000000
-0.000061 -0.000123 0.000129 0.000000
0.000009 -0.000497 -0.000268 0.000000
-0.000043 -0.000118 0.000087 0.000000
-0.000049 -0.000106 0.000087 0.000000
-0.000128 -0.000545 0.000726 0.000000
-0.000039 -0.000124 0.000087 0.000000
-0.000050 -0.000106 0.000085 0.000000
-0.000058 -0.000099 0.000082 0.000000
-0.000065 -0.000087 0.000115 0.000000
-0.000052 -0.000103 0.000096 0.000000
-0.000061 -0.000110 0.000073 0.000000
-0.000114 -0.000494 0.000502 0.000000
-0.000046 -0.000093 0.000034 0.000000
-0.000055 -0.000114 0.000082 0.000000
-0.000348 -0.000460 0.000081 0.000000
-0.000062 -0.000105 0.000076 0.000000
-0.000049 -0.000118 0.000028 0.000000
-0.000049 -0.000596 -0.000100 0.000000
0.000049 -0.000736 0.000127 0.000000
-0.000031 -0.000725 0.000068 0.000000
0.000043 -0.000792 0.000071 0.000000
-0.000034 -0.000108 0.000033 0.000000
0.000118 -0.000932 0.000078 0.000000
0.000113 -0.000923 0.000346 0.000000
0.000005 -0.000773 0.000352 0.000000
0.000206 -0.000960 0.000387 0.000000
0.000030 -0.000776 0.000304 0.000000
-0.000108 -0.000552 0.000172 0.000000
-0.000015 -0.000734 0.000307 0.000000
-0.000053 -0.000729 0.000378 0.000000
0.000004 -0.000708 0.000088 0.000000
-0.000007 -0.000670 -0.000027 0.000000
0.000030 -0.000749 0.000074 0.000000
0.000079 -0.000819 0.000146 0.000000
0.000094 -0.000822 0.000109 0.000000
0.000190 -0.001009 0.000457 0.000000
-0.000043 -0.000086 0.000043 0.000000
0.000035 -0.000672 -0.000002 0.000000
-0.000041 -0.000627 0.000299 0.000000
-0.000050 -0.000655 0.000247 0.000000
-0.000029 -0.000643 0.000347 0.000000
-0.000090 -0.000618 0.000285 0.000000
-0.000192 -0.000542 0.000386 0.000000
-0.000206 -0.000564 -0.000008 0.000000
0.000081 -0.000744 0.000093 0.000000
-0.000045 -0.000097 0.000049 0.000000
-0.000039 -0.000087 0.000032 0.000000
-0.000032 -0.000680 0.000298 0.000000
-0.000042 -0.000654 -0.000014 0.000000
-0.000003 -0.000688 0.000050 0.000000
0.000057 -0.000654 0.000056 0.000000
-0.000046 -0.000078 0.000038 0.000000
0.000017 -0.000635 0.000029 0.000000
-0.000053 -0.000107 0.000055 0.000000
-0.000032 -0.000127 0.000025 0.000000
-0.000181 -0.000532 -0.000300 0.000000
-0.000299 -0.000249 0.000336 0.000000
-0.000359 -0.000161 -0.000171 0.000000
-0.000041 -0.000109 0.000048 0.000000
-0.000056 -0.000098 0.000038 0.000000
-0.000059 -0.000098 0.000084 0.000000
-0.000041 -0.000113 0.000071 0.000000
-0.000435 -0.000057 0.000124 0.000000
-0.000056 -0.000110 0.000074 0.000000
-0.000059 -0.000094 0.000083 0.000000
-0.000057 -0.000098 0.000086 0.000000
-0.000055 -0.000097 0.000087 0.000000
-0.000046 -0.000108 0.000083 0.000000
-0.000055 -0.000123 0.000130 0.000000
-0.000427 -0.000224 0.000452 0.000000
-0.000053 -0.000109 0.000086 0.000000
-0.000410 -0.000258 0.000219 0.000000
-0.000061 -0.000099 0.000107 0.000000
-0.000060 -0.000119 0.000134 0.000000
-0.000254 -0.000353 0.000293 0.000000
-0.000308 -0.000432 0.000458 0.000000
-0.000176 -0.000430 0.000519 0.000000
-0.000039 -0.000096 0.000057 0.000000
-0.000034 -0.000099 0.000029 0.000000
-0.000034 -0.000109 0.000045 0.000000
-0.000042 -0.000094 0.000053 0.000000
0.000048 -0.000577 0.000152 0.000000
-0.000058 -0.000094 0.000088 0.000000
-0.000053 -0.000102 0.000084 0.000000
-0.000257 -0.000265 0.000151 0.000000
-0.000331 -0.000131 -0.000005 0.000000
-0.000058 -0.000084 0.000085 0.000000
-0.000059 -0.000084 0.000079 0.000000
-0.000058 -0.000091 0.000095 0.000000
-0.000059 -0.000089 0.000089 0.000000
-0.000053 -0.000097 0.000087 0.000000
-0.000050 -0.000089 0.000090 0.000000
-0.000052 -0.000107 0.000102 0.000000
-0.000247 -0.000176 -0.000144 0.000000
-0.000083 -0.000440 0.000426 0.000000
0.000015 -0.000617 0.000092 0.000000
-0.000001 -0.000622 0.000040 0.000000
-0.000043 -0.000581 -0.000000 0.000000
-0.000229 -0.000270 0.000087 0.000000
-0.000319 -0.000292 0.000066 0.000000
-0.000212 -0.000353 0.000322 0.000000
-0.000210 -0.000330 0.000207 0.000000
-0.000193 -0.000449 0.000355 0.000000
-0.000138 -0.000557 0.000420 0.000000
0.000039 -0.000693 0.000110 0.000000
-0.000042 -0.000089 0.000021 0.000000
-0.000045 -0.000081 0.000042 0.000000
-0.000044 -0.000091 0.000046 0.000000
0.000043 -0.000586 -0.000399 0.000000
-0.000009 -0.000554 -0.000212 0.000000
0.000028 -0.000509 -0.000482 0.000000
0.000040 -0.000590 -0.000422 0.000000
-0.000044 -0.000075 0.000040 0.000000
-0.000043 -0.000086 0.000041 0.000000
-0.000040 -0.000083 0.000036 0.000000
-0.000043 -0.000081 0.000030 0.000000
-0.000040 -0.000095 0.000041 0.000000
-0.000041 -0.000085 0.000028 0.000000
-0.000040 -0.000085 0.000030 0.000000
-0.000041 -0.000087 0.000029 0.000000
-0.000018 -0.000674 0.000351 0.000000
-0.000043 -0.000079 0.000049 0.000000
-0.000043 -0.000084 0.000044 0.000000
-0.000042 -0.000092 0.000042 0.000000
-0.000038 -0.000095 0.000030 0.000000
0.000008 -0.000675 0.000291 0.000000
0.000014 -0.000657 -0.000038 0.000000
-0.000012 -0.000656 -0.000137 0.000000
0.000070 -0.000703 0.000073 0.000000
-0.000044 -0.000081 0.000037 0.000000
0.000063 -0.000728 -0.000430 0.000000
-0.000028 -0.000105 -0.000004 0.000000
0.000040 -0.000633 0.000003 0.000000
-0.000020 -0.000666 -0.000283 0.000000
-0.000039 -0.000097 0.000043 0.000000
-0.000039 -0.000095 0.000031 0.000000
-0.000037 -0.000095 0.000029 0.000000
0.000015 -0.000718 0.000301 0.000000
-0.000006 -0.000643 0.000296 0.000000
-0.000096 -0.000628 0.000316 0.000000
-0.000226 -0.000318 0.000852 0.000000
-0.000026 -0.000132 0.000055 0.000000
-0.000020 -0.000127 0.000039 0.000000
-0.000077 -0.000601 0.000410 0.000000
-0.000034 -0.000120 0.000026 0.000000
-0.000029 -0.000119 0.000035 0.000000
-0.000029 -0.000109 0.000002 0.000000
-0.000035 -0.000149 -0.000038 0.000000
-0.000029 -0.000105 0.000011 0.000000
-0.000027 -0.000120 0.000023 0.000000
-0.000030 -0.000099 0.000003 0.000000
-0.000028 -0.000112 -0.000013 0.000000
-0.000036 -0.000107 0.000020 0.000000
-0.000042 -0.000087 0.000029 0.000000
-0.000031 -0.000104 0.000009 0.000000
-0.000034 -0.000110 0.000016 0.000000
-0.000189 -0.000479 0.000848 0.000000
-0.000022 -0.000122 0.000062 0.000000
-0.000032 -0.000110 0.000040 0.000000
-0.000041 -0.000101 0.000034 0.000000
-0.000066 -0.000598 0.001060 0.000000
-0.000148 -0.000365 0.001008 0.000000
-0.000036 -0.000099 0.000016 0.000000
-0.000039 -0.000096 0.000013 0.000000
-0.000032 -0.000103 0.000010 0.000000
-0.000031 -0.000094 -0.000003 0.000000
-0.000029 -0.000089 -0.000005 0.000000
-0.000030 -0.000099 0.000009 0.000000
-0.000028 -0.000099 0.000007 0.000000
-0.000029 -0.000099 0.000006 0.000000
-0.000031 -0.000098 0.000004 0.000000
-0.000028 -0.000105 0.000008 0.000000
-0.000035 -0.000090 -0.000011 0.000000
-0.000035 -0.000098 -0.000006 0.000000
-0.000034 -0.000098 -0.000005 0.000000
-0.000020 -0.000620 0.000436 0.000000
0.000095 -0.000717 0.000020 0.000000
0.000085 -0.000727 -0.000186 0.000000
-0.000170 -0.000150 -0.000193 0.000000
-0.000029 -0.000098 -0.000009 0.000000
0.000109 -0.000677 0.000091 0.000000
-0.000028 -0.000130 0.000020 0.000000
0.000076 -0.000683 -0.000035 0.000000
-0.000147 -0.000434 -0.000139 0.000000
-0.000180 -0.000327 -0.000017 0.000000
0.000157 -0.000650 -0.000337 0.000000
-0.000188 -0.000405 -0.000057 0.000000
-0.000172 -0.000377 -0.000141 0.000000
-0.000190 -0.000348 -0.000023 0.000000
-0.000081 -0.000435 -0.000337 0.000000
0.000020 -0.000541 -0.000587 0.000000
-0.000184 -0.000372 -0.000075 0.000000
-0.000012 -0.000641 -0.000005 0.000000
-0.000050 -0.000626 -0.000270 0.000000
0.000009 -0.000714 0.000002 0.000000
0.000107 -0.000639 -0.000599 0.000000
-0.000018 -0.000548 0.000551 0.000000
-0.000236 -0.000119 0.000133 0.000000
-0.000019 -0.000113 0.000024 0.000000
0.000067 -0.000685 -0.000080 0.000000
-0.000019 -0.000116 0.000017 0.000000
-0.000007 -0.000123 -0.000024 0.000000
-0.000153 -0.000443 -0.000138 0.000000
-0.000044 -0.000524 -0.000344 0.000000
-0.000187 -0.000370 -0.000031 0.000000
-0.000145 -0.000418 -0.000167 0.000000
-0.000177 -0.000407 -0.000081 0.000000
-0.000165 -0.000429 -0.000219 0.000000
-0.000184 -0.000376 -0.000033 0.000000
-0.000165 -0.000398 -0.000112 0.000000
-0.000147 -0.000432 -0.000177 0.000000
0.000084 -0.000747 -0.000432 0.000000
-0.000190 -0.000391 -0.000059 0.000000
-0.000142 -0.000451 -0.000149 0.000000
-0.000109 -0.000379 -0.000300 0.000000
-0.000030 -0.000117 0.000016 0.000000
0.000014 -0.000668 -0.000494 0.000000
-0.000025 -0.000122 0.000009 0.000000
-0.000038 -0.000134 0.000076 0.000000
-0.000053 -0.000606 0.000439 0.000000
0.000178 -0.000873 -0.000228 0.000000
-0.000012 -0.000132 -0.000007 0.000000
-0.000026 -0.000112 0.000013 0.000000
-0.000032 -0.000110 0.000016 0.000000
-0.000026 -0.000112 0.000000 0.000000
-0.000023 -0.000123 0.000015 0.000000
-0.000029 -0.000128 0.000022 0.000000
-0.000032 -0.000115 0.000019 0.000000
-0.000030 -0.000118 0.000022 0.000000
-0.000030 -0.000111 0.000017 0.000000
-0.000028 -0.000124 0.000032 0.000000
-0.000031 -0.000170 0.000093 0.000000
-0.000030 -0.000121 0.000026 0.000000
-0.000033 -0.000115 0.000022 0.000000
-0.000022 -0.000126 0.000024 0.000000
-0.000027 -0.000123 0.000017 0.000000
-0.000027 -0.000128 0.000024 0.000000
0.000035 -0.000996 -0.000036 0.000000
-0.000034 -0.000099 -0.000021 0.000000
-0.000027 -0.000111 -0.000020 0.000000
-0.000025 -0.000126 0.000002 0.000000
-0.000023 -0.000132 0.000026 0.000000
-0.000022 -0.000141 -0.000004 0.000000
-0.000028 -0.000117 -0.000014 0.000000
-0.000032 -0.000130 0.000032 0.000000
-0.000030 -0.000137 0.000044 0.000000
-0.000031 -0.000126 0.000029 0.000000
-0.000030 -0.000118 0.000020 0.000000
-0.000043 -0.000145 0.000094 0.000000
-0.000222 -0.000228 -0.000154 0.000000
-0.000020 -0.000150 0.000061 0.000000
-0.000028 -0.000137 0.000046 0.000000
-0.000010 -0.000138 0.000046 0.000000
-0.000026 -0.000129 0.000027 0.000000
-0.000026 -0.000126 0.000029 0.000000
-0.000017 -0.000142 0.000009 0.000000
-0.000023 -0.000136 0.000015 0.000000
0.000195 -0.000897 0.000432 0.000000
-0.000040 -0.000105 0.000046 0.000000
-0.000152 -0.000649 -0.000030 0.000000
-0.000032 -0.000120 0.000035 0.000000
0.000193 -0.001005 -0.000004 0.000000
-0.000029 -0.000127 -0.000012 0.000000
0.000097 -0.000724 0.000363 0.000000
-0.000022 -0.000115 0.000013 0.000000
-0.000041 -0.000089 0.000065 0.000000
-0.000025 -0.000124 0.000011 0.000000
-0.000035 -0.000128 0.000033 0.000000
-0.000088 -0.000436 -0.000388 0.000000
-0.000142 -0.000471 -0.000189 0.000000
-0.000012 -0.000134 -0.000005 0.000000
-0.000021 -0.000182 -0.000065 0.000000
-0.000036 -0.000637 -0.000343 0.000000
-0.000028 -0.000107 -0.000041 0.000000
-0.000197 -0.000404 -0.000080 0.000000
-0.000140 -0.000569 -0.000222 0.000000
-0.000037 -0.000145 0.000066 0.000000
-0.000164 -0.000560 0.000072 0.000000
-0.000102 -0.000418 0.000433 0.000000
-0.000022 -0.000155 0.000028 0.000000
-0.000054 -0.000778 0.000252 0.000000
-0.000027 -0.000126 -0.000006 0.000000
0.000105 -0.000887 0.000257 0.000000
0.000001 -0.000876 0.000305 0.000000
-0.000022 -0.000155 0.000003 0.000000
0.000227 -0.001083 0.000529 0.000000
-0.000167 -0.000634 0.000120 0.000000
-0.000009 -0.000662 0.000397 0.000000
-0.000123 -0.000654 -0.000021 0.000000
0.000051 -0.000552 -0.000397 0.000000
-0.000025 -0.000136 -0.000033 0.000000
-0.000030 -0.000134 0.000031 0.000000
0.000103 -0.001025 0.000119 0.000000
0.000229 -0.001157 0.000000 0.000000
-0.000236 -0.000307 -0.000223 0.000000
-0.000031 -0.000719 -0.000298 0.000000
-0.000162 -0.000718 -0.000064 0.000000
-0.000091 -0.000726 0.000293 0.000000
-0.000025 -0.000771 -0.000100 0.000000
-0.000064 -0.000688 -0.000513 0.000000
-0.000033 -0.000892 0.000522 0.000000
-0.000171 -0.000728 0.000281 0.000000
-0.000181 -0.000630 0.000127 0.000000
-0.000176 -0.000591 0.000263 0.000000
0.000017 -0.000793 0.000394 0.000000
0.000223 -0.001025 0.000451 0.000000
-0.000032 -0.000887 -0.000028 0.000000
0.000000 -0.000951 -0.000042 0.000000
0.000147 -0.000887 -0.000040 0.000000
-0.000030 -0.000134 0.000036 0.000000
-0.000128 -0.000738 0.000127 0.000000
0.000058 -0.001019 0.000236 0.000000
0.000000 -0.001064 0.000139 0.000000
-0.000024 -0.000959 0.000185 0.000000
0.000060 -0.001089 0.000213 0.000000
0.000012 -0.000987 0.000211 0.000000
0.000318 -0.001186 0.000356 0.000000
0.000290 -0.001391 0.000088 0.000000
-0.000153 -0.000706 0.000293 0.000000
-0.000099 -0.000743 0.000251 0.000000
0.000153 -0.001182 0.000088 0.000000
-0.000003 -0.000550 -0.000480 0.000000
0.000013 -0.000838 0.000425 0.000000
-0.000045 -0.000792 0.000321 0.000000
-0.000150 -0.000706 0.000180 0.000000
0.000004 -0.000897 -0.000230 0.000000
-0.000091 -0.000640 0.000293 0.000000
-0.000109 -0.000692 0.000342 0.000000
-0.000006 -0.000139 0.000059 0.000000
-0.000029 -0.000136 0.000041 0.000000
-0.000017 -0.000965 0.000223 0.000000
0.000006 -0.000892 -0.000045 0.000000
0.000012 -0.000986 -0.000050 0.000000
-0.000004 -0.001005 -0.000075 0.000000
-0.000014 -0.000144 0.000031 0.000000
-0.000006 -0.000138 0.000023 0.000000
-0.000026 -0.000139 0.000009 0.000000
-0.000026 -0.000144 0.000016 0.000000
-0.000054 -0.000689 0.000344 0.000000
-0.000048 -0.000719 0.000318 0.000000
-0.000168 -0.000501 0.000137 0.000000
-0.000167 -0.000643 0.000192 0.000000
0.000013 -0.000179 0.000047 0.000000
-0.000022 -0.000154 0.000029 0.000000
-0.000056 -0.000686 0.000010 0.000000
0.000052 -0.000915 0.000189 0.000000
-0.000030 -0.000780 0.000015 0.000000
0.000180 -0.000932 0.000090 0.000000
-0.000051 -0.000755 0.000065 0.000000
0.000205 -0.000984 0.000219 0.000000
0.000115 -0.000976 0.000256 0.000000
-0.000020 -0.000791 0.000372 0.000000
-0.000228 -0.000569 0.000206 0.000000
-0.000173 -0.000575 0.000113 0.000000
-0.000119 -0.000668 0.000029 0.000000
-0.000070 -0.000699 0.000045 0.000000
-0.000209 -0.000576 0.000140 0.000000
-0.000119 -0.000648 0.000045 0.000000
-0.000106 -0.000632 0.000011 0.000000
-0.000054 -0.000691 0.000036 0.000000
-0.000202 -0.000325 -0.000204 0.000000
-0.000289 -0.000534 0.000286 0.000000
-0.000044 -0.000129 0.000045 0.000000
-0.000050 -0.000126 0.000091 0.000000
-0.000036 -0.000131 0.000090 0.000000
-0.000047 -0.000111 0.000090 0.000000
-0.000045 -0.000116 0.000084 0.000000
-0.000036 -0.000125 0.000069 0.000000
-0.000033 -0.000126 0.000100 0.000000
-0.000035 -0.000127 0.000076 0.000000
-0.000041 -0.000126 0.000080 0.000000
0.000132 -0.001138 0.000555 0.000000
-0.000046 -0.000119 0.000073 0.000000
-0.000234 -0.000594 0.000025 0.000000
-0.000043 -0.000114 0.000064 0.000000
-0.000059 -0.000115 0.000073 0.000000
-0.000167 -0.000764 0.000456 0.000000
-0.000167 -0.000434 0.000583 0.000000
-0.000087 -0.000470 -0.000312 0.000000
-0.000246 -0.000472 0.000179 0.000000
-0.000045 -0.000155 0.000098 0.000000
-0.000031 -0.000143 0.000033 0.000000
0.000166 -0.001091 0.000713 0.000000
-0.000013 -0.001072 0.000823 0.000000
-0.000268 -0.000547 0.000303 0.000000
-0.000169 -0.000683 0.000610 0.000000
-0.000043 -0.000877 0.000733 0.000000
-0.000036 -0.000143 0.000066 0.000000
0.000172 -0.001257 0.000972 0.000000
-0.000214 -0.000785 0.000806 0.000000
-0.000255 -0.000624 0.000451 0.000000
-0.000264 -0.000586 0.000530 0.000000
-0.000185 -0.000686 0.000301 0.000000
-0.000108 -0.000713 0.000053 0.000000
0.000050 -0.000991 0.000320 0.000000
0.000096 -0.000890 0.000181 0.000000
-0.000231 -0.000735 0.000350 0.000000
-0.000191 -0.000681 0.000150 0.000000
-0.000052 -0.000795 0.000018 0.000000
-0.000117 -0.000686 0.000058 0.000000
-0.000065 -0.000728 0.000026 0.000000
-0.000133 -0.000690 0.000128 0.000000
0.000021 -0.000850 0.000068 0.000000
0.000000 -0.000839 0.000152 0.000000
-0.000017 -0.000767 0.000083 0.000000
0.000068 -0.000915 0.000067 0.000000
0.000100 -0.000938 0.000065 0.000000
0.000094 -0.000882 0.000057 0.000000
0.000124 -0.000978 0.000173 0.000000
0.000052 -0.000869 0.000034 0.000000
0.000113 -0.000921 0.000349 0.000000
0.000122 -0.000942 0.000181 0.000000
0.000070 -0.000908 0.000349 0.000000
0.000070 -0.000907 0.000346 0.000000
0.000067 -0.000907 0.000080 0.000000
0.000017 -0.000862 0.000035 0.000000
0.000115 -0.000935 0.000233 0.000000
-0.000000 -0.000908 0.000282 0.000000
0.000024 -0.000903 0.000060 0.000000
0.000058 -0.000915 0.000127 0.000000
0.000051 -0.000934 0.000200 0.000000
0.000058 -0.000950 0.000130 0.000000
0.000293 -0.001452 0.000441 0.000000
0.000051 -0.001058 0.000054 0.000000
0.000024 -0.000894 0.000077 0.000000
0.000000 -0.000874 0.000525 0.000000
0.000000 -0.000839 0.000309 0.000000
-0.000118 -0.000730 0.000065 0.000000
-0.000009 -0.000842 0.000067 0.000000
-0.000068 -0.000762 0.000084 0.000000
-0.000036 -0.000984 0.000476 0.000000
0.000132 -0.001209 0.000571 0.000000
-0.000027 -0.000661 0.000757 0.000000
0.000097 -0.001088 0.000359 0.000000
0.000087 -0.001049 0.000751 0.000000
0.000007 -0.001033 0.000396 0.000000
0.000138 -0.001128 0.000718 0.000000
0.000170 -0.001153 0.000773 0.000000
0.000000 -0.001074 0.000465 0.000000
0.000138 -0.001108 0.000472 0.000000
-0.000147 -0.000903 0.000920 0.000000
-0.000090 -0.000827 0.000275 0.000000
0.000000 -0.000865 0.000770 0.000000
-0.000093 -0.000708 0.000472 0.000000
0.000000 -0.000883 0.000309 0.000000
-0.000214 -0.000866 0.000636 0.000000
-0.000184 -0.000876 0.000392 0.000000
-0.000000 -0.000914 0.000163 0.000000
-0.000069 -0.000930 0.000192 0.000000
0.000000 -0.000964 0.000230 0.000000
0.000000 -0.001142 0.000603 0.000000
0.000115 -0.001148 0.000637 0.000000
0.000000 -0.001043 0.000989 0.000000
0.000000 -0.001231 0.000757 0.000000
0.000116 -0.001189 0.000617 0.000000
0.000000 -0.000867 0.000522 0.000000
0.000294 -0.001152 0.000478 0.000000
-0.000102 -0.001019 0.000803 0.000000
-0.000186 -0.000859 0.000464 0.000000
-0.000136 -0.000839 0.000242 0.000000
0.000000 -0.001125 0.000650 0.000000
-0.000068 -0.000851 0.000095 0.000000
-0.000000 -0.000916 0.000095 0.000000
0.000000 -0.000915 0.000220 0.000000
0.000000 -0.000867 0.000076 0.000000
-0.000009 -0.000878 0.000048 0.000000
-0.000000 -0.000893 0.000066 0.000000
-0.000101 -0.000876 0.000184 0.000000
0.000000 -0.000967 -0.000021 0.000000
-0.000025 -0.000998 0.000197 0.000000
0.000092 -0.001000 0.000496 0.000000
0.000003 -0.001026 0.000170 0.000000
-0.000028 -0.001017 0.000022 0.000000
0.000000 -0.000867 0.000253 0.000000
0.000101 -0.001156 0.000094 0.000000
0.000000 -0.000997 -0.000038 0.000000
-0.000188 -0.000646 0.000117 0.000000
-0.000016 -0.000934 0.000021 0.000000
-0.000000 -0.001103 0.000077 0.000000
0.000055 -0.000941 0.000277 0.000000
0.000056 -0.000912 0.000256 0.000000
-0.000173 -0.000662 0.000249 0.000000
-0.000186 -0.000813 -0.000043 0.000000
0.000013 -0.001048 0.000215 0.000000
0.000000 -0.001083 0.000103 0.000000
-0.000038 -0.001074 0.000100 0.000000
0.000029 -0.001119 -0.000102 0.000000
0.000106 -0.001044 -0.000083 0.000000
0.000000 -0.001084 0.000135 0.000000
0.000055 -0.001093 0.000124 0.000000
0.000004 -0.001073 0.000156 0.000000
0.000032 -0.001130 0.000035 0.000000
0.000000 -0.001169 0.000135 0.000000
0.000197 -0.001104 0.000363 0.000000
0.000000 -0.001050 0.000359 0.000000
-0.000098 -0.000735 0.000302 0.000000
0.000093 -0.001081 0.000353 0.000000
-0.000111 -0.000784 0.000016 0.000000
0.000174 -0.001142 0.000117 0.000000
-0.000063 -0.000784 0.000006 0.000000
0.000326 -0.001540 0.000181 0.000000
-0.000011 -0.000208 -0.000074 0.000000
-0.000877 -0.000581 -0.001779 0.000000
-0.000017 -0.000517 -0.000695 0.000000
-0.000214 -0.000646 0.000282 0.000000
-0.000025 -0.000889 0.000378 0.000000
0.000000 -0.000956 0.000389 0.000000
0.000497 -0.000614 -0.001787 0.000000
-0.000320 -0.000066 -0.000577 0.000000
0.000037 -0.000888 0.000466 0.000000
0.000000 -0.001097 -0.000007 0.000000
-0.000132 -0.000705 0.000088 0.000000
-0.000182 -0.000703 0.000114 0.000000
-0.000006 -0.000899 -0.000072 0.000000
-0.000033 -0.000903 0.000032 0.000000
0.000000 -0.000859 0.000358 0.000000
0.000000 -0.000953 0.000474 0.000000
0.000000 -0.000879 0.000024 0.000000
0.000000 -0.000843 0.000180 0.000000
0.000029 -0.001038 -0.000143 0.000000
0.000000 -0.001142 0.000351 0.000000
0.000297 -0.001117 0.000117 0.000000
0.000000 -0.000969 0.000423 0.000000
0.000033 -0.000962 0.000392 0.000000
-0.000283 -0.000494 0.000941 0.000000
-0.000012 -0.000373 -0.000108 0.000000
