# vtk DataFile Version 3.0
Bimslope
ASCII
DATASET UNSTRUCTURED_GRID

POINTS  11732   float
0.000000 0.000000 0.000000 
60.000000 0.000000 0.000000 
60.000000 5.000000 0.000000 
40.000000 5.000000 0.000000 
20.000000 15.000000 0.000000 
0.000000 15.000000 0.000000 
9.153076 7.776821 0.000000 
8.884015 6.486847 0.000000 
9.171299 4.912369 0.000000 
7.438501 4.193805 0.000000 
5.560970 4.616748 0.000000 
4.633219 5.845511 0.000000 
3.426870 7.159787 0.000000 
4.423609 8.515601 0.000000 
6.258016 8.576586 0.000000 
7.639682 8.346188 0.000000 
24.281373 8.907180 0.000000 
24.603363 7.377617 0.000000 
23.916197 5.921989 0.000000 
21.952113 5.867431 0.000000 
20.680688 6.856035 0.000000 
19.545536 8.177940 0.000000 
20.663601 9.490464 0.000000 
22.506283 9.369639 0.000000 
31.700388 0.761545 0.000000 
30.728532 1.987549 0.000000 
29.528419 2.971129 0.000000 
30.798053 4.473895 0.000000 
31.685026 5.693558 0.000000 
33.254734 6.570728 0.000000 
34.071587 5.313588 0.000000 
34.504478 4.275387 0.000000 
34.956211 2.705292 0.000000 
33.396089 1.612998 0.000000 
16.968791 2.410905 0.000000 
15.541916 2.683109 0.000000 
13.971221 2.907866 0.000000 
14.308892 4.957667 0.000000 
13.932564 6.546300 0.000000 
14.874882 8.021664 0.000000 
16.306268 9.118269 0.000000 
17.549581 8.014735 0.000000 
18.912364 7.240554 0.000000 
18.366154 5.354936 0.000000 
17.914765 3.901859 0.000000 
16.087028 12.104920 0.000000 
15.944381 11.141694 0.000000 
15.727724 10.164452 0.000000 
14.569294 9.719064 0.000000 
13.324756 10.130579 0.000000 
12.610241 10.960039 0.000000 
12.253376 11.922221 0.000000 
12.554706 13.032185 0.000000 
13.991565 12.941481 0.000000 
15.183321 12.881375 0.000000 
4.376175 3.878457 0.000000 
3.281592 3.085406 0.000000 
2.045508 2.898063 0.000000 
0.714361 3.677007 0.000000 
0.357780 5.249167 0.000000 
0.553603 6.723238 0.000000 
1.780283 7.194453 0.000000 
3.199428 6.958186 0.000000 
3.990770 5.495420 0.000000 
26.385982 4.318847 0.000000 
25.484150 4.756044 0.000000 
24.771530 5.670450 0.000000 
25.713911 6.739977 0.000000 
26.330729 7.894822 0.000000 
27.666388 8.299115 0.000000 
28.990353 8.249076 0.000000 
29.730124 7.376182 0.000000 
29.371457 6.226038 0.000000 
29.369617 5.225417 0.000000 
28.315975 4.677700 0.000000 
27.366160 4.150628 0.000000 
20.286641 2.040965 0.000000 
19.593806 0.717833 0.000000 
18.366319 1.475120 0.000000 
17.417828 2.723985 0.000000 
18.206906 3.965005 0.000000 
19.003141 4.638637 0.000000 
20.163404 4.576169 0.000000 
20.523031 3.191781 0.000000 
7.409253 8.839205 0.000000 
6.545026 9.421535 0.000000 
6.608581 10.435012 0.000000 
7.046041 11.329950 0.000000 
7.976386 12.355122 0.000000 
9.128998 11.986382 0.000000 
9.901980 11.204035 0.000000 
9.249623 10.102739 0.000000 
8.775155 8.768502 0.000000 
23.272634 0.753330 0.000000 
22.448313 1.146240 0.000000 
21.164607 1.221964 0.000000 
21.484902 2.652533 0.000000 
22.065685 3.634310 0.000000 
22.822309 4.226432 0.000000 
23.640303 4.395917 0.000000 
24.351892 4.073531 0.000000 
25.402088 3.564312 0.000000 
24.797154 2.295500 0.000000 
24.351841 1.099128 0.000000 
13.457576 4.418690 0.000000 
13.210555 3.609764 0.000000 
12.354864 3.559477 0.000000 
11.399110 3.277574 0.000000 
10.939586 4.366378 0.000000 
10.367950 5.178375 0.000000 
10.487836 6.087918 0.000000 
11.151756 6.606885 0.000000 
12.046622 6.602135 0.000000 
12.791062 5.985168 0.000000 
13.506143 5.301716 0.000000 
55.890900 2.919179 0.000000 
55.387036 1.741672 0.000000 
54.267061 1.091404 0.000000 
52.830093 1.671154 0.000000 
51.953402 2.883639 0.000000 
52.032598 4.103365 0.000000 
52.813514 4.801884 0.000000 
53.934703 4.789991 0.000000 
55.211570 4.270117 0.000000 
39.532161 1.775564 0.000000 
38.649945 0.595611 0.000000 
37.162889 0.700910 0.000000 
35.603773 1.853464 0.000000 
35.216264 4.135376 0.000000 
36.732006 5.186986 0.000000 
38.501992 5.374544 0.000000 
39.757579 3.588619 0.000000 
2.546397 11.576274 0.000000 
2.591135 12.482841 0.000000 
2.841418 13.248051 0.000000 
3.556814 13.782465 0.000000 
4.488470 13.782655 0.000000 
5.282957 13.605707 0.000000 
5.973247 13.196599 0.000000 
6.162214 12.514942 0.000000 
6.213942 11.726980 0.000000 
5.303935 11.406877 0.000000 
4.510982 11.278248 0.000000 
3.518150 11.113412 0.000000 
19.985825 11.685714 0.000000 
21.281905 10.881677 0.000000 
20.339290 9.953248 0.000000 
19.162610 9.715371 0.000000 
18.154816 9.458777 0.000000 
17.341169 10.017962 0.000000 
16.084249 10.539883 0.000000 
16.268876 11.625237 0.000000 
16.889708 12.618758 0.000000 
18.246176 12.864305 0.000000 
19.388544 12.413410 0.000000 
42.961048 2.424369 0.000000 
42.702855 1.252653 0.000000 
41.504363 0.593551 0.000000 
40.525426 1.967101 0.000000 
39.946944 3.096138 0.000000 
40.506915 3.986221 0.000000 
41.495830 4.810758 0.000000 
42.737575 3.744173 0.000000 
49.915782 2.940780 0.000000 
49.346897 3.251482 0.000000 
49.182505 3.933637 0.000000 
49.726551 4.698267 0.000000 
50.670911 4.769124 0.000000 
51.034301 4.182939 0.000000 
51.365811 3.558051 0.000000 
50.626769 3.067454 0.000000 
45.025326 2.216307 0.000000 
44.236597 1.979867 0.000000 
43.912847 2.718209 0.000000 
44.308756 3.517283 0.000000 
44.971297 3.888190 0.000000 
45.694947 3.928656 0.000000 
45.900854 3.233502 0.000000 
45.592173 2.556855 0.000000 
55.915662 0.610109 0.000000 
55.589020 1.195813 0.000000 
55.759148 1.833485 0.000000 
56.397217 2.172141 0.000000 
56.959553 2.671537 0.000000 
57.537719 2.264548 0.000000 
58.156995 2.049014 0.000000 
58.205774 1.477832 0.000000 
57.819511 1.016331 0.000000 
57.365329 0.611646 0.000000 
56.761424 0.745822 0.000000 
8.771482 1.234844 0.000000 
8.190186 1.219781 0.000000 
7.734234 1.447755 0.000000 
7.538911 2.054515 0.000000 
7.833982 2.610411 0.000000 
8.336845 3.132798 0.000000 
8.848254 2.640568 0.000000 
8.994870 1.942895 0.000000 
12.338539 1.376687 0.000000 
12.256528 0.958882 0.000000 
12.034493 0.460711 0.000000 
11.432544 0.842152 0.000000 
10.795957 0.814473 0.000000 
10.354650 1.356529 0.000000 
10.571503 1.881858 0.000000 
10.942401 2.136805 0.000000 
11.353798 2.205332 0.000000 
11.834588 2.205078 0.000000 
12.129708 1.789701 0.000000 
3.301128 9.141880 0.000000 
3.582705 8.262759 0.000000 
2.923055 7.610779 0.000000 
1.916246 7.727217 0.000000 
0.839283 7.873070 0.000000 
0.368061 8.774977 0.000000 
0.721753 9.591104 0.000000 
1.683462 9.684829 0.000000 
2.638979 9.877513 0.000000 
25.548758 0.413892 0.000000 
25.112973 1.030692 0.000000 
25.299202 1.765997 0.000000 
25.972686 2.268508 0.000000 
26.801496 2.402568 0.000000 
27.687539 2.381079 0.000000 
27.864504 1.674463 0.000000 
28.134829 1.114488 0.000000 
27.646759 0.620112 0.000000 
27.030627 0.376941 0.000000 
26.332559 0.221443 0.000000 
10.341720 7.891226 0.000000 
9.949374 8.223279 0.000000 
9.696833 8.582650 0.000000 
9.512398 9.097063 0.000000 
9.946938 9.563229 0.000000 
10.338084 10.249846 0.000000 
11.039257 10.327096 0.000000 
11.260609 9.671690 0.000000 
11.727572 9.259855 0.000000 
11.181218 8.680246 0.000000 
10.846189 8.255787 0.000000 
7.210618 2.678574 0.000000 
7.122500 2.123486 0.000000 
6.670967 1.846423 0.000000 
6.116573 1.807914 0.000000 
5.322950 1.946476 0.000000 
5.130597 2.639579 0.000000 
5.480144 3.136341 0.000000 
6.007854 3.594450 0.000000 
6.764155 3.213638 0.000000 
11.892205 12.752032 0.000000 
11.427442 12.381081 0.000000 
11.055877 12.025029 0.000000 
10.439583 12.161314 0.000000 
9.765163 12.530673 0.000000 
9.592550 13.251277 0.000000 
9.816742 13.852636 0.000000 
10.399571 14.116977 0.000000 
11.112974 13.980684 0.000000 
11.590397 13.400494 0.000000 
31.319353 8.373436 0.000000 
31.279814 8.023088 0.000000 
31.294512 7.558967 0.000000 
30.773840 7.480690 0.000000 
30.258661 7.420609 0.000000 
30.021011 7.876333 0.000000 
29.539720 8.105334 0.000000 
29.767532 8.463135 0.000000 
29.836127 8.827408 0.000000 
30.168563 9.181120 0.000000 
30.683129 8.879348 0.000000 
30.986316 8.629383 0.000000 
11.490348 7.079634 0.000000 
11.230583 7.497025 0.000000 
10.988928 7.811484 0.000000 
11.163112 8.259055 0.000000 
11.486079 8.654077 0.000000 
12.021924 8.963866 0.000000 
12.377942 8.608065 0.000000 
12.470689 8.178513 0.000000 
12.497649 7.669985 0.000000 
12.105969 7.117799 0.000000 
1.878527 10.847461 0.000000 
1.318573 10.292174 0.000000 
0.873160 10.919586 0.000000 
0.872470 11.594261 0.000000 
0.976414 12.402605 0.000000 
1.638964 12.425132 0.000000 
2.190697 12.139541 0.000000 
2.301548 11.379600 0.000000 
27.547117 8.498864 0.000000 
27.092559 8.354702 0.000000 
26.560842 8.275747 0.000000 
26.478091 8.972414 0.000000 
26.231760 9.473224 0.000000 
26.393895 10.082121 0.000000 
26.892184 10.292870 0.000000 
27.393309 10.122539 0.000000 
27.716004 9.630818 0.000000 
27.797015 9.018415 0.000000 
50.944838 1.076709 0.000000 
50.534830 0.575407 0.000000 
49.914471 0.582165 0.000000 
49.341602 0.717797 0.000000 
48.897374 1.219318 0.000000 
48.911165 1.797171 0.000000 
49.152153 2.204312 0.000000 
49.554234 2.592476 0.000000 
50.199408 2.360750 0.000000 
50.643263 1.794059 0.000000 
24.599378 10.091983 0.000000 
23.980471 9.803062 0.000000 
23.384431 10.135418 0.000000 
22.791689 10.480316 0.000000 
22.752647 11.269820 0.000000 
22.757771 12.031793 0.000000 
23.346569 12.235167 0.000000 
23.841439 12.504439 0.000000 
24.204198 11.931955 0.000000 
24.853878 11.635248 0.000000 
24.905166 10.814190 0.000000 
47.455901 0.313185 0.000000 
46.892600 0.510617 0.000000 
46.251758 0.365417 0.000000 
46.098305 1.107467 0.000000 
45.998731 1.794384 0.000000 
46.456340 2.234194 0.000000 
46.850245 2.715470 0.000000 
47.319394 2.406236 0.000000 
47.757939 2.160959 0.000000 
47.786156 1.554881 0.000000 
47.808415 0.914473 0.000000 
3.711618 0.849049 0.000000 
3.185207 0.597240 0.000000 
2.685942 0.672883 0.000000 
2.271012 0.970961 0.000000 
1.968079 1.450347 0.000000 
1.892110 2.080734 0.000000 
2.290005 2.454178 0.000000 
2.831524 2.552630 0.000000 
3.428889 2.249828 0.000000 
3.416528 1.542326 0.000000 
22.176487 13.038788 0.000000 
22.309193 12.172276 0.000000 
21.916915 11.295785 0.000000 
20.742429 11.471053 0.000000 
19.978557 12.032217 0.000000 
19.854814 12.786669 0.000000 
20.051496 13.745702 0.000000 
21.236173 13.443466 0.000000 
14.012212 8.051544 0.000000 
13.646558 7.829394 0.000000 
13.277604 8.072127 0.000000 
12.819532 8.203563 0.000000 
12.659107 8.766780 0.000000 
12.929857 9.199301 0.000000 
13.201214 9.479799 0.000000 
13.566177 9.656836 0.000000 
14.059439 9.589817 0.000000 
14.076927 8.951291 0.000000 
14.281410 8.455124 0.000000 
59.197042 3.792571 0.000000 
59.245165 3.144957 0.000000 
58.688678 2.801850 0.000000 
57.953508 2.882494 0.000000 
57.421503 3.400309 0.000000 
57.136831 4.049618 0.000000 
57.726819 4.321616 0.000000 
58.196919 4.421662 0.000000 
58.685216 4.204972 0.000000 
34.804051 4.881116 0.000000 
34.676122 5.565139 0.000000 
34.650462 6.164591 0.000000 
35.336262 6.479737 0.000000 
36.152846 6.565069 0.000000 
36.386388 5.948887 0.000000 
36.439134 5.291684 0.000000 
35.653214 5.067163 0.000000 
4.290930 9.428731 0.000000 
4.254681 9.911878 0.000000 
3.987051 10.256884 0.000000 
4.202477 10.706386 0.000000 
4.630405 11.064695 0.000000 
5.173609 11.109796 0.000000 
5.536356 10.871225 0.000000 
5.916433 10.665749 0.000000 
5.687306 10.245329 0.000000 
5.655005 9.875170 0.000000 
5.261609 9.673336 0.000000 
4.844322 9.479008 0.000000 
8.232802 13.982496 0.000000 
8.445229 13.491574 0.000000 
8.357178 12.913443 0.000000 
7.657521 12.753740 0.000000 
6.782069 12.523665 0.000000 
6.275596 13.155292 0.000000 
6.505952 13.799080 0.000000 
7.026529 14.168539 0.000000 
7.672637 14.251333 0.000000 
16.948983 1.468099 0.000000 
17.123196 0.999040 0.000000 
16.845353 0.599401 0.000000 
16.395096 0.338234 0.000000 
15.795771 0.372058 0.000000 
15.256320 0.711849 0.000000 
15.110039 1.333289 0.000000 
15.792987 1.634725 0.000000 
16.423444 1.782826 0.000000 
30.324454 4.695808 0.000000 
29.726441 4.655231 0.000000 
29.847071 5.295974 0.000000 
29.893344 5.725324 0.000000 
30.109300 6.322256 0.000000 
30.641002 6.145942 0.000000 
31.220745 6.287094 0.000000 
31.156707 5.705207 0.000000 
31.116990 5.270838 0.000000 
30.803193 4.861909 0.000000 
14.458920 1.677734 0.000000 
14.258054 1.357730 0.000000 
13.978616 0.838602 0.000000 
13.395700 1.120197 0.000000 
12.820781 1.502666 0.000000 
12.900427 2.133651 0.000000 
12.837652 2.724046 0.000000 
13.216936 3.136634 0.000000 
13.806993 2.745843 0.000000 
14.308318 2.631811 0.000000 
14.664357 2.138690 0.000000 
10.505156 3.679705 0.000000 
10.039464 3.343627 0.000000 
9.599771 3.672903 0.000000 
9.562045 4.277686 0.000000 
9.965750 4.569646 0.000000 
10.601210 4.491354 0.000000 
32.722639 6.598204 0.000000 
32.197840 6.344659 0.000000 
31.692891 6.661715 0.000000 
31.792604 7.388837 0.000000 
32.289618 7.497766 0.000000 
32.769441 7.315413 0.000000 
35.190321 1.313169 0.000000 
34.558644 1.004906 0.000000 
34.421854 1.697617 0.000000 
34.807173 2.192584 0.000000 
35.317160 2.285427 0.000000 
35.448609 1.790646 0.000000 
1.950560 1.020421 0.000000 
1.845429 0.223662 0.000000 
1.010651 0.201972 0.000000 
0.713355 0.984357 0.000000 
0.707660 1.707119 0.000000 
1.476500 1.755190 0.000000 
48.178314 2.505965 0.000000 
47.647444 2.483873 0.000000 
47.440197 2.985524 0.000000 
47.823009 3.490368 0.000000 
48.320595 3.469337 0.000000 
48.621507 3.016072 0.000000 
17.726222 14.418467 0.000000 
17.465574 13.843537 0.000000 
16.939903 13.602744 0.000000 
16.420647 14.115603 0.000000 
16.462148 14.719565 0.000000 
17.045727 14.742493 0.000000 
47.728648 4.796163 0.000000 
47.919188 4.186587 0.000000 
47.667060 3.539259 0.000000 
46.787330 3.722070 0.000000 
46.232080 4.346460 0.000000 
46.922011 4.808950 0.000000 
19.323567 5.772065 0.000000 
18.811634 6.058380 0.000000 
19.108390 6.562920 0.000000 
19.682080 6.743231 0.000000 
20.104002 6.418136 0.000000 
19.885975 5.941583 0.000000 
5.762798 1.469652 0.000000 
5.853315 0.875092 0.000000 
5.461677 0.527243 0.000000 
4.732197 0.525764 0.000000 
4.433275 1.169092 0.000000 
4.977389 1.608846 0.000000 
43.881720 0.204376 0.000000 
43.268236 0.430510 0.000000 
43.462991 1.067539 0.000000 
44.120085 1.303949 0.000000 
44.774752 1.088259 0.000000 
44.546761 0.426694 0.000000 
12.971929 13.751114 0.000000 
12.418966 13.681240 0.000000 
12.311000 14.206825 0.000000 
12.519185 14.768862 0.000000 
12.998231 14.676493 0.000000 
13.389967 14.312940 0.000000 
14.630922 13.362696 0.000000 
14.153901 13.185329 0.000000 
13.822698 13.540120 0.000000 
13.913889 14.091742 0.000000 
14.355803 14.371686 0.000000 
14.716202 13.978987 0.000000 
29.548158 1.288948 0.000000 
29.228067 0.634342 0.000000 
28.492043 0.882103 0.000000 
28.168924 1.819982 0.000000 
28.817802 2.191557 0.000000 
29.377712 1.959463 0.000000 
21.373052 3.890350 0.000000 
20.768913 4.370763 0.000000 
20.921847 5.041607 0.000000 
21.618453 5.552121 0.000000 
22.232654 5.130049 0.000000 
22.234929 4.379318 0.000000 
59.066577 1.317261 0.000000 
59.378328 0.899126 0.000000 
59.056234 0.391038 0.000000 
58.457964 0.707333 0.000000 
58.161358 1.094503 0.000000 
58.554134 1.389490 0.000000 
40.818804 0.867769 0.000000 
40.552022 0.279064 0.000000 
39.945190 0.501661 0.000000 
39.679824 1.132550 0.000000 
39.999785 1.597270 0.000000 
40.590029 1.555917 0.000000 
29.207126 9.608234 0.000000 
29.334940 8.993991 0.000000 
28.692987 8.854093 0.000000 
28.181399 9.365372 0.000000 
28.256774 9.926671 0.000000 
28.803629 10.107565 0.000000 
12.413904 10.741304 0.000000 
12.776484 10.191680 0.000000 
12.276983 9.798398 0.000000 
11.700707 9.894739 0.000000 
11.496228 10.287837 0.000000 
11.759742 10.641724 0.000000 
52.410083 1.391401 0.000000 
52.611074 0.886548 0.000000 
52.285866 0.395240 0.000000 
51.620860 0.638133 0.000000 
51.208608 1.146930 0.000000 
51.713527 1.606044 0.000000 
28.012289 2.556127 0.000000 
27.609051 3.238884 0.000000 
27.991740 3.936064 0.000000 
28.856902 3.757770 0.000000 
29.423803 3.261526 0.000000 
29.025024 2.541308 0.000000 
20.660414 5.086900 0.000000 
20.374063 4.757700 0.000000 
19.879934 4.809567 0.000000 
19.663764 5.482973 0.000000 
20.103560 5.831095 0.000000 
20.677710 5.759039 0.000000 
10.027339 6.383117 0.000000 
9.586991 6.810252 0.000000 
9.858811 7.307965 0.000000 
10.480515 7.638643 0.000000 
11.105093 7.244721 0.000000 
10.623255 6.706153 0.000000 
16.409347 13.709718 0.000000 
16.598941 13.188472 0.000000 
16.313256 12.706379 0.000000 
15.629037 12.833388 0.000000 
15.481391 13.303275 0.000000 
15.662783 13.835203 0.000000 
0.784817 12.472648 0.000000 
0.331505 13.002125 0.000000 
0.490525 13.591552 0.000000 
1.158972 13.824287 0.000000 
1.942387 13.599434 0.000000 
1.616603 12.836629 0.000000 
19.368392 8.208138 0.000000 
18.722395 7.986131 0.000000 
18.504089 8.609247 0.000000 
18.614622 9.316845 0.000000 
19.241792 9.415326 0.000000 
19.778290 8.970900 0.000000 
18.496623 0.562160 0.000000 
18.155609 0.173256 0.000000 
17.660808 0.332376 0.000000 
17.549594 0.920359 0.000000 
17.842048 1.335431 0.000000 
18.297417 1.116189 0.000000 
58.181384 1.763423 0.000000 
58.012642 1.247081 0.000000 
57.592420 0.813988 0.000000 
57.063376 0.678734 0.000000 
8.480834 1.227313 0.000000 
7.962210 1.333768 0.000000 
7.636573 1.751135 0.000000 
7.686447 2.332463 0.000000 
12.297534 1.167784 0.000000 
12.234124 1.583194 0.000000 
12.145511 0.709796 0.000000 
11.114251 0.828312 0.000000 
10.463077 1.619193 0.000000 
10.756952 2.009331 0.000000 
11.148100 2.171068 0.000000 
11.594193 2.205205 0.000000 
11.982148 1.997390 0.000000 
27.999666 1.394476 0.000000 
10.145547 8.057253 0.000000 
10.593954 8.073507 0.000000 
9.823104 8.402965 0.000000 
9.604616 8.839857 0.000000 
9.729668 9.330146 0.000000 
11.494091 9.465772 0.000000 
11.013703 8.468017 0.000000 
7.166559 2.401030 0.000000 
6.896733 1.984955 0.000000 
6.393770 1.827168 0.000000 
5.305370 2.887960 0.000000 
11.659823 12.566557 0.000000 
11.241660 12.203055 0.000000 
10.747730 12.093172 0.000000 
9.704646 13.551957 0.000000 
10.108156 13.984807 0.000000 
31.299584 8.198262 0.000000 
31.152835 8.501409 0.000000 
31.287163 7.791027 0.000000 
31.034176 7.519828 0.000000 
30.516251 7.450649 0.000000 
30.139836 7.648471 0.000000 
29.780366 7.990833 0.000000 
29.653626 8.284235 0.000000 
29.801830 8.645272 0.000000 
30.002345 9.004264 0.000000 
30.425846 9.030234 0.000000 
30.834723 8.754365 0.000000 
11.360465 7.288329 0.000000 
11.798158 7.098716 0.000000 
11.109755 7.654254 0.000000 
11.076020 8.035269 0.000000 
11.324595 8.456566 0.000000 
11.754002 8.808971 0.000000 
12.199933 8.785965 0.000000 
12.424316 8.393289 0.000000 
12.484169 7.924249 0.000000 
1.914830 12.282336 0.000000 
27.319838 8.426783 0.000000 
27.670621 8.755636 0.000000 
26.829822 8.315688 0.000000 
26.354925 9.222819 0.000000 
26.312827 9.777672 0.000000 
26.643039 10.187495 0.000000 
27.142747 10.207705 0.000000 
27.554657 9.876679 0.000000 
27.756510 9.324617 0.000000 
50.224651 0.578786 0.000000 
49.628037 0.649981 0.000000 
48.904269 1.508245 0.000000 
49.031659 2.000741 0.000000 
49.353194 2.398394 0.000000 
23.052170 12.133480 0.000000 
23.594004 12.369803 0.000000 
47.174251 0.411901 0.000000 
46.227535 2.014289 0.000000 
46.653292 2.474832 0.000000 
47.084819 2.560853 0.000000 
47.538667 2.283598 0.000000 
47.772048 1.857920 0.000000 
47.797286 1.234677 0.000000 
3.448412 0.723144 0.000000 
2.935574 0.635061 0.000000 
2.478477 0.821922 0.000000 
2.119545 1.210654 0.000000 
1.930094 1.765540 0.000000 
2.091057 2.267456 0.000000 
2.560764 2.503404 0.000000 
13.829385 7.940469 0.000000 
14.146811 8.253334 0.000000 
13.462081 7.950760 0.000000 
13.048568 8.137845 0.000000 
12.739320 8.485171 0.000000 
12.794482 8.983040 0.000000 
13.065535 9.339550 0.000000 
13.383695 9.568318 0.000000 
13.812808 9.623327 0.000000 
14.068183 9.270554 0.000000 
14.179168 8.703207 0.000000 
57.961869 4.371639 0.000000 
58.441068 4.313317 0.000000 
34.663292 5.864865 0.000000 
4.272805 9.670305 0.000000 
4.567626 9.453869 0.000000 
4.120866 10.084381 0.000000 
4.094764 10.481635 0.000000 
4.416441 10.885540 0.000000 
4.902007 11.087245 0.000000 
5.354983 10.990511 0.000000 
5.726395 10.768487 0.000000 
5.801870 10.455539 0.000000 
5.671155 10.060250 0.000000 
5.458307 9.774253 0.000000 
5.052966 9.576172 0.000000 
8.339016 13.737035 0.000000 
7.952720 14.116915 0.000000 
8.401204 13.202509 0.000000 
6.766240 13.983810 0.000000 
17.036090 1.233570 0.000000 
16.686213 1.625462 0.000000 
16.984275 0.799221 0.000000 
16.620225 0.468818 0.000000 
16.095434 0.355146 0.000000 
15.526046 0.541953 0.000000 
15.183180 1.022569 0.000000 
30.025448 4.675519 0.000000 
30.563823 4.778859 0.000000 
29.870207 5.510649 0.000000 
30.001322 6.023790 0.000000 
30.375151 6.234099 0.000000 
30.930874 6.216518 0.000000 
31.188726 5.996151 0.000000 
31.136848 5.488022 0.000000 
30.960092 5.066374 0.000000 
14.358487 1.517732 0.000000 
14.561638 1.908212 0.000000 
14.118335 1.098166 0.000000 
12.860604 1.818159 0.000000 
12.869040 2.428849 0.000000 
13.027294 2.930340 0.000000 
14.057656 2.688827 0.000000 
14.486338 2.385250 0.000000 
10.272310 3.511666 0.000000 
9.819617 3.508265 0.000000 
9.580908 3.975294 0.000000 
9.763898 4.423666 0.000000 
10.283480 4.530500 0.000000 
32.460240 6.471431 0.000000 
31.945366 6.503187 0.000000 
32.041111 7.443302 0.000000 
32.529530 7.406589 0.000000 
35.319465 1.551907 0.000000 
34.614513 1.945100 0.000000 
35.062166 2.239005 0.000000 
35.382884 2.038036 0.000000 
47.912879 2.494919 0.000000 
47.543820 2.734698 0.000000 
47.631603 3.237946 0.000000 
48.071802 3.479853 0.000000 
48.471051 3.242704 0.000000 
17.595898 14.131002 0.000000 
17.202738 13.723141 0.000000 
16.441397 14.417584 0.000000 
16.753938 14.731029 0.000000 
47.823918 4.491375 0.000000 
19.067600 5.915222 0.000000 
19.604771 5.856824 0.000000 
18.960012 6.310650 0.000000 
19.395235 6.653075 0.000000 
19.893041 6.580683 0.000000 
19.994989 6.179859 0.000000 
5.808056 1.172372 0.000000 
5.657496 0.701167 0.000000 
12.695447 13.716177 0.000000 
12.364983 13.944033 0.000000 
12.415093 14.487843 0.000000 
12.758708 14.722677 0.000000 
13.194099 14.494716 0.000000 
14.392411 13.274012 0.000000 
14.673562 13.670841 0.000000 
13.988299 13.362724 0.000000 
13.868294 13.815931 0.000000 
14.134846 14.231714 0.000000 
14.536003 14.175336 0.000000 
29.097757 2.075510 0.000000 
59.222453 1.108193 0.000000 
58.810356 1.353375 0.000000 
59.217281 0.645082 0.000000 
58.309661 0.900918 0.000000 
58.357746 1.241996 0.000000 
39.839805 1.364910 0.000000 
40.294907 1.576594 0.000000 
29.271033 9.301112 0.000000 
29.005377 9.857900 0.000000 
28.219086 9.646022 0.000000 
28.530201 10.017118 0.000000 
12.526733 9.995039 0.000000 
11.988845 9.846569 0.000000 
11.598467 10.091288 0.000000 
11.627985 10.464780 0.000000 
52.510579 1.138974 0.000000 
52.448470 0.640894 0.000000 
20.517238 4.922300 0.000000 
20.126999 4.783633 0.000000 
19.883662 5.657034 0.000000 
20.390635 5.795067 0.000000 
9.807165 6.596684 0.000000 
9.722901 7.059108 0.000000 
16.504144 13.449095 0.000000 
16.456098 12.947426 0.000000 
15.555214 13.068332 0.000000 
15.572087 13.569239 0.000000 
0.411015 13.296838 0.000000 
18.928207 9.366086 0.000000 
18.326116 0.367708 0.000000 
18.397020 0.839175 0.000000 
17.908208 0.252816 0.000000 
17.605201 0.626367 0.000000 
17.695821 1.127895 0.000000 
18.069732 1.225810 0.000000 
0.245902 0.000000 0.000000 
0.000000 14.750000 0.000000 
60.000000 0.250000 0.000000 
59.750000 5.000000 0.000000 
39.776393 5.111803 0.000000 
19.750000 15.000000 0.000000 
9.102030 7.532088 0.000000 
7.873670 8.258157 0.000000 
8.928890 6.240907 0.000000 
8.940368 4.816605 0.000000 
7.194613 4.248745 0.000000 
5.410329 4.816265 0.000000 
4.464166 6.029688 0.000000 
3.574950 7.361213 0.000000 
4.673471 8.523908 0.000000 
6.504611 8.535465 0.000000 
24.332872 8.662542 0.000000 
22.748207 9.306611 0.000000 
24.496638 7.151542 0.000000 
23.666294 5.915047 0.000000 
21.754753 6.020889 0.000000 
20.517817 7.045700 0.000000 
19.707651 8.368251 0.000000 
20.913065 9.474107 0.000000 
31.545088 0.957457 0.000000 
33.172673 1.500815 0.000000 
30.535175 2.146019 0.000000 
29.689761 3.162097 0.000000 
30.945090 4.676083 0.000000 
31.903263 5.815511 0.000000 
33.390947 6.361095 0.000000 
34.167799 5.082843 0.000000 
34.573602 4.035133 0.000000 
34.751416 2.561908 0.000000 
16.723219 2.457752 0.000000 
17.780830 3.690763 0.000000 
15.294437 2.718522 0.000000 
14.011856 3.154541 0.000000 
14.251265 5.200935 0.000000 
14.067133 6.756992 0.000000 
15.073337 8.173703 0.000000 
16.493242 8.952315 0.000000 
17.766954 7.891248 0.000000 
18.842806 7.000425 0.000000 
18.291989 5.116190 0.000000 
16.050404 11.857617 0.000000 
15.372943 12.718453 0.000000 
15.890269 10.897620 0.000000 
15.494376 10.074736 0.000000 
14.331933 9.797549 0.000000 
13.161591 10.319992 0.000000 
12.523305 11.194437 0.000000 
12.318875 12.163488 0.000000 
12.804210 13.016435 0.000000 
14.241248 12.928888 0.000000 
4.173726 3.731778 0.000000 
4.048734 5.252232 0.000000 
3.034415 3.047943 0.000000 
1.829736 3.024326 0.000000 
0.659063 3.920815 0.000000 
0.390702 5.496990 0.000000 
0.786976 6.812886 0.000000 
2.026889 7.153396 0.000000 
3.318384 6.738300 0.000000 
26.161023 4.427905 0.000000 
27.119763 4.192915 0.000000 
25.330475 4.953234 0.000000 
24.936805 5.858024 0.000000 
25.831692 6.960494 0.000000 
26.570007 7.967249 0.000000 
27.916209 8.289673 0.000000 
29.151987 8.058355 0.000000 
29.655697 7.137517 0.000000 
29.370997 5.976039 0.000000 
29.147798 5.110108 0.000000 
28.097377 4.556395 0.000000 
20.170670 1.819491 0.000000 
20.472729 2.946894 0.000000 
19.381040 0.849097 0.000000 
18.215113 1.674211 0.000000 
17.551967 2.934951 0.000000 
18.397765 4.126476 0.000000 
19.252779 4.625196 0.000000 
20.226261 4.334200 0.000000 
7.201927 8.978905 0.000000 
8.525489 8.781425 0.000000 
6.560672 9.671045 0.000000 
6.718370 10.659614 0.000000 
7.214048 11.515081 0.000000 
8.214498 12.278946 0.000000 
9.304707 11.808544 0.000000 
9.774568 10.988940 0.000000 
9.165859 9.867190 0.000000 
23.046959 0.860897 0.000000 
24.113764 1.022844 0.000000 
22.198747 1.160961 0.000000 
21.219228 1.465924 0.000000 
21.612189 2.867703 0.000000 
22.262563 3.788384 0.000000 
23.067110 4.277153 0.000000 
23.868022 4.292749 0.000000 
24.576843 3.964457 0.000000 
25.294498 3.338647 0.000000 
24.709944 2.061204 0.000000 
13.384562 4.179589 0.000000 
13.492414 5.052093 0.000000 
12.960986 3.595098 0.000000 
12.115077 3.488751 0.000000 
11.301902 3.507901 0.000000 
10.796677 4.569377 0.000000 
10.400620 5.426231 0.000000 
10.684802 6.241880 0.000000 
11.401753 6.605558 0.000000 
12.239109 6.442609 0.000000 
12.971791 5.812433 0.000000 
55.792549 2.689338 0.000000 
55.323884 4.046766 0.000000 
55.170835 1.616144 0.000000 
54.035219 1.184941 0.000000 
52.683610 1.873744 0.000000 
51.969600 3.133113 0.000000 
52.218932 4.270038 0.000000 
53.063500 4.799233 0.000000 
54.166247 4.695718 0.000000 
39.382460 1.575341 0.000000 
39.726734 3.340529 0.000000 
38.400570 0.613270 0.000000 
36.961855 0.849521 0.000000 
35.561918 2.099935 0.000000 
35.421669 4.277885 0.000000 
36.980614 5.213330 0.000000 
38.645775 5.170029 0.000000 
2.558719 11.825970 0.000000 
3.292446 11.220918 0.000000 
2.668853 12.720454 0.000000 
3.041705 13.397669 0.000000 
3.806814 13.782516 0.000000 
4.732491 13.728306 0.000000 
5.498023 13.478246 0.000000 
6.040033 12.955685 0.000000 
6.178591 12.265479 0.000000 
5.978107 11.644023 0.000000 
5.057160 11.366847 0.000000 
4.264358 11.237302 0.000000 
20.189739 11.559214 0.000000 
19.544725 12.223127 0.000000 
21.103793 10.706246 0.000000 
20.094247 9.903710 0.000000 
18.920340 9.653687 0.000000 
17.948782 9.600376 0.000000 
17.110283 10.113835 0.000000 
16.126174 10.786343 0.000000 
16.401358 11.837248 0.000000 
17.135710 12.663289 0.000000 
18.478718 12.772520 0.000000 
42.907250 2.180226 0.000000 
42.779312 3.497682 0.000000 
42.483795 1.132183 0.000000 
41.359267 0.797137 0.000000 
40.411426 2.189596 0.000000 
40.080070 3.307744 0.000000 
40.698928 4.146317 0.000000 
41.685476 4.647863 0.000000 
49.696373 3.060612 0.000000 
50.380645 3.023603 0.000000 
49.288326 3.494524 0.000000 
49.327441 4.137337 0.000000 
49.975850 4.716972 0.000000 
50.802634 4.556641 0.000000 
51.151462 3.962092 0.000000 
51.157526 3.419785 0.000000 
44.785854 2.144520 0.000000 
45.377873 2.428109 0.000000 
44.136203 2.208824 0.000000 
44.023836 2.942221 0.000000 
44.526899 3.639405 0.000000 
45.220907 3.902148 0.000000 
45.765949 3.688950 0.000000 
45.797093 3.006052 0.000000 
55.793896 0.828450 0.000000 
56.514582 0.706213 0.000000 
55.653465 1.437364 0.000000 
55.979973 1.950688 0.000000 
56.584145 2.338147 0.000000 
57.163983 2.527633 0.000000 
57.773828 2.182372 0.000000 
8.919651 1.704480 0.000000 
8.007361 2.790522 0.000000 
8.516966 2.959431 0.000000 
8.899669 2.395912 0.000000 
11.823321 0.594526 0.000000 
10.638118 1.008346 0.000000 
3.377385 8.903794 0.000000 
2.806231 9.691699 0.000000 
3.404898 8.087019 0.000000 
2.674711 7.639501 0.000000 
1.668508 7.760768 0.000000 
0.723514 8.094649 0.000000 
0.467472 9.004362 0.000000 
0.970574 9.615353 0.000000 
1.928529 9.734248 0.000000 
25.404500 0.618072 0.000000 
26.089771 0.281055 0.000000 
25.174352 1.273040 0.000000 
25.499573 1.915501 0.000000 
26.219479 2.308426 0.000000 
27.051423 2.396507 0.000000 
27.748273 2.138569 0.000000 
27.959191 0.936581 0.000000 
27.414215 0.528334 0.000000 
26.786608 0.322585 0.000000 
10.070685 9.780454 0.000000 
10.586581 10.277223 0.000000 
11.119251 10.090240 0.000000 
11.556091 9.077936 0.000000 
6.924323 3.021685 0.000000 
5.870299 1.850912 0.000000 
5.256096 2.187372 0.000000 
5.668931 3.300229 0.000000 
6.231146 3.482018 0.000000 
11.695887 13.173840 0.000000 
10.220313 12.281401 0.000000 
9.706926 12.773795 0.000000 
10.645130 14.070064 0.000000 
11.271825 13.787640 0.000000 
12.353010 7.466074 0.000000 
1.701012 10.671426 0.000000 
2.145978 11.183901 0.000000 
1.173853 10.496028 0.000000 
0.872904 11.169586 0.000000 
0.904355 11.842219 0.000000 
1.226270 12.411100 0.000000 
2.226782 11.892159 0.000000 
26.531354 8.524002 0.000000 
50.786563 0.883192 0.000000 
50.740150 1.563597 0.000000 
49.175839 0.904940 0.000000 
49.789518 2.507969 0.000000 
50.353562 2.163934 0.000000 
24.372845 9.986232 0.000000 
24.807691 10.583976 0.000000 
23.762122 9.924815 0.000000 
23.168348 10.261149 0.000000 
22.779341 10.730011 0.000000 
22.754328 11.519814 0.000000 
23.975251 12.293265 0.000000 
24.431605 11.828099 0.000000 
24.869464 11.385734 0.000000 
47.681976 0.698804 0.000000 
46.648781 0.455373 0.000000 
46.201130 0.610237 0.000000 
46.062440 1.354881 0.000000 
3.514439 1.312296 0.000000 
3.054512 2.439598 0.000000 
3.424522 1.999866 0.000000 
22.214333 12.791669 0.000000 
21.465810 13.344638 0.000000 
22.207066 11.944087 0.000000 
21.669653 11.332684 0.000000 
20.540952 11.619064 0.000000 
19.938094 12.278921 0.000000 
19.905039 13.031572 0.000000 
20.293737 13.683902 0.000000 
59.215568 3.543258 0.000000 
58.879886 4.048117 0.000000 
59.032362 3.013751 0.000000 
58.440169 2.829110 0.000000 
57.774359 3.056865 0.000000 
57.321121 3.629270 0.000000 
57.363865 4.154286 0.000000 
34.758092 5.126856 0.000000 
35.409007 5.013659 0.000000 
34.877625 6.268979 0.000000 
35.584908 6.505720 0.000000 
36.241449 6.331297 0.000000 
36.406388 5.699688 0.000000 
36.198751 5.223012 0.000000 
8.113447 12.857809 0.000000 
7.415731 12.690196 0.000000 
6.625675 12.718705 0.000000 
6.359820 13.390677 0.000000 
7.274501 14.200315 0.000000 
15.338752 1.434237 0.000000 
16.036362 1.691896 0.000000 
29.772695 4.900915 0.000000 
13.753506 0.947348 0.000000 
13.187552 1.258669 0.000000 
13.425368 2.998591 0.000000 
10.571829 4.243086 0.000000 
32.753162 7.065943 0.000000 
31.726857 6.909396 0.000000 
34.965647 1.203526 0.000000 
34.510211 1.250170 0.000000 
1.917856 0.772569 0.000000 
1.612035 1.545118 0.000000 
1.595513 0.217168 0.000000 
0.921850 0.435669 0.000000 
0.711385 1.234350 0.000000 
0.957173 1.722720 0.000000 
48.457542 2.827351 0.000000 
17.271445 14.635015 0.000000 
16.762034 13.778422 0.000000 
47.171979 4.804987 0.000000 
47.828454 3.953633 0.000000 
47.422289 3.590123 0.000000 
46.621200 3.908887 0.000000 
46.439740 4.485663 0.000000 
5.223553 1.565219 0.000000 
5.211677 0.526736 0.000000 
4.626852 0.752485 0.000000 
4.627712 1.326236 0.000000 
43.647148 0.290841 0.000000 
44.309659 0.347433 0.000000 
43.341327 0.669586 0.000000 
43.698229 1.152173 0.000000 
44.357530 1.225719 0.000000 
44.693298 0.851901 0.000000 
13.240729 14.112370 0.000000 
29.438338 1.064360 0.000000 
29.439304 1.717169 0.000000 
28.991131 0.714099 0.000000 
28.410610 1.118468 0.000000 
28.385871 1.944215 0.000000 
21.177378 4.045950 0.000000 
22.017485 4.255956 0.000000 
20.824481 4.614510 0.000000 
21.123494 5.189386 0.000000 
21.824493 5.410533 0.000000 
22.233411 4.880051 0.000000 
58.835220 0.507884 0.000000 
40.715613 0.640059 0.000000 
40.668897 1.318684 0.000000 
40.317315 0.365159 0.000000 
39.848260 0.732106 0.000000 
29.090673 8.940759 0.000000 
28.516157 9.030816 0.000000 
12.551569 10.532622 0.000000 
12.006895 10.679347 0.000000 
51.952441 1.532423 0.000000 
52.051039 0.481010 0.000000 
51.463476 0.832375 0.000000 
51.393576 1.315118 0.000000 
27.885156 2.771387 0.000000 
28.775051 2.544966 0.000000 
27.729347 3.458039 0.000000 
28.236594 3.885604 0.000000 
29.045012 3.593105 0.000000 
29.302704 3.042814 0.000000 
20.671279 5.509122 0.000000 
19.803835 5.046629 0.000000 
10.403470 6.587012 0.000000 
10.079531 7.425364 0.000000 
10.691971 7.505278 0.000000 
10.938402 7.058404 0.000000 
15.909324 13.793764 0.000000 
16.067455 12.752006 0.000000 
0.632155 12.650959 0.000000 
1.393234 12.738885 0.000000 
0.726624 13.673755 0.000000 
1.399270 13.755317 0.000000 
1.844196 13.369524 0.000000 
19.131965 8.126886 0.000000 
19.659949 8.750684 0.000000 
18.639735 8.222070 0.000000 
18.542673 8.856251 0.000000 
19.434315 9.255843 0.000000 
59.750000 0.000000 0.000000 
0.000000 0.250000 0.000000 
60.000000 4.750000 0.000000 
40.250000 5.000000 0.000000 
20.223607 14.888197 0.000000 
0.250000 15.000000 0.000000 
8.935061 6.731580 0.000000 
8.919087 7.864852 0.000000 
9.126424 5.158308 0.000000 
7.669433 4.289569 0.000000 
5.804859 4.561808 0.000000 
4.783860 5.645994 0.000000 
3.595923 6.975610 0.000000 
4.275529 8.314175 0.000000 
6.008154 8.568279 0.000000 
7.393087 8.387309 0.000000 
24.551864 7.622255 0.000000 
24.039448 8.970208 0.000000 
24.022922 6.148064 0.000000 
22.202016 5.874373 0.000000 
20.878047 6.702577 0.000000 
19.708406 7.988274 0.000000 
20.501485 9.300152 0.000000 
22.256819 9.385997 0.000000 
30.883833 1.791636 0.000000 
31.923805 0.873728 0.000000 
29.721777 2.812659 0.000000 
30.636711 4.282927 0.000000 
31.537989 5.491369 0.000000 
33.036497 6.448774 0.000000 
33.935374 5.523221 0.000000 
34.408266 4.506132 0.000000 
34.887088 2.945545 0.000000 
33.600884 1.756381 0.000000 
15.787488 2.636262 0.000000 
17.102726 2.622000 0.000000 
14.218700 2.872453 0.000000 
14.268256 4.710992 0.000000 
13.990191 6.303033 0.000000 
14.740313 7.810972 0.000000 
16.107814 8.966230 0.000000 
17.362607 8.180688 0.000000 
18.694991 7.364041 0.000000 
18.435387 5.593942 0.000000 
17.988930 4.140605 0.000000 
15.981005 11.388997 0.000000 
15.897406 12.267841 0.000000 
15.781835 10.408525 0.000000 
14.802641 9.808780 0.000000 
13.562117 10.052094 0.000000 
12.773406 10.770626 0.000000 
12.340312 11.687823 0.000000 
12.489208 12.790918 0.000000 
13.742062 12.957231 0.000000 
14.933638 12.893967 0.000000 
3.484041 3.232085 0.000000 
4.318211 4.121645 0.000000 
2.292685 2.935525 0.000000 
0.930133 3.550744 0.000000 
0.413078 5.005359 0.000000 
0.520681 6.475415 0.000000 
1.546910 7.104805 0.000000 
2.952823 6.999242 0.000000 
3.871814 5.715305 0.000000 
25.709109 4.646987 0.000000 
26.632380 4.276560 0.000000 
24.925205 5.473260 0.000000 
25.548636 6.552403 0.000000 
26.212948 7.674305 0.000000 
27.427109 8.226687 0.000000 
28.740531 8.258518 0.000000 
29.568490 7.566903 0.000000 
29.445883 6.464703 0.000000 
29.370077 5.475416 0.000000 
28.537794 4.793009 0.000000 
27.584758 4.271933 0.000000 
19.709777 0.939307 0.000000 
20.336944 2.285852 0.000000 
18.579085 1.343856 0.000000 
17.569034 2.524895 0.000000 
18.072768 3.754038 0.000000 
18.812282 4.477166 0.000000 
19.913766 4.589609 0.000000 
20.460174 3.433750 0.000000 
6.752351 9.281836 0.000000 
7.658919 8.826282 0.000000 
6.592934 10.185502 0.000000 
6.936251 11.105347 0.000000 
7.808379 12.169990 0.000000 
8.890886 12.062558 0.000000 
9.726271 11.381873 0.000000 
9.377036 10.317835 0.000000 
8.858918 9.004052 0.000000 
22.673988 1.038673 0.000000 
23.510711 0.829614 0.000000 
21.414173 1.207242 0.000000 
21.430281 2.408573 0.000000 
21.938398 3.419140 0.000000 
22.625430 4.072358 0.000000 
23.395502 4.345195 0.000000 
24.124172 4.176700 0.000000 
25.177137 3.673386 0.000000 
24.904744 2.521164 0.000000 
24.439050 1.333424 0.000000 
13.283569 3.848865 0.000000 
13.471305 4.668312 0.000000 
12.604433 3.574143 0.000000 
11.638897 3.348300 0.000000 
11.036259 4.137319 0.000000 
10.511610 4.974309 0.000000 
10.455166 5.840062 0.000000 
10.954790 6.452922 0.000000 
11.796625 6.603462 0.000000 
12.598576 6.144694 0.000000 
13.325414 5.474451 0.000000 
55.485387 1.971514 0.000000 
55.778586 3.142530 0.000000 
54.483261 1.216932 0.000000 
53.061935 1.577617 0.000000 
52.099885 2.681049 0.000000 
52.016400 3.853890 0.000000 
52.627180 4.635211 0.000000 
53.684717 4.792643 0.000000 
54.980026 4.364389 0.000000 
38.799647 0.795835 0.000000 
39.563006 2.023654 0.000000 
37.412264 0.683252 0.000000 
35.804807 1.704853 0.000000 
35.258119 3.888905 0.000000 
36.526601 5.044478 0.000000 
38.253384 5.348200 0.000000 
39.613796 3.793134 0.000000 
2.578813 12.233145 0.000000 
2.772102 11.468767 0.000000 
2.763700 13.010438 0.000000 
3.356528 13.632847 0.000000 
4.238470 13.782604 0.000000 
5.038936 13.660055 0.000000 
5.758181 13.324060 0.000000 
6.095429 12.755856 0.000000 
6.197566 11.976443 0.000000 
5.539770 11.489834 0.000000 
4.757757 11.318278 0.000000 
3.764774 11.154358 0.000000 
21.069463 11.013468 0.000000 
19.836505 11.867638 0.000000 
20.517402 10.128679 0.000000 
19.407653 9.764909 0.000000 
18.397086 9.520462 0.000000 
17.547203 9.876364 0.000000 
16.315135 10.444011 0.000000 
16.226951 11.378777 0.000000 
16.757226 12.406747 0.000000 
18.000174 12.819774 0.000000 
19.156003 12.505195 0.000000 
42.756653 1.496796 0.000000 
42.919311 2.670860 0.000000 
41.723423 0.714022 0.000000 
40.670522 1.763516 0.000000 
40.060943 2.873642 0.000000 
40.373788 3.774614 0.000000 
41.303817 4.650661 0.000000 
42.547929 3.907068 0.000000 
49.566306 3.131650 0.000000 
50.161906 2.984631 0.000000 
49.241075 3.690595 0.000000 
49.581615 4.494567 0.000000 
50.421612 4.750419 0.000000 
50.902578 4.395422 0.000000 
51.248649 3.778897 0.000000 
50.835054 3.205720 0.000000 
44.476068 2.051654 0.000000 
45.239626 2.345053 0.000000 
44.013240 2.489252 0.000000 
44.197767 3.293271 0.000000 
44.753154 3.766068 0.000000 
45.445337 3.914698 0.000000 
45.829852 3.473208 0.000000 
45.695934 2.784306 0.000000 
55.710787 0.977472 0.000000 
56.162505 0.649718 0.000000 
55.694704 1.591934 0.000000 
56.176393 2.054938 0.000000 
56.772625 2.505531 0.000000 
57.333289 2.408453 0.000000 
57.920887 2.131189 0.000000 
8.846702 1.473260 0.000000 
8.163466 2.952688 0.000000 
8.668132 2.813935 0.000000 
8.943456 2.187551 0.000000 
11.643716 0.708337 0.000000 
10.512489 1.162656 0.000000 
3.506448 8.500845 0.000000 
3.133876 9.327694 0.000000 
3.100863 7.786519 0.000000 
2.164591 7.698496 0.000000 
1.087022 7.839519 0.000000 
0.483830 8.553398 0.000000 
0.622343 9.361719 0.000000 
1.434641 9.660580 0.000000 
2.393912 9.828094 0.000000 
25.257231 0.826512 0.000000 
25.791547 0.354279 0.000000 
25.237823 1.523649 0.000000 
25.772315 2.119004 0.000000 
26.554704 2.362649 0.000000 
27.437612 2.387141 0.000000 
27.803769 1.916973 0.000000 
27.822397 0.798020 0.000000 
27.263170 0.468720 0.000000 
26.576579 0.275799 0.000000 
10.214337 10.032620 0.000000 
10.790761 10.299718 0.000000 
11.180615 9.908546 0.000000 
11.352699 8.862165 0.000000 
7.050450 2.870528 0.000000 
5.569225 1.903478 0.000000 
5.197451 2.398684 0.000000 
5.819066 3.430562 0.000000 
6.540863 3.326070 0.000000 
11.786716 12.978686 0.000000 
9.984432 12.410586 0.000000 
9.650787 13.008155 0.000000 
10.867415 14.027597 0.000000 
11.431546 13.593539 0.000000 
12.250608 7.321710 0.000000 
1.496088 10.468210 0.000000 
2.034097 11.043160 0.000000 
1.017879 10.715733 0.000000 
0.872726 11.344261 0.000000 
0.944530 12.154646 0.000000 
1.389108 12.416637 0.000000 
2.265463 11.626982 0.000000 
26.507579 8.724159 0.000000 
50.693105 0.768924 0.000000 
50.847951 1.307172 0.000000 
49.063138 1.032176 0.000000 
49.964124 2.445256 0.000000 
50.489109 1.990875 0.000000 
24.207003 9.908813 0.000000 
24.696852 10.322197 0.000000 
23.602780 10.013665 0.000000 
23.007771 10.354584 0.000000 
22.764995 11.020125 0.000000 
22.756090 11.781798 0.000000 
24.070386 12.143128 0.000000 
24.626471 11.739104 0.000000 
24.889580 11.063704 0.000000 
47.582340 0.528854 0.000000 
46.495577 0.420660 0.000000 
46.148932 0.862647 0.000000 
46.034595 1.546970 0.000000 
3.613707 1.079079 0.000000 
3.205901 2.362860 0.000000 
3.420895 1.792288 0.000000 
22.271347 12.419395 0.000000 
21.946850 13.137615 0.000000 
22.019042 11.523974 0.000000 
20.989691 11.434154 0.000000 
20.180034 11.884206 0.000000 
19.895278 12.539965 0.000000 
20.001270 13.500800 0.000000 
20.993932 13.505267 0.000000 
59.226639 3.394270 0.000000 
59.002372 3.949426 0.000000 
58.901481 2.933056 0.000000 
58.202018 2.855234 0.000000 
57.600653 3.225937 0.000000 
57.237213 3.820656 0.000000 
57.499784 4.216948 0.000000 
34.722081 5.319400 0.000000 
35.048258 4.934621 0.000000 
35.109099 6.375349 0.000000 
35.904200 6.539086 0.000000 
36.297785 6.182659 0.000000 
36.419134 5.540883 0.000000 
35.893598 5.135836 0.000000 
7.901252 12.809374 0.000000 
7.023859 12.587209 0.000000 
6.431991 12.960251 0.000000 
6.421728 13.563695 0.000000 
7.424664 14.219557 0.000000 
15.564274 1.533777 0.000000 
16.180069 1.725655 0.000000 
29.800817 5.050290 0.000000 
13.620810 1.011451 0.000000 
13.028929 1.364194 0.000000 
13.598560 2.883887 0.000000 
10.534537 3.927972 0.000000 
32.738919 6.847673 0.000000 
31.758639 7.141155 0.000000 
34.783318 1.114549 0.000000 
34.470286 1.452353 0.000000 
1.878133 0.471514 0.000000 
1.815025 1.230493 0.000000 
1.260567 0.208465 0.000000 
0.802157 0.750660 0.000000 
0.709630 1.457127 0.000000 
1.226988 1.739590 0.000000 
48.342279 2.694685 0.000000 
17.500505 14.525945 0.000000 
16.598515 13.939926 0.000000 
47.478680 4.800125 0.000000 
47.757793 3.772213 0.000000 
47.032101 3.671205 0.000000 
46.398211 4.159643 0.000000 
46.714351 4.669747 0.000000 
5.516634 1.513279 0.000000 
4.982197 0.526271 0.000000 
4.538621 0.942371 0.000000 
4.782952 1.451701 0.000000 
43.502807 0.344045 0.000000 
44.118822 0.283638 0.000000 
43.389899 0.828462 0.000000 
43.884847 1.219315 0.000000 
44.537307 1.166489 0.000000 
44.628216 0.663052 0.000000 
13.121167 13.951684 0.000000 
29.337886 0.858929 0.000000 
29.486566 1.531242 0.000000 
28.728979 0.802345 0.000000 
28.250357 1.583616 0.000000 
28.600855 2.067324 0.000000 
20.964587 4.215162 0.000000 
21.590495 4.013712 0.000000 
20.866280 4.797861 0.000000 
21.416806 5.404342 0.000000 
22.026613 5.271638 0.000000 
22.234171 4.629317 0.000000 
58.678978 0.590487 0.000000 
40.655213 0.506774 0.000000 
40.739935 1.105003 0.000000 
40.179897 0.415566 0.000000 
39.776754 0.902106 0.000000 
28.937254 8.907325 0.000000 
28.358229 9.188649 0.000000 
12.638818 10.400363 0.000000 
12.166751 10.703681 0.000000 
52.171169 1.465022 0.000000 
51.855687 0.552363 0.000000 
51.365993 0.952688 0.000000 
51.528560 1.437857 0.000000 
27.736184 3.023623 0.000000 
28.262262 2.552469 0.000000 
27.871443 3.716909 0.000000 
28.612047 3.808230 0.000000 
29.235693 3.426191 0.000000 
29.146123 2.760020 0.000000 
20.666845 5.336817 0.000000 
19.740176 5.244936 0.000000 
10.247124 6.502259 0.000000 
10.259794 7.521244 0.000000 
10.893637 7.378087 0.000000 
10.789946 6.892470 0.000000 
16.162805 13.751158 0.000000 
15.874838 12.787761 0.000000 
0.494094 12.812217 0.000000 
0.992763 12.563643 0.000000 
0.922873 13.742084 0.000000 
1.702089 13.668403 0.000000 
1.714795 13.066539 0.000000 
18.958823 8.067383 0.000000 
19.486734 8.428355 0.000000 
18.586750 8.373308 0.000000 
18.576038 9.069841 0.000000 
19.585767 9.130383 0.000000 
34.288033 4.794488 0.000000 
16.015705 11.623307 0.000000 
15.836052 10.653073 0.000000 
12.967499 10.545309 0.000000 
12.431809 11.441130 0.000000 
25.935066 4.537446 0.000000 
26.876071 4.234738 0.000000 
29.360238 7.812629 0.000000 
29.370537 5.725728 0.000000 
27.841068 4.414164 0.000000 
18.605024 4.301821 0.000000 
6.977139 9.130370 0.000000 
6.576803 9.928274 0.000000 
6.827311 10.882481 0.000000 
9.515489 11.595209 0.000000 
22.860473 0.949785 0.000000 
23.812237 0.926229 0.000000 
21.775293 3.143422 0.000000 
22.443997 3.930371 0.000000 
23.231306 4.311174 0.000000 
13.334066 4.014227 0.000000 
13.481859 4.860203 0.000000 
12.782710 3.584620 0.000000 
11.876987 3.418525 0.000000 
10.654144 4.771843 0.000000 
10.427893 5.633146 0.000000 
10.819796 6.347401 0.000000 
11.599189 6.604510 0.000000 
12.418842 6.293651 0.000000 
13.148603 5.643442 0.000000 
52.423056 4.452625 0.000000 
53.374108 4.795938 0.000000 
2.568766 12.029557 0.000000 
3.032274 11.344843 0.000000 
3.199116 13.515258 0.000000 
4.022642 13.782560 0.000000 
5.758938 11.566929 0.000000 
4.014566 11.195830 0.000000 
19.690615 12.045383 0.000000 
18.658713 9.587074 0.000000 
17.747992 9.738370 0.000000 
16.176562 11.082560 0.000000 
40.226929 3.541179 0.000000 
49.454528 4.315952 0.000000 
50.198731 4.733696 0.000000 
50.996290 3.312753 0.000000 
44.110802 3.117746 0.000000 
56.338543 0.677966 0.000000 
3.441916 8.702319 0.000000 
2.970054 9.509696 0.000000 
3.252880 7.936769 0.000000 
2.419651 7.668998 0.000000 
1.377765 7.800143 0.000000 
0.603672 8.324023 0.000000 
0.544907 9.183040 0.000000 
1.202608 9.637966 0.000000 
2.161221 9.781171 0.000000 
25.635944 2.017253 0.000000 
26.387091 2.335538 0.000000 
27.244517 2.391824 0.000000 
6.386005 3.404044 0.000000 
22.242840 12.605532 0.000000 
21.706330 13.241127 0.000000 
22.113054 11.734031 0.000000 
20.360493 11.751635 0.000000 
19.953155 13.266186 0.000000 
35.228632 4.974140 0.000000 
7.219795 12.638702 0.000000 
1.713530 1.387805 0.000000 
1.428040 0.212817 0.000000 
0.862003 0.593165 0.000000 
47.227195 3.630664 0.000000 
46.509705 4.034265 0.000000 
28.330483 1.351042 0.000000 
21.803990 4.134834 0.000000 
21.270150 5.296864 0.000000 
28.518657 2.548717 0.000000 
28.424321 3.846917 0.000000 
1.192999 12.651264 0.000000 
19.573341 8.589519 0.000000 
0.483991 0.000000 0.000000 
0.000000 14.500000 0.000000 
60.000000 0.500000 0.000000 
59.500000 5.000000 0.000000 
39.552786 5.223607 0.000000 
19.500000 15.000000 0.000000 
9.050984 7.287355 0.000000 
8.107658 8.170127 0.000000 
8.973765 5.994968 0.000000 
8.709436 4.720842 0.000000 
6.950724 4.303684 0.000000 
5.259688 5.015782 0.000000 
4.295114 6.213865 0.000000 
3.723030 7.562639 0.000000 
4.923333 8.532214 0.000000 
6.751206 8.494345 0.000000 
24.384371 8.417904 0.000000 
22.990132 9.243583 0.000000 
24.389914 6.925467 0.000000 
23.416390 5.908105 0.000000 
21.557394 6.174347 0.000000 
20.354946 7.235366 0.000000 
19.869767 8.558563 0.000000 
21.162529 9.457749 0.000000 
31.389787 1.153370 0.000000 
32.949256 1.388632 0.000000 
30.341818 2.304490 0.000000 
29.851103 3.353065 0.000000 
31.092127 4.878271 0.000000 
32.121500 5.937464 0.000000 
33.527160 6.151462 0.000000 
34.642726 3.794879 0.000000 
34.546621 2.418524 0.000000 
16.477648 2.504600 0.000000 
17.646895 3.479667 0.000000 
15.046958 2.753935 0.000000 
14.052492 3.401217 0.000000 
14.193638 5.444203 0.000000 
14.201703 6.967684 0.000000 
15.271791 8.325741 0.000000 
16.680217 8.786361 0.000000 
17.984327 7.767761 0.000000 
18.773259 6.760338 0.000000 
18.217824 4.877444 0.000000 
15.562566 12.555532 0.000000 
15.261029 9.985019 0.000000 
14.094572 9.876034 0.000000 
12.384373 12.404755 0.000000 
13.053713 13.000684 0.000000 
14.490931 12.916295 0.000000 
3.971278 3.585100 0.000000 
4.106698 5.009044 0.000000 
2.787238 3.010481 0.000000 
1.613964 3.150589 0.000000 
0.603765 4.164622 0.000000 
0.423624 5.744813 0.000000 
1.020350 6.902533 0.000000 
2.273495 7.112340 0.000000 
3.437340 6.518415 0.000000 
25.176800 5.150424 0.000000 
25.102081 6.045598 0.000000 
25.949473 7.181011 0.000000 
26.809286 8.039677 0.000000 
28.166031 8.280231 0.000000 
29.581271 6.898853 0.000000 
28.925978 4.994799 0.000000 
20.054699 1.598017 0.000000 
20.422426 2.702007 0.000000 
19.168273 0.980362 0.000000 
18.063908 1.873301 0.000000 
17.686106 3.145918 0.000000 
19.502418 4.611756 0.000000 
20.289118 4.092231 0.000000 
8.275823 8.794349 0.000000 
7.382055 11.700213 0.000000 
8.452610 12.202770 0.000000 
9.647155 10.773845 0.000000 
9.082096 9.631640 0.000000 
21.949181 1.175683 0.000000 
21.273849 1.709884 0.000000 
24.801794 3.855383 0.000000 
25.186907 3.112983 0.000000 
24.622735 1.826909 0.000000 
11.204694 3.738228 0.000000 
55.694198 2.459496 0.000000 
55.436198 3.823415 0.000000 
54.954635 1.490616 0.000000 
53.803377 1.278479 0.000000 
52.537126 2.076334 0.000000 
51.985799 3.382588 0.000000 
54.397791 4.601446 0.000000 
39.232759 1.375117 0.000000 
39.695889 3.092440 0.000000 
38.151194 0.630928 0.000000 
36.760821 0.998133 0.000000 
35.520063 2.346407 0.000000 
35.627074 4.420393 0.000000 
37.229222 5.239674 0.000000 
38.789559 4.965514 0.000000 
20.399874 11.428855 0.000000 
20.925681 10.530815 0.000000 
19.849204 9.854173 0.000000 
16.879397 10.209708 0.000000 
16.533839 12.049259 0.000000 
17.381712 12.707820 0.000000 
18.711260 12.680736 0.000000 
42.853452 1.936083 0.000000 
42.821048 3.251190 0.000000 
42.264736 1.011713 0.000000 
41.214170 1.000722 0.000000 
40.297427 2.412092 0.000000 
40.890941 4.306414 0.000000 
41.875122 4.484969 0.000000 
21.422391 11.369583 0.000000 
20.535978 13.622101 0.000000 
59.500000 0.000000 0.000000 
0.000000 0.500000 0.000000 
60.000000 4.500000 0.000000 
40.500000 5.000000 0.000000 
20.447214 14.776393 0.000000 
0.500000 15.000000 0.000000 
8.986107 6.976313 0.000000 
8.685099 7.952883 0.000000 
9.081550 5.404248 0.000000 
7.900364 4.385332 0.000000 
6.048747 4.506868 0.000000 
4.934502 5.446476 0.000000 
3.764975 6.791433 0.000000 
4.127449 8.112750 0.000000 
5.758292 8.559972 0.000000 
7.146492 8.428429 0.000000 
24.500365 7.866893 0.000000 
23.797524 9.033236 0.000000 
24.129646 6.374139 0.000000 
22.451920 5.881314 0.000000 
21.075406 6.549119 0.000000 
19.871277 7.798608 0.000000 
20.339369 9.109841 0.000000 
22.007354 9.402354 0.000000 
31.039133 1.595723 0.000000 
32.147221 0.985910 0.000000 
29.915134 2.654188 0.000000 
30.475369 4.091959 0.000000 
31.390952 5.289181 0.000000 
32.818260 6.326821 0.000000 
33.799160 5.732854 0.000000 
34.817964 3.185799 0.000000 
33.805679 1.899765 0.000000 
16.033059 2.589414 0.000000 
17.236661 2.833096 0.000000 
14.466179 2.837041 0.000000 
14.227621 4.464317 0.000000 
14.047818 6.059765 0.000000 
14.605743 7.600280 0.000000 
15.909359 8.814191 0.000000 
17.175633 8.346642 0.000000 
18.477618 7.487528 0.000000 
18.503980 5.830735 0.000000 
18.063095 4.379350 0.000000 
15.707783 12.430763 0.000000 
15.035988 9.898497 0.000000 
13.799477 9.973609 0.000000 
12.423709 12.549651 0.000000 
13.492559 12.972981 0.000000 
14.683955 12.906560 0.000000 
3.686489 3.378763 0.000000 
4.260247 4.364832 0.000000 
2.539863 2.972988 0.000000 
1.145905 3.424481 0.000000 
0.468376 4.761552 0.000000 
0.487759 6.227592 0.000000 
1.313536 7.015157 0.000000 
2.706217 7.040298 0.000000 
3.752859 5.935190 0.000000 
25.078881 5.276070 0.000000 
25.383361 6.364829 0.000000 
26.095167 7.453788 0.000000 
27.187831 8.154259 0.000000 
28.490710 8.267960 0.000000 
29.520310 6.703367 0.000000 
28.759614 4.908318 0.000000 
19.825748 1.160781 0.000000 
20.387246 2.530739 0.000000 
18.791852 1.212591 0.000000 
17.720239 2.325805 0.000000 
17.938629 3.543072 0.000000 
19.664127 4.603050 0.000000 
20.397317 3.675719 0.000000 
7.908584 8.813358 0.000000 
7.640372 11.984859 0.000000 
8.652775 12.138734 0.000000 
9.504449 10.532930 0.000000 
8.942682 9.239601 0.000000 
21.663739 1.192521 0.000000 
21.375660 2.164613 0.000000 
24.952187 3.782460 0.000000 
25.012335 2.746829 0.000000 
24.526260 1.567720 0.000000 
11.133218 3.907583 0.000000 
55.583738 2.201355 0.000000 
55.666272 3.365881 0.000000 
54.699462 1.342460 0.000000 
53.293777 1.484079 0.000000 
52.246368 2.478459 0.000000 
52.000202 3.604416 0.000000 
54.748482 4.458662 0.000000 
38.949348 0.996059 0.000000 
39.593851 2.271744 0.000000 
37.661640 0.665593 0.000000 
36.005841 1.556241 0.000000 
35.299974 3.642433 0.000000 
36.321196 4.901969 0.000000 
38.004775 5.321856 0.000000 
39.470013 3.997649 0.000000 
20.857022 11.145258 0.000000 
20.695513 10.304111 0.000000 
19.652696 9.814447 0.000000 
16.546021 10.348138 0.000000 
16.624745 12.194736 0.000000 
17.754172 12.775243 0.000000 
18.923461 12.596980 0.000000 
42.810451 1.740939 0.000000 
42.877575 2.917352 0.000000 
41.942482 0.834492 0.000000 
40.815619 1.559931 0.000000 
40.174943 2.651147 0.000000 
41.111804 4.490564 0.000000 
42.358284 4.069962 0.000000 
21.236953 11.397256 0.000000 
20.751691 13.567067 0.000000 
8.396379 8.061505 0.000000 
9.027657 5.699608 0.000000 
5.097095 5.231129 0.000000 
6.948849 8.461387 0.000000 
24.442368 8.142398 0.000000 
24.259780 6.649803 0.000000 
21.316400 6.361733 0.000000 
31.214460 1.374547 0.000000 
30.128476 2.479339 0.000000 
31.241540 5.083726 0.000000 
33.663160 5.942158 0.000000 
34.730345 3.490339 0.000000 
16.255354 2.547007 0.000000 
14.756569 2.795488 0.000000 
14.120728 5.751984 0.000000 
18.230973 7.627644 0.000000 
18.140459 4.628397 0.000000 
13.273136 12.986833 0.000000 
3.828884 3.481932 0.000000 
1.379935 3.287535 0.000000 
0.536070 4.463087 0.000000 
0.455691 5.986202 0.000000 
2.489856 7.076319 0.000000 
25.242721 6.205214 0.000000 
26.998558 8.096968 0.000000 
19.940224 1.379399 0.000000 
18.980062 1.096477 0.000000 
17.892073 2.099553 0.000000 
17.812367 3.344495 0.000000 
20.343218 3.883975 0.000000 
8.092204 8.803854 0.000000 
7.511214 11.842536 0.000000 
9.012389 9.435621 0.000000 
21.324755 1.937248 0.000000 
25.099621 2.929906 0.000000 
55.551235 3.594648 0.000000 
53.548577 1.381279 0.000000 
52.391747 2.277396 0.000000 
54.573136 4.530054 0.000000 
39.091053 1.185588 0.000000 
37.906417 0.648261 0.000000 
20.628448 11.287056 0.000000 
16.712709 10.278923 0.000000 
17.567942 12.741531 0.000000 
42.849312 3.084271 0.000000 
42.103609 0.923102 0.000000 
42.116703 4.277466 0.000000 
0.718366 0.000000 0.000000 
0.000000 14.250000 0.000000 
60.000000 0.750000 0.000000 
59.250000 5.000000 0.000000 
39.329180 5.335410 0.000000 
19.250000 15.000000 0.000000 
8.478505 4.625078 0.000000 
6.706836 4.358624 0.000000 
4.126061 6.398042 0.000000 
3.871110 7.764064 0.000000 
5.173195 8.540521 0.000000 
23.232057 9.180555 0.000000 
23.166486 5.901163 0.000000 
20.192076 7.425032 0.000000 
20.031883 8.748875 0.000000 
21.411993 9.441392 0.000000 
32.725839 1.276449 0.000000 
30.012445 3.544033 0.000000 
32.339737 6.059418 0.000000 
34.341826 2.275140 0.000000 
17.512960 3.268572 0.000000 
14.093128 3.647892 0.000000 
14.336272 7.178376 0.000000 
15.470246 8.477780 0.000000 
16.867191 8.620408 0.000000 
18.704050 6.521414 0.000000 
4.164662 4.765857 0.000000 
3.556296 6.298530 0.000000 
39.665044 2.844350 0.000000 
36.559787 1.146744 0.000000 
35.478208 2.592878 0.000000 
35.832479 4.562902 0.000000 
37.477831 5.266018 0.000000 
38.933342 4.760999 0.000000 
41.069074 1.204307 0.000000 
59.250000 0.000000 0.000000 
0.000000 0.750000 0.000000 
60.000000 4.250000 0.000000 
40.750000 5.000000 0.000000 
20.670820 14.664590 0.000000 
0.750000 15.000000 0.000000 
8.131296 4.481096 0.000000 
6.292636 4.451929 0.000000 
3.934028 6.607256 0.000000 
3.979369 7.911324 0.000000 
5.508430 8.551666 0.000000 
23.555599 9.096264 0.000000 
22.701823 5.888256 0.000000 
20.034148 7.608942 0.000000 
20.177254 8.919529 0.000000 
21.757890 9.418711 0.000000 
32.370638 1.098093 0.000000 
30.314027 3.900991 0.000000 
32.600023 6.204868 0.000000 
34.010475 2.043149 0.000000 
17.370596 3.044192 0.000000 
14.186985 4.217641 0.000000 
14.471174 7.389588 0.000000 
15.710905 8.662153 0.000000 
16.988659 8.512596 0.000000 
18.572256 6.066438 0.000000 
4.202283 4.608020 0.000000 
3.633903 6.155075 0.000000 
39.624697 2.519834 0.000000 
36.206875 1.407630 0.000000 
35.341829 3.395962 0.000000 
36.115790 4.759460 0.000000 
37.756167 5.295512 0.000000 
39.326229 4.202164 0.000000 
40.960715 1.356345 0.000000 
8.304900 4.553087 0.000000 
6.499736 4.405276 0.000000 
5.340813 8.546093 0.000000 
23.393828 9.138410 0.000000 
22.934155 5.894710 0.000000 
21.584942 9.430052 0.000000 
32.548239 1.187271 0.000000 
30.163236 3.722512 0.000000 
34.176150 2.159145 0.000000 
14.140056 3.932767 0.000000 
18.638153 6.293926 0.000000 
36.383331 1.277187 0.000000 
35.974135 4.661181 0.000000 
0.952999 0.000000 0.000000 
0.000000 14.000000 0.000000 
60.000000 1.000000 0.000000 
59.000000 5.000000 0.000000 
39.105573 5.447214 0.000000 
19.000000 15.000000 0.000000 
35.436352 2.839350 0.000000 
39.077125 4.556484 0.000000 
59.000000 0.000000 0.000000 
0.000000 1.000000 0.000000 
60.000000 4.000000 0.000000 
41.000000 5.000000 0.000000 
20.894427 14.552786 0.000000 
1.000000 15.000000 0.000000 
35.383685 3.149491 0.000000 
39.182446 4.406679 0.000000 
1.191872 0.000000 0.000000 
0.000000 13.750000 0.000000 
60.000000 1.250000 0.000000 
58.750000 5.000000 0.000000 
38.881966 5.559017 0.000000 
18.750000 15.000000 0.000000 
58.750000 0.000000 0.000000 
0.000000 1.250000 0.000000 
60.000000 3.750000 0.000000 
41.250000 5.000000 0.000000 
21.118034 14.440983 0.000000 
1.250000 15.000000 0.000000 
1.438299 0.000000 0.000000 
0.000000 13.500000 0.000000 
60.000000 1.500000 0.000000 
58.500000 5.000000 0.000000 
38.658359 5.670820 0.000000 
18.500000 15.000000 0.000000 
58.500000 0.000000 0.000000 
0.000000 1.500000 0.000000 
60.000000 3.500000 0.000000 
41.500000 5.000000 0.000000 
21.341641 14.329180 0.000000 
1.500000 15.000000 0.000000 
1.688299 0.000000 0.000000 
0.000000 13.250000 0.000000 
60.000000 1.750000 0.000000 
58.250000 5.000000 0.000000 
38.434752 5.782624 0.000000 
18.250000 15.000000 0.000000 
58.250000 0.000000 0.000000 
0.000000 1.750000 0.000000 
60.000000 3.250000 0.000000 
41.750000 5.000000 0.000000 
21.565248 14.217376 0.000000 
1.750000 15.000000 0.000000 
1.938299 0.000000 0.000000 
0.000000 13.000000 0.000000 
60.000000 2.000000 0.000000 
58.000000 5.000000 0.000000 
38.211146 5.894427 0.000000 
18.000000 15.000000 0.000000 
58.000000 0.000000 0.000000 
0.000000 2.000000 0.000000 
60.000000 3.000000 0.000000 
42.000000 5.000000 0.000000 
21.788854 14.105573 0.000000 
2.000000 15.000000 0.000000 
2.188299 0.000000 0.000000 
0.000000 12.750000 0.000000 
60.000000 2.250000 0.000000 
57.750000 5.000000 0.000000 
37.987539 6.006231 0.000000 
17.750000 15.000000 0.000000 
57.750000 0.000000 0.000000 
0.000000 2.250000 0.000000 
60.000000 2.750000 0.000000 
42.250000 5.000000 0.000000 
22.012461 13.993769 0.000000 
2.250000 15.000000 0.000000 
60.000000 2.500000 0.000000 
2.438299 0.000000 0.000000 
0.000000 12.500000 0.000000 
57.500000 5.000000 0.000000 
37.763932 6.118034 0.000000 
17.500000 15.000000 0.000000 
57.500000 0.000000 0.000000 
0.000000 2.500000 0.000000 
42.500000 5.000000 0.000000 
22.236068 13.881966 0.000000 
2.500000 15.000000 0.000000 
2.688299 0.000000 0.000000 
0.000000 12.250000 0.000000 
57.250000 5.000000 0.000000 
37.540325 6.229837 0.000000 
17.250000 15.000000 0.000000 
57.250000 0.000000 0.000000 
0.000000 2.750000 0.000000 
42.750000 5.000000 0.000000 
22.459675 13.770163 0.000000 
2.750000 15.000000 0.000000 
2.938299 0.000000 0.000000 
0.000000 12.000000 0.000000 
57.000000 5.000000 0.000000 
37.316718 6.341641 0.000000 
17.000000 15.000000 0.000000 
57.000000 0.000000 0.000000 
0.000000 3.000000 0.000000 
43.000000 5.000000 0.000000 
22.683282 13.658359 0.000000 
3.000000 15.000000 0.000000 
3.188299 0.000000 0.000000 
0.000000 11.750000 0.000000 
56.750000 5.000000 0.000000 
37.093112 6.453444 0.000000 
16.750000 15.000000 0.000000 
56.750000 0.000000 0.000000 
0.000000 3.250000 0.000000 
43.250000 5.000000 0.000000 
22.906888 13.546556 0.000000 
3.250000 15.000000 0.000000 
3.438299 0.000000 0.000000 
0.000000 11.500000 0.000000 
56.500000 5.000000 0.000000 
36.869505 6.565248 0.000000 
16.500000 15.000000 0.000000 
56.500000 0.000000 0.000000 
0.000000 3.500000 0.000000 
43.500000 5.000000 0.000000 
23.130495 13.434752 0.000000 
3.500000 15.000000 0.000000 
3.688299 0.000000 0.000000 
0.000000 11.250000 0.000000 
56.250000 5.000000 0.000000 
36.645898 6.677051 0.000000 
16.250000 15.000000 0.000000 
56.250000 0.000000 0.000000 
0.000000 3.750000 0.000000 
43.750000 5.000000 0.000000 
23.354102 13.322949 0.000000 
3.750000 15.000000 0.000000 
3.938299 0.000000 0.000000 
0.000000 11.000000 0.000000 
56.000000 5.000000 0.000000 
36.422291 6.788854 0.000000 
16.000000 15.000000 0.000000 
56.000000 0.000000 0.000000 
0.000000 4.000000 0.000000 
44.000000 5.000000 0.000000 
23.577709 13.211146 0.000000 
4.000000 15.000000 0.000000 
4.188299 0.000000 0.000000 
0.000000 10.750000 0.000000 
55.750000 5.000000 0.000000 
36.198684 6.900658 0.000000 
15.750000 15.000000 0.000000 
55.750000 0.000000 0.000000 
0.000000 4.250000 0.000000 
44.250000 5.000000 0.000000 
23.801316 13.099342 0.000000 
4.250000 15.000000 0.000000 
4.438299 0.000000 0.000000 
0.000000 10.500000 0.000000 
55.500000 5.000000 0.000000 
35.975078 7.012461 0.000000 
15.500000 15.000000 0.000000 
55.500000 0.000000 0.000000 
0.000000 4.500000 0.000000 
44.500000 5.000000 0.000000 
24.024922 12.987539 0.000000 
4.500000 15.000000 0.000000 
4.688299 0.000000 0.000000 
0.000000 10.250000 0.000000 
55.250000 5.000000 0.000000 
35.751471 7.124265 0.000000 
15.250000 15.000000 0.000000 
55.250000 0.000000 0.000000 
0.000000 4.750000 0.000000 
44.750000 5.000000 0.000000 
24.248529 12.875735 0.000000 
4.750000 15.000000 0.000000 
4.938299 0.000000 0.000000 
0.000000 10.000000 0.000000 
55.000000 5.000000 0.000000 
35.527864 7.236068 0.000000 
15.000000 15.000000 0.000000 
55.000000 0.000000 0.000000 
0.000000 5.000000 0.000000 
45.000000 5.000000 0.000000 
24.472136 12.763932 0.000000 
5.000000 15.000000 0.000000 
5.188299 0.000000 0.000000 
0.000000 9.750000 0.000000 
54.750000 5.000000 0.000000 
35.304257 7.347871 0.000000 
14.750000 15.000000 0.000000 
54.750000 0.000000 0.000000 
0.000000 5.250000 0.000000 
45.250000 5.000000 0.000000 
24.695743 12.652129 0.000000 
5.250000 15.000000 0.000000 
5.438299 0.000000 0.000000 
0.000000 9.500000 0.000000 
54.500000 5.000000 0.000000 
35.080650 7.459675 0.000000 
14.500000 15.000000 0.000000 
54.500000 0.000000 0.000000 
0.000000 5.500000 0.000000 
45.500000 5.000000 0.000000 
24.919350 12.540325 0.000000 
5.500000 15.000000 0.000000 
5.688299 0.000000 0.000000 
0.000000 9.250000 0.000000 
54.250000 5.000000 0.000000 
34.857044 7.571478 0.000000 
14.250000 15.000000 0.000000 
54.250000 0.000000 0.000000 
0.000000 5.750000 0.000000 
45.750000 5.000000 0.000000 
25.142956 12.428522 0.000000 
5.750000 15.000000 0.000000 
5.938299 0.000000 0.000000 
0.000000 9.000000 0.000000 
54.000000 5.000000 0.000000 
34.633437 7.683282 0.000000 
14.000000 15.000000 0.000000 
54.000000 0.000000 0.000000 
0.000000 6.000000 0.000000 
46.000000 5.000000 0.000000 
25.366563 12.316718 0.000000 
6.000000 15.000000 0.000000 
6.188299 0.000000 0.000000 
0.000000 8.750000 0.000000 
53.750000 5.000000 0.000000 
34.409830 7.795085 0.000000 
13.750000 15.000000 0.000000 
53.750000 0.000000 0.000000 
0.000000 6.250000 0.000000 
46.250000 5.000000 0.000000 
25.590170 12.204915 0.000000 
6.250000 15.000000 0.000000 
6.438299 0.000000 0.000000 
0.000000 8.500000 0.000000 
53.500000 5.000000 0.000000 
34.186223 7.906888 0.000000 
13.500000 15.000000 0.000000 
53.500000 0.000000 0.000000 
0.000000 6.500000 0.000000 
46.500000 5.000000 0.000000 
25.813777 12.093112 0.000000 
6.500000 15.000000 0.000000 
6.688299 0.000000 0.000000 
0.000000 8.250000 0.000000 
53.250000 5.000000 0.000000 
33.962616 8.018692 0.000000 
13.250000 15.000000 0.000000 
53.250000 0.000000 0.000000 
0.000000 6.750000 0.000000 
46.750000 5.000000 0.000000 
26.037384 11.981308 0.000000 
6.750000 15.000000 0.000000 
6.938299 0.000000 0.000000 
0.000000 8.000000 0.000000 
53.000000 5.000000 0.000000 
33.739010 8.130495 0.000000 
13.000000 15.000000 0.000000 
53.000000 0.000000 0.000000 
0.000000 7.000000 0.000000 
47.000000 5.000000 0.000000 
26.260990 11.869505 0.000000 
7.000000 15.000000 0.000000 
7.188299 0.000000 0.000000 
0.000000 7.750000 0.000000 
52.750000 5.000000 0.000000 
33.515403 8.242299 0.000000 
12.750000 15.000000 0.000000 
52.750000 0.000000 0.000000 
0.000000 7.250000 0.000000 
47.250000 5.000000 0.000000 
26.484597 11.757701 0.000000 
7.250000 15.000000 0.000000 
0.000000 7.500000 0.000000 
7.438299 0.000000 0.000000 
52.500000 5.000000 0.000000 
33.291796 8.354102 0.000000 
12.500000 15.000000 0.000000 
52.500000 0.000000 0.000000 
47.500000 5.000000 0.000000 
26.708204 11.645898 0.000000 
7.500000 15.000000 0.000000 
7.688299 0.000000 0.000000 
52.250000 5.000000 0.000000 
33.068189 8.465905 0.000000 
12.250000 15.000000 0.000000 
52.250000 0.000000 0.000000 
47.750000 5.000000 0.000000 
26.931811 11.534095 0.000000 
7.750000 15.000000 0.000000 
7.938299 0.000000 0.000000 
52.000000 5.000000 0.000000 
32.844582 8.577709 0.000000 
12.000000 15.000000 0.000000 
52.000000 0.000000 0.000000 
48.000000 5.000000 0.000000 
27.155418 11.422291 0.000000 
8.000000 15.000000 0.000000 
8.188299 0.000000 0.000000 
51.750000 5.000000 0.000000 
32.620976 8.689512 0.000000 
11.750000 15.000000 0.000000 
51.750000 0.000000 0.000000 
48.250000 5.000000 0.000000 
27.379024 11.310488 0.000000 
8.250000 15.000000 0.000000 
8.438299 0.000000 0.000000 
51.500000 5.000000 0.000000 
32.397369 8.801316 0.000000 
11.500000 15.000000 0.000000 
51.500000 0.000000 0.000000 
48.500000 5.000000 0.000000 
27.602631 11.198684 0.000000 
8.500000 15.000000 0.000000 
8.688299 0.000000 0.000000 
51.250000 5.000000 0.000000 
32.173762 8.913119 0.000000 
11.250000 15.000000 0.000000 
51.250000 0.000000 0.000000 
48.750000 5.000000 0.000000 
27.826238 11.086881 0.000000 
8.750000 15.000000 0.000000 
8.938299 0.000000 0.000000 
51.000000 5.000000 0.000000 
31.950155 9.024922 0.000000 
11.000000 15.000000 0.000000 
51.000000 0.000000 0.000000 
49.000000 5.000000 0.000000 
28.049845 10.975078 0.000000 
9.000000 15.000000 0.000000 
9.188299 0.000000 0.000000 
50.750000 5.000000 0.000000 
31.726548 9.136726 0.000000 
10.750000 15.000000 0.000000 
50.750000 0.000000 0.000000 
49.250000 5.000000 0.000000 
28.273452 10.863274 0.000000 
9.250000 15.000000 0.000000 
9.438299 0.000000 0.000000 
50.500000 5.000000 0.000000 
31.502942 9.248529 0.000000 
10.500000 15.000000 0.000000 
50.500000 0.000000 0.000000 
49.500000 5.000000 0.000000 
28.497058 10.751471 0.000000 
9.500000 15.000000 0.000000 
9.688299 0.000000 0.000000 
50.250000 5.000000 0.000000 
31.279335 9.360333 0.000000 
10.250000 15.000000 0.000000 
50.250000 0.000000 0.000000 
49.750000 5.000000 0.000000 
28.720665 10.639667 0.000000 
9.750000 15.000000 0.000000 
50.000000 5.000000 0.000000 
10.000000 15.000000 0.000000 
9.938299 0.000000 0.000000 
31.055728 9.472136 0.000000 
50.000000 0.000000 0.000000 
28.944272 10.527864 0.000000 
10.188299 0.000000 0.000000 
30.832121 9.583939 0.000000 
49.750000 0.000000 0.000000 
29.167879 10.416061 0.000000 
10.438299 0.000000 0.000000 
30.608514 9.695743 0.000000 
49.500000 0.000000 0.000000 
29.391486 10.304257 0.000000 
10.688299 0.000000 0.000000 
30.384908 9.807546 0.000000 
49.250000 0.000000 0.000000 
29.615092 10.192454 0.000000 
10.938299 0.000000 0.000000 
30.161301 9.919350 0.000000 
49.000000 0.000000 0.000000 
29.838699 10.080650 0.000000 
30.000000 10.000000 0.000000 
11.188299 0.000000 0.000000 
48.750000 0.000000 0.000000 
11.438299 0.000000 0.000000 
48.500000 0.000000 0.000000 
11.688299 0.000000 0.000000 
48.250000 0.000000 0.000000 
11.938299 0.000000 0.000000 
48.000000 0.000000 0.000000 
12.188299 0.000000 0.000000 
47.750000 0.000000 0.000000 
12.438299 0.000000 0.000000 
47.500000 0.000000 0.000000 
12.688299 0.000000 0.000000 
47.250000 0.000000 0.000000 
12.938299 0.000000 0.000000 
47.000000 0.000000 0.000000 
13.188299 0.000000 0.000000 
46.750000 0.000000 0.000000 
13.438299 0.000000 0.000000 
46.500000 0.000000 0.000000 
13.688299 0.000000 0.000000 
46.250000 0.000000 0.000000 
13.938299 0.000000 0.000000 
46.000000 0.000000 0.000000 
14.188299 0.000000 0.000000 
45.750000 0.000000 0.000000 
14.438299 0.000000 0.000000 
45.500000 0.000000 0.000000 
14.688299 0.000000 0.000000 
45.250000 0.000000 0.000000 
14.938299 0.000000 0.000000 
45.000000 0.000000 0.000000 
15.188299 0.000000 0.000000 
44.750000 0.000000 0.000000 
15.438299 0.000000 0.000000 
44.500512 0.000000 0.000000 
15.688299 0.000000 0.000000 
44.255618 0.000000 0.000000 
15.938299 0.000000 0.000000 
44.018025 0.000000 0.000000 
16.188299 0.000000 0.000000 
43.783650 0.000000 0.000000 
16.438299 0.000000 0.000000 
43.548521 0.000000 0.000000 
16.688299 0.000000 0.000000 
43.308640 0.000000 0.000000 
16.938299 0.000000 0.000000 
43.061701 0.000000 0.000000 
17.188299 0.000000 0.000000 
42.811701 0.000000 0.000000 
17.436749 0.000000 0.000000 
42.561701 0.000000 0.000000 
17.679601 0.000000 0.000000 
42.311701 0.000000 0.000000 
17.916191 0.000000 0.000000 
42.061701 0.000000 0.000000 
18.150566 0.000000 0.000000 
41.811701 0.000000 0.000000 
18.386699 0.000000 0.000000 
41.561701 0.000000 0.000000 
18.628621 0.000000 0.000000 
41.311701 0.000000 0.000000 
18.876598 0.000000 0.000000 
41.061701 0.000000 0.000000 
19.126598 0.000000 0.000000 
40.811701 0.000000 0.000000 
19.376598 0.000000 0.000000 
40.561701 0.000000 0.000000 
19.626598 0.000000 0.000000 
40.311701 0.000000 0.000000 
19.876598 0.000000 0.000000 
40.061701 0.000000 0.000000 
20.126598 0.000000 0.000000 
39.811701 0.000000 0.000000 
20.376598 0.000000 0.000000 
39.561701 0.000000 0.000000 
20.626598 0.000000 0.000000 
39.311701 0.000000 0.000000 
20.876598 0.000000 0.000000 
39.061701 0.000000 0.000000 
21.126598 0.000000 0.000000 
38.811701 0.000000 0.000000 
21.376598 0.000000 0.000000 
38.561701 0.000000 0.000000 
21.626598 0.000000 0.000000 
38.311701 0.000000 0.000000 
21.876598 0.000000 0.000000 
38.061701 0.000000 0.000000 
22.126598 0.000000 0.000000 
37.811701 0.000000 0.000000 
22.376598 0.000000 0.000000 
37.561701 0.000000 0.000000 
22.626598 0.000000 0.000000 
37.311701 0.000000 0.000000 
22.876598 0.000000 0.000000 
37.061701 0.000000 0.000000 
23.126598 0.000000 0.000000 
36.811701 0.000000 0.000000 
23.376598 0.000000 0.000000 
36.561701 0.000000 0.000000 
23.626598 0.000000 0.000000 
36.311701 0.000000 0.000000 
23.876598 0.000000 0.000000 
36.061701 0.000000 0.000000 
24.126598 0.000000 0.000000 
35.811701 0.000000 0.000000 
24.376598 0.000000 0.000000 
35.561701 0.000000 0.000000 
24.626598 0.000000 0.000000 
35.311701 0.000000 0.000000 
24.876598 0.000000 0.000000 
35.061701 0.000000 0.000000 
25.126598 0.000000 0.000000 
34.811701 0.000000 0.000000 
25.376598 0.000000 0.000000 
34.561701 0.000000 0.000000 
25.626598 0.000000 0.000000 
34.311701 0.000000 0.000000 
25.876598 0.000000 0.000000 
34.061701 0.000000 0.000000 
26.126598 0.000000 0.000000 
33.811701 0.000000 0.000000 
26.376598 0.000000 0.000000 
33.561701 0.000000 0.000000 
26.626598 0.000000 0.000000 
33.311701 0.000000 0.000000 
26.876598 0.000000 0.000000 
33.061701 0.000000 0.000000 
27.126598 0.000000 0.000000 
32.811701 0.000000 0.000000 
27.376598 0.000000 0.000000 
32.561701 0.000000 0.000000 
27.626598 0.000000 0.000000 
32.311701 0.000000 0.000000 
27.876598 0.000000 0.000000 
32.061701 0.000000 0.000000 
28.126598 0.000000 0.000000 
31.811701 0.000000 0.000000 
28.376598 0.000000 0.000000 
31.561701 0.000000 0.000000 
28.626598 0.000000 0.000000 
31.311701 0.000000 0.000000 
28.876598 0.000000 0.000000 
31.061701 0.000000 0.000000 
29.126598 0.000000 0.000000 
30.811701 0.000000 0.000000 
29.376598 0.000000 0.000000 
30.561701 0.000000 0.000000 
29.626598 0.000000 0.000000 
30.311701 0.000000 0.000000 
29.876598 0.000000 0.000000 
30.061701 0.000000 0.000000 
11.620040 8.731524 0.000000 
3.580015 0.786097 0.000000 
14.063811 9.430186 0.000000 
17.661060 14.274735 0.000000 
18.885823 6.184515 0.000000 
12.651608 10.093360 0.000000 
23.717721 12.437121 0.000000 
15.146609 1.177929 0.000000 
30.055311 6.173023 0.000000 
14.048475 0.968384 0.000000 
18.939617 5.986801 0.000000 
12.467139 14.628352 0.000000 
59.136758 0.518060 0.000000 
29.302986 9.147551 0.000000 
20.534173 5.777053 0.000000 
19.084999 9.390706 0.000000 
2.246123 11.759570 0.000000 
7.018990 8.241229 0.000000 
36.416111 1.514635 0.000000 
6.432552 4.643257 0.000000 
18.189478 5.533121 0.000000 
6.803080 8.276924 0.000000 
38.946801 4.352281 0.000000 
36.602859 1.375582 0.000000 
14.432400 5.370595 0.000000 
35.668047 2.777008 0.000000 
3.398118 6.124454 0.000000 
39.089469 4.170552 0.000000 
18.042638 5.055270 0.000000 
14.724407 7.371435 0.000000 
14.587434 7.161103 0.000000 
14.479308 5.108612 0.000000 
6.658786 4.592603 0.000000 
33.590623 2.001728 0.000000 
27.176615 7.918103 0.000000 
34.320882 4.074306 0.000000 
31.039995 4.444890 0.000000 
31.191796 4.643940 0.000000 
23.255056 8.960871 0.000000 
37.369699 5.037087 0.000000 
17.968057 4.814698 0.000000 
14.362116 5.642304 0.000000 
7.240731 8.207482 0.000000 
36.340943 4.685433 0.000000 
17.821637 4.333246 0.000000 
17.892607 4.570281 0.000000 
5.187715 5.472004 0.000000 
39.388169 2.433095 0.000000 
54.388542 4.371827 0.000000 
32.966897 1.636389 0.000000 
17.525742 3.693659 0.000000 
6.581359 8.313437 0.000000 
14.495001 4.841658 0.000000 
36.790352 1.232764 0.000000 
14.866633 7.577967 0.000000 
17.339536 7.925672 0.000000 
30.883871 4.244373 0.000000 
31.343161 4.843758 0.000000 
17.551892 7.774491 0.000000 
54.592183 4.282646 0.000000 
2.341028 6.881517 0.000000 
39.430665 2.703853 0.000000 
33.789588 2.128981 0.000000 
5.428939 8.340070 0.000000 
3.627454 5.724761 0.000000 
26.073773 6.967119 0.000000 
30.966683 2.030152 0.000000 
34.390060 3.822046 0.000000 
4.871996 5.880907 0.000000 
8.693499 6.356291 0.000000 
15.690413 2.873053 0.000000 
28.310766 4.921895 0.000000 
3.875971 5.079835 0.000000 
3.520073 5.934060 0.000000 
23.183920 4.094562 0.000000 
0.656421 4.918914 0.000000 
22.805549 6.113663 0.000000 
28.079941 4.803258 0.000000 
6.891771 4.542788 0.000000 
15.311721 8.083115 0.000000 
2.608159 3.216216 0.000000 
33.182118 1.747851 0.000000 
21.648884 9.214734 0.000000 
22.561188 6.103009 0.000000 
0.634037 5.587803 0.000000 
6.200097 4.696409 0.000000 
25.948407 6.740811 0.000000 
22.821155 9.080859 0.000000 
31.493347 5.038381 0.000000 
23.048351 9.021501 0.000000 
1.616218 3.396818 0.000000 
17.392415 3.488273 0.000000 
5.887017 8.355094 0.000000 
14.466206 4.582196 0.000000 
5.343951 5.258822 0.000000 
14.581236 12.697986 0.000000 
17.705212 12.550389 0.000000 
27.392215 7.992522 0.000000 
55.314034 3.609820 0.000000 
34.133152 4.574857 0.000000 
26.959574 7.846181 0.000000 
39.228150 3.975448 0.000000 
42.631069 3.131158 0.000000 
35.609409 3.033189 0.000000 
52.637453 2.304076 0.000000 
38.977089 1.404797 0.000000 
0.718679 4.655556 0.000000 
37.808357 0.870711 0.000000 
26.791944 4.460729 0.000000 
16.768911 12.013330 0.000000 
22.492143 3.702443 0.000000 
20.189430 2.659775 0.000000 
18.745116 12.441299 0.000000 
22.109523 9.185248 0.000000 
15.935093 2.821648 0.000000 
54.195918 4.470043 0.000000 
53.519698 1.630912 0.000000 
30.723986 4.047495 0.000000 
4.707066 6.076210 0.000000 
32.754315 1.524704 0.000000 
5.648768 8.350648 0.000000 
17.148571 8.091661 0.000000 
35.719936 2.514310 0.000000 
36.221337 1.649705 0.000000 
21.121766 6.783740 0.000000 
7.938773 4.629361 0.000000 
21.540920 6.446963 0.000000 
22.616540 1.298820 0.000000 
17.492720 12.512027 0.000000 
24.460547 2.025403 0.000000 
3.971280 4.632817 0.000000 
27.843921 4.668879 0.000000 
52.491057 2.510005 0.000000 
22.663127 3.848562 0.000000 
3.936763 4.853529 0.000000 
17.557499 10.147322 0.000000 
8.725269 6.088889 0.000000 
14.348148 12.717272 0.000000 
24.554707 2.257731 0.000000 
32.083005 5.675528 0.000000 
15.691994 11.056709 0.000000 
17.772010 7.633266 0.000000 
21.869793 9.201621 0.000000 
29.200379 6.385197 0.000000 
28.044895 8.055651 0.000000 
38.822406 4.548066 0.000000 
19.614377 11.805488 0.000000 
21.323502 6.611012 0.000000 
52.200380 3.469906 0.000000 
34.028068 4.842378 0.000000 
37.129942 5.012714 0.000000 
36.533762 4.803570 0.000000 
31.129917 1.827944 0.000000 
3.437966 3.444399 0.000000 
23.045962 6.123159 0.000000 
19.470438 11.985110 0.000000 
7.927201 8.004180 0.000000 
4.535863 6.265293 0.000000 
29.164221 6.125917 0.000000 
14.101162 12.721682 0.000000 
18.959423 12.353291 0.000000 
15.442517 2.917946 0.000000 
37.628105 5.066496 0.000000 
15.516062 8.235849 0.000000 
14.427222 4.318659 0.000000 
39.123594 1.593279 0.000000 
39.367872 2.186791 0.000000 
1.382778 3.531432 0.000000 
18.985849 9.894363 0.000000 
30.785064 2.219915 0.000000 
26.194990 7.208284 0.000000 
24.141773 6.871650 0.000000 
17.319413 10.260531 0.000000 
24.255649 7.971664 0.000000 
25.803367 6.526989 0.000000 
8.696838 6.630205 0.000000 
20.584093 7.273916 0.000000 
18.730301 9.836457 0.000000 
7.614187 11.620265 0.000000 
1.489090 6.847815 0.000000 
2.113864 6.932005 0.000000 
14.035427 10.136735 0.000000 
26.130584 4.678858 0.000000 
4.121033 13.592616 0.000000 
14.298730 5.925475 0.000000 
0.784151 4.376666 0.000000 
22.033956 3.154970 0.000000 
53.506238 4.580639 0.000000 
55.423097 3.376078 0.000000 
28.530377 5.029394 0.000000 
2.572552 6.839716 0.000000 
4.364411 6.457335 0.000000 
40.544016 2.413214 0.000000 
13.853856 12.731918 0.000000 
13.259787 4.756197 0.000000 
18.183915 3.528324 0.000000 
34.144359 2.390248 0.000000 
30.564219 3.859513 0.000000 
18.529610 12.537012 0.000000 
17.918816 12.596445 0.000000 
22.352947 9.170527 0.000000 
19.775083 11.618957 0.000000 
29.273144 6.629119 0.000000 
52.775444 2.106908 0.000000 
13.214551 10.580700 0.000000 
55.414805 2.429286 0.000000 
20.156934 2.438940 0.000000 
20.244674 2.875918 0.000000 
37.570297 0.883361 0.000000 
36.980892 1.091521 0.000000 
6.964135 10.673923 0.000000 
40.656487 2.194424 0.000000 
24.654688 2.489644 0.000000 
5.047626 8.327571 0.000000 
8.932369 9.829177 0.000000 
20.430303 7.460477 0.000000 
7.700259 8.090557 0.000000 
4.235169 7.905459 0.000000 
12.916144 5.550861 0.000000 
7.066918 10.890239 0.000000 
3.298789 6.329447 0.000000 
9.018947 10.065237 0.000000 
42.700185 2.761381 0.000000 
4.351745 11.475237 0.000000 
24.140965 3.929098 0.000000 
13.044727 10.787509 0.000000 
4.101536 11.434872 0.000000 
6.120219 8.372357 0.000000 
7.791096 9.008700 0.000000 
17.259758 3.275812 0.000000 
32.323484 5.807142 0.000000 
16.966428 8.258374 0.000000 
26.355279 2.113928 0.000000 
12.740468 5.735518 0.000000 
21.269134 9.251324 0.000000 
20.445891 8.873341 0.000000 
53.768828 1.533511 0.000000 
20.920225 6.933621 0.000000 
18.146581 2.141708 0.000000 
3.239142 13.276647 0.000000 
4.599779 11.520284 0.000000 
15.491278 12.329102 0.000000 
16.645407 11.830286 0.000000 
12.364058 6.043529 0.000000 
7.451402 11.461648 0.000000 
24.366873 1.786056 0.000000 
9.122988 10.298734 0.000000 
11.037819 4.586021 0.000000 
20.229049 3.506552 0.000000 
54.725874 1.625078 0.000000 
25.820323 1.903638 0.000000 
42.624078 1.889128 0.000000 
19.234764 9.938315 0.000000 
34.473620 3.550606 0.000000 
25.639069 6.335613 0.000000 
8.305502 4.789621 0.000000 
33.682157 5.511148 0.000000 
40.922487 1.789421 0.000000 
17.085763 10.344304 0.000000 
12.673306 11.409222 0.000000 
15.192288 2.960919 0.000000 
7.147156 4.501208 0.000000 
7.706048 4.528437 0.000000 
3.428140 13.411082 0.000000 
11.162198 4.360974 0.000000 
25.912531 4.781272 0.000000 
42.678842 2.119741 0.000000 
15.066059 10.142402 0.000000 
8.700075 11.896569 0.000000 
32.346384 1.326712 0.000000 
10.999388 6.246732 0.000000 
38.835500 1.211939 0.000000 
13.611276 12.750766 0.000000 
15.635653 10.812552 0.000000 
26.449408 2.548883 0.000000 
30.587025 2.388014 0.000000 
3.899283 13.588717 0.000000 
38.050744 0.854734 0.000000 
18.874019 14.786896 0.000000 
19.818853 13.678706 0.000000 
27.230257 0.693285 0.000000 
4.577446 13.538342 0.000000 
18.644105 4.058629 0.000000 
9.242287 10.524984 0.000000 
26.309575 8.581045 0.000000 
18.399261 13.024032 0.000000 
18.469607 6.469565 0.000000 
11.473891 6.392025 0.000000 
2.932417 12.819794 0.000000 
28.316181 8.059238 0.000000 
3.837228 11.399820 0.000000 
21.893535 2.903994 0.000000 
5.119702 11.606581 0.000000 
26.627898 0.508560 0.000000 
40.480007 3.534389 0.000000 
8.751617 6.891854 0.000000 
7.203855 9.239907 0.000000 
11.701552 6.399831 0.000000 
15.310936 12.487481 0.000000 
14.817550 12.694663 0.000000 
23.911134 4.040625 0.000000 
19.707886 10.032482 0.000000 
18.003947 7.503609 0.000000 
22.036663 12.454739 0.000000 
6.811027 10.031593 0.000000 
41.202136 1.410526 0.000000 
41.062300 1.595436 0.000000 
4.861878 11.557616 0.000000 
40.934400 4.071626 0.000000 
14.376814 4.049611 0.000000 
4.832197 13.487994 0.000000 
19.479710 9.982587 0.000000 
40.431197 2.637351 0.000000 
27.043473 4.423406 0.000000 
2.076543 9.557271 0.000000 
8.772681 5.815011 0.000000 
38.679721 4.744380 0.000000 
0.697497 6.075786 0.000000 
31.287382 1.615706 0.000000 
24.572034 8.582589 0.000000 
7.754256 11.787837 0.000000 
14.827405 10.049653 0.000000 
12.175582 6.203263 0.000000 
12.446431 3.759430 0.000000 
22.304200 6.091427 0.000000 
52.341039 2.724172 0.000000 
52.176549 3.228684 0.000000 
2.881950 9.281957 0.000000 
19.921806 1.795918 0.000000 
42.600143 3.352111 0.000000 
42.305679 3.811799 0.000000 
24.760984 2.712938 0.000000 
18.640844 12.931604 0.000000 
13.217295 4.354667 0.000000 
3.880234 3.254644 0.000000 
24.516686 8.834319 0.000000 
20.568446 11.879820 0.000000 
27.593355 4.531672 0.000000 
5.949352 4.756342 0.000000 
2.068170 7.936740 0.000000 
29.158495 5.875258 0.000000 
26.853325 0.553922 0.000000 
12.578112 11.654695 0.000000 
23.287784 6.130067 0.000000 
42.093051 4.005093 0.000000 
49.253375 1.137197 0.000000 
23.615816 8.859375 0.000000 
4.182894 6.649505 0.000000 
42.093505 1.154240 0.000000 
8.180776 7.911062 0.000000 
26.730334 2.187071 0.000000 
1.837142 9.514946 0.000000 
54.811140 4.199090 0.000000 
24.624897 8.323142 0.000000 
19.968336 11.455885 0.000000 
10.609475 5.504338 0.000000 
18.788122 1.465563 0.000000 
26.115927 9.258965 0.000000 
12.478474 7.272631 0.000000 
19.583929 4.377511 0.000000 
35.833399 4.310074 0.000000 
35.527499 3.545297 0.000000 
15.723905 8.409591 0.000000 
22.348821 1.364645 0.000000 
23.398628 10.374994 0.000000 
23.062337 1.107746 0.000000 
1.242047 6.761648 0.000000 
39.376858 3.779392 0.000000 
39.476938 3.248551 0.000000 
18.626080 14.793253 0.000000 
10.716188 13.842319 0.000000 
24.209063 8.235335 0.000000 
26.080579 7.880948 0.000000 
12.193041 3.723062 0.000000 
26.281969 11.619019 0.000000 
21.155918 11.626622 0.000000 
2.328428 7.900250 0.000000 
9.131816 2.337580 0.000000 
24.207223 11.699440 0.000000 
23.261692 4.533080 0.000000 
21.285688 13.195741 0.000000 
5.873243 12.797042 0.000000 
19.123649 14.783838 0.000000 
2.965313 13.611561 0.000000 
26.452359 4.085234 0.000000 
25.121604 10.927882 0.000000 
1.595242 9.480252 0.000000 
21.518173 13.102237 0.000000 
24.014108 6.623875 0.000000 
7.383655 14.002650 0.000000 
52.675180 4.376421 0.000000 
26.668908 2.589069 0.000000 
3.201053 8.731228 0.000000 
3.827601 5.306096 0.000000 
10.748947 5.010583 0.000000 
16.405536 2.748652 0.000000 
49.736836 3.271993 0.000000 
19.357361 4.383589 0.000000 
21.671821 9.649889 0.000000 
12.557994 12.206614 0.000000 
17.757073 4.104977 0.000000 
5.926257 12.576868 0.000000 
12.653131 6.390490 0.000000 
3.261782 11.475804 0.000000 
25.421447 5.180790 0.000000 
20.379040 12.019884 0.000000 
10.647106 5.727897 0.000000 
36.016395 1.789714 0.000000 
35.759911 2.253143 0.000000 
53.215773 4.584794 0.000000 
18.839108 4.232661 0.000000 
4.023893 4.412731 0.000000 
6.821203 0.224023 0.000000 
8.172959 9.041435 0.000000 
17.827870 14.176988 0.000000 
21.606104 2.236374 0.000000 
8.492232 4.397883 0.000000 
52.226489 3.717523 0.000000 
11.235617 13.522039 0.000000 
17.934067 3.127883 0.000000 
45.216317 2.569020 0.000000 
2.779282 12.144713 0.000000 
34.428877 7.549597 0.000000 
22.985267 11.142965 0.000000 
12.590018 7.463459 0.000000 
6.377233 3.188857 0.000000 
26.729777 7.777692 0.000000 
30.443606 0.217210 0.000000 
24.954124 5.079429 0.000000 
24.683838 8.061133 0.000000 
50.233658 1.973784 0.000000 
11.263063 4.139077 0.000000 
20.149212 12.416104 0.000000 
52.463112 4.201702 0.000000 
33.498784 6.595153 0.000000 
43.633097 4.778316 0.000000 
2.269477 10.966622 0.000000 
19.929239 10.064779 0.000000 
10.419403 12.422927 0.000000 
3.151972 13.728499 0.000000 
20.112040 2.215700 0.000000 
17.072639 8.729626 0.000000 
20.114871 3.947649 0.000000 
14.318273 6.727290 0.000000 
23.600587 1.059796 0.000000 
8.783144 9.395327 0.000000 
26.562618 4.499794 0.000000 
4.740334 1.684200 0.000000 
20.179908 11.321077 0.000000 
5.532111 13.201082 0.000000 
7.163239 11.106056 0.000000 
4.950840 2.462075 0.000000 
1.537888 7.997784 0.000000 
30.249498 3.485498 0.000000 
16.165026 1.500543 0.000000 
25.955476 7.659824 0.000000 
32.561592 5.947218 0.000000 
57.082880 3.603771 0.000000 
34.329458 2.520044 0.000000 
7.070303 0.227416 0.000000 
10.912700 10.518457 0.000000 
21.904076 9.624020 0.000000 
26.061329 11.724351 0.000000 
9.555982 0.227367 0.000000 
24.849820 10.150855 0.000000 
59.092667 2.784701 0.000000 
30.964889 1.344004 0.000000 
14.103856 1.521928 0.000000 
17.970667 2.332532 0.000000 
49.485419 3.609108 0.000000 
13.271806 4.980861 0.000000 
26.505581 11.516452 0.000000 
55.686576 3.791644 0.000000 
14.222115 1.704169 0.000000 
30.382888 2.555564 0.000000 
7.138194 3.087005 0.000000 
9.889736 12.964332 0.000000 
50.746224 2.007405 0.000000 
2.629484 14.788205 0.000000 
25.974853 0.520308 0.000000 
16.890748 12.208436 0.000000 
17.268489 12.466717 0.000000 
14.923250 2.998407 0.000000 
9.174896 2.077060 0.000000 
0.232606 2.625571 0.000000 
34.204605 7.662348 0.000000 
31.529486 8.272621 0.000000 
5.581106 3.514057 0.000000 
26.430120 10.344354 0.000000 
8.288918 4.310689 0.000000 
3.634028 2.128602 0.000000 
23.862834 4.509622 0.000000 
49.576477 4.112393 0.000000 
46.290382 1.256951 0.000000 
17.963498 9.856123 0.000000 
50.808894 4.175477 0.000000 
10.198273 12.523899 0.000000 
33.698628 0.222955 0.000000 
24.684424 5.459109 0.000000 
42.567536 1.641920 0.000000 
42.292331 1.272725 0.000000 
58.825457 3.806725 0.000000 
23.050831 5.676183 0.000000 
50.832700 2.941528 0.000000 
55.891191 1.459109 0.000000 
25.063006 10.649359 0.000000 
0.707188 8.977412 0.000000 
18.305104 3.726382 0.000000 
9.262772 11.562752 0.000000 
33.389274 1.379240 0.000000 
49.715360 4.293679 0.000000 
10.523929 2.102511 0.000000 
29.681597 1.075456 0.000000 
43.971890 3.315431 0.000000 
50.090630 4.491297 0.000000 
21.970168 11.940263 0.000000 
25.518388 0.824759 0.000000 
34.579078 3.288284 0.000000 
14.338705 3.773657 0.000000 
18.478894 9.758736 0.000000 
25.425867 1.369378 0.000000 
59.771185 2.133411 0.000000 
55.907238 3.346071 0.000000 
57.002023 3.821197 0.000000 
55.796507 3.567929 0.000000 
8.998220 1.286150 0.000000 
9.940320 8.614963 0.000000 
33.980848 7.776212 0.000000 
1.155432 3.157904 0.000000 
6.020338 2.051520 0.000000 
19.372493 14.781826 0.000000 
29.101907 7.789033 0.000000 
3.011636 8.016408 0.000000 
13.826493 6.782256 0.000000 
13.094656 5.380227 0.000000 
25.521726 3.333096 0.000000 
13.457909 7.710991 0.000000 
20.816210 13.324400 0.000000 
1.927724 11.280926 0.000000 
50.391038 1.789159 0.000000 
43.885418 4.782036 0.000000 
56.010215 3.135498 0.000000 
21.331691 10.640352 0.000000 
7.287842 12.881245 0.000000 
44.091665 3.522345 0.000000 
44.351323 3.131431 0.000000 
24.953482 10.394989 0.000000 
18.542007 6.692762 0.000000 
42.971378 3.640650 0.000000 
24.593432 3.710285 0.000000 
5.714406 3.037848 0.000000 
24.598791 10.548329 0.000000 
21.657239 2.460330 0.000000 
34.651896 7.433481 0.000000 
10.741668 2.249775 0.000000 
40.754482 3.921741 0.000000 
36.158976 1.181371 0.000000 
16.416227 11.179423 0.000000 
30.199567 0.215475 0.000000 
13.145145 12.784499 0.000000 
56.416823 0.909932 0.000000 
56.632415 2.087968 0.000000 
58.896741 2.687782 0.000000 
25.330375 5.991104 0.000000 
43.380674 4.775039 0.000000 
56.113048 4.787233 0.000000 
30.691041 0.218870 0.000000 
8.496717 13.933488 0.000000 
27.618218 1.712076 0.000000 
9.810713 0.230986 0.000000 
7.319713 0.230933 0.000000 
1.074504 1.953350 0.000000 
5.503629 13.756620 0.000000 
24.218369 10.146583 0.000000 
51.864529 2.669153 0.000000 
23.296754 5.681662 0.000000 
43.046345 3.193416 0.000000 
9.116009 14.774142 0.000000 
9.374063 10.745922 0.000000 
26.295659 8.808335 0.000000 
8.521420 4.872769 0.000000 
41.910597 1.044779 0.000000 
23.471447 4.575011 0.000000 
4.806459 8.300266 0.000000 
4.397232 8.101140 0.000000 
9.060212 2.592543 0.000000 
56.366046 4.784431 0.000000 
22.436986 12.764444 0.000000 
24.784010 7.567894 0.000000 
49.289189 1.997164 0.000000 
20.494943 0.209115 0.000000 
15.246881 8.575747 0.000000 
10.258916 1.145293 0.000000 
26.073361 9.686762 0.000000 
33.445197 0.217663 0.000000 
32.143512 1.220524 0.000000 
22.073905 1.403945 0.000000 
26.956121 3.993565 0.000000 
34.663425 6.418332 0.000000 
2.811449 6.803131 0.000000 
3.182704 6.544904 0.000000 
24.831488 5.267547 0.000000 
23.805868 5.700239 0.000000 
2.591315 7.867601 0.000000 
43.714796 1.387852 0.000000 
0.731526 8.544415 0.000000 
1.383284 3.029317 0.000000 
2.881022 14.785638 0.000000 
58.949890 1.549200 0.000000 
2.379708 14.792627 0.000000 
14.755982 9.543083 0.000000 
33.163504 1.270106 0.000000 
19.715300 13.175040 0.000000 
3.967705 7.548180 0.000000 
5.873792 14.792453 0.000000 
18.236718 7.367978 0.000000 
56.927494 0.914631 0.000000 
16.636213 8.550968 0.000000 
6.833104 2.809420 0.000000 
23.547200 5.688393 0.000000 
44.265999 3.735528 0.000000 
12.834080 6.229155 0.000000 
46.520029 1.997444 0.000000 
45.826381 1.435770 0.000000 
26.148322 9.956013 0.000000 
3.350336 10.923761 0.000000 
7.507294 12.930641 0.000000 
7.906936 3.018196 0.000000 
20.609569 9.072323 0.000000 
21.021532 9.257209 0.000000 
27.799784 8.069199 0.000000 
47.588469 1.384857 0.000000 
10.206258 5.542908 0.000000 
35.680017 0.225104 0.000000 
33.756384 7.890202 0.000000 
33.639217 6.389081 0.000000 
24.084610 4.413712 0.000000 
26.045653 2.495813 0.000000 
20.457244 10.404966 0.000000 
57.567203 1.049410 0.000000 
17.406659 8.418918 0.000000 
26.727814 11.407942 0.000000 
34.330465 1.059914 0.000000 
10.338329 1.880787 0.000000 
4.182587 3.498340 0.000000 
21.301211 5.035826 0.000000 
43.887809 3.110564 0.000000 
31.466927 1.408957 0.000000 
11.268481 1.986587 0.000000 
28.935386 4.754635 0.000000 
28.501658 3.636070 0.000000 
13.862371 2.518339 0.000000 
3.689641 3.122264 0.000000 
44.139061 4.784897 0.000000 
5.622252 14.790137 0.000000 
31.127988 1.134164 0.000000 
9.175501 1.791039 0.000000 
17.941209 9.334307 0.000000 
23.873461 1.157673 0.000000 
20.110230 7.830598 0.000000 
20.110153 8.500843 0.000000 
9.305522 0.220785 0.000000 
22.567834 10.610869 0.000000 
8.814129 5.525442 0.000000 
32.740334 1.054908 0.000000 
12.142245 7.524401 0.000000 
49.805962 0.809710 0.000000 
56.170499 1.805568 0.000000 
3.189406 1.663623 0.000000 
16.534881 10.135788 0.000000 
22.455412 5.014611 0.000000 
14.989502 9.636202 0.000000 
55.559912 0.804200 0.000000 
56.407969 1.929725 0.000000 
44.973336 0.924237 0.000000 
17.225240 8.570658 0.000000 
57.290509 2.148731 0.000000 
10.819173 11.848433 0.000000 
10.923854 8.693162 0.000000 
7.772403 1.184668 0.000000 
12.078670 11.696617 0.000000 
5.402129 3.350756 0.000000 
25.842604 11.833601 0.000000 
0.871365 8.314294 0.000000 
7.569614 0.228444 0.000000 
2.894344 9.913491 0.000000 
44.749393 3.510639 0.000000 
5.079088 9.845926 0.000000 
6.571728 0.220274 0.000000 
26.668811 10.434338 0.000000 
57.851587 3.266507 0.000000 
10.980542 2.356733 0.000000 
58.656345 3.958938 0.000000 
35.508123 6.286137 0.000000 
17.522014 9.602838 0.000000 
9.362634 3.822271 0.000000 
10.190987 9.526190 0.000000 
22.012670 12.682489 0.000000 
3.325276 13.856876 0.000000 
6.561169 1.641973 0.000000 
8.086015 3.173588 0.000000 
7.736322 12.997254 0.000000 
41.114734 4.243525 0.000000 
13.157919 9.144796 0.000000 
35.929429 0.220290 0.000000 
36.350985 1.057335 0.000000 
6.592459 13.421077 0.000000 
35.719186 5.328540 0.000000 
19.954294 0.973526 0.000000 
58.343789 3.045996 0.000000 
15.006950 7.781918 0.000000 
5.643796 9.641423 0.000000 
22.157465 9.607030 0.000000 
30.648418 1.732527 0.000000 
33.192704 0.218814 0.000000 
56.660552 0.925487 0.000000 
43.003983 3.407369 0.000000 
8.697149 4.492345 0.000000 
2.130017 14.792196 0.000000 
16.899955 8.870660 0.000000 
8.864290 14.778454 0.000000 
59.070328 4.175430 0.000000 
10.277339 3.210242 0.000000 
48.950877 0.833277 0.000000 
8.593791 13.709014 0.000000 
32.942172 1.160034 0.000000 
13.421704 1.375726 0.000000 
44.258354 2.924748 0.000000 
45.797359 1.669484 0.000000 
4.383712 3.643001 0.000000 
17.730097 13.920338 0.000000 
1.259363 8.041580 0.000000 
25.845416 7.418136 0.000000 
32.167086 7.697755 0.000000 
15.301076 10.231251 0.000000 
15.582404 10.568528 0.000000 
8.747870 3.027625 0.000000 
0.233462 2.877102 0.000000 
45.912558 0.965408 0.000000 
0.608835 5.344207 0.000000 
3.071673 11.069510 0.000000 
24.576953 9.867289 0.000000 
53.391747 0.220296 0.000000 
50.563025 0.960460 0.000000 
45.025879 2.460644 0.000000 
5.368404 14.785131 0.000000 
4.550599 4.042852 0.000000 
10.227824 1.609377 0.000000 
25.092367 11.214069 0.000000 
1.065828 11.272748 0.000000 
19.618921 14.780013 0.000000 
41.314549 1.213240 0.000000 
15.664772 8.904861 0.000000 
8.569155 3.201219 0.000000 
45.546443 2.976485 0.000000 
1.862900 13.851562 0.000000 
5.401312 8.773822 0.000000 
11.181628 12.453327 0.000000 
8.444293 7.805468 0.000000 
7.603483 4.037908 0.000000 
45.381019 0.221850 0.000000 
17.312335 9.738138 0.000000 
16.716864 9.044241 0.000000 
41.866361 4.193551 0.000000 
5.223217 13.869971 0.000000 
33.947054 0.224175 0.000000 
38.693481 1.015806 0.000000 
38.296460 0.836312 0.000000 
59.025369 3.473509 0.000000 
9.456351 12.846453 0.000000 
15.809639 11.779372 0.000000 
1.113118 11.714716 0.000000 
59.769690 2.386435 0.000000 
29.668866 1.686522 0.000000 
8.833491 7.154464 0.000000 
21.155769 10.463296 0.000000 
4.394883 4.744917 0.000000 
8.702879 2.267838 0.000000 
29.400784 7.093537 0.000000 
54.725408 1.098868 0.000000 
43.134251 4.780952 0.000000 
1.040510 0.745563 0.000000 
12.474660 6.544601 0.000000 
24.970206 4.019809 0.000000 
36.154383 5.978794 0.000000 
30.788611 8.548947 0.000000 
58.843583 3.147870 0.000000 
18.304066 8.726690 0.000000 
43.044127 1.809126 0.000000 
20.398504 11.188463 0.000000 
3.131661 14.785385 0.000000 
20.091223 12.897341 0.000000 
11.307011 11.951036 0.000000 
15.674304 12.185946 0.000000 
55.462699 1.000265 0.000000 
44.504168 3.870772 0.000000 
26.921131 2.595281 0.000000 
4.386663 1.384311 0.000000 
20.748195 0.209885 0.000000 
10.006481 9.290933 0.000000 
35.435185 0.224045 0.000000 
34.969073 0.938635 0.000000 
32.545008 0.952403 0.000000 
0.786982 13.916064 0.000000 
50.792848 3.450924 0.000000 
48.637531 4.775892 0.000000 
8.075425 4.225665 0.000000 
11.422022 8.235293 0.000000 
1.879107 14.789931 0.000000 
18.458593 1.722224 0.000000 
48.825385 1.005193 0.000000 
43.974191 2.022285 0.000000 
25.419899 3.130660 0.000000 
34.871753 7.316829 0.000000 
29.715218 1.466996 0.000000 
44.393144 4.786402 0.000000 
33.429556 5.916220 0.000000 
25.103495 4.908511 0.000000 
30.625437 8.670174 0.000000 
5.123788 14.790379 0.000000 
32.179915 8.658667 0.000000 
5.883408 8.781218 0.000000 
0.799118 9.184271 0.000000 
54.887584 0.224685 0.000000 
24.955271 3.138188 0.000000 
15.464515 8.730963 0.000000 
8.024139 1.056868 0.000000 
42.777137 3.987375 0.000000 
43.075858 2.031451 0.000000 
2.112087 10.793974 0.000000 
3.900967 10.041605 0.000000 
13.595242 0.773630 0.000000 
22.314536 3.561968 0.000000 
2.315997 9.602488 0.000000 
7.819054 0.226647 0.000000 
57.541070 2.045189 0.000000 
9.803538 3.238163 0.000000 
10.070437 0.232476 0.000000 
24.543118 4.218354 0.000000 
5.295085 4.601221 0.000000 
13.138873 1.960478 0.000000 
30.941514 0.223934 0.000000 
9.559731 13.752776 0.000000 
12.164738 11.459921 0.000000 
0.230933 2.375894 0.000000 
15.870442 9.052928 0.000000 
35.150077 1.061575 0.000000 
29.257032 1.552549 0.000000 
2.047313 11.729237 0.000000 
15.946520 1.455190 0.000000 
2.720854 9.465416 0.000000 
7.850468 4.126931 0.000000 
15.454698 9.816155 0.000000 
47.321781 2.170643 0.000000 
55.138305 0.217861 0.000000 
11.860853 1.769628 0.000000 
12.049745 3.249488 0.000000 
23.124476 13.180596 0.000000 
53.598455 1.125572 0.000000 
4.144017 13.987620 0.000000 
32.401441 8.557589 0.000000 
6.122070 14.794538 0.000000 
5.450977 9.539386 0.000000 
26.584083 9.183082 0.000000 
21.754432 13.007747 0.000000 
22.992423 10.882902 0.000000 
6.975316 3.269946 0.000000 
9.370953 14.767856 0.000000 
6.794938 9.781167 0.000000 
3.913940 13.987808 0.000000 
45.863899 1.203607 0.000000 
10.747824 8.494591 0.000000 
32.944306 0.219367 0.000000 
2.515268 1.068360 0.000000 
11.836525 10.844959 0.000000 
47.164428 3.868786 0.000000 
30.101169 5.599526 0.000000 
12.309690 8.085355 0.000000 
9.329434 5.304029 0.000000 
5.058445 2.905395 0.000000 
16.522053 9.229560 0.000000 
2.767641 13.450145 0.000000 
10.179413 5.323909 0.000000 
10.071408 8.440703 0.000000 
9.057291 0.216493 0.000000 
53.636074 0.213406 0.000000 
3.010225 2.194137 0.000000 
18.128514 13.054250 0.000000 
6.990842 9.386108 0.000000 
29.284336 7.556742 0.000000 
40.343345 3.310698 0.000000 
13.167516 0.990470 0.000000 
10.738923 1.205480 0.000000 
42.722965 2.532401 0.000000 
4.495054 4.282081 0.000000 
29.931321 3.779451 0.000000 
18.378369 14.798684 0.000000 
33.605911 1.514196 0.000000 
11.089769 8.905342 0.000000 
34.905361 6.532611 0.000000 
4.876327 14.797260 0.000000 
10.237248 5.759377 0.000000 
38.143437 5.118945 0.000000 
38.538544 4.944297 0.000000 
21.796732 4.382845 0.000000 
25.596779 6.977400 0.000000 
11.517850 10.661517 0.000000 
1.626589 14.783243 0.000000 
33.530664 8.003520 0.000000 
1.581720 1.179201 0.000000 
29.985709 8.471963 0.000000 
6.039549 1.060044 0.000000 
14.330484 1.899197 0.000000 
57.912015 4.142458 0.000000 
1.117952 9.424241 0.000000 
12.812202 0.199263 0.000000 
16.529356 11.639038 0.000000 
51.174253 3.178798 0.000000 
28.384801 2.787718 0.000000 
9.425865 13.081036 0.000000 
22.801291 5.665146 0.000000 
13.019674 6.062169 0.000000 
0.731016 6.319631 0.000000 
14.405052 8.687005 0.000000 
26.202274 4.173483 0.000000 
11.635589 14.777357 0.000000 
8.843055 12.328699 0.000000 
19.099057 12.752036 0.000000 
16.887847 9.984726 0.000000 
2.195012 1.483613 0.000000 
5.339398 10.769892 0.000000 
14.327886 8.921437 0.000000 
3.231644 9.543649 0.000000 
3.278517 8.530148 0.000000 
55.860486 4.789102 0.000000 
21.063595 4.682174 0.000000 
9.298354 5.593834 0.000000 
8.939887 2.842402 0.000000 
36.177720 0.215924 0.000000 
2.474789 10.071710 0.000000 
30.681347 7.257571 0.000000 
11.364388 14.026075 0.000000 
21.983890 4.779222 0.000000 
3.181748 8.164202 0.000000 
35.956196 1.326190 0.000000 
26.949669 11.294078 0.000000 
49.831513 2.278874 0.000000 
17.643606 12.970989 0.000000 
0.230324 14.380268 0.000000 
0.621352 14.769414 0.000000 
59.773079 1.883167 0.000000 
48.385930 0.208233 0.000000 
4.657650 13.966048 0.000000 
5.779892 3.667179 0.000000 
17.581438 8.261652 0.000000 
1.020352 13.986145 0.000000 
11.216821 2.403590 0.000000 
6.543033 3.556187 0.000000 
16.077569 9.193563 0.000000 
13.957823 6.987166 0.000000 
15.684490 9.915612 0.000000 
50.325873 4.513136 0.000000 
29.057513 3.851215 0.000000 
28.937622 5.251262 0.000000 
29.151562 5.625646 0.000000 
22.971535 10.113452 0.000000 
20.242922 0.206413 0.000000 
20.606356 2.568663 0.000000 
29.260024 3.684990 0.000000 
24.750632 7.152074 0.000000 
20.190900 1.405402 0.000000 
3.382098 14.785755 0.000000 
30.088699 3.277066 0.000000 
35.186641 0.218340 0.000000 
0.876026 14.788442 0.000000 
21.001172 0.207460 0.000000 
13.212169 8.300531 0.000000 
54.500549 0.930314 0.000000 
14.579593 0.217666 0.000000 
39.594575 0.744313 0.000000 
8.807792 0.217458 0.000000 
1.308249 14.024099 0.000000 
30.046793 5.383399 0.000000 
27.471470 9.663829 0.000000 
15.385815 14.793485 0.000000 
19.334322 8.617014 0.000000 
23.531967 6.139267 0.000000 
8.068595 0.234811 0.000000 
8.560756 0.229648 0.000000 
4.629011 14.799092 0.000000 
25.255499 4.694447 0.000000 
8.315910 0.234149 0.000000 
9.591966 3.399088 0.000000 
21.284255 9.650388 0.000000 
3.603972 8.885275 0.000000 
30.941301 7.297366 0.000000 
21.252700 0.203829 0.000000 
21.292891 1.006188 0.000000 
4.389887 13.985970 0.000000 
4.381930 14.796664 0.000000 
5.627114 8.783893 0.000000 
10.502041 3.402880 0.000000 
22.411947 9.585019 0.000000 
4.133451 14.794483 0.000000 
5.149518 4.795307 0.000000 
51.989437 2.458633 0.000000 
0.870924 13.498891 0.000000 
13.742122 6.366030 0.000000 
5.437793 2.377067 0.000000 
23.840743 8.790911 0.000000 
32.626848 8.453881 0.000000 
25.140912 6.430107 0.000000 
56.620163 4.782342 0.000000 
57.190447 3.386891 0.000000 
3.633767 14.789187 0.000000 
3.687269 13.984825 0.000000 
3.884163 14.792246 0.000000 
19.193264 1.228360 0.000000 
5.225906 3.133661 0.000000 
22.466375 12.558739 0.000000 
9.368528 5.028120 0.000000 
44.646127 4.786251 0.000000 
6.555561 3.082322 0.000000 
15.388903 2.481097 0.000000 
49.071365 4.158281 0.000000 
13.062017 0.226529 0.000000 
30.286773 2.058158 0.000000 
42.290408 0.775861 0.000000 
50.616388 3.319233 0.000000 
48.630099 0.204009 0.000000 
1.382476 14.786485 0.000000 
24.762883 4.108258 0.000000 
50.884199 0.659095 0.000000 
1.783756 11.093389 0.000000 
11.799623 3.163876 0.000000 
13.283248 7.831488 0.000000 
5.642478 4.377480 0.000000 
21.501754 0.199584 0.000000 
21.536964 0.990149 0.000000 
57.683862 3.428942 0.000000 
6.847176 1.700569 0.000000 
3.400167 9.347682 0.000000 
7.073675 12.836264 0.000000 
11.029726 9.729385 0.000000 
54.635883 0.229540 0.000000 
45.922684 0.688262 0.000000 
53.887011 0.210294 0.000000 
30.181228 2.723723 0.000000 
34.885542 5.738149 0.000000 
9.352179 4.105721 0.000000 
10.453418 10.458219 0.000000 
32.849021 8.328484 0.000000 
21.748333 0.195979 0.000000 
12.347866 7.074494 0.000000 
27.428215 0.771678 0.000000 
25.297456 6.605667 0.000000 
45.005121 1.975315 0.000000 
58.709203 1.599365 0.000000 
7.322339 3.979307 0.000000 
51.467617 1.695202 0.000000 
11.282994 1.019296 0.000000 
1.460935 1.360246 0.000000 
35.482474 3.789307 0.000000 
35.641720 4.172554 0.000000 
25.227822 2.732463 0.000000 
30.949897 8.426593 0.000000 
32.459324 7.655198 0.000000 
17.430349 12.928124 0.000000 
4.445821 4.528068 0.000000 
42.886492 4.788783 0.000000 
30.420379 7.227357 0.000000 
1.207678 12.909701 0.000000 
11.472640 7.525232 0.000000 
32.689635 0.227047 0.000000 
19.780339 7.546214 0.000000 
36.537972 0.906649 0.000000 
45.419735 2.214148 0.000000 
3.662931 1.483169 0.000000 
8.584743 13.041560 0.000000 
14.220307 0.876499 0.000000 
54.054054 0.939285 0.000000 
37.093639 5.450735 0.000000 
25.597352 2.253286 0.000000 
11.171531 3.304182 0.000000 
4.927585 13.902214 0.000000 
15.133812 14.798175 0.000000 
25.023759 0.811607 0.000000 
43.128556 2.281581 0.000000 
59.384384 4.747906 0.000000 
56.756512 2.779591 0.000000 
5.248524 9.436205 0.000000 
53.146190 0.220063 0.000000 
24.675809 11.219702 0.000000 
9.623442 14.768975 0.000000 
7.884760 11.962494 0.000000 
8.266484 12.048124 0.000000 
22.892455 4.437921 0.000000 
2.765827 11.928030 0.000000 
21.997954 0.202422 0.000000 
11.559026 8.412547 0.000000 
3.037538 9.097099 0.000000 
15.032925 8.421611 0.000000 
6.168399 11.494440 0.000000 
59.782850 4.387810 0.000000 
1.130758 14.792016 0.000000 
33.301902 8.114356 0.000000 
43.787337 2.910370 0.000000 
22.053760 0.945068 0.000000 
33.064354 8.217968 0.000000 
24.654168 6.925250 0.000000 
28.645027 2.801131 0.000000 
19.689813 1.362931 0.000000 
1.590242 13.916747 0.000000 
14.646112 3.046866 0.000000 
11.714340 2.416470 0.000000 
42.676206 0.209524 0.000000 
24.001359 11.869194 0.000000 
25.625048 11.945043 0.000000 
28.616879 1.288789 0.000000 
8.614534 14.783636 0.000000 
18.623592 5.417070 0.000000 
32.715380 7.549282 0.000000 
27.194257 3.946730 0.000000 
15.641448 14.784433 0.000000 
27.991786 3.010761 0.000000 
50.615474 1.359860 0.000000 
6.372481 14.786401 0.000000 
55.975317 1.023934 0.000000 
22.251076 0.226621 0.000000 
0.932334 10.469855 0.000000 
32.972289 7.170770 0.000000 
16.769885 0.837905 0.000000 
23.293047 11.994434 0.000000 
24.997899 6.249202 0.000000 
13.894619 8.748780 0.000000 
22.289773 0.937594 0.000000 
31.026727 6.435015 0.000000 
7.129812 13.986696 0.000000 
20.321703 1.626774 0.000000 
28.731128 4.660865 0.000000 
36.580329 5.853443 0.000000 
39.588697 4.212685 0.000000 
28.063304 10.717773 0.000000 
55.466472 4.218184 0.000000 
16.036805 1.927863 0.000000 
40.088590 4.776858 0.000000 
43.511548 1.307808 0.000000 
27.725008 1.434010 0.000000 
15.584783 1.772045 0.000000 
1.297637 0.387797 0.000000 
22.664587 0.818383 0.000000 
42.603960 4.144588 0.000000 
45.310955 4.129325 0.000000 
20.978079 1.388587 0.000000 
23.086894 12.392117 0.000000 
31.826464 5.559488 0.000000 
29.838187 9.833468 0.000000 
22.910071 13.305672 0.000000 
42.488328 0.894755 0.000000 
20.242087 14.662943 0.000000 
19.153926 4.851854 0.000000 
27.172763 11.161145 0.000000 
31.494036 6.814504 0.000000 
6.416692 11.854745 0.000000 
8.606351 1.045353 0.000000 
17.870875 13.010477 0.000000 
5.443356 10.191364 0.000000 
8.094459 2.547674 0.000000 
8.323050 1.010994 0.000000 
45.636529 0.221373 0.000000 
27.133449 8.613987 0.000000 
34.194121 0.219724 0.000000 
45.224330 2.100000 0.000000 
19.138593 7.907454 0.000000 
59.279268 2.918004 0.000000 
11.550273 3.093436 0.000000 
4.090422 4.193264 0.000000 
3.975334 3.816698 0.000000 
34.940124 0.214357 0.000000 
6.263591 13.755141 0.000000 
22.789422 10.244186 0.000000 
25.967359 4.282874 0.000000 
4.088831 9.455540 0.000000 
19.464176 5.322814 0.000000 
1.945431 10.607344 0.000000 
3.260153 1.384087 0.000000 
12.385334 0.731312 0.000000 
5.757813 2.085014 0.000000 
40.034208 0.871426 0.000000 
30.297152 6.475386 0.000000 
24.725908 0.208222 0.000000 
0.215097 10.362225 0.000000 
0.216560 7.361797 0.000000 
37.127633 6.209421 0.000000 
9.083374 12.252304 0.000000 
21.596672 4.241786 0.000000 
19.848726 0.774916 0.000000 
10.531409 11.923926 0.000000 
22.381694 12.967801 0.000000 
13.399091 0.886756 0.000000 
34.762239 0.857313 0.000000 
10.544739 0.766395 0.000000 
21.357145 2.887607 0.000000 
0.234034 3.130363 0.000000 
30.624621 7.676556 0.000000 
3.679009 8.656711 0.000000 
15.877683 14.803150 0.000000 
44.894140 4.783613 0.000000 
15.827655 14.034134 0.000000 
24.477524 0.210591 0.000000 
53.351127 1.221075 0.000000 
21.792932 0.980985 0.000000 
27.450378 3.474983 0.000000 
10.049650 11.007897 0.000000 
16.995213 2.855034 0.000000 
16.628023 2.692483 0.000000 
4.351569 10.107639 0.000000 
30.266578 7.860601 0.000000 
7.279879 2.903766 0.000000 
48.569130 2.610978 0.000000 
15.958433 0.542313 0.000000 
16.325676 10.226291 0.000000 
27.395328 11.045098 0.000000 
7.274656 11.899642 0.000000 
6.328061 0.216431 0.000000 
28.815926 3.963769 0.000000 
25.383869 3.812081 0.000000 
25.463114 4.497544 0.000000 
25.166026 3.911421 0.000000 
39.731881 4.016754 0.000000 
9.481293 13.488550 0.000000 
20.700386 3.352162 0.000000 
25.728206 4.395616 0.000000 
13.441205 8.201438 0.000000 
35.091723 7.202863 0.000000 
54.136316 0.216657 0.000000 
45.072668 4.125058 0.000000 
50.896228 1.774476 0.000000 
0.217660 10.119198 0.000000 
7.050176 4.041983 0.000000 
26.699540 8.920834 0.000000 
43.871485 2.269287 0.000000 
9.238821 5.872651 0.000000 
10.321992 9.785887 0.000000 
11.511284 13.838313 0.000000 
39.068710 0.785697 0.000000 
59.764187 2.642711 0.000000 
7.126634 11.721889 0.000000 
45.143285 4.783273 0.000000 
59.222988 4.020675 0.000000 
37.342392 6.102905 0.000000 
58.392766 1.947274 0.000000 
13.301479 0.226451 0.000000 
32.338049 0.851243 0.000000 
54.382364 0.223398 0.000000 
36.419617 0.211530 0.000000 
0.703140 3.405607 0.000000 
23.370240 9.375129 0.000000 
8.190898 1.462524 0.000000 
15.020538 0.840927 0.000000 
21.191536 4.288922 0.000000 
13.797845 8.195120 0.000000 
21.500117 1.799849 0.000000 
11.472317 2.414718 0.000000 
0.960860 0.939429 0.000000 
57.346044 4.359520 0.000000 
20.194379 13.940860 0.000000 
19.628184 7.747256 0.000000 
48.901132 4.775411 0.000000 
23.355846 13.055874 0.000000 
10.333944 0.240976 0.000000 
20.430519 1.848922 0.000000 
16.008287 12.948920 0.000000 
6.672965 12.982484 0.000000 
6.773607 3.455658 0.000000 
20.453794 14.547714 0.000000 
1.563994 12.205314 0.000000 
42.101464 0.680199 0.000000 
6.685032 2.109784 0.000000 
18.414484 8.242097 0.000000 
27.726608 1.006010 0.000000 
17.802189 2.932924 0.000000 
20.729361 3.068717 0.000000 
35.075288 6.132282 0.000000 
22.663411 9.542482 0.000000 
12.171572 10.450292 0.000000 
20.274627 3.104846 0.000000 
8.617787 13.294461 0.000000 
45.391679 4.780620 0.000000 
31.197922 0.232211 0.000000 
27.090773 10.440762 0.000000 
31.092985 8.110593 0.000000 
46.392410 3.830974 0.000000 
25.572776 5.005324 0.000000 
21.042990 1.630860 0.000000 
24.304361 0.847933 0.000000 
11.378862 14.766699 0.000000 
9.958163 11.450995 0.000000 
6.545066 14.061842 0.000000 
19.666752 12.924615 0.000000 
27.630025 10.953075 0.000000 
22.989118 4.051304 0.000000 
9.501184 12.603102 0.000000 
3.005399 11.587980 0.000000 
25.792732 2.376872 0.000000 
43.155857 0.821950 0.000000 
2.821286 11.214476 0.000000 
45.541678 4.129120 0.000000 
11.025291 1.937799 0.000000 
3.471140 2.969761 0.000000 
51.638349 4.792021 0.000000 
28.307463 3.667676 0.000000 
5.033874 9.346998 0.000000 
4.999032 4.999093 0.000000 
13.789355 6.116615 0.000000 
21.142965 2.095781 0.000000 
45.642214 4.773052 0.000000 
43.845749 0.990764 0.000000 
30.082854 3.968468 0.000000 
13.590981 2.596454 0.000000 
19.857581 14.776082 0.000000 
5.106524 0.725492 0.000000 
9.111442 8.002966 0.000000 
46.725806 4.125288 0.000000 
6.578106 4.176780 0.000000 
44.143794 0.528913 0.000000 
32.451138 0.209996 0.000000 
47.935150 0.669437 0.000000 
17.644452 2.057789 0.000000 
31.451088 0.710048 0.000000 
21.506183 3.138473 0.000000 
11.517417 12.131623 0.000000 
6.692752 11.099076 0.000000 
9.876096 14.768355 0.000000 
12.296953 3.309452 0.000000 
29.613070 1.916485 0.000000 
22.488268 0.216043 0.000000 
7.496293 1.551598 0.000000 
30.941408 5.580701 0.000000 
14.797535 14.206499 0.000000 
34.520563 2.652180 0.000000 
2.871005 0.854034 0.000000 
5.933565 10.926330 0.000000 
29.826438 6.945998 0.000000 
0.830921 7.073050 0.000000 
5.909085 10.185066 0.000000 
39.326223 4.608328 0.000000 
48.387627 4.781138 0.000000 
5.739292 13.585827 0.000000 
6.143887 8.791705 0.000000 
46.018509 3.032381 0.000000 
27.856157 10.832803 0.000000 
22.858152 0.702657 0.000000 
26.339369 8.351948 0.000000 
8.918797 4.591427 0.000000 
43.094471 0.611613 0.000000 
5.883530 9.934142 0.000000 
27.320657 10.375838 0.000000 
48.680368 1.686201 0.000000 
49.179096 1.799050 0.000000 
29.734393 0.215178 0.000000 
40.463114 4.207952 0.000000 
6.959957 11.546520 0.000000 
0.831582 9.840813 0.000000 
20.652562 2.804114 0.000000 
22.480030 4.752130 0.000000 
40.849853 0.459742 0.000000 
29.469996 0.647710 0.000000 
21.239252 2.618612 0.000000 
40.253350 4.028549 0.000000 
12.091943 2.202051 0.000000 
20.704513 13.796471 0.000000 
6.798589 4.120133 0.000000 
43.096032 2.816186 0.000000 
31.950007 7.000185 0.000000 
31.890046 7.619564 0.000000 
21.786698 5.184490 0.000000 
48.691409 1.400313 0.000000 
4.397880 0.790919 0.000000 
32.552026 6.977548 0.000000 
21.198949 2.345766 0.000000 
31.958541 8.768563 0.000000 
3.224302 3.281725 0.000000 
27.350396 2.192378 0.000000 
44.743875 1.337654 0.000000 
20.451258 13.850106 0.000000 
51.294662 4.161021 0.000000 
0.626296 0.582609 0.000000 
20.555939 2.347658 0.000000 
10.266705 12.019072 0.000000 
24.226321 0.215623 0.000000 
20.669647 14.431743 0.000000 
23.565208 9.768552 0.000000 
8.674173 1.634994 0.000000 
19.797863 4.402713 0.000000 
20.083947 4.170301 0.000000 
42.434880 0.245241 0.000000 
3.853517 10.458345 0.000000 
0.669444 11.266783 0.000000 
3.525976 9.115574 0.000000 
2.430339 12.650352 0.000000 
37.330029 5.484138 0.000000 
20.507535 2.100938 0.000000 
2.398423 11.154615 0.000000 
12.472377 0.976115 0.000000 
8.364286 14.789877 0.000000 
55.392210 0.209943 0.000000 
26.143982 2.079654 0.000000 
48.012556 1.708849 0.000000 
18.359743 8.466607 0.000000 
59.778615 1.635766 0.000000 
48.760903 1.959150 0.000000 
8.920968 11.809042 0.000000 
12.132707 14.023095 0.000000 
9.572409 8.385409 0.000000 
18.773929 8.923675 0.000000 
22.904927 9.479837 0.000000 
46.711068 0.696311 0.000000 
39.447790 4.416487 0.000000 
40.516322 1.135514 0.000000 
48.217526 2.871292 0.000000 
11.890837 14.789771 0.000000 
14.092792 7.200457 0.000000 
22.997670 11.640549 0.000000 
12.634292 2.555526 0.000000 
6.583080 10.864537 0.000000 
4.330102 4.963860 0.000000 
45.131906 0.221849 0.000000 
21.793909 1.409103 0.000000 
20.768175 11.754292 0.000000 
21.158340 3.835221 0.000000 
16.851997 14.011152 0.000000 
23.181662 10.029444 0.000000 
39.819288 4.833812 0.000000 
24.843303 6.065038 0.000000 
36.715838 0.755398 0.000000 
6.623056 14.760721 0.000000 
8.402732 8.981766 0.000000 
8.728498 9.183403 0.000000 
56.877148 4.774698 0.000000 
12.079738 1.139699 0.000000 
34.696183 0.215136 0.000000 
1.874632 12.858565 0.000000 
34.445127 0.213667 0.000000 
11.135211 14.785503 0.000000 
6.354804 4.210189 0.000000 
14.524519 1.310407 0.000000 
11.380304 12.661160 0.000000 
7.333871 14.413379 0.000000 
10.814056 14.261394 0.000000 
47.069693 3.452860 0.000000 
17.409460 13.585363 0.000000 
21.889195 11.728655 0.000000 
51.995342 1.269096 0.000000 
5.785678 11.798398 0.000000 
9.774552 6.330001 0.000000 
4.874740 9.734606 0.000000 
59.122299 4.792414 0.000000 
1.999978 9.952973 0.000000 
42.730348 0.991537 0.000000 
13.108113 2.276651 0.000000 
4.835828 1.217022 0.000000 
6.957634 12.322270 0.000000 
11.019392 14.187714 0.000000 
18.754716 8.516305 0.000000 
13.861876 7.676007 0.000000 
0.749865 12.884713 0.000000 
58.222904 0.632742 0.000000 
22.571195 10.870131 0.000000 
47.532530 0.897771 0.000000 
42.637210 4.787275 0.000000 
19.991763 5.201897 0.000000 
9.876799 14.114500 0.000000 
19.025833 0.207295 0.000000 
51.238979 0.792846 0.000000 
21.031864 9.666160 0.000000 
48.874167 0.215401 0.000000 
33.901919 5.963731 0.000000 
59.417266 3.463366 0.000000 
0.211454 14.133306 0.000000 
7.715492 2.833511 0.000000 
12.834630 9.412238 0.000000 
19.172049 0.715071 0.000000 
10.227512 6.755250 0.000000 
13.493015 3.864710 0.000000 
30.078691 2.222023 0.000000 
4.796377 0.966391 0.000000 
46.535303 3.677229 0.000000 
54.934422 1.247229 0.000000 
6.308493 9.564337 0.000000 
24.512948 6.690499 0.000000 
24.159446 9.653770 0.000000 
46.074209 3.421277 0.000000 
48.044023 1.401881 0.000000 
21.573916 11.529566 0.000000 
13.414758 5.731777 0.000000 
50.413754 2.406872 0.000000 
46.869710 3.492083 0.000000 
36.733821 4.915755 0.000000 
4.062157 0.229611 0.000000 
19.062800 5.666691 0.000000 
2.598842 13.209780 0.000000 
28.588514 9.239584 0.000000 
48.866495 2.180809 0.000000 
2.046488 13.373767 0.000000 
58.889110 4.329639 0.000000 
11.946364 13.163927 0.000000 
5.880454 4.316876 0.000000 
20.961492 10.282311 0.000000 
43.181647 2.556086 0.000000 
15.823009 1.855186 0.000000 
49.099088 0.667600 0.000000 
7.413614 12.061662 0.000000 
13.571230 0.256699 0.000000 
11.658547 0.956015 0.000000 
32.116053 0.724319 0.000000 
18.561283 5.174522 0.000000 
48.021670 1.104800 0.000000 
10.271777 7.278293 0.000000 
21.173400 5.539713 0.000000 
28.517223 4.532076 0.000000 
17.212884 12.877043 0.000000 
19.445318 8.797269 0.000000 
20.888815 14.297878 0.000000 
47.301331 4.572027 0.000000 
24.218897 9.148744 0.000000 
14.835958 0.213010 0.000000 
51.763474 3.047973 0.000000 
20.611365 11.056072 0.000000 
0.571010 6.982609 0.000000 
39.187089 0.195168 0.000000 
19.312178 12.150256 0.000000 
5.021745 8.735236 0.000000 
27.310232 2.589025 0.000000 
15.884079 2.375512 0.000000 
45.327756 3.680595 0.000000 
45.549831 3.494440 0.000000 
48.421377 2.463727 0.000000 
4.163109 8.549084 0.000000 
49.056394 3.554514 0.000000 
14.373703 1.107702 0.000000 
31.196176 7.355341 0.000000 
1.854689 2.334837 0.000000 
27.489707 3.012369 0.000000 
0.995762 12.805963 0.000000 
42.974008 1.580325 0.000000 
30.537994 6.396526 0.000000 
40.346801 4.787334 0.000000 
4.825476 5.195021 0.000000 
48.145713 0.216428 0.000000 
7.626255 14.041950 0.000000 
0.928255 7.599459 0.000000 
10.871812 14.783289 0.000000 
47.145870 0.657997 0.000000 
10.717478 10.035782 0.000000 
33.807789 1.663608 0.000000 
0.208998 10.612283 0.000000 
27.973387 3.476165 0.000000 
8.741568 1.859287 0.000000 
14.328302 0.218796 0.000000 
17.999009 8.020069 0.000000 
29.949469 9.282371 0.000000 
51.114096 0.218676 0.000000 
9.726421 8.180839 0.000000 
20.844817 6.464880 0.000000 
10.126460 14.772286 0.000000 
55.673632 0.616609 0.000000 
18.615073 6.909995 0.000000 
52.003518 0.724475 0.000000 
28.053211 0.710904 0.000000 
51.928051 1.786211 0.000000 
56.516301 2.617939 0.000000 
23.975321 0.216166 0.000000 
8.177736 13.561059 0.000000 
28.691771 3.578566 0.000000 
23.152784 9.423985 0.000000 
9.809425 13.219888 0.000000 
48.997992 3.776553 0.000000 
14.830054 1.943661 0.000000 
19.390743 9.015377 0.000000 
6.002171 12.108122 0.000000 
14.882569 14.798407 0.000000 
22.746567 0.204770 0.000000 
39.256556 1.788466 0.000000 
37.557453 5.947705 0.000000 
55.606200 4.788252 0.000000 
46.578509 2.720682 0.000000 
39.439419 0.191965 0.000000 
16.497199 10.543192 0.000000 
51.390138 4.790636 0.000000 
27.556590 9.005767 0.000000 
12.685909 9.213643 0.000000 
25.145692 2.523023 0.000000 
4.780208 8.748657 0.000000 
1.810559 2.802394 0.000000 
23.385060 9.897457 0.000000 
48.714275 2.779776 0.000000 
17.061409 14.479777 0.000000 
32.198179 0.207094 0.000000 
15.143847 1.574707 0.000000 
9.861626 7.554940 0.000000 
13.008844 9.570177 0.000000 
12.571911 0.183094 0.000000 
0.227011 2.131104 0.000000 
3.760781 1.264899 0.000000 
6.199285 3.717807 0.000000 
24.674362 5.871760 0.000000 
43.919787 1.451178 0.000000 
28.252689 0.222688 0.000000 
9.446647 11.365706 0.000000 
8.747402 4.966278 0.000000 
28.370044 4.098113 0.000000 
29.012303 3.383583 0.000000 
9.907260 8.002045 0.000000 
6.283318 1.629558 0.000000 
19.991845 0.205283 0.000000 
57.134517 4.308365 0.000000 
24.315697 6.169409 0.000000 
20.632087 3.600380 0.000000 
51.156900 4.379828 0.000000 
17.173546 13.482207 0.000000 
56.846981 2.265078 0.000000 
16.438364 0.611995 0.000000 
47.584595 3.959317 0.000000 
20.540541 5.944942 0.000000 
57.938439 2.393343 0.000000 
13.815380 0.682057 0.000000 
31.928833 1.117271 0.000000 
29.133156 4.858922 0.000000 
59.787359 4.144841 0.000000 
20.939954 13.751093 0.000000 
36.685729 0.247480 0.000000 
6.814764 11.326476 0.000000 
12.657314 12.644952 0.000000 
12.890031 12.775175 0.000000 
4.535840 8.754893 0.000000 
0.217638 12.116602 0.000000 
28.298974 10.621383 0.000000 
51.959189 4.380328 0.000000 
13.693244 4.938769 0.000000 
1.712908 6.935735 0.000000 
2.527513 12.921283 0.000000 
47.378601 3.821555 0.000000 
10.024332 12.142107 0.000000 
58.525023 2.616838 0.000000 
6.655086 13.658751 0.000000 
10.629384 14.765417 0.000000 
31.340198 8.610628 0.000000 
25.406670 12.057380 0.000000 
21.111594 14.175874 0.000000 
3.857229 7.311769 0.000000 
3.846993 7.037299 0.000000 
59.342350 1.359527 0.000000 
46.686615 2.186966 0.000000 
24.386263 6.444983 0.000000 
30.446969 8.803416 0.000000 
8.867998 8.122271 0.000000 
10.593041 14.317132 0.000000 
10.830250 1.792332 0.000000 
10.505461 13.901267 0.000000 
16.146729 8.714916 0.000000 
16.415734 8.684526 0.000000 
5.283941 1.316151 0.000000 
20.669587 10.587241 0.000000 
28.541101 1.558947 0.000000 
6.081446 0.213827 0.000000 
29.730713 3.601889 0.000000 
45.829968 2.609778 0.000000 
28.596422 1.831162 0.000000 
25.144601 5.519872 0.000000 
25.182440 5.783509 0.000000 
12.230905 1.986840 0.000000 
51.744278 0.853408 0.000000 
19.830509 9.186879 0.000000 
9.765464 11.654700 0.000000 
22.562345 5.669180 0.000000 
13.552368 10.308952 0.000000 
4.281611 5.197699 0.000000 
9.911650 10.770365 0.000000 
15.143153 2.509631 0.000000 
24.581697 11.997521 0.000000 
27.628773 10.095067 0.000000 
52.893807 0.213623 0.000000 
16.378739 10.908791 0.000000 
8.113289 14.788077 0.000000 
35.428736 1.299623 0.000000 
29.463690 9.480781 0.000000 
6.764304 14.223029 0.000000 
30.367272 4.932272 0.000000 
9.460362 8.625997 0.000000 
13.411165 13.212405 0.000000 
40.494967 0.660586 0.000000 
40.305402 0.580852 0.000000 
0.579236 13.840784 0.000000 
25.168992 0.611022 0.000000 
57.128310 4.773860 0.000000 
0.219800 7.607269 0.000000 
35.760006 6.295341 0.000000 
57.890332 0.220284 0.000000 
17.186597 1.446646 0.000000 
2.310721 2.155598 0.000000 
52.692148 0.641735 0.000000 
1.765297 10.416277 0.000000 
51.370057 3.312392 0.000000 
14.226642 7.402625 0.000000 
48.081681 4.387505 0.000000 
0.211235 11.884225 0.000000 
16.235973 14.319549 0.000000 
49.139132 2.465924 0.000000 
42.177708 0.241309 0.000000 
4.498045 0.621224 0.000000 
6.326001 9.822709 0.000000 
4.775564 9.231005 0.000000 
12.172488 13.789982 0.000000 
29.667433 2.560716 0.000000 
8.147154 14.213851 0.000000 
51.366728 0.623201 0.000000 
6.360432 10.083893 0.000000 
34.235666 1.513391 0.000000 
13.675144 4.724919 0.000000 
6.125015 4.247011 0.000000 
12.268885 11.201807 0.000000 
30.917436 5.338372 0.000000 
14.067183 7.841690 0.000000 
23.728795 0.216927 0.000000 
1.958810 13.143172 0.000000 
50.573962 2.852869 0.000000 
5.891731 0.640631 0.000000 
12.073769 12.106406 0.000000 
18.142530 12.623108 0.000000 
22.698617 13.428541 0.000000 
19.969619 8.051971 0.000000 
19.947163 8.316397 0.000000 
29.043421 2.997418 0.000000 
29.916216 4.452539 0.000000 
0.637465 11.755243 0.000000 
10.073835 7.220693 0.000000 
21.396975 5.689847 0.000000 
44.726406 1.893235 0.000000 
15.390318 13.724685 0.000000 
48.609215 3.464502 0.000000 
24.060193 0.814395 0.000000 
10.416854 6.856525 0.000000 
3.447715 2.480656 0.000000 
31.740430 8.880867 0.000000 
13.866478 9.065932 0.000000 
39.697631 0.555740 0.000000 
12.687761 2.283686 0.000000 
51.874752 4.805021 0.000000 
56.052642 2.727411 0.000000 
12.197345 14.423245 0.000000 
29.249204 2.559093 0.000000 
39.587835 4.948326 0.000000 
46.373401 2.511686 0.000000 
43.561005 0.527159 0.000000 
53.062629 1.817305 0.000000 
51.504893 1.075787 0.000000 
10.134071 14.273907 0.000000 
50.073623 2.187585 0.000000 
21.187417 13.676171 0.000000 
49.271956 2.649477 0.000000 
49.370225 0.965594 0.000000 
4.481007 9.217779 0.000000 
10.376285 14.770938 0.000000 
19.468703 6.891793 0.000000 
14.933133 1.104283 0.000000 
31.166850 8.726651 0.000000 
19.805013 9.619862 0.000000 
24.170922 5.946089 0.000000 
47.081638 2.297223 0.000000 
9.116717 6.370292 0.000000 
12.418992 10.394952 0.000000 
17.626285 1.363892 0.000000 
10.587887 0.226266 0.000000 
50.975024 3.552015 0.000000 
20.434775 5.424289 0.000000 
21.764869 11.125403 0.000000 
9.736021 4.670673 0.000000 
20.040551 9.685585 0.000000 
37.338522 0.908704 0.000000 
48.079876 3.961204 0.000000 
21.351901 14.073079 0.000000 
24.232942 12.333396 0.000000 
0.210615 10.861108 0.000000 
28.562203 0.624568 0.000000 
0.659485 11.052542 0.000000 
3.673288 10.876372 0.000000 
0.220964 11.105046 0.000000 
14.629570 1.515220 0.000000 
6.528698 9.169871 0.000000 
0.251366 11.371447 0.000000 
13.881237 14.358643 0.000000 
0.673688 11.488863 0.000000 
0.211432 11.632545 0.000000 
40.647778 4.403778 0.000000 
24.974832 0.206462 0.000000 
9.796545 9.823617 0.000000 
21.284722 6.126203 0.000000 
16.002458 13.554257 0.000000 
29.566131 8.537648 0.000000 
29.078080 8.710266 0.000000 
12.214557 8.513953 0.000000 
35.316186 7.101981 0.000000 
13.172979 13.230377 0.000000 
9.493158 10.127972 0.000000 
11.848564 13.392047 0.000000 
13.839363 0.220186 0.000000 
45.590873 2.334169 0.000000 
57.360021 2.643714 0.000000 
13.001260 14.153107 0.000000 
32.261841 7.296929 0.000000 
30.042321 8.728721 0.000000 
9.631344 10.320484 0.000000 
19.255187 0.200494 0.000000 
36.910040 6.320700 0.000000 
13.848832 3.551334 0.000000 
59.789540 1.392300 0.000000 
22.070483 12.202922 0.000000 
31.884507 0.618641 0.000000 
13.427704 3.643616 0.000000 
10.108609 10.267424 0.000000 
30.571081 5.027158 0.000000 
38.922069 0.592396 0.000000 
28.504611 0.204476 0.000000 
43.556441 0.735120 0.000000 
34.033557 5.745031 0.000000 
22.796278 12.295517 0.000000 
13.207857 13.696920 0.000000 
35.199256 4.742509 0.000000 
3.821663 0.215440 0.000000 
41.725968 0.939629 0.000000 
41.482248 1.025922 0.000000 
19.380391 0.594606 0.000000 
58.146190 0.207439 0.000000 
23.076669 0.606764 0.000000 
24.343710 12.087347 0.000000 
11.393203 0.625753 0.000000 
11.320540 0.211313 0.000000 
20.295467 10.221309 0.000000 
6.866593 14.760417 0.000000 
11.704225 3.579956 0.000000 
34.415033 5.996038 0.000000 
29.248380 8.803140 0.000000 
35.995378 5.433182 0.000000 
14.831201 8.254456 0.000000 
36.914808 0.622311 0.000000 
11.480686 3.719251 0.000000 
52.289148 2.064760 0.000000 
5.737917 11.020730 0.000000 
24.717730 12.395129 0.000000 
12.796572 14.494177 0.000000 
2.342603 0.212574 0.000000 
13.857960 14.792216 0.000000 
6.404229 8.764105 0.000000 
58.837149 0.738840 0.000000 
29.889022 2.391597 0.000000 
31.458715 0.243156 0.000000 
11.705912 12.318372 0.000000 
44.305499 2.457396 0.000000 
16.903237 1.747047 0.000000 
19.327125 12.668716 0.000000 
13.590717 9.436172 0.000000 
59.756203 2.900805 0.000000 
24.955001 12.283490 0.000000 
22.977926 0.207084 0.000000 
4.324695 0.221453 0.000000 
47.986463 1.998626 0.000000 
57.337603 3.147786 0.000000 
14.080860 0.220274 0.000000 
18.131696 14.801778 0.000000 
7.393146 12.453968 0.000000 
39.784554 2.133808 0.000000 
24.808891 11.886490 0.000000 
21.588397 13.965512 0.000000 
28.279801 8.972172 0.000000 
20.235940 9.328663 0.000000 
21.428796 13.583260 0.000000 
12.291277 9.009889 0.000000 
45.884243 4.767666 0.000000 
27.858395 0.562462 0.000000 
47.728991 4.158972 0.000000 
28.925333 0.952840 0.000000 
51.611911 1.255837 0.000000 
9.567568 11.842365 0.000000 
51.800292 3.979431 0.000000 
9.572043 6.532284 0.000000 
12.780494 2.994052 0.000000 
25.184541 12.168037 0.000000 
44.557935 2.301785 0.000000 
58.886927 4.787528 0.000000 
11.044896 3.526410 0.000000 
0.237708 3.383717 0.000000 
49.177884 4.772779 0.000000 
15.317285 13.495189 0.000000 
18.463511 4.946221 0.000000 
23.588398 12.924415 0.000000 
31.527979 8.995448 0.000000 
14.634570 14.393718 0.000000 
13.537526 5.520605 0.000000 
37.582248 5.487462 0.000000 
4.063896 9.847945 0.000000 
42.411280 4.318198 0.000000 
23.773128 9.705932 0.000000 
0.183764 7.129188 0.000000 
30.887835 9.012519 0.000000 
40.179367 2.206944 0.000000 
20.135384 7.178174 0.000000 
15.714216 13.180228 0.000000 
0.725889 12.015484 0.000000 
35.041521 1.495997 0.000000 
20.656562 6.637541 0.000000 
18.777962 4.705430 0.000000 
1.781803 9.902576 0.000000 
34.982647 4.703607 0.000000 
31.965505 0.211849 0.000000 
14.923510 13.793996 0.000000 
41.227730 0.553456 0.000000 
0.534003 12.411868 0.000000 
21.818507 13.857357 0.000000 
11.087717 0.203664 0.000000 
9.336646 7.621597 0.000000 
25.051546 2.325221 0.000000 
23.564885 12.105128 0.000000 
13.991324 1.294950 0.000000 
1.664303 0.666005 0.000000 
8.643195 2.529913 0.000000 
0.201013 9.870549 0.000000 
7.132997 14.374884 0.000000 
0.590679 7.908337 0.000000 
57.173703 2.753877 0.000000 
35.773010 1.478888 0.000000 
1.153277 11.988334 0.000000 
7.110406 14.788549 0.000000 
50.724988 0.482310 0.000000 
30.246270 4.154945 0.000000 
2.494486 0.579771 0.000000 
23.471994 0.618351 0.000000 
41.901311 0.621086 0.000000 
45.424013 2.710615 0.000000 
16.822200 2.238282 0.000000 
1.094493 7.151804 0.000000 
28.893330 9.577637 0.000000 
0.207753 0.609522 0.000000 
23.468657 0.227665 0.000000 
39.502894 0.950093 0.000000 
33.014179 6.202776 0.000000 
33.259788 6.113616 0.000000 
16.758832 1.311176 0.000000 
31.637051 5.911702 0.000000 
22.130122 11.303216 0.000000 
9.032958 8.785269 0.000000 
58.178082 4.202512 0.000000 
56.481236 0.472678 0.000000 
18.950225 7.502647 0.000000 
6.057305 10.421821 0.000000 
9.774546 10.542181 0.000000 
28.954494 9.124744 0.000000 
28.017046 0.202583 0.000000 
20.960747 3.980810 0.000000 
30.000347 5.155900 0.000000 
12.510220 14.175157 0.000000 
27.185605 9.952350 0.000000 
23.981667 9.232989 0.000000 
4.204687 5.438988 0.000000 
10.839530 0.200726 0.000000 
22.044320 13.750268 0.000000 
44.772319 0.443473 0.000000 
9.129700 4.698010 0.000000 
14.086023 4.856448 0.000000 
17.816049 1.848413 0.000000 
4.308547 0.984789 0.000000 
30.461001 5.971634 0.000000 
37.812030 5.844998 0.000000 
42.395681 4.776611 0.000000 
28.327063 10.156358 0.000000 
13.877640 5.847783 0.000000 
59.796291 3.890702 0.000000 
23.694613 0.666285 0.000000 
21.661937 13.478908 0.000000 
9.969903 10.045000 0.000000 
28.442190 8.789831 0.000000 
11.276255 9.403160 0.000000 
16.321231 2.273268 0.000000 
12.778902 1.256993 0.000000 
52.737581 1.075699 0.000000 
42.925183 1.354991 0.000000 
1.078155 13.570711 0.000000 
7.427359 4.445460 0.000000 
16.252860 1.989434 0.000000 
23.745263 9.275732 0.000000 
31.079096 7.903381 0.000000 
1.047530 11.082008 0.000000 
2.798827 2.332066 0.000000 
49.128588 3.337708 0.000000 
57.384762 4.752264 0.000000 
7.859785 14.764764 0.000000 
12.288019 6.656362 0.000000 
48.745340 3.210174 0.000000 
35.177211 4.355853 0.000000 
39.179123 4.796928 0.000000 
49.329039 4.553211 0.000000 
22.266866 13.646358 0.000000 
59.401324 3.670156 0.000000 
13.816135 3.282833 0.000000 
17.098597 0.627592 0.000000 
7.119555 1.813485 0.000000 
4.554321 5.611417 0.000000 
19.396166 4.849853 0.000000 
22.121748 13.279151 0.000000 
3.756004 8.414764 0.000000 
21.894985 13.378068 0.000000 
59.799760 3.645313 0.000000 
40.597092 4.806472 0.000000 
28.746603 0.185737 0.000000 
24.469343 12.495139 0.000000 
44.320788 1.024241 0.000000 
21.057726 6.290963 0.000000 
12.273599 0.463846 0.000000 
15.054642 13.100232 0.000000 
31.316472 9.104411 0.000000 
6.458548 10.630437 0.000000 
43.241356 1.020102 0.000000 
8.663290 8.590266 0.000000 
19.915850 6.829023 0.000000 
0.197035 7.866164 0.000000 
8.466622 2.724242 0.000000 
58.108346 2.256907 0.000000 
18.894257 7.797602 0.000000 
23.529014 4.158384 0.000000 
5.109097 10.880524 0.000000 
36.449209 6.308803 0.000000 
5.696195 11.290254 0.000000 
25.303909 2.028787 0.000000 
27.916835 8.772275 0.000000 
22.484876 13.542252 0.000000 
1.105057 1.543503 0.000000 
36.548825 6.119040 0.000000 
13.582142 4.232901 0.000000 
7.347369 14.795886 0.000000 
20.300260 6.973207 0.000000 
0.607017 0.789665 0.000000 
17.284528 13.965743 0.000000 
14.053042 4.634696 0.000000 
12.562789 9.751214 0.000000 
49.119070 0.225256 0.000000 
35.395270 4.795339 0.000000 
26.448021 9.430192 0.000000 
39.869029 3.789663 0.000000 
57.803525 0.734400 0.000000 
8.072232 13.768783 0.000000 
3.937539 10.712165 0.000000 
20.777856 9.674973 0.000000 
36.831206 5.453258 0.000000 
14.876685 13.533855 0.000000 
29.638883 9.933113 0.000000 
41.906658 0.226069 0.000000 
46.904444 3.933181 0.000000 
48.183350 3.699545 0.000000 
25.073705 3.323507 0.000000 
55.217457 1.886011 0.000000 
59.796750 3.401491 0.000000 
7.920168 14.343526 0.000000 
3.632284 13.566208 0.000000 
3.341932 1.122076 0.000000 
57.735061 2.852945 0.000000 
14.721353 1.728401 0.000000 
3.682739 0.602201 0.000000 
28.063151 8.528171 0.000000 
36.951137 0.214064 0.000000 
19.068311 7.033482 0.000000 
59.618580 0.212935 0.000000 
0.384394 14.786027 0.000000 
59.801839 4.621452 0.000000 
1.222594 7.589256 0.000000 
20.900903 5.623171 0.000000 
50.860100 0.235583 0.000000 
35.014140 2.020815 0.000000 
6.424546 12.136337 0.000000 
45.915752 3.831503 0.000000 
13.673155 4.477728 0.000000 
59.398779 3.271518 0.000000 
7.543746 14.450982 0.000000 
57.520934 4.493776 0.000000 
5.994320 1.326280 0.000000 
23.615727 12.639864 0.000000 
9.264626 7.369674 0.000000 
55.344148 4.777536 0.000000 
13.899654 3.829246 0.000000 
13.623208 14.782967 0.000000 
24.347560 7.397282 0.000000 
16.955826 12.871447 0.000000 
13.426805 3.219503 0.000000 
14.082332 2.479488 0.000000 
0.480313 1.322858 0.000000 
0.200846 0.380287 0.000000 
15.094903 0.207070 0.000000 
22.254971 5.383832 0.000000 
47.268236 3.415165 0.000000 
31.706170 0.220894 0.000000 
9.350910 9.657253 0.000000 
13.199090 9.699948 0.000000 
12.200873 12.525089 0.000000 
22.296071 5.646572 0.000000 
57.553643 2.523956 0.000000 
39.316570 5.048729 0.000000 
10.028438 4.354742 0.000000 
35.440322 6.698181 0.000000 
59.477407 1.125025 0.000000 
14.291375 8.018848 0.000000 
41.202959 0.252324 0.000000 
58.051518 2.638868 0.000000 
49.379040 3.029338 0.000000 
28.816256 0.567690 0.000000 
22.529701 11.395179 0.000000 
14.404678 8.257952 0.000000 
59.773474 3.149537 0.000000 
13.720592 5.169142 0.000000 
13.955395 4.392050 0.000000 
55.970692 2.462440 0.000000 
23.230764 0.213248 0.000000 
58.599470 0.859324 0.000000 
12.146793 12.323477 0.000000 
51.495019 3.725850 0.000000 
7.607225 14.733697 0.000000 
19.737931 0.213843 0.000000 
44.300511 1.463306 0.000000 
15.092280 12.656201 0.000000 
58.638939 4.454263 0.000000 
6.682510 8.749397 0.000000 
9.548736 4.534959 0.000000 
45.949413 2.083945 0.000000 
12.060401 12.924481 0.000000 
0.245963 12.389544 0.000000 
58.633225 3.034848 0.000000 
29.484257 0.218071 0.000000 
14.489800 7.824561 0.000000 
13.629437 13.714660 0.000000 
31.428451 6.095763 0.000000 
58.059406 3.093908 0.000000 
12.301184 7.717152 0.000000 
44.111723 1.074348 0.000000 
0.224245 1.888561 0.000000 
17.281127 14.401170 0.000000 
14.597920 8.066754 0.000000 
24.635472 1.149074 0.000000 
55.644117 0.209267 0.000000 
12.367540 1.769203 0.000000 
12.930224 13.244757 0.000000 
10.244902 5.993596 0.000000 
19.207640 6.273729 0.000000 
14.119580 14.479987 0.000000 
57.603393 0.601240 0.000000 
3.561926 0.208673 0.000000 
31.083856 9.201234 0.000000 
11.216094 6.389208 0.000000 
14.631936 14.795607 0.000000 
20.177060 13.338316 0.000000 
12.324911 12.977349 0.000000 
59.784610 0.609474 0.000000 
21.680963 3.382717 0.000000 
12.781689 9.930788 0.000000 
16.668769 1.872095 0.000000 
6.751614 9.017176 0.000000 
29.433929 8.315603 0.000000 
11.385529 10.487783 0.000000 
20.188450 6.690268 0.000000 
10.965146 0.599699 0.000000 
13.956254 4.104492 0.000000 
5.830119 0.221741 0.000000 
8.201219 8.583717 0.000000 
56.730074 0.519601 0.000000 
58.621732 4.742129 0.000000 
17.438167 0.429756 0.000000 
51.779590 3.287709 0.000000 
34.219357 5.542003 0.000000 
43.857981 0.457227 0.000000 
19.336559 8.015706 0.000000 
45.884759 0.214214 0.000000 
49.945232 3.149137 0.000000 
18.473695 8.011883 0.000000 
7.565829 12.249234 0.000000 
27.323487 4.406465 0.000000 
20.457390 6.806535 0.000000 
13.978152 5.271760 0.000000 
12.686530 7.835264 0.000000 
18.230646 7.880113 0.000000 
51.365448 0.213180 0.000000 
5.529409 10.403638 0.000000 
0.225150 0.858704 0.000000 
56.861870 0.254011 0.000000 
19.504871 0.202627 0.000000 
38.933946 0.197099 0.000000 
2.079905 3.115661 0.000000 
9.621369 7.257332 0.000000 
0.531664 1.117219 0.000000 
0.267167 1.128938 0.000000 
24.910075 1.220903 0.000000 
8.420387 8.590194 0.000000 
25.513276 1.641853 0.000000 
35.546309 6.954559 0.000000 
16.247104 14.593655 0.000000 
12.522261 1.189680 0.000000 
29.770606 9.094707 0.000000 
9.314669 8.875840 0.000000 
28.525884 10.511284 0.000000 
15.483952 0.813757 0.000000 
8.602033 8.204442 0.000000 
0.232438 9.605319 0.000000 
30.190760 9.673863 0.000000 
56.618183 0.252457 0.000000 
4.010482 8.351867 0.000000 
16.577390 2.275231 0.000000 
29.541395 4.799839 0.000000 
14.564505 9.967453 0.000000 
11.964847 6.373209 0.000000 
19.375772 1.097345 0.000000 
46.146532 4.125016 0.000000 
49.365814 0.228851 0.000000 
20.438964 5.181647 0.000000 
16.395119 1.567326 0.000000 
0.493494 9.583641 0.000000 
12.124760 1.354345 0.000000 
0.245957 1.397109 0.000000 
22.040339 6.072486 0.000000 
57.632664 0.219494 0.000000 
0.231442 3.633995 0.000000 
24.713541 1.393659 0.000000 
0.480154 1.555661 0.000000 
46.358592 0.818936 0.000000 
0.231354 1.645115 0.000000 
58.407972 0.228571 0.000000 
52.185970 2.953669 0.000000 
10.015903 13.754578 0.000000 
58.636213 0.371084 0.000000 
49.096931 1.303281 0.000000 
10.393726 4.106322 0.000000 
21.569683 3.783697 0.000000 
42.519346 3.618047 0.000000 
10.980802 13.812763 0.000000 
27.597774 3.729448 0.000000 
12.107414 9.557257 0.000000 
28.990305 0.199918 0.000000 
31.691188 6.421411 0.000000 
34.460045 5.703633 0.000000 
7.903663 1.598587 0.000000 
28.115275 2.329351 0.000000 
5.092945 2.013576 0.000000 
14.121517 14.756566 0.000000 
34.749124 4.238704 0.000000 
55.205187 4.535837 0.000000 
26.978948 10.027344 0.000000 
10.289001 4.941137 0.000000 
52.191230 4.537820 0.000000 
20.317393 9.738248 0.000000 
40.278140 1.989419 0.000000 
5.687887 4.811964 0.000000 
11.587143 0.231796 0.000000 
59.411074 0.657562 0.000000 
16.342797 12.226993 0.000000 
29.325425 1.315627 0.000000 
7.779438 2.095877 0.000000 
28.200310 2.084420 0.000000 
37.189609 0.227373 0.000000 
29.326920 2.181168 0.000000 
20.535445 4.005063 0.000000 
30.855340 9.298819 0.000000 
59.755205 1.126512 0.000000 
34.659293 4.461288 0.000000 
35.374093 4.540641 0.000000 
5.374005 0.773033 0.000000 
5.726329 0.459328 0.000000 
58.448787 0.488619 0.000000 
51.761012 3.715104 0.000000 
8.383254 12.426054 0.000000 
57.968118 1.564761 0.000000 
41.735949 0.448822 0.000000 
29.912451 7.174211 0.000000 
18.049992 1.010947 0.000000 
37.303343 0.464812 0.000000 
0.457307 3.770351 0.000000 
39.823054 2.384257 0.000000 
29.439134 10.047430 0.000000 
29.507128 9.195461 0.000000 
0.480845 8.135653 0.000000 
2.598083 0.204181 0.000000 
31.473401 7.671542 0.000000 
57.633718 4.756235 0.000000 
21.098856 4.927683 0.000000 
12.676183 13.251786 0.000000 
51.020555 1.526686 0.000000 
3.299150 7.693732 0.000000 
28.361203 8.518970 0.000000 
12.822550 13.498491 0.000000 
4.140882 5.704100 0.000000 
45.668289 3.238544 0.000000 
12.552714 9.000375 0.000000 
52.857254 1.444041 0.000000 
52.436754 1.872135 0.000000 
24.977337 1.461044 0.000000 
55.056796 4.101166 0.000000 
20.247028 6.203768 0.000000 
29.629568 6.295262 0.000000 
11.937815 12.488963 0.000000 
57.105856 0.229936 0.000000 
47.905497 0.228027 0.000000 
37.432226 0.231313 0.000000 
35.225879 1.904564 0.000000 
17.824559 0.950672 0.000000 
29.680959 6.513026 0.000000 
31.877325 6.040121 0.000000 
18.378190 4.690732 0.000000 
56.372785 0.232673 0.000000 
48.150031 4.789720 0.000000 
37.546034 0.453988 0.000000 
3.305019 7.420914 0.000000 
18.770303 1.000321 0.000000 
30.627521 9.425089 0.000000 
1.482252 13.522966 0.000000 
17.044483 0.234340 0.000000 
12.212572 10.031041 0.000000 
39.046948 4.984059 0.000000 
24.438769 10.222486 0.000000 
57.783136 4.554559 0.000000 
16.075159 10.323156 0.000000 
42.924080 0.192337 0.000000 
36.656065 6.387060 0.000000 
20.194072 5.596661 0.000000 
30.000754 8.086035 0.000000 
39.498807 3.533911 0.000000 
46.113078 4.781918 0.000000 
19.314983 6.002129 0.000000 
13.496596 14.123899 0.000000 
52.647495 0.209838 0.000000 
12.134939 14.805078 0.000000 
22.513599 12.350115 0.000000 
40.955466 0.635818 0.000000 
19.204622 9.160449 0.000000 
55.091506 4.776527 0.000000 
20.079851 9.162409 0.000000 
44.885600 0.219941 0.000000 
51.141702 4.789721 0.000000 
38.026499 5.748358 0.000000 
3.213475 2.846607 0.000000 
10.598749 5.239797 0.000000 
13.449486 14.576038 0.000000 
2.724217 0.443219 0.000000 
0.219850 3.878923 0.000000 
40.570149 0.872471 0.000000 
28.136379 4.126576 0.000000 
7.986958 8.619200 0.000000 
19.221121 8.377641 0.000000 
34.526686 5.197350 0.000000 
24.254560 12.607695 0.000000 
40.117222 3.779078 0.000000 
3.836897 6.340659 0.000000 
9.497259 7.056847 0.000000 
30.214192 4.441494 0.000000 
24.868370 1.874953 0.000000 
29.639671 8.741290 0.000000 
30.402076 9.551608 0.000000 
2.111354 12.375628 0.000000 
24.789165 1.637335 0.000000 
28.867231 8.678075 0.000000 
1.292323 10.687363 0.000000 
40.926627 0.227304 0.000000 
34.652721 1.674155 0.000000 
1.454399 13.002359 0.000000 
22.328243 11.749342 0.000000 
49.479969 0.458713 0.000000 
13.939350 5.562119 0.000000 
19.082597 4.382716 0.000000 
1.613106 7.360074 0.000000 
3.785202 7.938608 0.000000 
4.218749 5.965682 0.000000 
56.134855 0.221630 0.000000 
12.849211 13.956964 0.000000 
38.035403 0.425095 0.000000 
49.614385 0.218773 0.000000 
17.260587 1.202890 0.000000 
34.811561 3.994117 0.000000 
8.336449 8.340369 0.000000 
33.998998 1.812045 0.000000 
0.196480 13.893952 0.000000 
10.724542 3.803060 0.000000 
3.444090 0.458070 0.000000 
35.820489 1.981546 0.000000 
14.876603 2.530865 0.000000 
58.421798 4.555822 0.000000 
3.453653 7.851655 0.000000 
12.898323 8.819875 0.000000 
27.599108 4.024155 0.000000 
55.817208 1.227584 0.000000 
18.638999 0.814639 0.000000 
34.475390 5.434795 0.000000 
9.160282 9.285471 0.000000 
35.094829 3.714715 0.000000 
20.594504 9.869050 0.000000 
27.405888 0.282013 0.000000 
12.566098 13.468590 0.000000 
58.940070 1.122572 0.000000 
16.680803 14.129586 0.000000 
9.088921 9.041347 0.000000 
30.649030 9.147169 0.000000 
51.609993 0.209343 0.000000 
40.882138 4.550957 0.000000 
20.173545 12.161706 0.000000 
27.770797 0.186991 0.000000 
13.134185 2.727633 0.000000 
16.070639 13.957234 0.000000 
12.978332 3.164691 0.000000 
52.274650 3.986065 0.000000 
10.697185 5.976344 0.000000 
59.385195 0.239399 0.000000 
29.223537 0.222058 0.000000 
27.638653 2.793581 0.000000 
11.900685 10.418747 0.000000 
19.730703 6.143671 0.000000 
13.639403 13.173192 0.000000 
9.167126 6.835279 0.000000 
38.172548 0.208603 0.000000 
14.449626 13.873893 0.000000 
9.807494 3.778206 0.000000 
42.159020 4.776086 0.000000 
12.225730 10.931784 0.000000 
1.902395 12.553043 0.000000 
14.382599 14.800720 0.000000 
39.693242 0.191558 0.000000 
17.187002 2.353847 0.000000 
26.483063 7.703339 0.000000 
7.598345 12.513124 0.000000 
48.074116 2.702832 0.000000 
8.305232 12.672624 0.000000 
27.757680 9.888223 0.000000 
2.986083 0.407020 0.000000 
6.953653 8.854417 0.000000 
11.998634 7.317323 0.000000 
2.636253 7.256807 0.000000 
5.371389 2.620055 0.000000 
59.801035 0.864413 0.000000 
50.429651 0.776710 0.000000 
14.137024 13.923747 0.000000 
15.320326 0.186616 0.000000 
2.095994 0.559375 0.000000 
12.324293 0.204083 0.000000 
35.792064 4.840039 0.000000 
3.147593 7.190749 0.000000 
16.104808 12.347222 0.000000 
17.885572 14.799330 0.000000 
17.184312 0.810121 0.000000 
6.996233 2.633661 0.000000 
30.407599 9.288067 0.000000 
50.366181 0.184709 0.000000 
14.177132 6.503150 0.000000 
38.426078 0.200193 0.000000 
26.561215 9.915232 0.000000 
2.403464 7.286432 0.000000 
9.424794 9.371129 0.000000 
35.603561 4.659475 0.000000 
55.895792 0.214727 0.000000 
57.361241 0.217640 0.000000 
31.591676 7.285992 0.000000 
35.783898 6.915775 0.000000 
3.941414 10.971842 0.000000 
10.903105 1.017948 0.000000 
6.919717 2.237305 0.000000 
51.007578 0.832957 0.000000 
30.884101 5.987421 0.000000 
12.513238 1.560317 0.000000 
39.764056 1.908398 0.000000 
0.935872 3.838495 0.000000 
59.014257 3.690614 0.000000 
28.823819 1.958403 0.000000 
13.405226 9.843431 0.000000 
41.436934 0.167031 0.000000 
40.096897 0.653561 0.000000 
2.104891 1.980683 0.000000 
55.935912 1.691575 0.000000 
50.199370 2.582706 0.000000 
2.041083 2.496354 0.000000 
2.880667 7.220523 0.000000 
18.692427 7.604044 0.000000 
46.223364 1.717059 0.000000 
50.122961 0.180495 0.000000 
35.146690 3.486989 0.000000 
28.874618 7.997234 0.000000 
16.356367 13.231720 0.000000 
46.624416 0.214797 0.000000 
29.206235 1.802834 0.000000 
17.024567 12.422827 0.000000 
49.517750 3.373024 0.000000 
9.980668 12.696824 0.000000 
47.088377 2.790940 0.000000 
50.615816 0.228206 0.000000 
39.378699 1.155465 0.000000 
19.218713 6.826968 0.000000 
11.900146 10.108389 0.000000 
47.926771 3.212696 0.000000 
11.823173 0.368575 0.000000 
49.875697 0.201059 0.000000 
57.400338 0.878606 0.000000 
16.712806 12.974361 0.000000 
19.583729 9.620613 0.000000 
42.515652 1.396520 0.000000 
18.202023 9.720238 0.000000 
4.591501 0.252435 0.000000 
52.244568 1.195692 0.000000 
49.445864 3.876976 0.000000 
5.029746 1.375089 0.000000 
11.832948 9.659335 0.000000 
28.433944 9.457807 0.000000 
12.273487 12.753054 0.000000 
14.042106 13.635145 0.000000 
10.455908 6.344968 0.000000 
21.498396 11.098132 0.000000 
10.989700 12.260698 0.000000 
0.367036 8.361932 0.000000 
11.694561 6.857152 0.000000 
16.479172 12.445208 0.000000 
19.606909 12.635387 0.000000 
23.812792 12.790149 0.000000 
2.177974 7.308295 0.000000 
13.292887 5.215452 0.000000 
13.025277 10.085597 0.000000 
16.805112 0.355513 0.000000 
0.545271 13.052675 0.000000 
0.652467 13.433558 0.000000 
19.625482 6.441623 0.000000 
55.649156 2.916168 0.000000 
44.154425 2.708102 0.000000 
11.295384 6.844255 0.000000 
0.270671 6.625021 0.000000 
5.080447 0.263918 0.000000 
32.975665 6.681978 0.000000 
29.624720 5.645450 0.000000 
49.846473 4.487959 0.000000 
28.141049 9.147409 0.000000 
52.358936 0.933449 0.000000 
40.189133 0.193193 0.000000 
16.604262 12.618223 0.000000 
35.181285 3.267503 0.000000 
18.368956 9.261194 0.000000 
29.547361 5.859912 0.000000 
0.241619 4.378243 0.000000 
2.850024 7.830055 0.000000 
5.595590 0.970265 0.000000 
34.554480 4.941635 0.000000 
48.212224 3.259591 0.000000 
5.577897 0.254289 0.000000 
9.791781 4.193261 0.000000 
10.639295 6.480357 0.000000 
4.541883 8.301955 0.000000 
18.445588 7.733307 0.000000 
47.554105 2.048258 0.000000 
54.254860 1.342731 0.000000 
3.065736 6.764900 0.000000 
47.716698 2.977088 0.000000 
3.843280 8.149923 0.000000 
14.791938 13.119351 0.000000 
44.380959 0.606310 0.000000 
20.500428 4.278107 0.000000 
7.596585 2.567011 0.000000 
32.217878 6.642241 0.000000 
18.339551 4.411581 0.000000 
12.970605 8.380862 0.000000 
0.254161 6.366926 0.000000 
35.167057 2.902614 0.000000 
43.618811 0.923148 0.000000 
29.610374 5.403421 0.000000 
20.762133 9.273670 0.000000 
14.413039 2.129223 0.000000 
52.380949 4.746108 0.000000 
11.943488 6.859901 0.000000 
20.578259 4.561477 0.000000 
39.940789 1.115945 0.000000 
11.431926 9.884081 0.000000 
14.047666 8.502101 0.000000 
54.574368 4.784593 0.000000 
11.732100 1.995182 0.000000 
23.996004 10.032823 0.000000 
10.715611 7.787868 0.000000 
40.134447 1.333427 0.000000 
14.442406 13.556918 0.000000 
10.243933 6.232867 0.000000 
28.231111 0.896442 0.000000 
11.597890 7.307607 0.000000 
9.796900 9.068655 0.000000 
35.179786 2.493998 0.000000 
34.370156 1.989545 0.000000 
46.887495 0.269893 0.000000 
20.292555 4.964579 0.000000 
13.052546 1.652726 0.000000 
16.888100 1.047272 0.000000 
31.368040 5.834446 0.000000 
39.525874 1.341059 0.000000 
22.002550 5.031198 0.000000 
32.497451 6.728114 0.000000 
6.349080 12.705676 0.000000 
15.562662 0.255726 0.000000 
17.836759 0.523834 0.000000 
0.260662 4.618225 0.000000 
18.251205 0.632652 0.000000 
36.416997 6.523830 0.000000 
18.536444 1.094148 0.000000 
39.962365 0.242031 0.000000 
29.996468 7.425898 0.000000 
35.578428 1.633109 0.000000 
39.613496 1.539414 0.000000 
27.802205 8.526182 0.000000 
0.219351 13.652773 0.000000 
10.577194 1.397987 0.000000 
58.438481 1.659201 0.000000 
38.546921 0.817092 0.000000 
28.753221 9.069668 0.000000 
4.204758 11.005438 0.000000 
15.855379 12.025805 0.000000 
49.702586 2.784033 0.000000 
2.682063 2.758492 0.000000 
27.953050 9.520531 0.000000 
16.761143 13.384064 0.000000 
12.752512 10.554602 0.000000 
31.941172 6.751298 0.000000 
28.456591 9.751310 0.000000 
10.840947 7.995765 0.000000 
51.775659 1.380528 0.000000 
2.558935 9.648889 0.000000 
27.207682 0.218145 0.000000 
11.198819 7.854453 0.000000 
49.602681 2.350652 0.000000 
28.735050 9.834579 0.000000 
10.453752 7.401850 0.000000 
12.070925 0.240048 0.000000 
21.681232 5.783431 0.000000 
57.955114 1.859638 0.000000 
38.398931 5.149443 0.000000 
0.872049 9.401477 0.000000 
40.419322 1.368907 0.000000 
0.765092 6.564163 0.000000 
5.463985 9.976195 0.000000 
27.874126 1.184090 0.000000 
59.079786 0.868747 0.000000 
15.784044 12.987203 0.000000 
36.137519 5.005631 0.000000 
18.800708 9.145858 0.000000 
8.196109 13.089059 0.000000 
29.148357 5.368031 0.000000 
50.560302 4.546880 0.000000 
59.052686 3.249405 0.000000 
34.560215 2.188052 0.000000 
3.357698 8.316058 0.000000 
23.776496 6.146286 0.000000 
4.226563 10.307476 0.000000 
44.644129 0.213905 0.000000 
5.695327 1.693160 0.000000 
24.091940 8.729036 0.000000 
17.027737 13.865504 0.000000 
5.416623 1.727804 0.000000 
10.034284 6.648449 0.000000 
3.217560 2.106278 0.000000 
1.703911 1.905133 0.000000 
8.609409 1.413487 0.000000 
19.945921 5.429018 0.000000 
35.444156 4.034156 0.000000 
40.423680 1.768037 0.000000 
18.078009 0.455662 0.000000 
4.862865 0.730260 0.000000 
12.335844 10.557310 0.000000 
14.596638 2.603915 0.000000 
16.213982 12.885273 0.000000 
8.042111 12.136659 0.000000 
0.229433 13.422954 0.000000 
26.393635 8.116543 0.000000 
11.951141 8.764816 0.000000 
11.768261 9.017600 0.000000 
9.844568 6.833821 0.000000 
20.045054 4.987440 0.000000 
25.474200 0.203777 0.000000 
10.365352 8.108718 0.000000 
16.279724 12.010725 0.000000 
14.213085 13.448069 0.000000 
39.971756 3.533735 0.000000 
47.800889 2.705960 0.000000 
10.029857 3.623074 0.000000 
4.161793 3.958542 0.000000 
30.378805 7.640784 0.000000 
6.048642 3.352251 0.000000 
16.863374 2.641134 0.000000 
29.581983 7.861154 0.000000 
46.125902 0.190864 0.000000 
11.624509 12.803942 0.000000 
11.720792 10.271406 0.000000 
43.531686 0.148358 0.000000 
30.220612 8.918983 0.000000 
32.001177 7.224251 0.000000 
52.219439 0.591576 0.000000 
13.625441 8.079411 0.000000 
54.362300 4.810787 0.000000 
40.983949 1.007536 0.000000 
13.087929 3.758368 0.000000 
17.678839 2.734650 0.000000 
56.002444 0.797201 0.000000 
12.614142 8.320282 0.000000 
47.363927 0.516144 0.000000 
12.649688 8.075522 0.000000 
28.975271 2.335709 0.000000 
1.118516 0.357187 0.000000 
21.626924 5.337207 0.000000 
48.359754 3.041159 0.000000 
1.538728 12.601387 0.000000 
34.705105 2.794544 0.000000 
52.610685 4.840203 0.000000 
32.606544 7.198791 0.000000 
20.020624 4.393769 0.000000 
18.894642 6.549840 0.000000 
8.640926 8.966009 0.000000 
46.892375 2.488229 0.000000 
13.660196 9.825417 0.000000 
19.484032 5.603521 0.000000 
19.857377 6.349983 0.000000 
0.189219 13.135552 0.000000 
21.801447 11.508279 0.000000 
27.552770 2.218001 0.000000 
16.612754 14.555059 0.000000 
15.787709 13.617318 0.000000 
13.241223 2.915269 0.000000 
12.553626 8.563236 0.000000 
12.810493 10.391090 0.000000 
17.499016 0.194013 0.000000 
0.831752 12.678621 0.000000 
4.640810 1.121260 0.000000 
18.670756 7.139781 0.000000 
45.556092 3.733191 0.000000 
56.974261 2.465054 0.000000 
14.321496 14.098021 0.000000 
16.069073 0.148890 0.000000 
16.299214 0.167277 0.000000 
28.060008 1.656846 0.000000 
10.922874 10.142556 0.000000 
8.961462 5.020899 0.000000 
31.753369 0.995305 0.000000 
12.682542 12.848891 0.000000 
19.586059 8.932835 0.000000 
32.418299 6.272285 0.000000 
3.671790 7.169565 0.000000 
16.295149 8.877869 0.000000 
28.392967 1.742634 0.000000 
24.996032 5.662889 0.000000 
55.568755 1.725532 0.000000 
17.891515 1.138421 0.000000 
13.159106 14.293367 0.000000 
47.562300 3.731059 0.000000 
41.493358 4.543245 0.000000 
19.783015 8.177251 0.000000 
8.930831 7.651260 0.000000 
13.907062 9.796243 0.000000 
41.561147 0.825715 0.000000 
35.200029 2.098204 0.000000 
47.779594 2.349760 0.000000 
6.532369 1.836796 0.000000 
9.648598 13.401617 0.000000 
1.776897 12.353734 0.000000 
1.949087 1.607944 0.000000 
6.636096 13.891445 0.000000 
15.219750 0.867209 0.000000 
16.608043 14.725297 0.000000 
12.363047 14.347334 0.000000 
9.760694 13.702296 0.000000 
27.776762 9.171516 0.000000 
6.896384 14.076174 0.000000 
17.530736 13.987270 0.000000 
47.871553 4.338981 0.000000 
20.674495 5.634080 0.000000 
29.224414 2.901417 0.000000 
14.845023 7.143306 0.000000 
6.870891 8.050269 0.000000 
36.638511 1.613233 0.000000 
38.843781 4.133785 0.000000 
7.094451 8.013339 0.000000 
6.590065 4.829888 0.000000 
6.355192 4.882685 0.000000 
14.663994 5.270610 0.000000 
14.611149 5.541657 0.000000 
17.794468 4.994387 0.000000 
31.288454 4.412483 0.000000 
6.644775 8.087207 0.000000 
17.332978 7.669724 0.000000 
36.830978 1.467162 0.000000 
33.573391 2.244959 0.000000 
36.555763 4.577326 0.000000 
37.244635 4.810376 0.000000 
38.982118 3.942376 0.000000 
5.435894 5.512319 0.000000 
32.973053 1.884155 0.000000 
17.719127 4.752172 0.000000 
34.136200 3.867610 0.000000 
35.852537 2.948943 0.000000 
31.446574 4.615761 0.000000 
31.131112 4.209901 0.000000 
36.445168 1.754978 0.000000 
3.272554 5.928286 0.000000 
6.824912 4.781322 0.000000 
54.400907 4.138130 0.000000 
27.142305 7.675917 0.000000 
39.187715 2.588976 0.000000 
17.274783 3.710437 0.000000 
23.122046 8.787502 0.000000 
38.872539 1.623828 0.000000 
27.374854 7.757819 0.000000 
3.642055 5.142477 0.000000 
14.701474 4.717210 0.000000 
38.705092 4.326495 0.000000 
15.842032 3.058620 0.000000 
3.385369 5.722086 0.000000 
28.082132 5.049542 0.000000 
31.606219 4.823689 0.000000 
17.552210 7.517093 0.000000 
26.187654 6.739285 0.000000 
6.013195 8.151052 0.000000 
26.314943 6.963860 0.000000 
37.708645 1.090251 0.000000 
14.551236 5.808006 0.000000 
14.697676 4.995851 0.000000 
37.026408 1.313631 0.000000 
22.678897 6.329039 0.000000 
30.972596 4.007057 0.000000 
32.762746 1.776289 0.000000 
1.612918 3.644352 0.000000 
17.124603 7.831523 0.000000 
22.884908 8.848338 0.000000 
54.181272 4.243994 0.000000 
8.488951 6.494962 0.000000 
37.506901 4.836547 0.000000 
0.894046 4.853543 0.000000 
8.491134 6.208699 0.000000 
0.962469 4.578673 0.000000 
52.893696 2.318525 0.000000 
3.700563 4.920044 0.000000 
2.169926 6.705619 0.000000 
27.847904 4.927743 0.000000 
5.516073 8.139243 0.000000 
22.206238 8.968844 0.000000 
3.155888 6.134870 0.000000 
5.771095 8.142469 0.000000 
14.448202 12.491446 0.000000 
31.212800 2.071330 0.000000 
7.747816 7.840147 0.000000 
4.951255 6.114929 0.000000 
17.636099 12.321228 0.000000 
31.031876 2.271096 0.000000 
55.181622 3.383497 0.000000 
21.710293 9.004433 0.000000 
28.971748 6.291968 0.000000 
7.067518 4.742551 0.000000 
7.771602 4.799286 0.000000 
15.530805 7.977170 0.000000 
17.851990 12.365403 0.000000 
33.870864 4.616170 0.000000 
15.595551 3.112901 0.000000 
18.789927 12.191568 0.000000 
22.709889 3.637246 0.000000 
24.303453 2.224822 0.000000 
14.672062 4.440241 0.000000 
21.962401 8.984061 0.000000 
19.390892 11.747243 0.000000 
28.305696 5.162841 0.000000 
18.553080 12.305219 0.000000 
21.553923 6.687077 0.000000 
26.715020 4.699811 0.000000 
53.734622 1.785349 0.000000 
4.781711 6.311853 0.000000 
27.901122 7.848077 0.000000 
14.208051 12.502709 0.000000 
34.211348 3.594613 0.000000 
26.047380 6.519829 0.000000 
18.803162 10.075046 0.000000 
17.143460 3.501349 0.000000 
14.682947 12.480552 0.000000 
30.816393 3.804796 0.000000 
19.962792 2.590875 0.000000 
42.415502 3.170859 0.000000 
16.879157 11.810984 0.000000 
27.612818 4.805737 0.000000 
15.273682 12.238965 0.000000 
15.137012 7.572738 0.000000 
3.462519 13.160579 0.000000 
24.404144 2.454345 0.000000 
22.430825 6.316176 0.000000 
52.400609 3.337077 0.000000 
20.006050 2.817245 0.000000 
16.932054 7.999211 0.000000 
29.021664 6.553640 0.000000 
32.050661 5.437078 0.000000 
32.301058 5.558844 0.000000 
15.443550 10.968426 0.000000 
14.881814 10.299256 0.000000 
0.847726 5.419488 0.000000 
4.605239 6.501974 0.000000 
17.529775 10.396706 0.000000 
24.206696 1.995296 0.000000 
52.598546 2.728757 0.000000 
54.629789 4.034816 0.000000 
13.961570 12.509023 0.000000 
22.549050 3.472062 0.000000 
6.107467 4.942672 0.000000 
4.029094 13.381792 0.000000 
23.918344 3.798795 0.000000 
13.308457 10.816901 0.000000 
20.661469 7.497153 0.000000 
17.779090 7.366988 0.000000 
40.683264 2.636378 0.000000 
15.348136 3.158696 0.000000 
28.164131 7.837623 0.000000 
8.503691 5.921590 0.000000 
17.288853 10.501820 0.000000 
39.127430 3.762234 0.000000 
25.895475 6.308438 0.000000 
18.427144 3.510345 0.000000 
1.439600 6.604988 0.000000 
7.694180 11.399536 0.000000 
19.060834 10.126458 0.000000 
31.376539 1.864313 0.000000 
7.195535 10.670380 0.000000 
12.688849 5.500514 0.000000 
38.568572 4.522792 0.000000 
30.838823 2.461740 0.000000 
8.783102 10.026622 0.000000 
4.194869 11.678922 0.000000 
26.092053 4.930537 0.000000 
11.584668 6.193844 0.000000 
3.209278 3.535788 0.000000 
7.304273 10.896752 0.000000 
22.152306 2.912530 0.000000 
19.917484 2.367472 0.000000 
26.907727 7.599687 0.000000 
14.626096 4.164902 0.000000 
42.054900 3.742473 0.000000 
13.715026 12.519561 0.000000 
8.491924 6.787289 0.000000 
53.368394 4.369370 0.000000 
36.248814 1.878586 0.000000 
35.954350 2.437004 0.000000 
42.496987 2.633208 0.000000 
28.944209 6.029161 0.000000 
52.412046 3.559745 0.000000 
7.974028 7.751718 0.000000 
23.163390 6.349758 0.000000 
12.133396 5.940231 0.000000 
52.711775 4.107525 0.000000 
40.987289 3.832768 0.000000 
3.796374 4.463452 0.000000 
8.985120 10.501344 0.000000 
24.025223 8.085799 0.000000 
4.425938 6.692415 0.000000 
15.749791 8.150647 0.000000 
23.892159 6.838439 0.000000 
3.946880 11.640133 0.000000 
10.837898 5.600449 0.000000 
8.879603 10.263742 0.000000 
42.445399 2.074573 0.000000 
11.285076 4.596798 0.000000 
12.280541 3.948350 0.000000 
4.657663 13.296867 0.000000 
16.992199 12.003539 0.000000 
4.693152 11.758211 0.000000 
24.505771 2.683250 0.000000 
19.310320 10.160419 0.000000 
17.411837 12.276378 0.000000 
41.174789 1.815109 0.000000 
18.566335 13.188952 0.000000 
16.768123 11.624892 0.000000 
4.940532 11.795597 0.000000 
18.548061 10.022627 0.000000 
18.748757 14.574468 0.000000 
26.095356 8.667464 0.000000 
22.518510 1.554737 0.000000 
5.705459 12.624125 0.000000 
12.830656 11.609354 0.000000 
23.134941 3.880984 0.000000 
18.234842 2.421598 0.000000 
20.056837 3.040287 0.000000 
25.660034 5.216621 0.000000 
18.866009 3.968859 0.000000 
42.398948 1.812861 0.000000 
34.111908 2.627070 0.000000 
18.997578 14.569555 0.000000 
32.544143 5.691886 0.000000 
26.687736 0.731118 0.000000 
13.047982 4.855697 0.000000 
24.809500 8.501071 0.000000 
23.671568 1.303084 0.000000 
42.094562 1.388942 0.000000 
8.752271 11.658331 0.000000 
26.508165 2.797234 0.000000 
11.404045 4.371424 0.000000 
2.662658 6.592123 0.000000 
4.497906 7.883140 0.000000 
4.965445 8.066706 0.000000 
1.991075 9.339556 0.000000 
21.836870 2.289420 0.000000 
34.290092 3.304142 0.000000 
19.744529 11.377349 0.000000 
2.229787 8.143005 0.000000 
30.630050 2.636875 0.000000 
3.040465 6.347776 0.000000 
15.089451 3.192017 0.000000 
3.937911 3.024301 0.000000 
20.793224 11.990101 0.000000 
26.309463 1.894542 0.000000 
19.241094 11.930801 0.000000 
19.497631 4.145652 0.000000 
21.163680 9.037333 0.000000 
20.727935 8.823569 0.000000 
2.798507 9.040508 0.000000 
12.716207 7.281427 0.000000 
19.798209 10.248972 0.000000 
36.747446 4.693265 0.000000 
29.014186 7.506001 0.000000 
21.328553 12.960501 0.000000 
9.099922 10.739032 0.000000 
6.955826 0.448323 0.000000 
24.868047 8.238675 0.000000 
18.299552 6.648184 0.000000 
14.572867 3.893480 0.000000 
1.752104 9.299752 0.000000 
8.302216 5.022613 0.000000 
9.379717 2.251000 0.000000 
39.017381 1.811358 0.000000 
19.953930 11.214480 0.000000 
18.006164 7.245662 0.000000 
32.131846 1.461684 0.000000 
26.080208 11.467811 0.000000 
15.110253 10.388420 0.000000 
15.391393 10.725194 0.000000 
23.222857 11.024536 0.000000 
15.451579 12.088953 0.000000 
25.820266 7.868286 0.000000 
38.583625 1.237634 0.000000 
2.717324 13.701434 0.000000 
38.190819 1.065077 0.000000 
0.989149 8.537703 0.000000 
8.556191 5.659703 0.000000 
26.302058 11.377808 0.000000 
19.248850 14.566199 0.000000 
26.117030 8.413349 0.000000 
31.522200 1.663727 0.000000 
9.295144 2.518450 0.000000 
8.483984 4.145811 0.000000 
10.421562 12.651148 0.000000 
22.176280 6.301911 0.000000 
43.510890 4.551526 0.000000 
2.498209 8.102839 0.000000 
8.582875 7.056714 0.000000 
33.747813 6.627375 0.000000 
41.149747 3.990223 0.000000 
27.213579 0.908277 0.000000 
21.556659 12.873319 0.000000 
21.773732 9.859318 0.000000 
40.598548 3.306955 0.000000 
1.426366 8.223691 0.000000 
2.507470 14.578800 0.000000 
13.976814 1.731111 0.000000 
12.876563 6.479392 0.000000 
18.066704 12.411177 0.000000 
7.225340 9.493019 0.000000 
26.814563 2.822678 0.000000 
41.853576 3.914574 0.000000 
34.225505 7.417963 0.000000 
6.700798 0.440182 0.000000 
22.235122 1.613775 0.000000 
10.055738 13.148215 0.000000 
7.029161 9.891553 0.000000 
43.771862 4.559503 0.000000 
49.839196 4.086817 0.000000 
8.210388 7.661029 0.000000 
10.499155 13.664686 0.000000 
55.929137 3.764886 0.000000 
5.842773 5.006389 0.000000 
30.324642 0.438943 0.000000 
50.146349 1.745334 0.000000 
34.446958 7.301713 0.000000 
7.202248 0.458223 0.000000 
21.804470 12.552472 0.000000 
37.475684 1.094482 0.000000 
56.228320 4.574591 0.000000 
41.433870 1.430537 0.000000 
49.502653 1.161554 0.000000 
0.936402 6.167442 0.000000 
17.995174 13.965454 0.000000 
21.807876 12.316542 0.000000 
20.618008 0.419228 0.000000 
38.425689 4.719184 0.000000 
18.506595 14.589308 0.000000 
34.000221 7.529112 0.000000 
49.398429 1.809839 0.000000 
9.671818 0.458930 0.000000 
6.365465 2.975752 0.000000 
30.569814 0.433159 0.000000 
20.906037 1.164087 0.000000 
14.666709 10.212610 0.000000 
20.184891 10.464925 0.000000 
25.094251 10.185321 0.000000 
6.748782 1.457024 0.000000 
5.325058 3.575111 0.000000 
23.305665 4.770244 0.000000 
56.841796 3.620696 0.000000 
8.700302 4.247804 0.000000 
22.047000 9.834365 0.000000 
9.419279 0.452983 0.000000 
33.776440 7.645597 0.000000 
18.328495 6.006788 0.000000 
25.313879 10.743429 0.000000 
25.355779 11.067820 0.000000 
28.934666 5.776398 0.000000 
10.512021 2.373280 0.000000 
23.404285 6.361835 0.000000 
8.262192 4.052981 0.000000 
0.463481 2.499167 0.000000 
0.965706 8.980393 0.000000 
25.203254 10.454986 0.000000 
23.632048 8.613220 0.000000 
19.500471 14.563610 0.000000 
24.721661 5.052516 0.000000 
10.305118 2.170929 0.000000 
1.157906 2.890378 0.000000 
27.453681 1.522012 0.000000 
30.879094 1.106018 0.000000 
7.307292 13.790497 0.000000 
50.227635 4.269138 0.000000 
2.759275 14.573725 0.000000 
56.484552 4.567541 0.000000 
20.180201 11.090721 0.000000 
25.716661 7.641220 0.000000 
24.060183 4.645211 0.000000 
45.602711 1.550831 0.000000 
26.524584 11.283233 0.000000 
33.576755 0.435142 0.000000 
56.934200 3.393634 0.000000 
7.555428 13.821190 0.000000 
2.944732 8.278953 0.000000 
3.022491 8.553020 0.000000 
24.581448 5.231268 0.000000 
23.177218 5.456136 0.000000 
35.926524 1.090748 0.000000 
33.834145 0.450830 0.000000 
25.863949 11.573211 0.000000 
54.876156 3.938450 0.000000 
33.375971 1.140601 0.000000 
43.829009 3.525337 0.000000 
23.688403 5.480180 0.000000 
7.324445 4.718945 0.000000 
8.004126 11.746765 0.000000 
11.865959 11.489755 0.000000 
35.713704 3.698912 0.000000 
35.859655 4.068470 0.000000 
59.092883 2.538961 0.000000 
17.285597 8.801183 0.000000 
25.905859 9.863063 0.000000 
8.977878 14.548587 0.000000 
26.485568 10.592492 0.000000 
7.352867 13.121762 0.000000 
7.209649 3.306810 0.000000 
3.136284 13.936591 0.000000 
29.129997 4.614664 0.000000 
23.993234 11.608442 0.000000 
45.020473 2.690737 0.000000 
50.010743 1.931890 0.000000 
44.004188 3.719347 0.000000 
7.867433 3.261099 0.000000 
11.098170 12.678344 0.000000 
0.470210 2.750464 0.000000 
24.036197 10.283907 0.000000 
19.753322 14.562270 0.000000 
3.070228 10.820657 0.000000 
2.363749 10.740480 0.000000 
26.259883 3.928208 0.000000 
5.750140 14.585851 0.000000 
44.026484 4.569563 0.000000 
23.422879 5.457555 0.000000 
45.620557 1.298371 0.000000 
9.174517 0.437420 0.000000 
56.654960 1.802591 0.000000 
9.232648 14.544650 0.000000 
57.326861 1.902089 0.000000 
17.123457 8.961221 0.000000 
51.748488 2.476652 0.000000 
2.772925 2.079035 0.000000 
8.750759 13.884234 0.000000 
58.885084 1.780116 0.000000 
10.590125 11.667472 0.000000 
50.573038 3.566081 0.000000 
16.369150 9.977851 0.000000 
10.088066 1.808716 0.000000 
59.538165 2.266741 0.000000 
2.264421 14.584135 0.000000 
13.712170 6.992135 0.000000 
35.795587 0.440149 0.000000 
49.317874 1.374074 0.000000 
26.657934 7.518417 0.000000 
43.181350 3.553774 0.000000 
7.453123 0.464403 0.000000 
24.872440 4.856506 0.000000 
3.820370 4.215077 0.000000 
12.584868 7.066702 0.000000 
3.653709 13.289667 0.000000 
6.000177 14.586720 0.000000 
10.550271 3.148786 0.000000 
3.206964 11.720726 0.000000 
16.083639 1.268818 0.000000 
21.386431 10.398081 0.000000 
14.938118 9.374048 0.000000 
55.975405 4.581363 0.000000 
43.253328 4.543434 0.000000 
14.437910 6.478074 0.000000 
29.514374 4.568105 0.000000 
18.289129 13.280824 0.000000 
30.332475 3.252021 0.000000 
16.574877 2.956061 0.000000 
59.539596 2.014066 0.000000 
50.347375 1.014283 0.000000 
33.324992 0.430507 0.000000 
10.011695 5.667689 0.000000 
6.809674 13.463484 0.000000 
10.670589 8.721697 0.000000 
10.833783 8.899178 0.000000 
14.551701 8.892976 0.000000 
25.671698 3.126938 0.000000 
58.639507 3.716365 0.000000 
12.064155 7.735826 0.000000 
2.109153 13.767804 0.000000 
30.416305 2.811604 0.000000 
19.905390 13.924518 0.000000 
17.453912 8.648530 0.000000 
7.578877 13.173433 0.000000 
15.081816 12.379313 0.000000 
33.552213 7.764299 0.000000 
25.684851 1.438098 0.000000 
33.155215 1.043622 0.000000 
44.505792 2.936866 0.000000 
14.818030 3.243844 0.000000 
8.035535 3.954422 0.000000 
34.667084 7.181171 0.000000 
18.051153 2.915612 0.000000 
56.528307 1.132528 0.000000 
8.788502 3.275759 0.000000 
33.604364 1.270090 0.000000 
27.167258 4.617527 0.000000 
45.300332 2.968973 0.000000 
58.262739 3.268997 0.000000 
11.047832 2.621423 0.000000 
15.238273 8.813726 0.000000 
5.495103 14.578789 0.000000 
5.095381 10.626737 0.000000 
30.815408 0.441586 0.000000 
53.288148 0.446509 0.000000 
9.937156 0.458774 0.000000 
35.553444 0.460655 0.000000 
6.451678 0.446388 0.000000 
10.777902 2.500711 0.000000 
5.529202 3.743040 0.000000 
3.013922 14.569252 0.000000 
4.379061 3.389179 0.000000 
13.281301 7.589975 0.000000 
16.323006 1.343464 0.000000 
5.924643 2.281733 0.000000 
10.177742 8.648594 0.000000 
44.308782 3.991690 0.000000 
49.955627 3.378604 0.000000 
9.136317 3.958316 0.000000 
3.703471 2.869099 0.000000 
2.975800 12.050582 0.000000 
34.295092 2.762994 0.000000 
2.804194 10.932774 0.000000 
22.310853 9.804783 0.000000 
11.231409 1.762570 0.000000 
10.849317 5.810364 0.000000 
45.729819 0.847666 0.000000 
5.612338 2.582926 0.000000 
29.284056 3.953981 0.000000 
34.670487 6.668875 0.000000 
17.286138 9.450977 0.000000 
20.873206 0.420690 0.000000 
56.806305 1.125150 0.000000 
44.282577 4.575437 0.000000 
55.332619 0.805732 0.000000 
11.366605 6.173098 0.000000 
32.189207 8.400833 0.000000 
55.025274 0.447406 0.000000 
44.967426 1.206177 0.000000 
16.957276 9.117808 0.000000 
13.062824 6.311334 0.000000 
58.668645 3.316731 0.000000 
19.719444 4.176515 0.000000 
7.749673 0.930353 0.000000 
52.464846 2.935448 0.000000 
10.783161 13.629888 0.000000 
58.092196 3.972281 0.000000 
9.378371 1.967975 0.000000 
17.633359 8.501141 0.000000 
11.990946 3.014705 0.000000 
1.688517 11.349112 0.000000 
0.460156 2.251237 0.000000 
20.363261 0.411121 0.000000 
43.292815 1.883283 0.000000 
53.418990 0.963890 0.000000 
10.292323 9.264387 0.000000 
7.701995 0.454260 0.000000 
7.801602 3.870674 0.000000 
15.428246 8.993594 0.000000 
33.326933 7.880118 0.000000 
2.010550 14.585194 0.000000 
30.585228 8.471150 0.000000 
22.353022 10.732066 0.000000 
26.742074 11.174783 0.000000 
16.787070 9.273465 0.000000 
23.588652 4.806706 0.000000 
5.759673 13.806173 0.000000 
11.959364 6.098107 0.000000 
8.419137 3.379640 0.000000 
8.954646 3.095966 0.000000 
9.982596 5.437493 0.000000 
25.652748 11.685049 0.000000 
34.079131 0.451747 0.000000 
8.083096 1.696515 0.000000 
27.053710 3.740634 0.000000 
19.898283 4.034057 0.000000 
26.011458 4.026866 0.000000 
45.665633 1.063164 0.000000 
5.237072 14.562704 0.000000 
8.345549 9.221847 0.000000 
33.071706 0.444280 0.000000 
25.612194 3.727639 0.000000 
47.333277 1.940165 0.000000 
7.373973 3.121653 0.000000 
9.578373 3.136213 0.000000 
15.269223 14.589885 0.000000 
22.661587 12.701264 0.000000 
2.519285 10.925510 0.000000 
6.007295 9.003022 0.000000 
5.432552 13.979144 0.000000 
8.554124 9.340007 0.000000 
16.602630 11.012627 0.000000 
5.135105 3.373487 0.000000 
50.995527 2.007022 0.000000 
53.529403 0.442409 0.000000 
24.249644 10.397526 0.000000 
8.725483 14.558908 0.000000 
57.925331 3.501302 0.000000 
5.661319 9.413112 0.000000 
59.307354 2.657853 0.000000 
56.963068 4.174259 0.000000 
36.055621 0.431599 0.000000 
4.737573 4.209420 0.000000 
9.538530 5.789956 0.000000 
8.927363 0.426360 0.000000 
26.691492 9.398559 0.000000 
45.511940 0.437589 0.000000 
30.749629 8.350547 0.000000 
32.413217 8.324121 0.000000 
3.260691 14.567518 0.000000 
35.644362 6.070154 0.000000 
0.852855 14.150412 0.000000 
7.929591 13.616065 0.000000 
28.928489 4.529480 0.000000 
9.175674 11.346839 0.000000 
29.892620 1.601333 0.000000 
45.256441 1.832690 0.000000 
28.563308 3.419144 0.000000 
17.995863 13.255684 0.000000 
21.942337 1.661819 0.000000 
48.717492 0.796854 0.000000 
9.225328 12.929675 0.000000 
46.745993 1.945879 0.000000 
12.243100 3.086888 0.000000 
48.515935 0.400356 0.000000 
43.545541 1.550793 0.000000 
44.539170 4.575133 0.000000 
11.444021 13.178638 0.000000 
30.292326 5.437712 0.000000 
13.361038 9.090299 0.000000 
15.514911 14.584925 0.000000 
21.277561 4.779096 0.000000 
8.501051 1.803308 0.000000 
3.757927 9.085539 0.000000 
35.169713 0.817325 0.000000 
1.757455 14.578254 0.000000 
30.714349 5.469804 0.000000 
7.549834 3.814844 0.000000 
27.024582 9.773648 0.000000 
5.002019 14.585279 0.000000 
39.265698 3.375324 0.000000 
54.970866 0.981559 0.000000 
4.195289 9.193172 0.000000 
4.846358 9.985456 0.000000 
26.957760 11.056722 0.000000 
4.967216 3.152917 0.000000 
21.703401 11.904374 0.000000 
2.326403 1.892892 0.000000 
9.499618 14.531405 0.000000 
5.066038 14.090605 0.000000 
3.820259 9.828099 0.000000 
35.313410 0.434088 0.000000 
25.439591 11.798383 0.000000 
7.948209 0.451727 0.000000 
1.802051 14.114288 0.000000 
34.376224 0.838356 0.000000 
45.414832 3.226427 0.000000 
15.847535 9.290028 0.000000 
34.326859 0.424566 0.000000 
18.373943 6.867257 0.000000 
19.519696 7.523382 0.000000 
43.676870 3.080161 0.000000 
19.462152 13.093969 0.000000 
15.648458 9.662413 0.000000 
39.857579 4.259592 0.000000 
25.012947 4.670160 0.000000 
12.923699 0.412840 0.000000 
53.769150 0.409717 0.000000 
22.637296 12.937299 0.000000 
57.492606 3.973518 0.000000 
19.252510 4.144666 0.000000 
36.329488 0.844609 0.000000 
11.666043 8.212279 0.000000 
4.029255 14.189167 0.000000 
5.749803 8.999852 0.000000 
0.752477 14.561252 0.000000 
35.763388 5.578998 0.000000 
43.015220 4.573108 0.000000 
0.467074 3.007782 0.000000 
18.260994 14.601343 0.000000 
13.853012 7.207808 0.000000 
13.972124 2.263175 0.000000 
5.057250 4.574889 0.000000 
20.094369 0.792572 0.000000 
10.056377 5.880415 0.000000 
22.887316 13.050319 0.000000 
54.775172 0.464078 0.000000 
24.731767 4.361057 0.000000 
10.862560 5.214426 0.000000 
59.296899 4.249397 0.000000 
9.321284 13.680764 0.000000 
21.595726 4.458557 0.000000 
8.562953 5.126737 0.000000 
31.924632 7.848983 0.000000 
15.244473 2.273194 0.000000 
9.036791 12.514742 0.000000 
43.719604 2.058675 0.000000 
33.365424 6.814271 0.000000 
44.787119 4.567203 0.000000 
4.280795 14.191007 0.000000 
30.583428 7.039394 0.000000 
28.497940 3.022688 0.000000 
56.857074 1.999786 0.000000 
4.755247 14.601546 0.000000 
35.996288 2.197996 0.000000 
43.266508 2.118296 0.000000 
48.512624 4.549215 0.000000 
3.513484 14.578781 0.000000 
31.912058 1.348506 0.000000 
20.385186 12.283083 0.000000 
52.460443 3.780978 0.000000 
22.680388 4.903338 0.000000 
13.718567 2.352779 0.000000 
45.256234 0.449817 0.000000 
13.340316 2.191013 0.000000 
3.497504 9.566039 0.000000 
8.200854 0.471215 0.000000 
32.824249 0.434250 0.000000 
3.783108 14.188009 0.000000 
56.742998 4.564629 0.000000 
1.501933 14.555147 0.000000 
26.821608 9.158807 0.000000 
11.571695 11.876917 0.000000 
30.844483 7.050121 0.000000 
13.036368 12.600524 0.000000 
59.536505 2.523404 0.000000 
42.849350 4.201215 0.000000 
11.290978 10.722917 0.000000 
21.127291 0.412887 0.000000 
4.670431 4.442084 0.000000 
4.832644 14.179785 0.000000 
8.914276 4.356538 0.000000 
59.551950 1.766850 0.000000 
6.239129 14.591768 0.000000 
4.513570 14.596106 0.000000 
9.202779 2.772340 0.000000 
11.783873 14.569814 0.000000 
4.092058 7.360840 0.000000 
8.439752 0.468795 0.000000 
8.682457 0.434699 0.000000 
24.578627 0.418831 0.000000 
4.264729 14.593687 0.000000 
11.590752 14.098873 0.000000 
34.881739 7.058107 0.000000 
16.438666 8.456916 0.000000 
31.068987 0.453780 0.000000 
7.645977 3.126864 0.000000 
25.415292 5.793928 0.000000 
1.008328 14.592276 0.000000 
15.563191 14.128813 0.000000 
1.264051 14.579656 0.000000 
9.249663 12.685068 0.000000 
27.128835 8.852122 0.000000 
1.530839 14.145046 0.000000 
21.379146 0.402389 0.000000 
21.397753 0.800203 0.000000 
4.015526 14.591098 0.000000 
29.039871 4.114367 0.000000 
48.782328 4.555371 0.000000 
3.765754 14.586847 0.000000 
13.873744 1.531759 0.000000 
30.490300 6.639141 0.000000 
20.379451 10.677935 0.000000 
11.513500 14.541606 0.000000 
29.841189 4.025838 0.000000 
20.446565 1.421403 0.000000 
3.034767 1.439330 0.000000 
5.447857 9.294742 0.000000 
10.208020 0.468561 0.000000 
23.123116 12.921509 0.000000 
56.085051 1.289224 0.000000 
34.949286 0.672686 0.000000 
22.671345 5.426456 0.000000 
6.455241 1.394768 0.000000 
31.964195 8.510075 0.000000 
32.640026 8.228315 0.000000 
21.625197 0.393857 0.000000 
1.352109 11.795735 0.000000 
11.269869 3.052462 0.000000 
57.523807 3.767667 0.000000 
11.334675 2.614215 0.000000 
24.945918 6.944329 0.000000 
16.136115 10.079396 0.000000 
6.734634 2.609371 0.000000 
0.450433 10.240148 0.000000 
25.161493 4.165228 0.000000 
13.518345 6.206102 0.000000 
33.097533 7.988365 0.000000 
12.642808 0.797558 0.000000 
43.743242 1.621512 0.000000 
56.539279 2.851399 0.000000 
13.393102 8.455546 0.000000 
18.836167 5.242949 0.000000 
29.078558 1.360537 0.000000 
14.727570 0.430202 0.000000 
21.206645 3.148082 0.000000 
2.200582 10.545058 0.000000 
32.527070 0.715809 0.000000 
33.821058 1.416950 0.000000 
54.255878 0.450731 0.000000 
21.211472 10.239982 0.000000 
15.784590 14.555422 0.000000 
9.066591 8.264557 0.000000 
1.274863 11.147974 0.000000 
29.837590 1.847460 0.000000 
21.866391 0.386384 0.000000 
25.039080 6.671404 0.000000 
35.057802 0.427575 0.000000 
46.731498 2.914673 0.000000 
20.207715 8.026614 0.000000 
32.838787 8.062116 0.000000 
1.330607 1.165865 0.000000 
20.405694 10.953997 0.000000 
23.536624 11.846054 0.000000 
32.684783 7.812799 0.000000 
43.680627 2.729623 0.000000 
8.471567 2.313678 0.000000 
21.649624 0.786961 0.000000 
54.511550 0.450288 0.000000 
36.291033 0.443279 0.000000 
0.978211 13.058576 0.000000 
7.118777 3.765184 0.000000 
1.223244 0.930622 0.000000 
6.680579 2.361433 0.000000 
4.546102 14.181181 0.000000 
31.104257 7.115472 0.000000 
8.496632 0.858680 0.000000 
37.143420 5.966327 0.000000 
11.741203 2.887216 0.000000 
8.806006 13.151790 0.000000 
0.462889 7.463353 0.000000 
28.814604 1.452475 0.000000 
55.282977 0.417732 0.000000 
22.117452 0.423101 0.000000 
29.712559 3.842718 0.000000 
0.437560 14.252374 0.000000 
0.969541 6.410723 0.000000 
24.854689 3.369596 0.000000 
32.393353 7.895551 0.000000 
22.170235 0.691103 0.000000 
29.028555 1.604563 0.000000 
13.178397 0.745487 0.000000 
45.252211 3.439121 0.000000 
6.440685 11.084062 0.000000 
46.922920 3.256139 0.000000 
25.813477 2.614693 0.000000 
21.902639 0.770598 0.000000 
19.196487 8.862117 0.000000 
13.178946 0.471123 0.000000 
56.146053 1.545334 0.000000 
0.631311 10.826489 0.000000 
10.128077 12.926637 0.000000 
27.838988 10.556624 0.000000 
54.019040 0.422333 0.000000 
9.545948 12.353024 0.000000 
22.379860 0.476835 0.000000 
4.901843 4.777154 0.000000 
3.909353 1.470351 0.000000 
6.863516 11.790588 0.000000 
40.248867 4.293039 0.000000 
57.332401 1.097581 0.000000 
18.142824 8.513286 0.000000 
22.878656 12.559043 0.000000 
47.340597 4.077360 0.000000 
25.776482 4.128887 0.000000 
22.742999 9.981761 0.000000 
17.161709 12.208283 0.000000 
10.978562 1.285933 0.000000 
17.588359 1.788496 0.000000 
15.558496 1.307102 0.000000 
0.638406 7.242989 0.000000 
41.703751 1.152498 0.000000 
1.050949 13.320308 0.000000 
4.536519 4.903706 0.000000 
42.471988 0.665497 0.000000 
8.474590 14.576732 0.000000 
11.921590 7.547139 0.000000 
34.574861 0.420182 0.000000 
45.946783 4.306321 0.000000 
4.178633 0.798162 0.000000 
12.128736 13.362649 0.000000 
14.468351 0.438931 0.000000 
11.619514 1.790153 0.000000 
48.247210 1.878388 0.000000 
1.248675 13.153636 0.000000 
12.003387 11.267057 0.000000 
35.099451 6.942254 0.000000 
18.156161 9.966194 0.000000 
13.691571 8.898081 0.000000 
0.419510 10.479253 0.000000 
20.935365 3.279118 0.000000 
11.889447 1.316822 0.000000 
43.188098 1.644969 0.000000 
6.658150 11.984257 0.000000 
44.405930 2.715626 0.000000 
48.857649 0.625414 0.000000 
45.789246 4.544042 0.000000 
50.737834 2.684463 0.000000 
27.173052 10.881127 0.000000 
8.155258 0.865543 0.000000 
20.607538 1.635147 0.000000 
5.245421 9.189434 0.000000 
49.719370 3.494354 0.000000 
10.015541 3.091156 0.000000 
32.552689 0.456126 0.000000 
24.503349 5.655096 0.000000 
11.595179 2.645804 0.000000 
23.645268 6.373348 0.000000 
6.685728 3.713382 0.000000 
20.244664 14.447298 0.000000 
5.690287 4.143250 0.000000 
3.923239 0.758514 0.000000 
42.302941 1.551473 0.000000 
16.278146 9.340291 0.000000 
12.347273 13.456085 0.000000 
30.046574 1.977116 0.000000 
9.745189 14.541509 0.000000 
59.136270 4.392703 0.000000 
1.488764 2.023134 0.000000 
28.101746 10.488230 0.000000 
14.496005 0.882558 0.000000 
45.176073 4.347246 0.000000 
43.314587 2.778046 0.000000 
9.323325 12.194753 0.000000 
19.358640 7.755610 0.000000 
42.680852 0.730516 0.000000 
25.366593 4.057769 0.000000 
45.037864 4.567230 0.000000 
20.873759 2.850539 0.000000 
48.278612 0.425204 0.000000 
12.688862 0.388629 0.000000 
21.173001 9.846467 0.000000 
51.529918 4.581498 0.000000 
55.724469 4.586838 0.000000 
13.061202 5.122832 0.000000 
9.384620 7.896871 0.000000 
37.181005 5.707623 0.000000 
25.042058 11.765866 0.000000 
23.898591 8.560973 0.000000 
42.595666 0.469593 0.000000 
39.686718 4.424404 0.000000 
14.250426 3.261035 0.000000 
22.574444 9.772048 0.000000 
45.418241 4.345510 0.000000 
39.310729 0.385531 0.000000 
36.457207 0.655245 0.000000 
7.041882 3.497796 0.000000 
27.439509 10.788956 0.000000 
24.786203 6.706477 0.000000 
42.765437 4.590834 0.000000 
43.361026 2.337151 0.000000 
1.311882 9.854743 0.000000 
21.394031 3.378886 0.000000 
5.949670 4.068524 0.000000 
45.282327 4.564215 0.000000 
3.487632 10.669158 0.000000 
30.079839 6.965459 0.000000 
22.986357 9.885761 0.000000 
27.662844 10.726822 0.000000 
6.487160 14.560588 0.000000 
1.107403 14.199394 0.000000 
59.211687 4.601124 0.000000 
48.876660 2.952896 0.000000 
20.113093 0.403663 0.000000 
49.686848 3.932899 0.000000 
0.427141 9.993922 0.000000 
33.212280 5.881784 0.000000 
20.780523 2.403753 0.000000 
45.660364 2.104804 0.000000 
31.745404 8.622318 0.000000 
48.522719 1.913149 0.000000 
0.441927 2.019312 0.000000 
30.076014 6.529737 0.000000 
20.882957 5.830259 0.000000 
48.479847 1.511110 0.000000 
56.999180 2.883976 0.000000 
36.192813 5.607875 0.000000 
14.217078 0.439109 0.000000 
34.824121 0.435251 0.000000 
19.143745 7.286447 0.000000 
4.301786 0.611337 0.000000 
12.674573 3.373904 0.000000 
14.910191 2.129206 0.000000 
39.901102 4.557582 0.000000 
19.025125 8.279753 0.000000 
11.238381 14.533444 0.000000 
24.334346 0.426505 0.000000 
5.056460 1.111941 0.000000 
20.425447 14.083544 0.000000 
22.648597 4.344637 0.000000 
24.757764 6.275649 0.000000 
4.216197 1.197732 0.000000 
15.601746 2.021915 0.000000 
12.472524 6.822399 0.000000 
8.891311 1.030977 0.000000 
21.108546 5.758439 0.000000 
28.726463 4.419834 0.000000 
2.767836 8.069686 0.000000 
49.978111 4.272776 0.000000 
6.568077 11.324296 0.000000 
30.357495 5.174258 0.000000 
14.784933 8.534805 0.000000 
22.632982 0.598510 0.000000 
15.015717 14.601245 0.000000 
18.740847 5.881024 0.000000 
36.974781 5.631999 0.000000 
5.272779 10.396957 0.000000 
57.052607 3.147596 0.000000 
9.492200 8.160968 0.000000 
14.158052 2.095490 0.000000 
44.831426 4.136997 0.000000 
4.461472 9.930833 0.000000 
9.530854 6.292596 0.000000 
44.973648 1.727180 0.000000 
10.184698 11.268405 0.000000 
55.348532 1.210594 0.000000 
49.053039 4.556549 0.000000 
6.338499 10.850654 0.000000 
10.926990 3.316154 0.000000 
40.205349 4.553928 0.000000 
10.158670 10.787701 0.000000 
25.168921 4.439351 0.000000 
59.553778 4.277544 0.000000 
19.127117 8.612801 0.000000 
3.014202 1.911174 0.000000 
17.927323 14.405884 0.000000 
12.137223 9.243026 0.000000 
19.262383 12.921578 0.000000 
11.407561 12.927626 0.000000 
13.780042 1.165366 0.000000 
4.672700 8.085654 0.000000 
50.455727 4.322172 0.000000 
9.655458 7.945032 0.000000 
9.315066 8.387620 0.000000 
11.936881 13.839940 0.000000 
21.994381 11.092045 0.000000 
6.432120 11.565493 0.000000 
20.962549 2.249384 0.000000 
5.251299 10.032378 0.000000 
24.931300 0.606743 0.000000 
18.749519 0.583647 0.000000 
2.954468 1.043071 0.000000 
48.241457 1.194699 0.000000 
17.087332 13.042996 0.000000 
10.072095 9.034232 0.000000 
51.354377 3.038959 0.000000 
10.297964 11.746984 0.000000 
2.923667 6.568108 0.000000 
0.599877 0.157929 0.000000 
9.132038 4.475571 0.000000 
13.585980 0.537669 0.000000 
32.324681 0.601721 0.000000 
53.032320 0.429492 0.000000 
2.018962 10.367808 0.000000 
34.430231 6.287844 0.000000 
32.951272 7.426037 0.000000 
43.769255 0.727959 0.000000 
20.664909 1.912914 0.000000 
48.269316 2.297932 0.000000 
8.556611 12.787825 0.000000 
13.143138 8.539635 0.000000 
14.989228 0.407417 0.000000 
35.696262 1.235172 0.000000 
8.873991 8.593606 0.000000 
21.672803 10.942093 0.000000 
10.730125 7.132819 0.000000 
28.080440 10.083628 0.000000 
6.219487 0.425120 0.000000 
20.604451 6.408107 0.000000 
29.886789 6.356764 0.000000 
13.270428 1.745676 0.000000 
0.258235 9.144516 0.000000 
22.701765 13.190666 0.000000 
0.472477 14.528214 0.000000 
59.582079 4.550923 0.000000 
20.879309 3.564344 0.000000 
3.671674 9.346254 0.000000 
9.978266 6.110499 0.000000 
42.811057 0.368245 0.000000 
20.885418 9.042919 0.000000 
2.522522 13.489541 0.000000 
36.948262 6.080869 0.000000 
58.120574 4.811140 0.000000 
9.931103 4.797705 0.000000 
2.285018 12.828528 0.000000 
6.061271 9.715501 0.000000 
34.479297 2.890340 0.000000 
10.008879 14.538067 0.000000 
48.780113 2.565171 0.000000 
40.294604 0.812111 0.000000 
17.922163 2.732099 0.000000 
31.475939 6.578507 0.000000 
39.335781 0.767539 0.000000 
16.025799 14.427488 0.000000 
10.230640 3.746600 0.000000 
10.492504 0.487721 0.000000 
11.805620 8.639435 0.000000 
56.233424 2.571962 0.000000 
47.964293 2.920386 0.000000 
6.716492 11.547641 0.000000 
8.849375 7.431937 0.000000 
8.699191 7.678580 0.000000 
11.000680 14.404402 0.000000 
20.893214 9.866637 0.000000 
10.018193 4.117032 0.000000 
41.632445 4.355410 0.000000 
41.345301 4.373806 0.000000 
13.820948 9.337947 0.000000 
35.156500 6.661441 0.000000 
40.170913 1.049871 0.000000 
44.069122 1.800696 0.000000 
10.762860 0.413282 0.000000 
23.068236 9.646154 0.000000 
28.293158 4.375712 0.000000 
24.586899 6.088834 0.000000 
29.293787 8.552253 0.000000 
51.120771 0.623985 0.000000 
58.362795 2.231699 0.000000 
59.523385 2.788541 0.000000 
10.461546 7.131477 0.000000 
46.272903 3.605591 0.000000 
45.775813 0.446047 0.000000 
6.689005 12.255380 0.000000 
4.901422 8.960340 0.000000 
13.305125 13.442762 0.000000 
12.455772 2.387399 0.000000 
46.149699 2.304219 0.000000 
2.356057 13.072364 0.000000 
16.072086 2.175628 0.000000 
23.365911 12.777999 0.000000 
13.571930 13.436347 0.000000 
31.668544 1.211509 0.000000 
6.110249 9.985865 0.000000 
48.983246 2.683640 0.000000 
44.203884 0.801959 0.000000 
43.135179 1.415277 0.000000 
22.021046 3.849443 0.000000 
8.840913 5.229986 0.000000 
0.469143 3.265572 0.000000 
19.275620 5.094165 0.000000 
59.337010 0.478349 0.000000 
29.670848 2.330218 0.000000 
20.341487 6.413974 0.000000 
46.026722 4.537883 0.000000 
57.762794 1.428729 0.000000 
46.326297 2.771413 0.000000 
9.516764 4.794161 0.000000 
44.475414 1.816852 0.000000 
5.922248 11.160373 0.000000 
20.890662 10.774816 0.000000 
25.076290 11.498858 0.000000 
24.686747 10.961614 0.000000 
51.774448 4.582973 0.000000 
59.511110 3.062030 0.000000 
59.603941 4.017025 0.000000 
22.504720 13.322995 0.000000 
21.741717 4.947529 0.000000 
18.454897 7.258796 0.000000 
58.045083 0.418781 0.000000 
10.246761 14.542412 0.000000 
26.165666 8.136954 0.000000 
18.618200 0.312769 0.000000 
51.186644 1.780794 0.000000 
19.076640 6.110333 0.000000 
25.316396 0.406983 0.000000 
42.998903 0.989993 0.000000 
17.033772 2.160626 0.000000 
8.234129 14.594859 0.000000 
31.338101 0.471273 0.000000 
39.886628 2.652844 0.000000 
16.659150 1.053111 0.000000 
28.112990 0.457536 0.000000 
10.526244 8.316427 0.000000 
55.985035 2.183965 0.000000 
24.136730 1.298199 0.000000 
17.105870 14.284319 0.000000 
11.712492 13.648546 0.000000 
5.081579 13.424525 0.000000 
6.351777 10.367560 0.000000 
31.624665 0.489509 0.000000 
51.876732 0.263473 0.000000 
33.920917 5.083808 0.000000 
29.813540 2.115645 0.000000 
58.647676 1.142549 0.000000 
50.204465 0.852222 0.000000 
53.784417 4.550488 0.000000 
52.913339 4.548899 0.000000 
13.976670 7.430883 0.000000 
4.591286 3.794697 0.000000 
23.800511 12.228604 0.000000 
10.770214 14.526523 0.000000 
57.005753 4.544675 0.000000 
19.427881 1.346562 0.000000 
28.614526 8.437898 0.000000 
15.930590 12.537602 0.000000 
31.789129 5.338668 0.000000 
26.224016 0.465077 0.000000 
25.695995 0.601523 0.000000 
6.740598 14.501351 0.000000 
14.294967 9.333035 0.000000 
15.631330 11.939443 0.000000 
55.472318 4.587446 0.000000 
23.810419 10.157592 0.000000 
21.718892 6.300670 0.000000 
3.035214 13.103206 0.000000 
2.847557 12.551782 0.000000 
32.338630 6.906971 0.000000 
0.883884 7.317270 0.000000 
14.908091 1.533629 0.000000 
1.697828 0.956930 0.000000 
13.618973 5.929880 0.000000 
23.304837 1.010692 0.000000 
28.672761 9.428994 0.000000 
5.961082 13.463511 0.000000 
30.238064 6.025531 0.000000 
46.734238 4.405072 0.000000 
5.768691 13.039073 0.000000 
3.007367 3.349326 0.000000 
27.308577 3.696586 0.000000 
10.050200 10.534164 0.000000 
12.876313 10.987904 0.000000 
29.674562 9.660504 0.000000 
1.851433 7.455215 0.000000 
10.114959 1.368997 0.000000 
4.648064 8.987546 0.000000 
17.767595 1.582771 0.000000 
17.287272 0.214697 0.000000 
54.485295 1.497625 0.000000 
11.261016 9.128162 0.000000 
19.153017 0.440517 0.000000 
57.370561 2.880595 0.000000 
59.562188 1.521886 0.000000 
12.577550 14.489463 0.000000 
37.676744 0.224488 0.000000 
10.699844 4.036851 0.000000 
52.196506 1.851113 0.000000 
55.285606 2.158584 0.000000 
19.865133 0.400435 0.000000 
27.508202 1.983117 0.000000 
38.440727 1.038971 0.000000 
24.267690 7.686859 0.000000 
11.090599 11.771602 0.000000 
8.435890 1.575816 0.000000 
48.823569 3.634124 0.000000 
25.330186 2.308557 0.000000 
28.312265 0.664006 0.000000 
7.067585 8.625284 0.000000 
1.581286 10.244002 0.000000 
23.606728 9.510119 0.000000 
3.546919 11.374147 0.000000 
29.445547 9.772949 0.000000 
30.016379 4.225970 0.000000 
11.193712 0.440376 0.000000 
38.870319 5.332502 0.000000 
6.082279 0.806451 0.000000 
21.509461 1.410950 0.000000 
27.850396 4.151774 0.000000 
12.270739 14.625123 0.000000 
12.786277 9.655733 0.000000 
3.650368 2.368328 0.000000 
3.912494 8.597174 0.000000 
12.461772 1.966505 0.000000 
18.925349 0.824506 0.000000 
23.356800 12.507451 0.000000 
9.639689 9.575905 0.000000 
59.010388 4.568187 0.000000 
17.452277 2.262773 0.000000 
23.827895 0.435436 0.000000 
55.523463 2.676756 0.000000 
9.498645 10.963173 0.000000 
40.013015 2.010030 0.000000 
5.553339 5.063618 0.000000 
34.136848 5.978452 0.000000 
13.609495 14.364679 0.000000 
5.544542 2.851078 0.000000 
24.463537 9.078972 0.000000 
18.740149 4.971852 0.000000 
4.436112 5.387425 0.000000 
28.677813 1.044561 0.000000 
28.188165 8.749670 0.000000 
24.259428 1.547031 0.000000 
0.990531 8.085804 0.000000 
11.041615 6.833714 0.000000 
0.457795 11.984504 0.000000 
35.023835 1.776628 0.000000 
22.551638 11.132400 0.000000 
37.843031 5.558353 0.000000 
10.215724 7.022414 0.000000 
24.061054 5.712269 0.000000 
19.702999 6.996279 0.000000 
12.576491 9.463042 0.000000 
6.291391 9.022671 0.000000 
3.435542 0.932044 0.000000 
22.999462 10.616512 0.000000 
52.833979 0.853910 0.000000 
2.332483 3.193576 0.000000 
0.237854 6.116500 0.000000 
45.784915 1.898160 0.000000 
30.515968 4.514576 0.000000 
49.557492 2.944310 0.000000 
34.924106 4.446146 0.000000 
1.151837 3.659244 0.000000 
41.073534 4.755096 0.000000 
12.617834 12.429805 0.000000 
7.413139 9.114533 0.000000 
48.048625 0.455594 0.000000 
24.166047 9.404241 0.000000 
29.049880 8.489657 0.000000 
51.592523 3.474747 0.000000 
28.831809 9.301195 0.000000 
0.825742 1.905362 0.000000 
39.449402 2.980951 0.000000 
29.554805 5.018869 0.000000 
29.991575 4.940221 0.000000 
19.959031 9.413435 0.000000 
28.591938 8.037138 0.000000 
1.081452 10.269464 0.000000 
54.803988 4.739728 0.000000 
19.270331 5.522240 0.000000 
26.203774 10.228721 0.000000 
40.319594 2.863338 0.000000 
2.084305 11.455759 0.000000 
1.999086 12.007788 0.000000 
46.483614 0.651182 0.000000 
14.285180 6.226982 0.000000 
0.946890 1.340623 0.000000 
3.652729 1.882125 0.000000 
35.572722 3.296038 0.000000 
7.527890 8.600262 0.000000 
1.341350 7.310519 0.000000 
36.108767 6.164170 0.000000 
25.290595 5.358363 0.000000 
36.617256 5.611792 0.000000 
18.820677 8.260697 0.000000 
7.937106 2.338167 0.000000 
13.781857 10.216507 0.000000 
14.286725 10.045246 0.000000 
26.382809 7.433088 0.000000 
25.705034 7.191143 0.000000 
19.640934 4.837402 0.000000 
57.107884 2.322199 0.000000 
16.794373 8.396093 0.000000 
1.317664 12.201575 0.000000 
23.909241 9.515013 0.000000 
21.491990 5.943984 0.000000 
29.598415 0.436984 0.000000 
0.851156 4.109035 0.000000 
24.258929 7.119413 0.000000 
8.076323 8.402181 0.000000 
15.947792 8.567812 0.000000 
24.320431 4.323645 0.000000 
27.863212 3.240300 0.000000 
24.797185 3.611792 0.000000 
12.501186 11.932901 0.000000 
9.163739 6.126692 0.000000 
29.061962 10.138667 0.000000 
28.387425 0.427790 0.000000 
7.398850 1.762529 0.000000 
19.108559 7.691081 0.000000 
32.794653 6.076416 0.000000 
42.291549 4.530165 0.000000 
3.254904 2.589720 0.000000 
10.101997 7.846744 0.000000 
51.023314 3.766024 0.000000 
54.974119 1.758495 0.000000 
24.642172 11.483132 0.000000 
20.837234 5.425969 0.000000 
36.013256 4.430040 0.000000 
36.174730 4.557211 0.000000 
13.389610 2.751094 0.000000 
13.157408 4.144728 0.000000 
30.173268 9.431732 0.000000 
16.257384 13.496932 0.000000 
3.798032 3.707243 0.000000 
3.626492 3.585666 0.000000 
13.109543 3.945274 0.000000 
13.592349 3.430821 0.000000 
12.667529 3.775132 0.000000 
29.466071 7.333521 0.000000 
44.481727 3.362883 0.000000 
21.808102 3.652801 0.000000 
0.598006 8.771440 0.000000 
18.308957 1.927607 0.000000 
16.882172 10.429851 0.000000 
16.688697 10.506281 0.000000 
34.573308 4.711080 0.000000 
4.013593 6.860227 0.000000 
13.235095 14.731173 0.000000 
28.132611 2.784053 0.000000 
25.387299 1.078526 0.000000 
12.897205 3.810390 0.000000 
2.152734 1.729395 0.000000 
30.803413 1.544218 0.000000 
31.286130 0.919841 0.000000 
51.295759 1.542496 0.000000 
24.744869 7.805885 0.000000 
4.103157 7.725066 0.000000 
24.381866 9.763649 0.000000 
10.949198 3.741259 0.000000 
46.021548 0.425715 0.000000 
6.831440 10.277259 0.000000 
2.084218 0.265546 0.000000 
0.476495 3.523868 0.000000 
37.889731 5.088913 0.000000 
29.967324 0.227535 0.000000 
7.455575 2.328779 0.000000 
49.941228 2.677390 0.000000 
11.363749 3.935600 0.000000 
1.805891 7.971276 0.000000 
21.369759 11.586410 0.000000 
21.273921 11.154675 0.000000 
28.729283 5.147683 0.000000 
0.443572 11.177874 0.000000 
44.523396 1.405449 0.000000 
28.340658 2.330293 0.000000 
53.827067 1.032140 0.000000 
54.019325 1.442924 0.000000 
53.085952 1.299760 0.000000 
53.282582 1.725346 0.000000 
51.034491 4.582563 0.000000 
12.965503 1.116081 0.000000 
52.611885 1.517595 0.000000 
10.955146 9.939004 0.000000 
30.869057 7.743104 0.000000 
14.569797 13.119252 0.000000 
1.602890 2.907591 0.000000 
1.848873 3.260149 0.000000 
0.928803 3.281908 0.000000 
46.265753 1.484327 0.000000 
0.495492 11.372476 0.000000 
47.962925 3.724993 0.000000 
0.389221 9.381857 0.000000 
29.065388 0.451296 0.000000 
9.634139 14.001539 0.000000 
5.029994 5.679679 0.000000 
20.648700 4.792665 0.000000 
25.046152 1.698678 0.000000 
19.650129 9.397360 0.000000 
47.415849 0.713239 0.000000 
5.898851 3.189025 0.000000 
10.397048 0.950791 0.000000 
4.555523 1.543302 0.000000 
44.872702 0.670672 0.000000 
13.398590 13.890817 0.000000 
17.110672 3.061970 0.000000 
26.716748 8.675252 0.000000 
48.990926 0.437313 0.000000 
34.755828 1.400557 0.000000 
56.973824 0.470367 0.000000 
3.846089 1.020427 0.000000 
29.459827 3.531982 0.000000 
6.778339 9.531232 0.000000 
10.885007 7.623327 0.000000 
29.744294 6.734167 0.000000 
29.333031 6.861038 0.000000 
10.681978 10.494350 0.000000 
34.274348 1.285086 0.000000 
51.389289 3.949125 0.000000 
12.866328 7.971486 0.000000 
13.619975 3.149313 0.000000 
19.544032 5.070407 0.000000 
52.129386 0.226512 0.000000 
8.470916 11.956418 0.000000 
8.614819 12.379675 0.000000 
11.876611 0.815535 0.000000 
11.609299 0.486595 0.000000 
17.458850 14.291506 0.000000 
58.868197 0.242385 0.000000 
18.340657 8.997883 0.000000 
8.043521 12.616765 0.000000 
55.146766 3.833915 0.000000 
55.531361 3.143372 0.000000 
55.576871 4.013270 0.000000 
56.195777 0.871391 0.000000 
32.962626 6.937046 0.000000 
5.019969 2.236629 0.000000 
50.588973 2.213536 0.000000 
7.959466 13.032973 0.000000 
10.464200 10.033441 0.000000 
50.326622 2.805142 0.000000 
20.582169 13.373379 0.000000 
20.283542 8.677703 0.000000 
46.012981 3.640668 0.000000 
18.870854 12.843610 0.000000 
29.585703 0.862618 0.000000 
0.170438 12.623277 0.000000 
3.746231 10.242060 0.000000 
15.536949 10.319955 0.000000 
1.077941 9.843403 0.000000 
2.426448 2.715653 0.000000 
31.529957 7.045657 0.000000 
14.453291 6.946640 0.000000 
14.368561 7.595858 0.000000 
58.298955 2.644196 0.000000 
15.222680 9.728702 0.000000 
20.274955 7.648717 0.000000 
19.951396 7.358431 0.000000 
9.067858 1.537372 0.000000 
45.918529 2.811013 0.000000 
22.065045 5.500103 0.000000 
15.371758 1.661661 0.000000 
38.245803 5.630156 0.000000 
24.029294 12.699208 0.000000 
28.742540 10.386896 0.000000 
2.928916 2.814078 0.000000 
17.636421 14.774105 0.000000 
52.124151 4.790842 0.000000 
3.331667 0.205460 0.000000 
0.202909 4.121086 0.000000 
4.835038 0.266989 0.000000 
0.227555 8.132665 0.000000 
38.680306 0.197482 0.000000 
46.338697 4.771056 0.000000 
4.056697 6.167402 0.000000 
13.899198 5.016955 0.000000 
2.569457 11.331858 0.000000 
33.554848 5.714793 0.000000 
33.770196 6.176603 0.000000 
41.659973 0.210394 0.000000 
10.430244 4.721295 0.000000 
14.992443 14.028562 0.000000 
18.260446 5.770590 0.000000 
18.651650 5.657202 0.000000 
47.575595 4.565668 0.000000 
11.945374 3.655433 0.000000 
52.128347 2.257161 0.000000 
10.895135 4.793025 0.000000 
12.780821 14.204968 0.000000 
26.696752 4.035374 0.000000 
6.322676 9.301657 0.000000 
34.867359 6.009145 0.000000 
13.095820 3.381204 0.000000 
19.811402 1.579220 0.000000 
20.069857 1.186539 0.000000 
21.991261 4.522975 0.000000 
15.311475 13.098225 0.000000 
21.383787 13.824962 0.000000 
2.732034 10.093310 0.000000 
51.666537 1.840036 0.000000 
18.139244 9.181528 0.000000 
18.116096 5.294330 0.000000 
27.335621 3.237002 0.000000 
3.062207 9.731366 0.000000 
15.125350 13.659187 0.000000 
13.195336 5.891281 0.000000 
28.904564 2.792694 0.000000 
24.370232 3.819929 0.000000 
7.762828 14.504796 0.000000 
58.049634 0.849360 0.000000 
17.741088 9.476127 0.000000 
17.771623 10.013193 0.000000 
0.664939 5.832344 0.000000 
23.015505 11.888191 0.000000 
6.877177 8.650544 0.000000 
0.227584 8.605999 0.000000 
23.609728 10.262372 0.000000 
5.983129 1.603370 0.000000 
58.401138 4.058478 0.000000 
9.378409 3.545287 0.000000 
18.001720 0.742389 0.000000 
20.469758 5.616282 0.000000 
0.396464 11.771924 0.000000 
29.338785 0.429982 0.000000 
22.488115 11.928034 0.000000 
22.980806 11.391460 0.000000 
20.210001 5.345004 0.000000 
9.235961 7.098468 0.000000 
20.410449 9.500789 0.000000 
47.294233 2.653429 0.000000 
35.963268 6.775222 0.000000 
15.635487 2.457638 0.000000 
12.428613 9.217771 0.000000 
34.234672 4.316599 0.000000 
19.775133 13.425707 0.000000 
20.132073 13.130651 0.000000 
3.677353 6.536862 0.000000 
46.335046 1.031505 0.000000 
15.745287 0.663787 0.000000 
1.476683 7.564355 0.000000 
34.944867 5.466170 0.000000 
29.341675 4.957303 0.000000 
57.882352 4.786889 0.000000 
21.513294 5.144258 0.000000 
2.244092 10.011811 0.000000 
15.774009 11.539551 0.000000 
39.222994 0.973134 0.000000 
5.430811 11.233226 0.000000 
7.827046 12.569760 0.000000 
5.328521 0.263474 0.000000 
12.098729 10.241531 0.000000 
0.219584 4.870686 0.000000 
18.060066 3.327160 0.000000 
48.265276 4.561370 0.000000 
29.714827 9.379563 0.000000 
2.414503 11.721452 0.000000 
43.355162 0.220920 0.000000 
41.912352 4.760606 0.000000 
30.405372 3.676991 0.000000 
14.515160 8.496709 0.000000 
1.356434 9.450426 0.000000 
21.556046 2.013246 0.000000 
21.089711 1.858798 0.000000 
14.980201 1.774061 0.000000 
12.593096 2.838530 0.000000 
4.885682 2.696197 0.000000 
5.927844 11.409968 0.000000 
5.572451 11.742740 0.000000 
1.521566 13.255668 0.000000 
31.496882 7.900526 0.000000 
13.067611 13.484192 0.000000 
16.837620 14.518364 0.000000 
59.006632 0.620277 0.000000 
11.347347 10.094724 0.000000 
12.554243 5.892405 0.000000 
22.281703 11.514327 0.000000 
24.935684 2.105759 0.000000 
1.125155 0.550807 0.000000 
38.284660 4.919216 0.000000 
34.303283 5.281010 0.000000 
4.389784 5.801955 0.000000 
16.124279 14.816276 0.000000 
22.579468 10.376542 0.000000 
13.639752 7.619043 0.000000 
18.578699 4.547565 0.000000 
2.833290 0.211159 0.000000 
16.112730 2.387696 0.000000 
16.167644 2.777692 0.000000 
48.425703 3.668908 0.000000 
21.989635 12.907376 0.000000 
5.498627 2.138256 0.000000 
0.214315 14.615959 0.000000 
59.623309 4.788713 0.000000 
59.794332 0.380731 0.000000 
13.891666 13.151136 0.000000 
0.760896 12.274072 0.000000 
24.997535 3.546993 0.000000 
23.584829 0.432096 0.000000 
35.464620 5.244376 0.000000 
19.683516 12.396205 0.000000 
3.132706 7.577808 0.000000 
0.382490 0.216363 0.000000 
9.741787 10.100481 0.000000 
16.575910 0.209773 0.000000 
18.987418 1.343159 0.000000 
6.513745 13.193142 0.000000 
50.904300 3.960073 0.000000 
24.508718 12.253103 0.000000 
37.921551 0.215925 0.000000 
20.741467 4.110511 0.000000 
13.374689 12.762687 0.000000 
4.625750 10.629108 0.000000 
2.354338 12.376123 0.000000 
15.737323 11.297264 0.000000 
7.806665 13.831875 0.000000 
11.912976 9.401495 0.000000 
11.550518 9.677902 0.000000 
31.336948 5.567408 0.000000 
35.240543 2.706971 0.000000 
1.034291 9.209924 0.000000 
0.408723 0.467285 0.000000 
49.753216 0.412858 0.000000 
21.388828 4.138174 0.000000 
33.389651 1.868364 0.000000 
40.783157 1.987444 0.000000 
19.487592 6.164519 0.000000 
31.538990 8.744316 0.000000 
20.546601 3.799202 0.000000 
20.164860 3.728346 0.000000 
5.158932 1.787985 0.000000 
22.458297 5.262879 0.000000 
52.789017 0.425569 0.000000 
7.550122 1.323697 0.000000 
21.053731 13.268471 0.000000 
24.760017 12.146081 0.000000 
1.359031 1.551520 0.000000 
6.855305 12.787125 0.000000 
25.486031 6.156390 0.000000 
12.548454 10.234117 0.000000 
11.255126 10.294187 0.000000 
12.190586 6.854387 0.000000 
11.986829 1.560511 0.000000 
5.957855 12.349129 0.000000 
0.653769 7.678939 0.000000 
2.767749 11.704510 0.000000 
13.706622 3.998110 0.000000 
57.213498 0.443214 0.000000 
51.474087 0.424676 0.000000 
12.040214 14.598559 0.000000 
9.219278 9.478086 0.000000 
8.849958 9.607543 0.000000 
9.881037 10.309645 0.000000 
44.808286 2.380509 0.000000 
7.213309 14.592013 0.000000 
27.892899 2.347815 0.000000 
22.840312 1.212784 0.000000 
11.965568 2.411028 0.000000 
2.782028 7.431413 0.000000 
1.543921 9.858298 0.000000 
26.232091 9.036646 0.000000 
0.398470 12.226767 0.000000 
56.034316 0.431168 0.000000 
34.166811 1.951310 0.000000 
51.199945 1.364608 0.000000 
27.537089 2.582266 0.000000 
22.586393 9.136223 0.000000 
22.529703 11.646361 0.000000 
12.974399 14.400860 0.000000 
9.385954 9.916501 0.000000 
13.192518 9.924775 0.000000 
7.470659 8.155554 0.000000 
30.099119 5.828280 0.000000 
10.227314 8.277696 0.000000 
25.325949 2.925327 0.000000 
24.845593 2.939198 0.000000 
7.179115 12.395021 0.000000 
6.354857 8.356540 0.000000 
35.997254 6.323363 0.000000 
13.668532 13.959967 0.000000 
33.969881 2.259639 0.000000 
27.664319 1.192500 0.000000 
20.746037 7.094233 0.000000 
2.353055 1.246041 0.000000 
38.286883 0.411567 0.000000 
31.667547 6.177668 0.000000 
50.901768 4.785312 0.000000 
21.007659 4.452508 0.000000 
3.497892 7.606058 0.000000 
17.654601 13.663416 0.000000 
17.104096 9.875367 0.000000 
18.988354 6.786715 0.000000 
58.628368 1.838052 0.000000 
17.784220 8.130928 0.000000 
14.260450 13.705309 0.000000 
47.104631 0.189899 0.000000 
32.544555 1.429483 0.000000 
47.594183 1.115453 0.000000 
1.635497 10.910282 0.000000 
27.975753 9.814615 0.000000 
30.477956 1.900126 0.000000 
24.840868 0.993791 0.000000 
0.417839 7.733142 0.000000 
11.495540 6.806591 0.000000 
31.003845 8.825038 0.000000 
30.174014 4.854480 0.000000 
16.193105 13.079793 0.000000 
28.935600 5.513445 0.000000 
55.784438 0.416511 0.000000 
52.394959 0.202526 0.000000 
5.971152 0.419194 0.000000 
26.017041 9.464437 0.000000 
34.935276 2.431482 0.000000 
50.993744 3.089770 0.000000 
16.323330 13.922393 0.000000 
27.159112 2.230549 0.000000 
27.123981 2.561319 0.000000 
25.461449 6.776373 0.000000 
11.571763 8.880294 0.000000 
8.222322 13.339712 0.000000 
15.936019 13.149552 0.000000 
10.761071 3.539715 0.000000 
41.092164 0.805477 0.000000 
28.587646 4.025879 0.000000 
11.339237 7.696939 0.000000 
47.664271 0.255349 0.000000 
5.565779 10.623704 0.000000 
14.237691 9.121949 0.000000 
50.510871 1.585385 0.000000 
9.362332 6.685013 0.000000 
58.257953 0.398234 0.000000 
19.596076 1.155761 0.000000 
49.121220 1.580025 0.000000 
13.599775 1.249889 0.000000 
54.263466 0.862079 0.000000 
20.368655 13.451932 0.000000 
1.068612 11.482372 0.000000 
10.054487 6.870796 0.000000 
6.237161 12.907310 0.000000 
29.637646 5.197706 0.000000 
4.352120 13.583542 0.000000 
8.139974 4.679639 0.000000 
28.637731 0.397490 0.000000 
37.071075 0.447256 0.000000 
15.784318 13.380915 0.000000 
21.755829 2.676669 0.000000 
11.297753 8.056433 0.000000 
12.992670 9.816114 0.000000 
16.477828 2.046928 0.000000 
4.297280 8.746998 0.000000 
12.259135 8.280108 0.000000 
45.835274 2.368066 0.000000 
7.866869 1.865026 0.000000 
40.474068 0.464634 0.000000 
15.857857 0.183735 0.000000 
30.775383 6.388447 0.000000 
3.743209 5.523048 0.000000 
7.983373 8.981852 0.000000 
36.612568 5.407576 0.000000 
17.657797 3.890473 0.000000 
6.002026 11.865457 0.000000 
50.711405 1.121705 0.000000 
9.233057 8.643442 0.000000 
35.577234 4.872312 0.000000 
10.289384 13.833307 0.000000 
29.142011 9.130920 0.000000 
29.889634 8.257044 0.000000 
45.010781 0.447548 0.000000 
28.098580 3.697617 0.000000 
23.092846 0.388988 0.000000 
16.722135 10.092166 0.000000 
30.024651 9.786249 0.000000 
46.379362 0.192808 0.000000 
8.406754 14.163547 0.000000 
59.126944 0.191863 0.000000 
20.035788 2.000426 0.000000 
26.341139 4.570207 0.000000 
27.967230 9.295049 0.000000 
7.293577 11.295467 0.000000 
26.552083 9.652112 0.000000 
20.365706 4.503072 0.000000 
18.458827 3.902499 0.000000 
6.275590 2.030595 0.000000 
31.113419 8.306045 0.000000 
27.060310 0.575855 0.000000 
27.641193 0.397954 0.000000 
14.514370 14.589495 0.000000 
4.010435 3.399036 0.000000 
13.291793 4.552063 0.000000 
28.335022 10.392478 0.000000 
57.800648 2.639126 0.000000 
16.551534 1.420634 0.000000 
40.605755 3.745683 0.000000 
2.534279 2.259456 0.000000 
6.361900 3.604641 0.000000 
6.233891 3.299443 0.000000 
21.467267 9.264296 0.000000 
21.481118 9.620341 0.000000 
2.299946 0.694017 0.000000 
35.981639 4.893897 0.000000 
7.453784 2.743125 0.000000 
14.690915 2.396505 0.000000 
10.841014 6.135518 0.000000 
16.331421 10.667804 0.000000 
40.163864 1.790955 0.000000 
29.578487 6.075744 0.000000 
25.655678 1.809771 0.000000 
25.471961 2.112506 0.000000 
17.330286 0.960762 0.000000 
26.266189 2.483864 0.000000 
26.529433 2.178631 0.000000 
43.041186 3.006384 0.000000 
42.696989 2.956646 0.000000 
13.021401 8.981847 0.000000 
56.107870 2.941846 0.000000 
5.351541 11.661300 0.000000 
29.052590 9.355783 0.000000 
18.198343 4.206625 0.000000 
14.923498 13.306040 0.000000 
29.167280 3.211717 0.000000 
46.298974 3.995435 0.000000 
5.218342 8.719502 0.000000 
5.244393 8.368440 0.000000 
23.090691 4.457624 0.000000 
23.343540 4.164501 0.000000 
1.473559 0.372047 0.000000 
23.439165 8.946173 0.000000 
23.541955 9.287918 0.000000 
11.503159 2.012331 0.000000 
22.168239 3.386161 0.000000 
13.739090 5.411811 0.000000 
26.964393 2.195826 0.000000 
15.739457 1.423738 0.000000 
16.213143 0.565370 0.000000 
41.040970 0.417992 0.000000 
9.291708 9.129845 0.000000 
20.321004 5.989569 0.000000 
35.288528 6.236290 0.000000 
48.960899 3.980919 0.000000 
10.975995 0.379330 0.000000 
59.603586 3.547415 0.000000 
27.587244 8.082926 0.000000 
40.730405 0.333868 0.000000 
29.218281 8.288316 0.000000 
47.466566 3.392436 0.000000 
27.569792 9.464869 0.000000 
34.870532 3.742462 0.000000 
12.439828 8.793120 0.000000 
7.342309 12.255293 0.000000 
48.659860 1.168657 0.000000 
48.145680 4.177397 0.000000 
3.462914 2.729811 0.000000 
16.452534 11.429536 0.000000 
15.120818 7.966701 0.000000 
12.083451 12.682388 0.000000 
20.117571 12.663515 0.000000 
30.991230 5.811150 0.000000 
19.969869 8.974372 0.000000 
0.579064 5.132043 0.000000 
44.347760 2.222415 0.000000 
1.813449 2.564946 0.000000 
49.199758 3.124982 0.000000 
12.957739 10.298457 0.000000 
18.805122 6.374179 0.000000 
10.403500 4.345296 0.000000 
1.719519 12.655991 0.000000 
59.166808 1.516586 0.000000 
59.604028 0.949298 0.000000 
34.020583 1.587125 0.000000 
31.141289 8.962464 0.000000 
3.148607 8.370775 0.000000 
9.951495 7.059429 0.000000 
31.640718 7.538002 0.000000 
7.413507 14.603546 0.000000 
18.589934 1.554283 0.000000 
19.138721 9.548621 0.000000 
16.665591 13.590523 0.000000 
27.380172 2.790866 0.000000 
26.996492 0.178243 0.000000 
5.826492 9.733262 0.000000 
12.485405 3.393518 0.000000 
42.753922 2.323294 0.000000 
17.105692 1.654578 0.000000 
9.125766 6.595732 0.000000 
20.089692 6.955813 0.000000 
57.678520 4.108393 0.000000 
3.685179 0.391339 0.000000 
35.698522 6.718669 0.000000 
4.408500 11.081128 0.000000 
35.659975 3.938271 0.000000 
9.479766 7.446531 0.000000 
26.874108 10.509191 0.000000 
49.567542 0.890048 0.000000 
16.649836 0.670507 0.000000 
34.966762 3.349066 0.000000 
13.715915 6.593894 0.000000 
27.522440 10.298065 0.000000 
29.131901 0.863270 0.000000 
49.232992 0.461933 0.000000 
30.751922 5.167661 0.000000 
11.505185 3.498752 0.000000 
41.456149 0.377275 0.000000 
22.498252 0.936225 0.000000 
31.529905 8.496786 0.000000 
29.591435 8.941307 0.000000 
10.369891 14.353992 0.000000 
16.976701 13.375253 0.000000 
35.313127 6.876135 0.000000 
25.726245 0.195855 0.000000 
27.363499 9.868782 0.000000 
6.359551 13.951321 0.000000 
44.400885 0.193158 0.000000 
50.435035 3.218908 0.000000 
11.479934 1.066804 0.000000 
8.094035 11.935373 0.000000 
51.813775 4.197213 0.000000 
17.359193 0.689434 0.000000 
10.686985 1.629173 0.000000 
19.296222 7.075468 0.000000 
50.238006 0.350068 0.000000 
2.666757 0.892433 0.000000 
9.113043 11.728887 0.000000 
6.727900 2.984916 0.000000 
9.391426 13.294795 0.000000 
4.431447 10.298588 0.000000 
36.236856 5.800032 0.000000 
3.173934 8.939367 0.000000 
50.450996 0.393420 0.000000 
27.616893 0.843780 0.000000 
1.499489 10.733806 0.000000 
25.709528 4.854109 0.000000 
20.304049 3.305601 0.000000 
58.628505 0.169470 0.000000 
33.194063 6.320386 0.000000 
18.931653 4.840454 0.000000 
19.513959 7.933619 0.000000 
16.634737 14.321945 0.000000 
12.594792 1.374641 0.000000 
20.062697 14.769442 0.000000 
19.385034 9.533856 0.000000 
40.394132 0.175480 0.000000 
22.806202 3.993731 0.000000 
10.173049 5.121795 0.000000 
8.559496 8.418768 0.000000 
2.492169 0.377701 0.000000 
48.043109 0.865555 0.000000 
17.341091 2.506251 0.000000 
0.398824 4.229015 0.000000 
29.760492 5.904047 0.000000 
35.032149 3.118370 0.000000 
19.713812 5.705084 0.000000 
20.944320 11.641692 0.000000 
24.760280 9.958852 0.000000 
30.676176 5.915480 0.000000 
11.644460 10.811862 0.000000 
36.914374 5.013323 0.000000 
13.357043 10.399311 0.000000 
46.115650 3.211085 0.000000 
12.102246 14.235660 0.000000 
28.868043 3.522776 0.000000 
18.706755 8.722298 0.000000 
19.165262 12.296453 0.000000 
39.363619 1.967841 0.000000 
29.766938 1.267182 0.000000 
11.820348 0.168327 0.000000 
5.428708 4.433368 0.000000 
30.468889 7.840692 0.000000 
30.194218 8.047976 0.000000 
25.950589 2.045370 0.000000 
8.667391 13.508246 0.000000 
16.754100 12.773700 0.000000 
9.842954 3.987748 0.000000 
1.911319 6.991772 0.000000 
11.213290 14.153776 0.000000 
42.938472 3.848609 0.000000 
0.887749 1.131930 0.000000 
0.379611 13.793444 0.000000 
51.752198 2.843383 0.000000 
8.779640 2.062848 0.000000 
3.966683 4.027156 0.000000 
32.629929 6.389942 0.000000 
14.527641 9.434094 0.000000 
12.405233 11.007251 0.000000 
46.927436 0.730394 0.000000 
12.705917 7.633542 0.000000 
10.510702 7.831064 0.000000 
11.101806 9.527856 0.000000 
36.340215 5.093280 0.000000 
13.957997 8.299659 0.000000 
27.415276 3.902794 0.000000 
35.331555 1.129181 0.000000 
30.261899 8.713617 0.000000 
18.338370 12.634988 0.000000 
4.458778 0.435247 0.000000 
6.927696 14.360676 0.000000 
52.881646 1.918598 0.000000 
51.600480 3.908129 0.000000 
59.594938 3.312086 0.000000 
44.109136 1.557034 0.000000 
37.139387 0.950232 0.000000 
1.270420 13.602432 0.000000 
58.720230 2.577493 0.000000 
57.539136 3.567523 0.000000 
3.611581 8.025259 0.000000 
18.637830 7.808716 0.000000 
20.139032 10.093226 0.000000 
27.566670 0.179806 0.000000 
16.777161 2.849763 0.000000 
24.825226 7.359154 0.000000 
13.057663 2.532907 0.000000 
4.102801 10.848610 0.000000 
12.898218 8.625571 0.000000 
57.193372 0.858323 0.000000 
3.478400 13.982329 0.000000 
46.677518 3.537780 0.000000 
51.151512 0.960990 0.000000 
28.991010 1.825329 0.000000 
1.151486 10.907708 0.000000 
35.560217 1.441572 0.000000 
26.781723 10.045829 0.000000 
23.723022 4.154096 0.000000 
16.996334 0.448136 0.000000 
11.095419 1.067071 0.000000 
6.898576 2.449692 0.000000 
29.442716 8.763918 0.000000 
46.406554 1.820155 0.000000 
0.629026 13.236459 0.000000 
46.855749 2.299093 0.000000 
39.781383 1.659169 0.000000 
29.191573 2.345766 0.000000 
11.273397 0.835232 0.000000 
26.272294 9.625448 0.000000 
4.309459 10.795963 0.000000 
7.812678 14.184124 0.000000 
30.242226 6.278177 0.000000 
12.638946 14.745769 0.000000 
56.912400 0.712278 0.000000 
8.335510 1.223547 0.000000 
7.587742 1.902825 0.000000 
11.610831 9.362814 0.000000 
25.940659 0.317667 0.000000 
35.410018 2.994420 0.000000 
36.662857 1.860473 0.000000 
38.742642 3.905521 0.000000 
6.947490 7.817531 0.000000 
6.516225 5.065190 0.000000 
14.787172 5.724623 0.000000 
6.714359 7.859175 0.000000 
36.863462 1.712750 0.000000 
17.324939 7.411385 0.000000 
6.752025 5.016393 0.000000 
17.546702 4.932510 0.000000 
31.538418 4.379476 0.000000 
31.381111 4.176822 0.000000 
37.395961 4.615552 0.000000 
27.327625 7.506486 0.000000 
32.768222 2.027439 0.000000 
37.055625 1.563445 0.000000 
31.222756 3.972067 0.000000 
31.695346 4.581350 0.000000 
17.106468 7.567735 0.000000 
3.025436 5.930250 0.000000 
3.143068 5.717541 0.000000 
14.903950 5.163746 0.000000 
28.082424 5.292966 0.000000 
31.291987 2.317850 0.000000 
54.189131 4.006659 0.000000 
38.889389 3.701556 0.000000 
18.014005 5.710612 0.000000 
6.988912 4.973580 0.000000 
3.458836 4.996750 0.000000 
22.935032 8.618814 0.000000 
26.436410 6.748660 0.000000 
6.277942 5.121402 0.000000 
14.930375 4.870796 0.000000 
22.554362 6.542242 0.000000 
33.956456 3.665154 0.000000 
54.422958 3.895463 0.000000 
15.754724 3.301762 0.000000 
8.267157 6.329577 0.000000 
27.853882 5.178132 0.000000 
1.143384 4.751174 0.000000 
5.924866 7.931910 0.000000 
17.031558 3.728668 0.000000 
38.764134 1.845755 0.000000 
21.821468 8.785707 0.000000 
22.073237 8.760942 0.000000 
27.616847 5.062179 0.000000 
14.319880 12.274264 0.000000 
26.297664 6.516662 0.000000 
22.764080 3.385721 0.000000 
36.457113 2.008845 0.000000 
17.787869 12.133756 0.000000 
27.097750 7.428769 0.000000 
32.278823 5.309118 0.000000 
18.591028 12.044930 0.000000 
24.050077 2.189616 0.000000 
5.031134 6.353888 0.000000 
18.604544 10.256974 0.000000 
38.455839 4.296836 0.000000 
19.162135 11.691781 0.000000 
28.732972 6.195065 0.000000 
14.689001 10.454959 0.000000 
28.782476 6.464815 0.000000 
36.763039 4.455061 0.000000 
24.151667 2.421157 0.000000 
28.032928 7.626460 0.000000 
14.070475 12.282997 0.000000 
15.506011 3.360402 0.000000 
7.775142 7.591389 0.000000 
17.575835 12.096206 0.000000 
8.277292 6.605362 0.000000 
19.770660 2.745276 0.000000 
52.607435 3.427023 0.000000 
17.097217 11.780243 0.000000 
14.880992 4.285445 0.000000 
31.097215 2.520581 0.000000 
15.776044 7.896739 0.000000 
26.149227 6.293380 0.000000 
32.525945 5.437731 0.000000 
18.879298 10.312047 0.000000 
19.728380 2.501868 0.000000 
17.481953 10.656698 0.000000 
13.820162 12.294571 0.000000 
15.234450 11.999381 0.000000 
4.679604 6.734046 0.000000 
17.994266 12.181947 0.000000 
19.816495 2.976111 0.000000 
34.015027 3.397917 0.000000 
2.907066 6.143995 0.000000 
37.609646 1.301439 0.000000 
24.251119 2.650458 0.000000 
54.765757 1.892456 0.000000 
7.450297 10.711807 0.000000 
4.041864 11.878551 0.000000 
16.981278 11.598372 0.000000 
22.306310 6.532738 0.000000 
2.487257 3.419694 0.000000 
18.566724 1.958292 0.000000 
13.990404 10.395579 0.000000 
25.858535 9.301501 0.000000 
19.146027 10.360339 0.000000 
21.156756 7.020471 0.000000 
11.547597 4.607526 0.000000 
8.635018 10.223488 0.000000 
54.659882 3.785804 0.000000 
6.031166 5.178817 0.000000 
7.238671 4.943778 0.000000 
8.735181 10.467105 0.000000 
38.313766 4.493134 0.000000 
55.168619 2.410266 0.000000 
15.259279 3.398153 0.000000 
15.196828 10.879020 0.000000 
4.782864 11.999068 0.000000 
17.773359 7.090116 0.000000 
8.270116 5.737249 0.000000 
18.870965 14.352185 0.000000 
19.120706 14.352613 0.000000 
26.863055 7.356493 0.000000 
24.799732 9.748897 0.000000 
24.067213 10.558331 0.000000 
31.629736 1.904173 0.000000 
42.205987 1.987111 0.000000 
11.486117 5.971702 0.000000 
14.825864 4.008030 0.000000 
17.576326 4.283644 0.000000 
25.894867 8.549508 0.000000 
3.840399 2.255385 0.000000 
24.697687 9.015854 0.000000 
3.569792 4.336431 0.000000 
15.408598 11.847704 0.000000 
15.059992 12.149550 0.000000 
3.670483 13.057540 0.000000 
4.696691 2.506645 0.000000 
29.937559 1.124782 0.000000 
33.440320 5.497410 0.000000 
19.676078 1.779958 0.000000 
41.827595 3.654388 0.000000 
19.621801 13.874995 0.000000 
3.093659 12.583050 0.000000 
4.506441 1.773643 0.000000 
7.999001 7.506135 0.000000 
18.616837 14.360654 0.000000 
41.207042 3.753530 0.000000 
18.744286 1.737126 0.000000 
26.107983 11.216659 0.000000 
25.049846 8.417844 0.000000 
52.701888 2.943208 0.000000 
23.284724 6.574556 0.000000 
23.028328 1.353450 0.000000 
9.526527 0.687337 0.000000 
10.778555 10.723208 0.000000 
11.078185 5.719042 0.000000 
11.888489 5.840458 0.000000 
12.961748 4.303532 0.000000 
1.902716 9.117592 0.000000 
26.882607 1.973824 0.000000 
47.378117 1.272702 0.000000 
21.592888 12.415149 0.000000 
36.206585 4.335156 0.000000 
19.584906 13.598613 0.000000 
26.628009 3.032447 0.000000 
24.479191 11.088128 0.000000 
4.781249 2.291710 0.000000 
9.161653 1.107489 0.000000 
22.416696 1.810855 0.000000 
9.540822 2.483350 0.000000 
21.356027 12.733324 0.000000 
24.395833 3.561780 0.000000 
7.082649 0.681161 0.000000 
3.610761 3.816895 0.000000 
19.718285 11.121188 0.000000 
46.810304 0.905854 0.000000 
25.011282 7.473944 0.000000 
2.397581 8.347534 0.000000 
21.955632 10.075066 0.000000 
9.218679 1.362038 0.000000 
20.312155 12.794956 0.000000 
23.618492 10.492103 0.000000 
12.844563 5.006021 0.000000 
19.394673 3.926702 0.000000 
47.048342 0.902329 0.000000 
46.515867 1.160720 0.000000 
15.542403 11.449074 0.000000 
6.829256 0.648943 0.000000 
3.952597 2.741717 0.000000 
40.908840 2.207871 0.000000 
43.378994 4.319700 0.000000 
56.346047 4.361181 0.000000 
10.632298 13.441211 0.000000 
52.619836 3.634298 0.000000 
18.527497 13.430427 0.000000 
19.374092 14.348546 0.000000 
36.201211 2.357596 0.000000 
25.545766 10.894203 0.000000 
12.744973 3.965810 0.000000 
56.665163 3.420652 0.000000 
25.585488 7.867509 0.000000 
43.651178 4.337845 0.000000 
10.895832 9.530189 0.000000 
38.170416 4.690192 0.000000 
10.019477 1.143009 0.000000 
20.642046 13.133250 0.000000 
9.793230 0.680527 0.000000 
2.984753 10.131948 0.000000 
8.694415 3.982829 0.000000 
5.270050 3.814021 0.000000 
34.244497 7.173207 0.000000 
56.153558 3.320192 0.000000 
6.575978 0.654524 0.000000 
34.070194 2.872000 0.000000 
1.195565 9.024451 0.000000 
30.450518 0.639231 0.000000 
0.902222 2.079478 0.000000 
5.786490 12.187735 0.000000 
33.162218 7.292360 0.000000 
26.160420 0.679577 0.000000 
33.574286 7.512542 0.000000 
29.151159 7.042495 0.000000 
18.981405 1.595849 0.000000 
20.873955 13.094901 0.000000 
5.620427 11.998546 0.000000 
30.680827 2.885659 0.000000 
33.794888 7.391212 0.000000 
30.573261 1.486998 0.000000 
24.980545 7.719932 0.000000 
34.024736 7.286932 0.000000 
12.800697 7.092755 0.000000 
24.183788 11.421487 0.000000 
49.553924 1.431239 0.000000 
25.933006 0.742202 0.000000 
13.106545 6.558497 0.000000 
15.015538 3.421880 0.000000 
7.327688 0.695165 0.000000 
29.842733 0.897636 0.000000 
3.149104 9.956279 0.000000 
13.742962 10.473121 0.000000 
34.162061 0.873632 0.000000 
19.999447 3.553308 0.000000 
16.840312 10.667590 0.000000 
11.668915 11.009984 0.000000 
9.093886 14.313637 0.000000 
11.746284 11.223393 0.000000 
0.677080 2.372773 0.000000 
25.875958 11.309704 0.000000 
2.389267 14.358364 0.000000 
8.466611 3.882242 0.000000 
24.655167 4.847793 0.000000 
35.119214 5.650488 0.000000 
26.325421 11.148776 0.000000 
25.437935 10.476304 0.000000 
2.628788 14.368021 0.000000 
17.503516 8.880542 0.000000 
10.302397 13.094638 0.000000 
25.438377 7.201709 0.000000 
33.960090 0.697137 0.000000 
18.387368 14.395137 0.000000 
49.912727 1.696341 0.000000 
17.922095 9.073999 0.000000 
27.352208 9.447974 0.000000 
10.240910 2.398207 0.000000 
59.298107 2.141287 0.000000 
0.707176 2.614757 0.000000 
6.662643 1.226987 0.000000 
19.209878 13.142273 0.000000 
9.277943 0.677022 0.000000 
17.686523 8.722742 0.000000 
24.594275 9.650054 0.000000 
17.367393 12.044214 0.000000 
2.417799 1.453965 0.000000 
1.631151 2.421241 0.000000 
53.267656 1.960828 0.000000 
33.700956 0.646971 0.000000 
22.212228 10.046368 0.000000 
50.404169 4.061700 0.000000 
56.092816 4.373504 0.000000 
20.485292 0.621934 0.000000 
32.023969 5.190033 0.000000 
20.366633 8.412841 0.000000 
28.716801 5.661866 0.000000 
17.734751 9.221110 0.000000 
43.918400 4.343929 0.000000 
56.928670 1.779638 0.000000 
11.375418 1.250391 0.000000 
21.288633 11.811019 0.000000 
43.795513 3.743656 0.000000 
42.037996 1.612130 0.000000 
5.399686 11.897369 0.000000 
7.313811 1.412094 0.000000 
35.728416 0.966837 0.000000 
11.583748 3.943383 0.000000 
25.987966 9.066742 0.000000 
48.651150 4.339619 0.000000 
2.863109 10.686313 0.000000 
50.145072 1.054643 0.000000 
10.156956 0.921445 0.000000 
16.266733 1.117720 0.000000 
24.457494 4.992281 0.000000 
34.463323 7.053974 0.000000 
33.583937 1.030215 0.000000 
50.946043 2.753254 0.000000 
6.267631 0.946944 0.000000 
46.609892 1.763614 0.000000 
18.141521 6.843126 0.000000 
25.772312 3.345956 0.000000 
58.802570 1.986043 0.000000 
16.272648 0.841876 0.000000 
19.783447 1.988115 0.000000 
6.482321 2.548697 0.000000 
20.746253 0.644469 0.000000 
45.502999 0.879143 0.000000 
5.884137 14.379787 0.000000 
8.046994 3.416644 0.000000 
8.332397 5.272087 0.000000 
35.258933 6.012449 0.000000 
10.052983 0.689056 0.000000 
7.993066 3.676487 0.000000 
1.172634 6.263955 0.000000 
2.623853 10.716807 0.000000 
49.917467 3.617952 0.000000 
12.173507 2.839569 0.000000 
26.030892 2.745144 0.000000 
44.740820 3.265017 0.000000 
19.622373 14.346956 0.000000 
45.160051 3.176954 0.000000 
5.782782 2.778508 0.000000 
35.691565 0.695265 0.000000 
13.717005 1.759791 0.000000 
17.507240 13.157253 0.000000 
11.825541 7.754142 0.000000 
0.701309 2.877870 0.000000 
11.050619 9.321809 0.000000 
58.616645 2.367227 0.000000 
23.203829 11.512810 0.000000 
33.836183 1.145723 0.000000 
56.761390 3.856399 0.000000 
30.686010 0.653617 0.000000 
9.556585 2.085816 0.000000 
31.926013 1.602460 0.000000 
25.918679 8.279755 0.000000 
16.860992 9.759030 0.000000 
23.553786 5.250916 0.000000 
2.810757 8.458185 0.000000 
16.140845 9.827505 0.000000 
6.128490 14.375177 0.000000 
6.136613 13.957240 0.000000 
48.816361 4.141879 0.000000 
43.261032 3.034468 0.000000 
59.310768 1.888410 0.000000 
18.220259 6.423585 0.000000 
48.330685 4.064490 0.000000 
2.571763 10.293650 0.000000 
9.550929 5.216099 0.000000 
3.777651 3.950056 0.000000 
50.112169 4.029173 0.000000 
3.183492 12.849154 0.000000 
4.766850 7.852626 0.000000 
56.249560 3.101086 0.000000 
10.658649 12.547227 0.000000 
7.474236 13.595925 0.000000 
5.956430 2.948033 0.000000 
11.575235 7.771045 0.000000 
23.662042 3.920546 0.000000 
10.581433 2.644882 0.000000 
5.063441 3.619834 0.000000 
55.845118 4.385875 0.000000 
20.997730 0.635416 0.000000 
23.526453 6.591230 0.000000 
13.052152 4.574479 0.000000 
30.418218 8.093689 0.000000 
7.936512 9.180036 0.000000 
2.775821 6.365850 0.000000 
7.451977 3.335248 0.000000 
25.672585 11.423193 0.000000 
33.449139 0.637212 0.000000 
8.838506 14.319691 0.000000 
13.620090 7.232535 0.000000 
30.167890 8.263067 0.000000 
14.542761 3.613921 0.000000 
1.097199 4.073429 0.000000 
2.141323 14.388067 0.000000 
2.745173 1.797950 0.000000 
48.414223 0.589185 0.000000 
12.814137 12.279418 0.000000 
30.930200 0.669834 0.000000 
57.783219 3.903343 0.000000 
50.665786 3.973462 0.000000 
51.427970 1.946750 0.000000 
16.631243 9.900174 0.000000 
12.765530 12.035648 0.000000 
50.369126 1.407592 0.000000 
8.625082 7.458541 0.000000 
2.890733 14.360559 0.000000 
24.085503 7.471523 0.000000 
10.396680 2.998164 0.000000 
1.809667 11.818659 0.000000 
1.915948 6.767085 0.000000 
23.253547 1.287293 0.000000 
8.265266 11.783147 0.000000 
30.657169 7.927840 0.000000 
26.043304 3.788191 0.000000 
12.109943 8.123595 0.000000 
2.077906 3.351246 0.000000 
26.950814 9.348516 0.000000 
2.356193 1.654121 0.000000 
15.878199 9.762160 0.000000 
46.277330 3.053616 0.000000 
15.816781 1.207299 0.000000 
23.760873 8.387337 0.000000 
55.017563 2.014908 0.000000 
55.391948 2.911881 0.000000 
10.427648 9.542366 0.000000 
30.888887 6.617509 0.000000 
49.669213 2.129911 0.000000 
10.804853 9.772540 0.000000 
16.835009 3.075906 0.000000 
13.813755 8.466369 0.000000 
21.011686 8.803544 0.000000 
21.451057 10.151086 0.000000 
26.545489 11.061356 0.000000 
50.849423 2.241177 0.000000 
9.359905 14.330550 0.000000 
53.675355 0.635042 0.000000 
7.409059 13.358565 0.000000 
16.647327 9.432455 0.000000 
13.780552 2.155243 0.000000 
19.514723 7.113334 0.000000 
13.305962 2.493445 0.000000 
9.042472 0.631651 0.000000 
32.948933 0.674512 0.000000 
10.208041 13.574572 0.000000 
5.628961 14.380279 0.000000 
41.475231 4.188382 0.000000 
26.732380 10.944265 0.000000 
25.437369 2.722378 0.000000 
8.995405 3.303350 0.000000 
26.517345 3.818659 0.000000 
31.967154 8.257163 0.000000 
10.585641 8.927294 0.000000 
28.664489 7.803299 0.000000 
5.779965 5.248934 0.000000 
11.217845 13.064635 0.000000 
18.072350 8.709061 0.000000 
35.932465 0.615327 0.000000 
23.381394 8.737841 0.000000 
3.388889 14.356693 0.000000 
17.136395 1.901232 0.000000 
12.913849 11.386095 0.000000 
6.888980 13.664343 0.000000 
7.050424 1.497002 0.000000 
8.803496 0.624794 0.000000 
6.438334 3.794792 0.000000 
21.476302 9.860855 0.000000 
21.444043 9.051860 0.000000 
23.385240 3.946360 0.000000 
23.037958 4.657083 0.000000 
5.247550 8.155253 0.000000 
26.582105 1.966961 0.000000 
48.246760 0.948725 0.000000 
42.487026 2.913497 0.000000 
24.001125 1.552680 0.000000 
44.071324 4.124527 0.000000 
44.652687 2.767914 0.000000 
33.352633 7.642576 0.000000 
27.111950 2.766153 0.000000 
4.151617 3.224310 0.000000 
45.158401 1.091686 0.000000 
51.824248 1.996402 0.000000 
56.662330 3.014313 0.000000 
57.530067 1.791204 0.000000 
14.480278 9.151593 0.000000 
4.848247 3.410214 0.000000 
0.683922 10.092018 0.000000 
12.909165 7.722502 0.000000 
9.773697 5.603030 0.000000 
9.222490 13.438838 0.000000 
4.609521 10.123780 0.000000 
5.042319 10.358214 0.000000 
56.604830 4.347582 0.000000 
56.674861 1.338563 0.000000 
18.089440 13.498778 0.000000 
21.550453 10.579154 0.000000 
8.828100 13.388997 0.000000 
17.581608 13.402024 0.000000 
31.272987 6.733268 0.000000 
20.083781 10.689112 0.000000 
23.455934 5.005274 0.000000 
47.184727 4.310951 0.000000 
10.313309 11.015471 0.000000 
30.576164 5.721654 0.000000 
8.786538 12.889620 0.000000 
9.828530 5.856495 0.000000 
9.439017 2.727121 0.000000 
56.386326 1.674833 0.000000 
17.790871 10.296565 0.000000 
31.020563 6.849280 0.000000 
5.499179 12.957469 0.000000 
7.594731 0.694089 0.000000 
8.047213 4.887715 0.000000 
35.988181 5.753759 0.000000 
7.070839 10.424915 0.000000 
10.022064 13.372093 0.000000 
24.990376 7.217491 0.000000 
15.194731 9.050262 0.000000 
17.174392 9.201070 0.000000 
20.082071 3.296458 0.000000 
54.246393 1.610670 0.000000 
5.366687 14.360932 0.000000 
25.467765 11.542129 0.000000 
11.154943 4.821117 0.000000 
24.978934 9.937438 0.000000 
21.726402 1.837952 0.000000 
53.991091 4.376880 0.000000 
53.162501 0.641881 0.000000 
8.841894 13.638659 0.000000 
8.063224 2.089774 0.000000 
2.992112 12.312214 0.000000 
3.137188 14.336700 0.000000 
28.108694 3.247998 0.000000 
18.003745 8.290624 0.000000 
27.551930 9.256806 0.000000 
45.559593 1.821084 0.000000 
19.044378 5.422304 0.000000 
17.351423 13.331472 0.000000 
29.934050 9.572563 0.000000 
53.888811 0.588980 0.000000 
8.988780 11.539497 0.000000 
11.873396 14.117703 0.000000 
1.774154 12.098117 0.000000 
15.149485 14.395984 0.000000 
8.917213 4.095332 0.000000 
14.720323 9.276636 0.000000 
15.387229 14.356073 0.000000 
43.098822 4.310523 0.000000 
11.961122 2.798119 0.000000 
45.120160 0.682288 0.000000 
11.403900 14.297261 0.000000 
51.616565 2.687445 0.000000 
33.216579 0.647372 0.000000 
43.025571 4.048810 0.000000 
43.168890 3.819882 0.000000 
51.568873 4.135229 0.000000 
12.920935 0.846587 0.000000 
14.583967 6.252971 0.000000 
1.305264 11.562240 0.000000 
54.640167 0.679601 0.000000 
25.560383 2.493054 0.000000 
25.809586 1.663742 0.000000 
5.437540 4.215051 0.000000 
5.190774 4.343594 0.000000 
48.474682 2.272300 0.000000 
10.928524 1.543185 0.000000 
15.364621 1.895671 0.000000 
50.383718 3.424371 0.000000 
32.551983 1.671814 0.000000 
17.336070 1.683304 0.000000 
35.405458 0.684937 0.000000 
59.309719 2.401009 0.000000 
0.821595 5.139502 0.000000 
25.651717 1.022901 0.000000 
10.074493 11.913795 0.000000 
43.568519 1.819671 0.000000 
2.292577 10.282450 0.000000 
44.675145 4.349545 0.000000 
33.763423 2.358811 0.000000 
46.292592 3.328254 0.000000 
24.606837 2.906117 0.000000 
29.216187 7.301306 0.000000 
44.425717 4.372378 0.000000 
33.770495 4.856410 0.000000 
33.202665 7.032997 0.000000 
21.034803 11.872248 0.000000 
22.285291 3.148975 0.000000 
36.977077 4.801987 0.000000 
1.514958 9.270855 0.000000 
46.695810 3.338755 0.000000 
20.869506 14.019825 0.000000 
53.602393 4.359195 0.000000 
53.119087 4.358801 0.000000 
27.249509 9.695900 0.000000 
30.882296 8.002805 0.000000 
20.011149 14.558554 0.000000 
16.633429 11.262849 0.000000 
8.577298 14.353881 0.000000 
19.005280 5.033332 0.000000 
25.841437 5.030694 0.000000 
29.305660 4.203652 0.000000 
3.592364 10.442072 0.000000 
6.445298 2.255552 0.000000 
14.530748 3.317852 0.000000 
0.699547 3.142118 0.000000 
12.528247 3.137136 0.000000 
10.927392 12.517282 0.000000 
46.915301 2.095057 0.000000 
26.625187 7.265755 0.000000 
53.423118 0.689128 0.000000 
19.045211 12.103966 0.000000 
22.470017 9.986116 0.000000 
17.023639 9.369058 0.000000 
27.247376 2.989004 0.000000 
11.810543 11.768217 0.000000 
6.174380 2.241445 0.000000 
54.922885 0.700951 0.000000 
26.422434 0.648991 0.000000 
5.186600 8.936906 0.000000 
8.695152 9.790221 0.000000 
24.742083 4.628418 0.000000 
21.354627 6.858220 0.000000 
21.793970 6.536728 0.000000 
11.450401 10.900224 0.000000 
35.348671 0.931158 0.000000 
47.572803 1.647780 0.000000 
39.143973 2.042422 0.000000 
25.817027 9.589963 0.000000 
27.148380 3.464262 0.000000 
22.027883 2.660245 0.000000 
3.697138 11.609015 0.000000 
20.658417 14.198911 0.000000 
9.214881 13.178597 0.000000 
49.751538 1.046925 0.000000 
27.016810 10.661809 0.000000 
47.423467 4.341591 0.000000 
25.526416 5.414235 0.000000 
9.543711 5.483750 0.000000 
57.519671 1.286531 0.000000 
45.185247 1.565544 0.000000 
38.331097 1.267636 0.000000 
9.636742 14.282655 0.000000 
6.576691 2.819457 0.000000 
25.735390 6.116122 0.000000 
13.519829 6.491584 0.000000 
13.562655 6.766997 0.000000 
42.301390 0.499669 0.000000 
16.591072 8.308096 0.000000 
10.871562 11.598094 0.000000 
9.606399 7.682900 0.000000 
13.133593 11.026576 0.000000 
27.732397 10.320647 0.000000 
7.725548 3.645045 0.000000 
33.133479 7.758854 0.000000 
26.966690 0.787717 0.000000 
22.907291 3.803966 0.000000 
20.708862 1.356270 0.000000 
34.258321 3.016147 0.000000 
59.118587 1.739779 0.000000 
46.484998 3.451386 0.000000 
4.898949 13.238670 0.000000 
31.745348 8.358552 0.000000 
9.968748 1.595809 0.000000 
46.140072 3.857841 0.000000 
2.963671 8.830034 0.000000 
30.201780 3.009560 0.000000 
29.954312 1.379313 0.000000 
1.154939 8.306537 0.000000 
9.974109 5.185990 0.000000 
48.014530 2.278193 0.000000 
27.456427 1.051368 0.000000 
15.337517 1.201112 0.000000 
32.224727 8.136885 0.000000 
40.728229 3.518620 0.000000 
28.541206 4.272885 0.000000 
10.977872 5.987157 0.000000 
28.776989 3.335774 0.000000 
44.696565 1.618699 0.000000 
3.926454 0.469949 0.000000 
18.166411 2.693263 0.000000 
15.295902 7.806717 0.000000 
12.835414 7.472978 0.000000 
15.807316 14.281629 0.000000 
35.508471 5.473552 0.000000 
5.864367 9.520662 0.000000 
13.476563 12.541857 0.000000 
35.912049 6.050885 0.000000 
18.690214 3.813414 0.000000 
22.877410 12.806231 0.000000 
3.439592 11.646868 0.000000 
18.312808 12.416802 0.000000 
0.834282 13.277884 0.000000 
24.048161 7.859894 0.000000 
7.829343 0.669779 0.000000 
5.991886 13.726704 0.000000 
6.893854 12.071219 0.000000 
22.433138 0.729279 0.000000 
25.973003 10.125258 0.000000 
2.494341 13.715223 0.000000 
10.406474 11.469851 0.000000 
39.606392 4.654645 0.000000 
13.331689 8.695154 0.000000 
14.815977 1.311256 0.000000 
4.214073 7.531752 0.000000 
17.407729 1.965591 0.000000 
1.100889 1.142043 0.000000 
8.548112 2.051178 0.000000 
24.443836 0.643712 0.000000 
58.876883 2.437616 0.000000 
29.845137 0.452177 0.000000 
13.245526 6.148569 0.000000 
37.229109 1.150522 0.000000 
4.821190 2.930562 0.000000 
48.363703 4.311084 0.000000 
39.161663 2.317865 0.000000 
54.895196 3.694568 0.000000 
26.323685 4.826720 0.000000 
16.076156 3.006993 0.000000 
15.181715 13.885196 0.000000 
22.209404 4.070993 0.000000 
23.114632 12.661263 0.000000 
46.079522 2.586115 0.000000 
26.913568 8.757507 0.000000 
4.419632 13.344293 0.000000 
5.464143 9.018497 0.000000 
22.365593 10.986808 0.000000 
23.224673 10.769369 0.000000 
14.661171 1.100218 0.000000 
11.684461 14.330862 0.000000 
3.495532 5.516255 0.000000 
42.235690 3.561063 0.000000 
43.607694 2.321140 0.000000 
21.329492 3.647092 0.000000 
29.754072 4.241976 0.000000 
4.395896 8.986826 0.000000 
7.819784 13.240211 0.000000 
20.039343 10.276588 0.000000 
12.220639 2.413850 0.000000 
31.184415 0.685737 0.000000 
2.061745 13.992430 0.000000 
22.352681 10.467559 0.000000 
51.784651 1.115352 0.000000 
1.460719 0.800204 0.000000 
58.264706 3.798801 0.000000 
18.052033 14.202936 0.000000 
33.968687 4.365222 0.000000 
12.368543 2.649623 0.000000 
19.555676 11.557694 0.000000 
9.138807 3.682194 0.000000 
24.628569 3.445419 0.000000 
24.427724 5.916470 0.000000 
30.419200 8.585322 0.000000 
46.511563 2.969141 0.000000 
42.519048 2.346885 0.000000 
20.798469 6.221423 0.000000 
9.007516 12.770007 0.000000 
5.115707 5.914218 0.000000 
1.384576 3.768465 0.000000 
1.033927 4.315435 0.000000 
7.433939 9.351899 0.000000 
9.229000 10.944168 0.000000 
9.394100 13.914136 0.000000 
24.007316 7.068290 0.000000 
30.652974 3.622176 0.000000 
13.644478 1.494353 0.000000 
55.438841 1.472024 0.000000 
23.962087 5.491210 0.000000 
22.666545 8.915590 0.000000 
48.471764 1.283086 0.000000 
24.105386 1.769918 0.000000 
8.771703 12.606628 0.000000 
8.521532 11.733493 0.000000 
5.875789 9.250683 0.000000 
18.302971 3.313627 0.000000 
11.463494 2.855577 0.000000 
6.170038 11.063606 0.000000 
34.674303 6.923919 0.000000 
14.574176 6.711831 0.000000 
22.857243 0.445350 0.000000 
7.557158 1.101151 0.000000 
52.965976 1.059630 0.000000 
28.890408 1.194939 0.000000 
48.757801 3.895326 0.000000 
1.885257 14.375397 0.000000 
22.662327 5.157882 0.000000 
20.905809 2.007413 0.000000 
6.312902 0.677270 0.000000 
27.627766 7.852662 0.000000 
33.377962 2.119703 0.000000 
19.604695 0.444280 0.000000 
34.221302 0.649475 0.000000 
9.419646 6.056561 0.000000 
24.752503 8.760478 0.000000 
34.903188 6.790631 0.000000 
12.029794 10.885457 0.000000 
40.460082 3.085149 0.000000 
18.007891 1.484963 0.000000 
37.434329 5.701018 0.000000 
20.007339 14.137745 0.000000 
11.643157 1.235695 0.000000 
9.376325 3.272051 0.000000 
30.240403 6.740233 0.000000 
1.691329 8.208732 0.000000 
17.644174 4.514231 0.000000 
27.334534 1.763526 0.000000 
18.936937 8.727858 0.000000 
18.810387 13.090120 0.000000 
2.474845 9.424941 0.000000 
7.011509 9.638547 0.000000 
9.783406 2.970257 0.000000 
1.837295 10.158173 0.000000 
18.996555 8.985587 0.000000 
18.239769 7.095535 0.000000 
12.841511 5.282896 0.000000 
14.306595 3.501083 0.000000 
0.874770 5.674075 0.000000 
55.535110 0.413462 0.000000 
4.442852 11.719042 0.000000 
26.216795 10.508144 0.000000 
14.857448 0.637334 0.000000 
26.040112 1.834332 0.000000 
15.108924 2.027629 0.000000 
18.404581 2.187252 0.000000 
0.678704 2.113394 0.000000 
35.903299 2.692019 0.000000 
31.033273 0.899389 0.000000 
30.721175 1.302321 0.000000 
11.702922 1.528324 0.000000 
24.925478 7.978298 0.000000 
12.632033 1.751292 0.000000 
6.181509 13.550205 0.000000 
12.309730 9.406026 0.000000 
11.232714 2.814486 0.000000 
56.034722 3.541356 0.000000 
11.948268 14.384756 0.000000 
23.208305 10.507319 0.000000 
15.626617 9.153573 0.000000 
15.019979 8.668882 0.000000 
7.535913 11.229702 0.000000 
58.805163 3.548724 0.000000 
53.985624 1.697258 0.000000 
53.493332 1.875763 0.000000 
13.240459 1.508029 0.000000 
8.200569 2.333438 0.000000 
44.933980 4.351396 0.000000 
31.695005 7.786689 0.000000 
0.928497 3.012568 0.000000 
1.384442 2.773065 0.000000 
1.852223 3.510787 0.000000 
5.276950 5.710653 0.000000 
20.199732 0.996464 0.000000 
48.619646 0.967617 0.000000 
15.182126 9.474470 0.000000 
6.996217 14.566326 0.000000 
50.686379 4.364375 0.000000 
8.589698 5.380977 0.000000 
20.358470 7.870153 0.000000 
12.318795 5.790073 0.000000 
51.560521 2.931745 0.000000 
10.505594 14.549553 0.000000 
11.353677 11.698420 0.000000 
40.207213 3.084824 0.000000 
23.341100 9.627772 0.000000 
43.239338 3.304475 0.000000 
1.388018 10.929668 0.000000 
34.432281 6.540896 0.000000 
13.663486 3.717564 0.000000 
0.865447 8.760854 0.000000 
35.525877 1.078426 0.000000 
7.045469 10.150570 0.000000 
13.478250 7.454375 0.000000 
39.235934 3.125959 0.000000 
55.820918 3.985597 0.000000 
55.278475 3.156308 0.000000 
14.612349 0.658096 0.000000 
48.239185 1.608854 0.000000 
17.736522 13.208332 0.000000 
7.273681 3.532181 0.000000 
3.685383 2.618082 0.000000 
32.935745 0.932555 0.000000 
0.598831 9.822519 0.000000 
33.894292 6.409872 0.000000 
6.217406 3.977406 0.000000 
35.774955 3.469120 0.000000 
39.214594 2.858488 0.000000 
15.345198 10.477617 0.000000 
14.984532 7.355631 0.000000 
28.420878 7.828175 0.000000 
36.686694 0.522475 0.000000 
33.598586 6.812337 0.000000 
21.878650 10.908923 0.000000 
32.096816 0.451824 0.000000 
24.074808 0.431503 0.000000 
13.972738 0.453453 0.000000 
42.530274 4.558975 0.000000 
24.466305 5.425115 0.000000 
11.041793 3.126265 0.000000 
4.787215 3.965402 0.000000 
9.286552 12.437649 0.000000 
16.057254 9.416542 0.000000 
39.975142 4.005840 0.000000 
14.707902 6.930375 0.000000 
9.734093 4.886709 0.000000 
35.807247 3.207049 0.000000 
25.606554 7.410082 0.000000 
1.276372 13.392914 0.000000 
15.960802 8.327272 0.000000 
52.743683 2.523710 0.000000 
6.418568 8.123934 0.000000 
3.716840 10.635623 0.000000 
26.929254 4.640364 0.000000 
21.508734 4.859733 0.000000 
11.985479 13.598247 0.000000 
25.585255 3.972041 0.000000 
7.314211 7.982837 0.000000 
26.788074 9.825068 0.000000 
17.014251 3.285522 0.000000 
40.574491 2.861265 0.000000 
25.554076 4.229430 0.000000 
30.317450 7.006291 0.000000 
37.947262 1.081283 0.000000 
2.635518 9.238024 0.000000 
24.285523 4.563148 0.000000 
37.768240 4.862312 0.000000 
4.248353 6.886521 0.000000 
32.788119 5.826026 0.000000 
15.489225 2.264795 0.000000 
5.987063 3.828164 0.000000 
5.345240 1.065899 0.000000 
0.219409 5.871981 0.000000 
30.793104 5.734144 0.000000 
38.726837 1.432978 0.000000 
2.189466 2.697315 0.000000 
31.282995 6.958686 0.000000 
27.546314 10.527624 0.000000 
1.356207 14.318561 0.000000 
3.653545 10.022863 0.000000 
15.081863 13.456120 0.000000 
21.727566 4.658339 0.000000 
31.704100 1.479327 0.000000 
24.523431 4.475200 0.000000 
22.927549 5.470189 0.000000 
22.922425 6.338859 0.000000 
3.931940 9.251105 0.000000 
6.321921 11.300902 0.000000 
56.311846 2.832724 0.000000 
22.739189 4.621830 0.000000 
20.782081 10.075732 0.000000 
24.415408 11.577424 0.000000 
30.413792 4.305504 0.000000 
1.532742 11.133560 0.000000 
6.198941 10.615405 0.000000 
16.883075 1.991988 0.000000 
31.729386 8.070486 0.000000 
1.391442 12.016852 0.000000 
24.284938 5.741524 0.000000 
47.804382 0.467867 0.000000 
16.881947 13.143324 0.000000 
12.393447 13.241324 0.000000 
20.582047 12.123918 0.000000 
55.172859 1.375133 0.000000 
0.420197 4.005433 0.000000 
55.180198 0.623189 0.000000 
1.737653 1.664590 0.000000 
1.667923 2.171484 0.000000 
57.086373 1.120316 0.000000 
36.136448 0.946102 0.000000 
2.419049 6.636102 0.000000 
47.331077 3.168727 0.000000 
1.607798 2.667612 0.000000 
8.639275 3.456170 0.000000 
40.472327 4.603006 0.000000 
0.999623 6.654927 0.000000 
9.131304 4.227281 0.000000 
57.107075 1.958013 0.000000 
19.907336 7.106158 0.000000 
0.177803 9.376146 0.000000 
7.502484 2.947667 0.000000 
24.893877 6.470101 0.000000 
3.831457 8.840012 0.000000 
45.530173 4.558702 0.000000 
12.780272 0.610512 0.000000 
9.343659 4.373410 0.000000 
45.759026 4.145085 0.000000 
21.140012 3.433321 0.000000 
13.423163 13.632770 0.000000 
15.916820 9.980296 0.000000 
29.982768 6.753552 0.000000 
34.697342 0.625527 0.000000 
43.518088 2.904791 0.000000 
1.959965 8.179480 0.000000 
7.129885 13.075548 0.000000 
0.623596 14.082162 0.000000 
16.891513 14.269045 0.000000 
14.348136 0.661638 0.000000 
0.407130 10.727652 0.000000 
52.366097 1.639237 0.000000 
47.131999 3.260772 0.000000 
22.450682 5.480948 0.000000 
40.057371 2.434120 0.000000 
34.983939 4.190109 0.000000 
9.599103 9.955460 0.000000 
4.545736 5.143287 0.000000 
2.941985 13.843305 0.000000 
43.749564 3.277619 0.000000 
8.323793 0.719868 0.000000 
49.156105 2.908169 0.000000 
39.100519 5.214384 0.000000 
52.542735 0.419055 0.000000 
20.754206 3.831299 0.000000 
7.867244 11.565018 0.000000 
21.792114 3.903656 0.000000 
4.676303 5.397111 0.000000 
19.555100 10.201618 0.000000 
6.743810 13.225040 0.000000 
55.758119 2.053904 0.000000 
22.469707 4.496056 0.000000 
28.598030 2.314626 0.000000 
35.066104 5.892595 0.000000 
20.730595 2.166896 0.000000 
0.403387 7.177894 0.000000 
41.891099 1.259820 0.000000 
3.987611 5.921768 0.000000 
4.922755 1.842249 0.000000 
7.159397 12.133213 0.000000 
10.531084 8.554200 0.000000 
2.187457 12.583125 0.000000 
58.365766 4.796868 0.000000 
10.857565 6.624285 0.000000 
14.774454 0.876827 0.000000 
55.230707 0.992145 0.000000 
49.193573 4.351319 0.000000 
13.710382 14.178995 0.000000 
11.158406 10.520015 0.000000 
50.021285 0.384437 0.000000 
56.178549 2.309410 0.000000 
41.309689 1.623174 0.000000 
9.340884 6.465697 0.000000 
59.556845 0.463707 0.000000 
21.008895 2.478948 0.000000 
21.074381 11.238885 0.000000 
4.053787 8.778662 0.000000 
7.300322 8.602538 0.000000 
50.474737 2.630053 0.000000 
10.162431 4.746299 0.000000 
48.996648 3.150110 0.000000 
7.553281 4.694754 0.000000 
24.996299 12.025824 0.000000 
23.782632 11.750742 0.000000 
4.919746 4.373811 0.000000 
23.886285 6.383245 0.000000 
1.651182 0.426306 0.000000 
20.816253 2.625804 0.000000 
31.851083 0.399035 0.000000 
14.392596 3.069846 0.000000 
3.646585 14.381913 0.000000 
0.916187 14.372409 0.000000 
8.233633 2.724800 0.000000 
59.352695 1.631332 0.000000 
20.622059 10.824017 0.000000 
6.237053 1.208449 0.000000 
39.056934 0.391913 0.000000 
4.612034 10.402970 0.000000 
27.395688 4.681638 0.000000 
13.586168 9.156799 0.000000 
28.553570 10.257196 0.000000 
48.886108 3.396691 0.000000 
27.776500 2.573558 0.000000 
21.121370 2.873207 0.000000 
24.960119 4.261704 0.000000 
42.910514 0.789732 0.000000 
24.145919 8.487675 0.000000 
5.680455 2.329181 0.000000 
31.915072 6.271353 0.000000 
59.600391 3.777504 0.000000 
44.466902 0.875958 0.000000 
33.807681 5.301883 0.000000 
1.099010 7.390529 0.000000 
39.446659 0.568827 0.000000 
7.990382 14.572251 0.000000 
30.159001 7.201998 0.000000 
21.819395 12.098494 0.000000 
13.879619 4.801287 0.000000 
12.339071 10.217828 0.000000 
0.210556 8.893636 0.000000 
3.758830 4.701868 0.000000 
4.647468 4.703143 0.000000 
17.213516 0.447081 0.000000 
13.716580 14.572473 0.000000 
3.540348 6.741124 0.000000 
18.802844 0.189240 0.000000 
46.230607 4.586940 0.000000 
11.213098 7.053245 0.000000 
28.787761 1.697563 0.000000 
14.763410 14.599823 0.000000 
0.710869 7.461677 0.000000 
9.791917 12.240740 0.000000 
0.669003 14.329920 0.000000 
6.158056 10.211742 0.000000 
7.335609 1.962985 0.000000 
6.621539 11.751298 0.000000 
3.031230 7.396755 0.000000 
17.267323 14.192052 0.000000 
6.871754 3.880390 0.000000 
57.249828 4.547820 0.000000 
21.786597 12.780937 0.000000 
48.747545 0.415640 0.000000 
13.923091 1.060463 0.000000 
29.544365 2.154119 0.000000 
18.971365 8.467431 0.000000 
3.239349 1.888584 0.000000 
0.379786 12.620951 0.000000 
29.331559 4.711957 0.000000 
15.854249 2.102982 0.000000 
9.848800 8.826755 0.000000 
34.455251 0.615930 0.000000 
13.382430 0.641599 0.000000 
29.241354 9.917825 0.000000 
2.402911 12.177219 0.000000 
51.281005 4.580982 0.000000 
43.152055 0.203735 0.000000 
14.119933 7.616486 0.000000 
21.621836 13.722507 0.000000 
7.750854 8.611055 0.000000 
11.415705 1.840412 0.000000 
40.838639 4.792267 0.000000 
10.244747 10.428930 0.000000 
24.064178 12.479647 0.000000 
4.100906 7.130191 0.000000 
34.057885 4.117925 0.000000 
27.970109 2.122070 0.000000 
58.018039 4.594884 0.000000 
17.478610 1.167427 0.000000 
28.051034 4.328744 0.000000 
58.404057 2.452676 0.000000 
23.313002 0.467093 0.000000 
37.789944 0.439582 0.000000 
28.946695 10.317608 0.000000 
29.816165 6.142183 0.000000 
28.917875 4.322499 0.000000 
2.535791 7.460384 0.000000 
15.745082 12.642005 0.000000 
43.826628 1.835793 0.000000 
27.312440 8.973343 0.000000 
29.444318 2.416583 0.000000 
16.208423 8.472243 0.000000 
11.383716 13.386226 0.000000 
16.078741 13.322450 0.000000 
22.821457 9.723095 0.000000 
24.647476 6.489040 0.000000 
0.187561 5.120687 0.000000 
20.448086 14.317018 0.000000 
35.253878 5.175697 0.000000 
27.955804 9.119049 0.000000 
34.372544 5.048589 0.000000 
14.900086 12.494029 0.000000 
11.858040 1.074029 0.000000 
44.269140 1.712511 0.000000 
22.668850 12.491485 0.000000 
3.079839 0.196364 0.000000 
13.319417 3.399600 0.000000 
43.298612 1.244776 0.000000 
9.620727 11.170872 0.000000 
4.070859 0.988673 0.000000 
57.492975 0.411696 0.000000 
21.028433 5.387840 0.000000 
52.659023 1.304982 0.000000 
5.302596 13.334023 0.000000 
21.400910 4.377584 0.000000 
7.698266 13.626960 0.000000 
4.147511 14.390686 0.000000 
20.172338 8.244048 0.000000 
32.417123 7.153634 0.000000 
2.621527 11.113875 0.000000 
31.459538 6.344179 0.000000 
10.322835 8.493322 0.000000 
12.880286 3.384399 0.000000 
13.741090 7.433888 0.000000 
27.778025 3.913072 0.000000 
38.540595 0.397200 0.000000 
56.255954 0.446998 0.000000 
2.291109 0.443240 0.000000 
2.060088 7.509005 0.000000 
51.813738 3.497808 0.000000 
58.060115 3.331358 0.000000 
57.186471 2.970765 0.000000 
4.146482 1.438149 0.000000 
14.247418 2.339998 0.000000 
14.836626 2.294249 0.000000 
13.690950 5.679886 0.000000 
10.224141 4.249687 0.000000 
14.271709 7.783865 0.000000 
13.512998 4.051420 0.000000 
36.168626 0.680146 0.000000 
54.970915 4.580092 0.000000 
10.071848 4.961426 0.000000 
51.984520 4.617590 0.000000 
8.815552 8.377948 0.000000 
12.360500 14.815445 0.000000 
25.101514 1.927401 0.000000 
2.760278 12.348292 0.000000 
4.747447 4.954427 0.000000 
20.877522 5.239154 0.000000 
0.453827 1.783114 0.000000 
0.745557 0.429857 0.000000 
46.565400 4.261519 0.000000 
20.123448 6.032601 0.000000 
17.422954 14.790324 0.000000 
22.563049 12.149935 0.000000 
11.413206 0.405906 0.000000 
38.682215 5.441797 0.000000 
4.400328 14.391727 0.000000 
50.474233 1.186974 0.000000 
34.956900 3.553130 0.000000 
7.754496 12.370519 0.000000 
3.055892 2.647402 0.000000 
14.624260 8.318307 0.000000 
1.126411 12.238825 0.000000 
52.366570 3.126235 0.000000 
2.122131 0.811629 0.000000 
11.724687 13.912901 0.000000 
14.621513 8.690974 0.000000 
19.464287 12.843484 0.000000 
29.363309 8.055635 0.000000 
7.372043 2.534676 0.000000 
6.534339 8.944120 0.000000 
45.201795 2.776341 0.000000 
11.814471 8.419470 0.000000 
57.775364 0.456007 0.000000 
16.560984 12.793469 0.000000 
4.652257 14.388979 0.000000 
29.626521 3.385991 0.000000 
3.897450 14.388953 0.000000 
6.905790 13.028085 0.000000 
17.071151 14.087729 0.000000 
50.111694 2.789132 0.000000 
13.775244 13.331796 0.000000 
35.180650 0.607156 0.000000 
0.217470 12.842475 0.000000 
57.720437 2.396081 0.000000 
3.737154 9.613038 0.000000 
12.753668 11.184085 0.000000 
13.794129 3.016992 0.000000 
6.148120 13.340607 0.000000 
49.873255 2.084183 0.000000 
10.597567 6.955535 0.000000 
57.554930 2.995597 0.000000 
58.813667 0.945075 0.000000 
15.418925 12.919850 0.000000 
36.967202 5.846258 0.000000 
3.824107 13.402350 0.000000 
29.496865 3.773020 0.000000 
16.130319 12.573511 0.000000 
31.339500 8.855059 0.000000 
24.809742 0.784574 0.000000 
12.086700 11.074252 0.000000 
2.973265 11.816401 0.000000 
59.223663 0.353525 0.000000 
34.233621 6.177434 0.000000 
21.862286 5.633665 0.000000 
38.445389 5.553303 0.000000 
0.801129 0.219658 0.000000 
12.322020 2.182775 0.000000 
51.570793 3.194361 0.000000 
8.186053 12.476102 0.000000 
10.711528 3.299877 0.000000 
56.861711 4.351329 0.000000 
5.358578 10.571765 0.000000 
11.693764 7.550397 0.000000 
12.049992 0.933724 0.000000 
20.539510 9.658336 0.000000 
9.272859 8.149362 0.000000 
4.343130 5.593691 0.000000 
10.898542 3.965418 0.000000 
34.252052 5.790884 0.000000 
40.704371 0.160732 0.000000 
50.985229 0.440457 0.000000 
51.235582 0.424244 0.000000 
5.292669 9.857916 0.000000 
6.115315 9.203503 0.000000 
10.071074 7.639176 0.000000 
58.482379 3.211298 0.000000 
2.541075 1.998894 0.000000 
49.423959 2.812824 0.000000 
12.017002 8.582456 0.000000 
34.209311 1.761880 0.000000 
59.408136 3.885843 0.000000 
34.786650 4.639710 0.000000 
4.656842 9.860883 0.000000 
20.233125 0.606113 0.000000 
30.723903 4.656959 0.000000 
36.258440 5.419891 0.000000 
3.655379 7.787139 0.000000 
35.126277 4.554929 0.000000 
49.363605 1.605334 0.000000 
28.041343 8.955685 0.000000 
39.946723 1.806811 0.000000 
18.016227 14.607236 0.000000 
21.507133 0.596162 0.000000 
41.523669 1.244324 0.000000 
6.847213 10.491119 0.000000 
25.074635 0.407948 0.000000 
19.031544 4.119841 0.000000 
8.575712 0.656598 0.000000 
5.552503 11.076238 0.000000 
30.175771 5.245287 0.000000 
11.444103 9.267455 0.000000 
48.043683 4.592641 0.000000 
12.502999 14.357511 0.000000 
39.265335 3.594416 0.000000 
11.582317 13.012249 0.000000 
52.213799 0.780134 0.000000 
34.831328 1.899655 0.000000 
32.126841 6.871820 0.000000 
0.790906 10.654892 0.000000 
14.297796 14.601220 0.000000 
38.068083 5.524459 0.000000 
47.107968 4.081533 0.000000 
0.440229 11.566972 0.000000 
20.194994 9.538123 0.000000 
28.160531 10.283019 0.000000 
39.860137 2.901551 0.000000 
18.585797 4.772018 0.000000 
9.061851 8.501800 0.000000 
31.438819 7.425936 0.000000 
21.043609 10.055308 0.000000 
43.991690 0.858376 0.000000 
4.454367 9.697246 0.000000 
45.639886 0.648622 0.000000 
40.054578 4.384412 0.000000 
11.657489 8.566150 0.000000 
52.527529 3.982808 0.000000 
59.589039 1.305645 0.000000 
12.220920 7.914322 0.000000 
24.640514 10.744260 0.000000 
8.037761 13.221226 0.000000 
10.707381 0.614153 0.000000 
58.807708 4.579499 0.000000 
14.099202 5.060366 0.000000 
11.789504 6.217847 0.000000 
16.637436 14.871499 0.000000 
42.079153 4.562047 0.000000 
21.924329 6.273718 0.000000 
57.732347 1.218424 0.000000 
12.998808 0.618274 0.000000 
16.812628 0.160592 0.000000 
16.503606 1.212730 0.000000 
47.304341 0.187336 0.000000 
1.300740 1.929394 0.000000 
1.132302 14.412702 0.000000 
51.162180 3.611159 0.000000 
3.118192 1.175604 0.000000 
17.812612 2.536493 0.000000 
31.110989 7.704818 0.000000 
46.541192 4.782030 0.000000 
57.558903 2.748075 0.000000 
4.991773 0.895359 0.000000 
47.466049 2.527296 0.000000 
43.343196 1.470306 0.000000 
25.224179 0.204214 0.000000 
19.905558 4.237932 0.000000 
31.503060 5.696758 0.000000 
20.195092 5.137555 0.000000 
36.066055 1.994911 0.000000 
25.182354 3.486368 0.000000 
11.047835 13.610419 0.000000 
44.824809 2.602609 0.000000 
16.208005 14.106781 0.000000 
48.181301 2.109146 0.000000 
14.370864 13.076569 0.000000 
0.165234 8.373559 0.000000 
10.747822 4.357562 0.000000 
40.317350 1.188530 0.000000 
27.856261 10.084516 0.000000 
26.429412 0.431160 0.000000 
1.701823 7.567016 0.000000 
34.726184 2.369831 0.000000 
20.180792 13.538131 0.000000 
0.889109 1.541576 0.000000 
10.633613 7.306225 0.000000 
36.756801 6.177547 0.000000 
0.174834 0.175535 0.000000 
8.535014 9.136564 0.000000 
31.602712 5.234849 0.000000 
0.384523 7.952260 0.000000 
28.415871 2.144254 0.000000 
9.368134 6.900043 0.000000 
18.431120 0.185494 0.000000 
28.826497 8.463008 0.000000 
47.283176 2.879389 0.000000 
55.381947 4.401916 0.000000 
11.916308 9.172250 0.000000 
22.624755 0.386310 0.000000 
59.825715 0.174834 0.000000 
59.827694 4.826261 0.000000 
0.175663 14.824391 0.000000 
24.459839 10.422792 0.000000 
28.627429 8.636952 0.000000 
19.368524 6.424430 0.000000 
17.768379 0.759989 0.000000 
48.627901 3.713803 0.000000 
16.511777 14.851041 0.000000 
35.208745 1.712513 0.000000 
0.417260 0.697523 0.000000 
51.042033 1.270862 0.000000 
30.533394 5.300005 0.000000 
0.583623 12.175141 0.000000 
51.688409 0.413877 0.000000 
34.653689 3.033230 0.000000 
10.784720 5.400584 0.000000 
9.389610 11.993483 0.000000 
18.191950 0.876932 0.000000 
16.014100 14.640223 0.000000 
27.878789 0.359355 0.000000 
21.982354 4.047425 0.000000 
7.588971 9.013663 0.000000 
13.414173 14.814874 0.000000 
10.026440 3.870715 0.000000 
21.073567 1.019963 0.000000 
13.780708 4.245527 0.000000 
28.855219 0.361071 0.000000 
11.006082 14.609112 0.000000 
50.029353 0.755646 0.000000 
48.130992 3.061813 0.000000 
58.441252 1.047807 0.000000 
19.844299 8.790607 0.000000 
10.356494 3.889140 0.000000 
2.392384 13.281633 0.000000 
23.833741 4.717816 0.000000 
9.419510 7.241931 0.000000 
29.997215 2.860637 0.000000 
21.503792 10.822322 0.000000 
2.135253 13.560780 0.000000 
10.218552 12.735337 0.000000 
3.263999 10.690999 0.000000 
44.713501 3.968177 0.000000 
19.992115 0.593603 0.000000 
59.595065 0.731881 0.000000 
32.718596 0.621230 0.000000 
19.529358 0.960837 0.000000 
3.796191 1.669488 0.000000 
1.700403 13.454640 0.000000 
46.933166 2.903877 0.000000 
10.160206 2.015125 0.000000 
18.350562 9.934202 0.000000 
43.482700 2.596275 0.000000 
14.460305 10.170079 0.000000 
33.016143 5.972818 0.000000 
20.446286 6.598033 0.000000 
48.430164 1.720098 0.000000 
8.277614 1.711736 0.000000 
19.776400 12.198037 0.000000 
35.863489 3.854885 0.000000 
13.085453 14.851074 0.000000 
23.925177 0.652601 0.000000 
28.642109 9.623665 0.000000 
59.371517 4.470186 0.000000 
49.682683 3.724320 0.000000 
48.934999 2.399178 0.000000 
23.908345 12.398852 0.000000 
1.779495 13.218032 0.000000 
12.625000 15.000000 0.000000 
36.679955 2.109005 0.000000 
6.804676 7.626320 0.000000 
38.647713 3.673990 0.000000 
15.099721 7.123958 0.000000 
6.444103 5.298639 0.000000 
37.099711 1.808196 0.000000 
17.080921 7.305187 0.000000 
6.206060 5.357490 0.000000 
31.635943 4.143741 0.000000 
31.477665 3.941687 0.000000 
38.974106 2.751996 0.000000 
36.045278 3.119166 0.000000 
54.220253 3.753884 0.000000 
6.913766 5.200018 0.000000 
2.776203 5.933664 0.000000 
54.454044 3.641592 0.000000 
2.893826 5.722186 0.000000 
33.706341 4.403793 0.000000 
27.287615 7.256263 0.000000 
33.764513 3.479801 0.000000 
27.861723 5.424128 0.000000 
22.430280 6.764639 0.000000 
1.831290 3.770080 0.000000 
53.698043 2.029830 0.000000 
15.147655 5.039084 0.000000 
8.074360 6.473083 0.000000 
7.144668 5.162369 0.000000 
21.577964 6.955172 0.000000 
21.940351 8.556347 0.000000 
27.627591 5.310243 0.000000 
5.536435 5.738442 0.000000 
26.550619 6.504145 0.000000 
14.184619 12.053241 0.000000 
31.366351 2.578469 0.000000 
28.544478 6.370662 0.000000 
15.669129 3.550572 0.000000 
32.508110 5.177664 0.000000 
33.361451 2.371681 0.000000 
17.950666 11.942384 0.000000 
2.663839 6.150647 0.000000 
55.009406 3.189411 0.000000 
21.382282 7.114966 0.000000 
1.090309 5.522073 0.000000 
15.233394 7.335945 0.000000 
13.936133 10.659363 0.000000 
26.404729 6.278736 0.000000 
15.026162 11.911476 0.000000 
23.900945 2.385695 0.000000 
19.540266 2.676636 0.000000 
36.005550 3.382129 0.000000 
13.928808 12.062538 0.000000 
52.842222 3.560522 0.000000 
13.369802 11.090288 0.000000 
19.588259 2.925311 0.000000 
53.471789 2.116613 0.000000 
42.272941 2.756243 0.000000 
18.718160 10.504583 0.000000 
26.324396 5.072565 0.000000 
26.859524 4.892289 0.000000 
24.001333 2.621138 0.000000 
33.557198 2.494060 0.000000 
5.364241 5.944102 0.000000 
53.490468 4.153653 0.000000 
18.552632 3.317708 0.000000 
14.830066 6.700831 0.000000 
17.394498 4.438368 0.000000 
38.202673 4.269769 0.000000 
4.473353 13.115837 0.000000 
17.232846 11.562162 0.000000 
18.519294 2.427769 0.000000 
36.078252 3.924436 0.000000 
18.984917 10.552236 0.000000 
40.831368 2.856772 0.000000 
5.401961 7.935910 0.000000 
22.294817 2.714365 0.000000 
7.806174 5.061148 0.000000 
30.906495 3.549861 0.000000 
7.456012 9.605577 0.000000 
13.068470 11.571544 0.000000 
23.836774 7.944374 0.000000 
26.074570 5.166948 0.000000 
7.261286 9.993283 0.000000 
32.265165 5.056532 0.000000 
15.416439 3.619393 0.000000 
23.496908 3.702144 0.000000 
52.994164 2.561765 0.000000 
18.668417 2.212560 0.000000 
23.222001 1.512026 0.000000 
23.774618 7.051006 0.000000 
8.573452 11.505869 0.000000 
2.018340 6.533296 0.000000 
5.962288 5.413246 0.000000 
7.795450 7.348328 0.000000 
54.791010 2.171748 0.000000 
39.004440 3.015782 0.000000 
15.087438 4.111352 0.000000 
40.863850 3.315879 0.000000 
26.509016 0.889310 0.000000 
25.776589 9.052644 0.000000 
24.931386 8.947960 0.000000 
19.537153 1.996627 0.000000 
18.998794 14.126538 0.000000 
26.985514 1.056761 0.000000 
7.761683 11.154268 0.000000 
8.479966 10.425328 0.000000 
26.761366 1.747499 0.000000 
27.187433 1.527130 0.000000 
12.778980 4.474669 0.000000 
7.936899 11.341724 0.000000 
22.679709 1.758946 0.000000 
2.083240 3.634359 0.000000 
54.693030 3.520146 0.000000 
3.381382 11.921418 0.000000 
25.927973 1.418233 0.000000 
19.373733 13.733035 0.000000 
25.049295 9.671640 0.000000 
8.345059 9.484708 0.000000 
20.616535 12.375724 0.000000 
41.428064 1.837518 0.000000 
55.135843 2.944124 0.000000 
18.904160 3.720012 0.000000 
17.621708 5.173166 0.000000 
23.405015 6.799125 0.000000 
3.262157 12.382932 0.000000 
18.732524 14.144917 0.000000 
23.919110 11.364081 0.000000 
1.068712 5.269358 0.000000 
38.057375 4.465784 0.000000 
19.641445 10.412799 0.000000 
2.542385 9.016706 0.000000 
25.632787 9.415069 0.000000 
1.582539 8.441006 0.000000 
11.197384 10.987678 0.000000 
12.992510 12.110488 0.000000 
24.020148 4.864204 0.000000 
17.516937 11.872980 0.000000 
18.464034 14.148026 0.000000 
54.199745 1.864829 0.000000 
28.517327 7.598290 0.000000 
15.387795 7.547210 0.000000 
4.506547 2.297916 0.000000 
3.887728 1.847566 0.000000 
33.803417 4.164400 0.000000 
1.291891 4.247865 0.000000 
16.609708 3.223079 0.000000 
18.225539 14.032195 0.000000 
25.231243 9.928707 0.000000 
16.813487 11.141773 0.000000 
5.404006 12.129932 0.000000 
25.672198 9.825650 0.000000 
1.847379 8.427084 0.000000 
17.171371 3.946268 0.000000 
23.470761 10.908321 0.000000 
28.824703 6.734170 0.000000 
25.704403 8.394956 0.000000 
46.805853 1.724403 0.000000 
8.947412 10.974451 0.000000 
10.610435 12.804819 0.000000 
42.285140 2.492950 0.000000 
9.389457 1.210044 0.000000 
19.827910 3.388633 0.000000 
20.852803 8.556273 0.000000 
46.935703 1.082311 0.000000 
51.484308 2.496082 0.000000 
51.106096 2.262461 0.000000 
23.042989 5.269283 0.000000 
23.101088 3.627602 0.000000 
17.258444 10.760577 0.000000 
5.006784 7.781209 0.000000 
56.164102 3.741773 0.000000 
26.152299 10.958591 0.000000 
19.243487 14.137914 0.000000 
18.289204 2.890948 0.000000 
23.812475 4.906333 0.000000 
15.170851 3.641330 0.000000 
11.684782 4.372093 0.000000 
23.078178 4.886078 0.000000 
1.163887 2.624967 0.000000 
10.033240 2.224701 0.000000 
24.358623 10.660271 0.000000 
23.844867 1.740943 0.000000 
2.976290 3.632120 0.000000 
1.258252 2.134659 0.000000 
26.819955 7.118333 0.000000 
2.143915 9.163431 0.000000 
9.968302 2.828078 0.000000 
30.188721 1.241363 0.000000 
18.764212 13.327000 0.000000 
24.429236 3.300945 0.000000 
20.728439 12.874285 0.000000 
13.227640 7.353202 0.000000 
30.472332 1.254730 0.000000 
12.641767 5.109306 0.000000 
1.142570 6.018514 0.000000 
11.456318 11.164955 0.000000 
56.205664 4.161150 0.000000 
26.884153 3.567710 0.000000 
33.990170 6.636285 0.000000 
16.367256 8.246962 0.000000 
6.944117 0.863231 0.000000 
34.262637 6.937877 0.000000 
4.340066 7.304459 0.000000 
24.809424 9.485291 0.000000 
34.042786 7.049716 0.000000 
26.406846 3.043102 0.000000 
25.916136 3.148020 0.000000 
7.193221 0.930311 0.000000 
15.250043 11.122488 0.000000 
25.338788 10.211413 0.000000 
36.575919 4.341080 0.000000 
20.688282 1.079374 0.000000 
2.872700 1.270496 0.000000 
23.566079 8.399239 0.000000 
43.534666 4.114941 0.000000 
4.589708 7.656634 0.000000 
3.318774 10.445346 0.000000 
26.282642 3.686246 0.000000 
33.580201 7.247073 0.000000 
6.071825 2.464265 0.000000 
9.660145 0.890441 0.000000 
50.293439 3.866263 0.000000 
0.941691 2.458866 0.000000 
30.631661 1.077155 0.000000 
3.237028 10.186952 0.000000 
11.071357 13.401160 0.000000 
2.755223 13.971468 0.000000 
28.295843 5.409822 0.000000 
38.933512 2.225804 0.000000 
5.022576 12.033460 0.000000 
18.307816 10.197840 0.000000 
22.150370 10.593868 0.000000 
30.120687 0.939269 0.000000 
31.846129 4.782997 0.000000 
43.616468 3.433119 0.000000 
28.985467 7.226605 0.000000 
10.845245 12.740341 0.000000 
33.887593 2.725151 0.000000 
8.219903 7.418419 0.000000 
30.203323 0.666617 0.000000 
9.847675 1.833324 0.000000 
41.686123 1.404932 0.000000 
45.400868 1.408861 0.000000 
32.124104 1.718971 0.000000 
21.143200 12.799106 0.000000 
22.153094 1.864105 0.000000 
8.354732 7.027276 0.000000 
4.425782 3.115969 0.000000 
25.224028 7.614988 0.000000 
26.854396 3.091028 0.000000 
25.918742 11.075028 0.000000 
32.976649 2.124134 0.000000 
20.435563 8.134471 0.000000 
17.704426 10.561190 0.000000 
7.559122 7.678122 0.000000 
56.263535 3.519642 0.000000 
8.081394 5.175229 0.000000 
11.408864 4.842609 0.000000 
41.631118 3.818849 0.000000 
30.152648 1.541265 0.000000 
22.123715 10.311548 0.000000 
10.780333 9.303547 0.000000 
25.990184 6.078408 0.000000 
6.202461 7.957821 0.000000 
7.523484 4.948280 0.000000 
57.313936 1.643791 0.000000 
4.183202 2.939203 0.000000 
6.911674 1.263009 0.000000 
8.544847 9.979677 0.000000 
2.518883 14.120295 0.000000 
26.314378 10.752743 0.000000 
34.174557 6.422969 0.000000 
21.562921 8.816554 0.000000 
9.164018 13.885587 0.000000 
14.264562 10.331222 0.000000 
12.012362 3.899895 0.000000 
27.185761 2.008903 0.000000 
22.310261 8.745445 0.000000 
25.162066 7.890089 0.000000 
8.956966 14.067131 0.000000 
33.831037 7.145720 0.000000 
9.384723 0.932563 0.000000 
10.678064 11.412529 0.000000 
9.440472 1.722051 0.000000 
19.898474 10.489302 0.000000 
27.090703 9.116600 0.000000 
16.010240 0.767974 0.000000 
56.461068 4.143753 0.000000 
58.431924 3.413794 0.000000 
11.439029 1.636127 0.000000 
20.879203 0.885484 0.000000 
19.950407 10.945741 0.000000 
21.293813 8.820941 0.000000 
14.850966 5.445919 0.000000 
6.716750 0.840138 0.000000 
43.359131 3.675387 0.000000 
33.666801 5.081500 0.000000 
59.048794 2.005623 0.000000 
31.775249 5.050174 0.000000 
25.188928 7.091584 0.000000 
9.866212 1.365114 0.000000 
24.344403 2.878913 0.000000 
24.440001 11.331800 0.000000 
51.356426 2.751890 0.000000 
4.846472 10.526825 0.000000 
8.260901 6.040504 0.000000 
13.493263 10.595119 0.000000 
1.145604 8.768658 0.000000 
6.009756 2.700572 0.000000 
21.563398 12.153942 0.000000 
35.565752 5.689260 0.000000 
12.827191 4.738034 0.000000 
14.737577 6.007044 0.000000 
1.668192 9.080345 0.000000 
8.305290 1.942520 0.000000 
57.256353 1.368898 0.000000 
7.671036 9.228729 0.000000 
4.716762 3.148296 0.000000 
7.033214 13.500020 0.000000 
28.710755 5.933519 0.000000 
11.012897 5.438418 0.000000 
23.177162 8.564654 0.000000 
7.569285 10.960347 0.000000 
16.902983 7.734096 0.000000 
3.520607 4.756731 0.000000 
22.052517 6.521576 0.000000 
16.406749 9.744410 0.000000 
19.508416 14.132874 0.000000 
11.139532 11.523462 0.000000 
43.799108 4.131046 0.000000 
50.099781 1.477408 0.000000 
3.561334 4.081109 0.000000 
13.453614 1.917641 0.000000 
3.402792 5.262915 0.000000 
43.267472 4.080772 0.000000 
14.926544 9.096113 0.000000 
9.720387 2.688638 0.000000 
3.457654 12.894670 0.000000 
44.760210 3.000232 0.000000 
32.557609 1.919824 0.000000 
44.981593 3.380128 0.000000 
56.958300 1.343497 0.000000 
41.002144 3.561347 0.000000 
38.081583 1.298717 0.000000 
1.579363 11.624716 0.000000 
35.231360 5.404950 0.000000 
17.920263 13.719590 0.000000 
25.654218 11.144478 0.000000 
14.920605 4.577523 0.000000 
19.680339 2.235294 0.000000 
56.375901 1.374315 0.000000 
41.993591 3.487742 0.000000 
19.351879 13.289313 0.000000 
12.918317 6.727443 0.000000 
19.508206 11.302652 0.000000 
27.790401 7.635484 0.000000 
25.687210 8.114024 0.000000 
8.445577 3.630035 0.000000 
9.585127 12.100637 0.000000 
56.410983 3.307460 0.000000 
45.028493 2.942672 0.000000 
14.834504 12.269882 0.000000 
37.141630 4.594281 0.000000 
10.411728 8.742680 0.000000 
17.552249 7.261735 0.000000 
3.277600 14.112597 0.000000 
31.477003 2.107874 0.000000 
10.387661 10.808277 0.000000 
5.198904 6.150041 0.000000 
6.496479 2.007918 0.000000 
37.233735 1.410153 0.000000 
49.765722 1.902458 0.000000 
15.992223 3.243658 0.000000 
10.808944 3.065470 0.000000 
30.893415 2.713207 0.000000 
13.567515 12.307442 0.000000 
30.239672 1.805066 0.000000 
25.809585 2.894683 0.000000 
19.669079 3.916153 0.000000 
34.044951 3.136578 0.000000 
52.597165 3.171212 0.000000 
28.514181 5.281288 0.000000 
44.545934 4.131495 0.000000 
2.585214 1.582866 0.000000 
6.148163 3.112847 0.000000 
6.301707 14.171461 0.000000 
25.884292 8.820274 0.000000 
5.773873 14.176244 0.000000 
0.676029 10.394556 0.000000 
47.268390 0.892928 0.000000 
55.240136 2.674551 0.000000 
17.405298 3.910789 0.000000 
4.601227 3.551553 0.000000 
53.040508 2.092352 0.000000 
1.221099 4.493285 0.000000 
10.599235 2.901613 0.000000 
3.871878 2.478034 0.000000 
5.290222 13.072475 0.000000 
20.383326 13.200497 0.000000 
11.602513 11.621282 0.000000 
49.628339 1.691844 0.000000 
18.824457 11.943229 0.000000 
26.254424 2.674469 0.000000 
49.961319 1.225507 0.000000 
18.376524 12.157673 0.000000 
9.935736 13.564834 0.000000 
45.398526 1.135353 0.000000 
2.325433 13.909126 0.000000 
24.398972 9.305051 0.000000 
34.009720 6.197727 0.000000 
4.315208 1.620462 0.000000 
22.561433 3.197771 0.000000 
7.623963 13.398991 0.000000 
20.802690 7.324763 0.000000 
45.382955 0.663223 0.000000 
56.802021 3.208374 0.000000 
31.064190 3.763339 0.000000 
24.256801 4.807310 0.000000 
19.684706 7.281363 0.000000 
11.978596 7.946227 0.000000 
47.652428 4.347679 0.000000 
46.490410 3.206855 0.000000 
0.954368 10.051576 0.000000 
48.668331 2.372469 0.000000 
11.188541 0.643282 0.000000 
9.681750 6.066499 0.000000 
4.991019 4.143103 0.000000 
4.820620 3.698295 0.000000 
21.614108 10.338196 0.000000 
3.984509 9.021795 0.000000 
15.151513 10.633547 0.000000 
57.741924 1.946167 0.000000 
6.941345 13.879061 0.000000 
14.810436 8.829014 0.000000 
24.572953 0.889531 0.000000 
3.909121 13.174521 0.000000 
54.483046 1.793339 0.000000 
46.488667 1.391327 0.000000 
6.087154 9.435549 0.000000 
4.859135 6.552570 0.000000 
22.432620 4.209452 0.000000 
23.044355 6.561107 0.000000 
9.352937 2.994976 0.000000 
10.482385 11.210221 0.000000 
34.102231 1.113430 0.000000 
19.121858 3.891780 0.000000 
16.850351 11.388259 0.000000 
50.773783 3.722510 0.000000 
38.623038 1.655441 0.000000 
24.991869 8.684569 0.000000 
54.106429 0.675587 0.000000 
24.246653 5.507654 0.000000 
14.769818 3.755634 0.000000 
17.868853 5.233232 0.000000 
52.731107 3.829243 0.000000 
48.207924 0.681919 0.000000 
4.533833 11.962942 0.000000 
15.371428 9.267785 0.000000 
21.133052 13.920967 0.000000 
26.744801 10.687144 0.000000 
21.145405 0.817147 0.000000 
28.776153 3.053944 0.000000 
15.616805 9.402452 0.000000 
18.048003 6.618931 0.000000 
25.119443 8.148920 0.000000 
1.409687 0.559854 0.000000 
3.485792 10.225264 0.000000 
33.766820 0.883443 0.000000 
1.204883 6.510337 0.000000 
17.469878 4.688371 0.000000 
48.510536 3.892281 0.000000 
5.658855 7.926932 0.000000 
8.901934 3.528762 0.000000 
50.152309 3.503870 0.000000 
5.090339 14.330427 0.000000 
44.164243 4.370660 0.000000 
10.309486 0.704732 0.000000 
12.077016 5.681607 0.000000 
16.897615 3.523425 0.000000 
37.654318 4.638704 0.000000 
4.500661 6.915055 0.000000 
28.247892 3.024743 0.000000 
32.769274 5.574129 0.000000 
15.984609 8.060687 0.000000 
20.831251 1.553443 0.000000 
33.308431 5.690161 0.000000 
10.240134 13.314121 0.000000 
17.293234 13.097560 0.000000 
26.838042 9.589665 0.000000 
36.246719 2.125642 0.000000 
18.081231 5.950403 0.000000 
21.665629 1.617712 0.000000 
11.722466 6.011906 0.000000 
27.273968 10.614499 0.000000 
14.760627 3.489328 0.000000 
3.536569 14.178686 0.000000 
2.453832 10.510484 0.000000 
56.618443 3.677502 0.000000 
11.000427 5.002908 0.000000 
22.797676 1.495209 0.000000 
51.679495 4.374830 0.000000 
18.848226 5.505180 0.000000 
32.742216 0.829723 0.000000 
11.235795 5.945038 0.000000 
24.160553 3.677258 0.000000 
20.509419 7.680367 0.000000 
12.685722 6.648050 0.000000 
11.798278 12.052379 0.000000 
12.982993 7.249869 0.000000 
47.090256 3.049900 0.000000 
8.392224 1.394534 0.000000 
21.677103 10.082423 0.000000 
29.554664 4.053450 0.000000 
23.207976 11.275353 0.000000 
2.231726 9.382029 0.000000 
4.285564 11.923509 0.000000 
5.559540 1.257794 0.000000 
9.118444 0.872662 0.000000 
3.321422 9.765310 0.000000 
19.577734 1.562770 0.000000 
45.400897 1.642990 0.000000 
23.431520 10.635596 0.000000 
34.457358 6.800780 0.000000 
43.757569 2.516033 0.000000 
54.383674 0.670075 0.000000 
2.825383 10.296867 0.000000 
51.623003 2.089411 0.000000 
11.183363 14.329974 0.000000 
9.768799 5.338150 0.000000 
7.174258 7.782358 0.000000 
6.469364 7.897863 0.000000 
29.118257 4.371001 0.000000 
18.394903 6.241435 0.000000 
14.570311 12.272085 0.000000 
17.539017 9.359837 0.000000 
18.012547 10.127275 0.000000 
11.529409 8.023568 0.000000 
8.330500 14.383887 0.000000 
0.904921 5.922372 0.000000 
40.792675 2.417758 0.000000 
4.692263 1.908365 0.000000 
36.136229 2.608327 0.000000 
9.877485 14.348408 0.000000 
38.598116 4.101316 0.000000 
2.273455 13.433714 0.000000 
22.708313 8.677175 0.000000 
27.551354 7.593868 0.000000 
3.263108 5.495479 0.000000 
15.586247 11.694034 0.000000 
24.332504 5.240537 0.000000 
26.031551 10.363847 0.000000 
29.721868 0.664991 0.000000 
18.219189 8.117954 0.000000 
9.911809 0.907362 0.000000 
33.354973 0.880282 0.000000 
1.853474 11.544896 0.000000 
16.845002 9.520295 0.000000 
46.567046 0.910642 0.000000 
24.920578 4.474269 0.000000 
25.812690 3.865973 0.000000 
53.957185 4.126083 0.000000 
17.334336 9.026874 0.000000 
45.671086 4.343448 0.000000 
56.818426 1.569060 0.000000 
50.675069 2.447596 0.000000 
19.244276 7.507546 0.000000 
30.481929 3.046820 0.000000 
6.643805 3.942631 0.000000 
44.585205 2.537711 0.000000 
16.020121 14.192571 0.000000 
8.677201 14.120505 0.000000 
2.663380 8.295977 0.000000 
28.388765 3.486041 0.000000 
7.061553 11.925760 0.000000 
53.631187 0.865542 0.000000 
4.870897 14.411531 0.000000 
17.890339 8.551612 0.000000 
23.768187 6.606039 0.000000 
10.599595 12.305477 0.000000 
5.737613 3.904445 0.000000 
11.888178 11.050050 0.000000 
13.605620 8.637826 0.000000 
23.247183 11.763464 0.000000 
38.028147 4.888398 0.000000 
6.030681 14.169877 0.000000 
20.514422 6.175996 0.000000 
13.301623 6.384465 0.000000 
23.840051 10.387504 0.000000 
27.955417 10.310172 0.000000 
21.783563 2.074687 0.000000 
12.533172 3.977007 0.000000 
35.222176 3.087805 0.000000 
18.178147 3.112491 0.000000 
13.094984 8.759946 0.000000 
19.039793 12.995371 0.000000 
12.172392 13.136824 0.000000 
44.950375 1.468896 0.000000 
0.198028 5.623996 0.000000 
7.468992 0.893945 0.000000 
9.225680 14.108228 0.000000 
19.326959 11.500461 0.000000 
52.894507 4.266952 0.000000 
10.358479 9.006758 0.000000 
13.403082 0.423389 0.000000 
14.089026 0.656183 0.000000 
5.185903 0.915737 0.000000 
30.485455 3.456050 0.000000 
1.405416 2.524826 0.000000 
32.183620 7.081505 0.000000 
51.856578 2.230507 0.000000 
12.381291 2.913739 0.000000 
24.189453 0.632493 0.000000 
9.009367 13.031524 0.000000 
21.587987 12.651131 0.000000 
30.724655 6.803685 0.000000 
5.483046 3.979333 0.000000 
10.174616 11.530444 0.000000 
23.804272 11.999378 0.000000 
15.494379 11.209112 0.000000 
32.442139 8.117765 0.000000 
8.234094 3.789732 0.000000 
54.760293 0.875079 0.000000 
32.924015 7.859814 0.000000 
2.310397 13.647618 0.000000 
18.001032 7.017048 0.000000 
1.208092 1.350696 0.000000 
30.314913 5.736681 0.000000 
12.508402 5.650129 0.000000 
23.977594 8.322974 0.000000 
10.374818 12.881268 0.000000 
1.445510 11.362858 0.000000 
1.640298 14.348935 0.000000 
22.378576 10.226604 0.000000 
7.257350 1.613217 0.000000 
26.913835 8.534124 0.000000 
12.719656 1.027808 0.000000 
11.713336 9.494660 0.000000 
16.331439 14.832283 0.000000 
29.082677 6.799512 0.000000 
21.235924 4.532910 0.000000 
42.665002 4.367984 0.000000 
41.037602 2.008086 0.000000 
56.378249 2.403150 0.000000 
47.382106 1.497345 0.000000 
43.981437 0.662295 0.000000 
3.272149 13.057464 0.000000 
17.712907 8.971773 0.000000 
21.015502 2.688125 0.000000 
52.040598 2.030629 0.000000 
13.911878 1.981721 0.000000 
12.684810 2.016127 0.000000 
8.369479 5.506219 0.000000 
25.950613 0.156815 0.000000 
16.310270 2.956934 0.000000 
13.331065 6.639407 0.000000 
3.569830 9.799198 0.000000 
30.557950 8.281818 0.000000 
55.710395 4.198474 0.000000 
43.088362 1.195254 0.000000 
13.469233 1.637087 0.000000 
9.683043 7.453092 0.000000 
20.394041 12.555208 0.000000 
6.777687 13.807121 0.000000 
25.937142 8.057046 0.000000 
12.733851 11.814620 0.000000 
11.927058 12.260296 0.000000 
5.641651 9.194357 0.000000 
48.925039 4.350062 0.000000 
8.073724 0.662977 0.000000 
48.388856 2.090645 0.000000 
42.022426 0.441875 0.000000 
5.847630 2.525718 0.000000 
10.568954 9.789796 0.000000 
39.403907 4.815339 0.000000 
19.005368 9.183365 0.000000 
15.696736 2.247146 0.000000 
29.688118 4.445997 0.000000 
16.275720 12.459219 0.000000 
49.899740 3.859542 0.000000 
1.667077 6.700784 0.000000 
39.188442 0.582572 0.000000 
31.357007 7.195694 0.000000 
35.037965 3.944119 0.000000 
25.226160 11.907241 0.000000 
1.275080 9.239202 0.000000 
33.179291 1.996996 0.000000 
9.862093 7.778755 0.000000 
19.189505 1.457680 0.000000 
2.077912 10.154697 0.000000 
21.852245 13.617660 0.000000 
12.929166 4.062760 0.000000 
30.487195 5.530185 0.000000 
57.749410 3.656215 0.000000 
15.256423 14.142153 0.000000 
3.848864 6.114597 0.000000 
10.973812 9.110816 0.000000 
5.565658 5.322547 0.000000 
19.239621 5.315596 0.000000 
51.421069 4.364260 0.000000 
13.398874 5.984614 0.000000 
10.198604 4.001568 0.000000 
8.000400 13.411731 0.000000 
13.243221 12.558420 0.000000 
6.448214 1.120330 0.000000 
3.990480 1.229828 0.000000 
21.112273 13.041075 0.000000 
5.745698 12.412227 0.000000 
0.622880 1.908601 0.000000 
31.264106 6.508513 0.000000 
31.469030 8.091577 0.000000 
15.197740 13.287485 0.000000 
7.091789 13.735344 0.000000 
35.932831 0.833188 0.000000 
21.016056 6.026021 0.000000 
30.085811 0.449990 0.000000 
6.116469 10.823557 0.000000 
55.426733 0.611240 0.000000 
39.555901 0.378278 0.000000 
40.376242 0.999358 0.000000 
49.427135 2.174849 0.000000 
32.094975 6.142634 0.000000 
16.536767 0.835486 0.000000 
11.799089 7.364459 0.000000 
4.651463 2.742283 0.000000 
6.369211 2.765614 0.000000 
11.520210 4.156342 0.000000 
57.743353 1.684160 0.000000 
17.770365 14.602603 0.000000 
45.426172 2.004955 0.000000 
17.065888 10.588047 0.000000 
15.077905 0.602027 0.000000 
4.343804 7.708896 0.000000 
24.825281 0.413515 0.000000 
25.740153 0.830135 0.000000 
31.736719 1.706561 0.000000 
53.047874 0.849379 0.000000 
9.340941 4.604752 0.000000 
18.887815 0.389594 0.000000 
13.936245 14.590660 0.000000 
31.993986 8.048177 0.000000 
47.920881 4.764686 0.000000 
0.406309 14.007216 0.000000 
42.386282 3.394010 0.000000 
10.818496 4.185737 0.000000 
19.925776 3.805672 0.000000 
11.042557 1.707760 0.000000 
3.416277 3.666673 0.000000 
11.834939 2.624434 0.000000 
21.866985 2.497791 0.000000 
55.799681 2.270585 0.000000 
37.334716 5.886744 0.000000 
32.323976 0.386086 0.000000 
13.571621 2.158336 0.000000 
16.687651 2.086159 0.000000 
36.760695 5.966546 0.000000 
15.125532 9.254446 0.000000 
14.892964 14.413243 0.000000 
15.368533 0.998556 0.000000 
12.534666 0.559774 0.000000 
0.429581 10.954456 0.000000 
15.190527 1.785848 0.000000 
36.048050 4.186902 0.000000 
36.375648 4.463590 0.000000 
7.860568 3.485772 0.000000 
19.378956 0.377356 0.000000 
20.344406 0.812042 0.000000 
22.434507 8.956671 0.000000 
2.068898 12.758018 0.000000 
11.754713 3.808530 0.000000 
7.868854 8.454089 0.000000 
15.031743 2.298450 0.000000 
50.600924 4.175329 0.000000 
25.578664 5.935716 0.000000 
35.540320 0.864780 0.000000 
10.046808 8.800624 0.000000 
25.348548 2.540231 0.000000 
7.536316 7.924176 0.000000 
12.046779 8.348937 0.000000 
50.297299 1.600821 0.000000 
53.995194 4.576268 0.000000 
6.220943 8.188840 0.000000 
6.102030 11.282104 0.000000 
44.457128 1.603193 0.000000 
13.082589 7.914203 0.000000 
35.256925 5.818450 0.000000 
30.179257 5.051968 0.000000 
15.926292 10.189246 0.000000 
28.771788 4.179699 0.000000 
38.799048 0.394706 0.000000 
58.598068 2.104169 0.000000 
56.455584 3.053352 0.000000 
36.789076 5.721587 0.000000 
22.347774 11.248205 0.000000 
29.875578 6.572827 0.000000 
23.459818 1.229165 0.000000 
21.512862 11.742887 0.000000 
52.927389 0.639110 0.000000 
37.648422 5.702941 0.000000 
48.620966 0.607682 0.000000 
2.293384 7.485194 0.000000 
36.509191 0.410916 0.000000 
5.029515 9.134506 0.000000 
4.459153 10.717868 0.000000 
55.129588 1.162577 0.000000 
17.403389 1.411314 0.000000 
17.784592 8.349855 0.000000 
25.551365 2.930843 0.000000 
17.077026 9.617716 0.000000 
33.367851 7.409931 0.000000 
0.756159 13.093658 0.000000 
41.650109 4.068231 0.000000 
12.655394 14.347621 0.000000 
24.541073 6.294066 0.000000 
25.259537 11.642290 0.000000 
8.604491 9.559518 0.000000 
22.380458 3.348401 0.000000 
16.590933 10.743691 0.000000 
55.041676 2.232421 0.000000 
1.981719 7.325455 0.000000 
9.542548 9.775288 0.000000 
7.324549 2.176321 0.000000 
3.997981 9.648911 0.000000 
11.996710 11.908945 0.000000 
26.094328 8.879239 0.000000 
17.420868 14.111632 0.000000 
12.094700 2.616671 0.000000 
46.123386 2.852216 0.000000 
16.754542 8.154229 0.000000 
36.859120 0.406560 0.000000 
5.171881 11.832235 0.000000 
34.568770 0.788880 0.000000 
12.736205 6.882015 0.000000 
1.459481 1.006805 0.000000 
8.122020 14.417860 0.000000 
28.005606 1.902044 0.000000 
13.759722 0.428177 0.000000 
11.182737 1.236759 0.000000 
13.613632 8.345372 0.000000 
13.848540 4.600085 0.000000 
28.878604 7.733540 0.000000 
43.479577 2.082090 0.000000 
12.665941 14.874855 0.000000 
58.192915 2.444869 0.000000 
21.550436 3.568831 0.000000 
3.404679 6.927060 0.000000 
8.437424 7.557207 0.000000 
40.412048 4.413020 0.000000 
8.657949 7.266258 0.000000 
4.836329 4.575690 0.000000 
30.686389 6.577398 0.000000 
7.812415 14.017385 0.000000 
10.780407 1.406668 0.000000 
9.353173 11.151229 0.000000 
20.622421 13.990154 0.000000 
0.387692 9.770663 0.000000 
58.478721 3.837829 0.000000 
9.319557 6.261691 0.000000 
12.769409 3.205747 0.000000 
58.224005 4.633715 0.000000 
4.679360 9.646944 0.000000 
13.053407 7.509500 0.000000 
52.119576 1.664793 0.000000 
40.818170 3.712550 0.000000 
2.270644 3.446474 0.000000 
50.229803 1.239316 0.000000 
5.835574 11.992274 0.000000 
33.943860 2.487080 0.000000 
18.516950 3.697043 0.000000 
9.019988 13.277376 0.000000 
15.611088 14.383009 0.000000 
15.360420 2.098495 0.000000 
21.747353 0.583643 0.000000 
25.342580 4.286731 0.000000 
39.972484 2.229197 0.000000 
22.079673 5.702324 0.000000 
21.102470 3.643962 0.000000 
21.719290 10.738406 0.000000 
9.165091 3.431928 0.000000 
58.874511 3.349688 0.000000 
18.332348 1.291385 0.000000 
4.226353 13.416530 0.000000 
18.148408 14.412588 0.000000 
59.417022 4.089920 0.000000 
43.388701 1.682550 0.000000 
12.200089 13.582108 0.000000 
47.519979 1.845265 0.000000 
14.498479 6.042168 0.000000 
52.578080 1.711916 0.000000 
53.186156 1.050423 0.000000 
3.619655 5.348963 0.000000 
4.197741 0.423303 0.000000 
52.863936 1.237834 0.000000 
32.338231 1.573579 0.000000 
8.361550 2.524351 0.000000 
47.129077 2.034181 0.000000 
26.422032 7.167291 0.000000 
18.118139 8.922537 0.000000 
7.380971 1.232646 0.000000 
9.579402 5.003842 0.000000 
2.956708 1.677073 0.000000 
17.186465 11.965729 0.000000 
7.505463 3.571856 0.000000 
41.290870 4.137904 0.000000 
5.666535 12.825937 0.000000 
17.249474 2.132908 0.000000 
55.118430 0.820879 0.000000 
13.785245 1.349328 0.000000 
3.206543 0.375043 0.000000 
8.527444 12.575498 0.000000 
19.901732 2.161636 0.000000 
26.504945 4.710763 0.000000 
20.973551 3.047189 0.000000 
7.375782 11.095450 0.000000 
6.192172 1.430476 0.000000 
25.634512 3.514321 0.000000 
43.936124 1.653741 0.000000 
51.223035 2.050707 0.000000 
25.143213 2.142683 0.000000 
12.630757 14.623522 0.000000 
42.182263 1.766236 0.000000 
1.979682 2.694230 0.000000 
18.322865 13.539238 0.000000 
8.225427 3.322939 0.000000 
48.292579 1.400885 0.000000 
30.907956 8.219944 0.000000 
7.188036 8.774148 0.000000 
14.172886 3.056300 0.000000 
10.373996 2.568012 0.000000 
8.343598 2.892206 0.000000 
6.098556 0.595345 0.000000 
16.653585 11.465664 0.000000 
55.092875 3.590888 0.000000 
20.805197 10.951680 0.000000 
2.400134 11.879163 0.000000 
57.032627 2.140902 0.000000 
24.109666 7.267236 0.000000 
23.192741 9.816734 0.000000 
12.975952 11.182055 0.000000 
35.436058 6.090837 0.000000 
29.259444 10.164724 0.000000 
38.895014 5.135865 0.000000 
18.024280 2.540562 0.000000 
25.539469 10.673152 0.000000 
18.467591 7.052703 0.000000 
10.293264 7.713285 0.000000 
21.273558 10.031660 0.000000 
40.077967 4.186153 0.000000 
23.886081 1.372864 0.000000 
40.683164 4.621806 0.000000 
9.890468 4.994207 0.000000 
34.450665 3.108794 0.000000 
24.678596 0.625145 0.000000 
1.183528 3.872007 0.000000 
20.201218 10.872885 0.000000 
24.022501 7.663033 0.000000 
15.412318 13.947652 0.000000 
42.846993 0.570310 0.000000 
17.966152 1.684526 0.000000 
11.221117 12.848287 0.000000 
12.382662 9.599850 0.000000 
21.454772 4.620635 0.000000 
48.442086 1.062027 0.000000 
34.866163 1.642930 0.000000 
25.596347 1.226726 0.000000 
57.986169 0.620329 0.000000 
33.153807 6.809250 0.000000 
23.675064 4.603924 0.000000 
0.455649 0.927520 0.000000 
3.588093 1.675849 0.000000 
19.772422 0.586357 0.000000 
11.028656 2.904698 0.000000 
0.585204 0.345854 0.000000 
12.844211 12.515604 0.000000 
47.537463 4.166863 0.000000 
6.897855 3.661263 0.000000 
45.940026 4.034917 0.000000 
25.364617 5.587486 0.000000 
13.466366 8.893233 0.000000 
14.973580 5.873785 0.000000 
17.374712 5.114108 0.000000 
15.027117 5.618322 0.000000 
36.770326 4.223546 0.000000 
6.378910 5.534245 0.000000 
31.740442 3.908065 0.000000 
17.837561 5.891616 0.000000 
15.346555 7.104592 0.000000 
32.781597 2.280757 0.000000 
17.228088 4.630944 0.000000 
5.607373 5.986619 0.000000 
37.274535 4.394326 0.000000 
1.397925 4.668592 0.000000 
2.646853 5.722064 0.000000 
6.057465 7.718751 0.000000 
5.445733 6.189409 0.000000 
2.030669 3.913762 0.000000 
16.921875 3.941957 0.000000 
54.240242 3.502871 0.000000 
38.532701 1.881223 0.000000 
22.739097 8.448135 0.000000 
5.790506 7.714134 0.000000 
22.988112 8.390046 0.000000 
3.287734 4.797769 0.000000 
7.076713 5.379793 0.000000 
1.306627 5.376831 0.000000 
32.565526 2.173482 0.000000 
36.243784 3.270125 0.000000 
33.552982 4.206479 0.000000 
3.221940 5.056176 0.000000 
33.353479 2.635808 0.000000 
53.649744 2.273282 0.000000 
27.656989 5.566972 0.000000 
32.497498 4.919051 0.000000 
6.146707 5.594321 0.000000 
22.834446 3.157789 0.000000 
18.633000 11.778221 0.000000 
20.900418 7.547911 0.000000 
5.521815 7.707824 0.000000 
54.479508 3.390214 0.000000 
38.758195 2.908951 0.000000 
21.619832 7.206328 0.000000 
15.002204 11.036634 0.000000 
27.916477 7.405935 0.000000 
26.668211 6.265434 0.000000 
23.752194 2.581852 0.000000 
14.056498 11.843794 0.000000 
4.937927 6.805854 0.000000 
17.679139 10.815778 0.000000 
54.863404 2.987295 0.000000 
19.086645 11.469522 0.000000 
31.940256 4.540066 0.000000 
3.859861 12.931986 0.000000 
42.054284 2.614075 0.000000 
18.803891 10.748723 0.000000 
16.029242 7.817176 0.000000 
4.119180 12.114493 0.000000 
31.155184 3.513547 0.000000 
1.485978 4.413974 0.000000 
33.517354 4.866765 0.000000 
11.832365 4.627357 0.000000 
17.508154 7.029643 0.000000 
19.347759 2.845884 0.000000 
41.034364 2.421815 0.000000 
4.896732 12.232403 0.000000 
41.114831 3.301509 0.000000 
41.740111 3.403687 0.000000 
23.958471 3.537390 0.000000 
11.818902 5.563300 0.000000 
31.758431 2.132688 0.000000 
4.374031 12.172962 0.000000 
15.587035 3.807968 0.000000 
8.034857 5.913059 0.000000 
26.279411 5.340041 0.000000 
12.587889 4.641549 0.000000 
37.948008 4.244671 0.000000 
7.870767 5.322434 0.000000 
11.267194 5.524638 0.000000 
1.379176 6.115342 0.000000 
7.688357 10.721550 0.000000 
22.582015 2.015910 0.000000 
8.015428 11.096111 0.000000 
18.792026 2.451203 0.000000 
12.402449 4.176561 0.000000 
23.871444 7.529255 0.000000 
5.260937 12.824405 0.000000 
19.297069 3.726162 0.000000 
6.309691 7.704987 0.000000 
19.257889 11.260190 0.000000 
8.576889 10.665165 0.000000 
27.376728 5.196296 0.000000 
36.363450 2.529206 0.000000 
25.764517 5.445864 0.000000 
19.440856 11.036921 0.000000 
18.381901 11.890567 0.000000 
20.987481 12.137431 0.000000 
3.197544 3.809839 0.000000 
19.409766 2.198094 0.000000 
22.315027 2.061914 0.000000 
18.868348 13.929509 0.000000 
19.007735 1.834533 0.000000 
21.165207 12.540762 0.000000 
30.942461 2.974897 0.000000 
23.797566 2.153841 0.000000 
38.221473 1.500711 0.000000 
38.797162 3.444999 0.000000 
8.060927 6.728850 0.000000 
2.052629 8.935230 0.000000 
25.170745 8.869411 0.000000 
25.664837 8.872230 0.000000 
52.850184 3.132979 0.000000 
54.914564 2.397271 0.000000 
19.255117 10.606623 0.000000 
24.051257 11.193425 0.000000 
25.629209 5.667656 0.000000 
17.696021 5.410303 0.000000 
7.872495 9.438465 0.000000 
27.231893 4.823943 0.000000 
21.353191 12.327168 0.000000 
18.613927 13.940858 0.000000 
18.062702 10.349465 0.000000 
26.107716 0.922363 0.000000 
11.260849 5.075790 0.000000 
26.470498 3.266823 0.000000 
12.460708 5.432069 0.000000 
25.741227 10.729223 0.000000 
25.237196 8.606474 0.000000 
22.683486 6.757547 0.000000 
1.627469 6.450677 0.000000 
54.979658 2.768734 0.000000 
33.716122 3.731456 0.000000 
4.230725 2.685341 0.000000 
17.027135 11.214800 0.000000 
21.955289 6.762376 0.000000 
23.423935 11.407267 0.000000 
17.977307 6.373282 0.000000 
53.071789 4.149660 0.000000 
22.039860 2.390272 0.000000 
13.348011 6.860321 0.000000 
4.064774 2.331229 0.000000 
18.495631 13.700008 0.000000 
52.992699 3.781206 0.000000 
24.123825 10.801771 0.000000 
33.197681 5.493836 0.000000 
18.724197 13.557416 0.000000 
23.600381 11.581502 0.000000 
39.051437 3.523674 0.000000 
25.463290 9.247399 0.000000 
12.115076 4.145640 0.000000 
5.525053 12.484839 0.000000 
25.685972 10.509023 0.000000 
25.032887 9.385451 0.000000 
13.212829 7.077224 0.000000 
10.791700 12.991277 0.000000 
14.824578 6.263943 0.000000 
14.668629 12.061390 0.000000 
2.252601 6.469282 0.000000 
4.199429 13.184962 0.000000 
23.937305 5.076521 0.000000 
2.352409 3.641287 0.000000 
47.155065 1.388321 0.000000 
26.677368 6.721203 0.000000 
47.155677 1.788486 0.000000 
23.619502 8.215828 0.000000 
26.244571 1.670384 0.000000 
4.275775 1.869102 0.000000 
2.498662 6.370114 0.000000 
16.872879 7.460499 0.000000 
15.185941 4.724079 0.000000 
15.118819 5.344375 0.000000 
8.016647 6.197617 0.000000 
25.818175 10.325107 0.000000 
21.189816 7.265891 0.000000 
23.470133 1.464653 0.000000 
13.175939 11.306424 0.000000 
19.679695 10.880930 0.000000 
18.462282 10.450328 0.000000 
36.267445 4.102132 0.000000 
41.952543 1.869336 0.000000 
10.165018 2.657451 0.000000 
22.916977 1.746242 0.000000 
9.691264 1.596757 0.000000 
18.690151 3.547975 0.000000 
26.007416 3.369720 0.000000 
28.587854 6.644388 0.000000 
28.469767 6.092164 0.000000 
26.581772 4.942403 0.000000 
8.449395 9.737001 0.000000 
10.944089 11.362170 0.000000 
18.207285 13.763828 0.000000 
54.362332 2.051622 0.000000 
46.681239 1.307556 0.000000 
25.391298 8.065267 0.000000 
4.825333 7.583227 0.000000 
19.135516 13.883724 0.000000 
19.651631 3.183912 0.000000 
21.764164 10.524045 0.000000 
9.807547 2.398678 0.000000 
26.250290 6.054905 0.000000 
42.172652 3.285594 0.000000 
25.310095 9.670931 0.000000 
16.708156 7.903510 0.000000 
31.158436 2.781650 0.000000 
31.562951 2.355042 0.000000 
4.462419 2.574482 0.000000 
2.576057 8.565947 0.000000 
17.307188 7.164557 0.000000 
21.155319 8.584242 0.000000 
17.326967 4.171820 0.000000 
26.470424 3.541599 0.000000 
22.426482 2.946302 0.000000 
15.566902 1.078371 0.000000 
33.826594 2.959165 0.000000 
8.391824 10.181157 0.000000 
27.045743 1.759390 0.000000 
13.329114 12.347827 0.000000 
19.162976 13.378313 0.000000 
53.132967 2.351746 0.000000 
16.216037 3.186760 0.000000 
3.347285 12.642700 0.000000 
19.752604 3.643524 0.000000 
27.312582 1.299757 0.000000 
11.364082 5.744735 0.000000 
26.754521 0.973388 0.000000 
54.924483 3.427532 0.000000 
51.387782 2.232240 0.000000 
14.172690 10.578349 0.000000 
28.746599 7.562081 0.000000 
10.381111 2.783179 0.000000 
53.705725 4.138306 0.000000 
12.693021 4.199750 0.000000 
26.586047 6.984178 0.000000 
1.349868 8.871711 0.000000 
31.315363 3.734414 0.000000 
11.203152 1.480850 0.000000 
50.952787 2.500170 0.000000 
51.117022 2.917299 0.000000 
15.127914 4.410775 0.000000 
27.088860 3.190499 0.000000 
8.226450 3.545761 0.000000 
35.978008 3.656867 0.000000 
38.950821 2.488925 0.000000 
38.347489 4.074392 0.000000 
20.442198 1.018732 0.000000 
28.278667 7.615242 0.000000 
25.202557 7.339230 0.000000 
24.100085 2.862235 0.000000 
8.844190 10.713818 0.000000 
10.600699 10.938753 0.000000 
36.090051 2.862054 0.000000 
7.162822 1.216188 0.000000 
15.361432 11.604937 0.000000 
30.376160 1.044291 0.000000 
28.496147 5.806449 0.000000 
1.083837 5.016328 0.000000 
20.684168 12.602011 0.000000 
7.564024 7.442260 0.000000 
13.554621 10.880339 0.000000 
11.046375 10.742423 0.000000 
28.367653 3.265232 0.000000 
12.970825 11.838471 0.000000 
5.712211 5.523214 0.000000 
23.164874 6.782976 0.000000 
31.787022 4.345976 0.000000 
3.068743 10.348778 0.000000 
58.196400 3.529471 0.000000 
26.498553 1.721544 0.000000 
15.921319 3.487138 0.000000 
24.193581 3.407590 0.000000 
28.078619 5.532407 0.000000 
20.629271 8.355101 0.000000 
53.942399 1.946193 0.000000 
4.602946 2.957508 0.000000 
8.915357 11.265200 0.000000 
2.749081 3.466098 0.000000 
6.967416 13.269161 0.000000 
22.126820 10.865727 0.000000 
41.405996 3.942697 0.000000 
7.269309 10.243066 0.000000 
30.732455 3.380890 0.000000 
6.541855 14.306715 0.000000 
11.383764 11.445490 0.000000 
8.016110 7.256037 0.000000 
11.201123 11.271665 0.000000 
22.895538 5.058203 0.000000 
17.035869 10.819238 0.000000 
40.720324 3.085855 0.000000 
59.080783 2.280523 0.000000 
13.676199 12.083155 0.000000 
15.565433 7.729460 0.000000 
21.683523 8.584184 0.000000 
18.417466 3.103541 0.000000 
23.294774 5.220191 0.000000 
3.806167 11.841991 0.000000 
19.752042 14.121315 0.000000 
14.964478 6.913272 0.000000 
33.851244 6.874196 0.000000 
0.933705 2.738746 0.000000 
32.742405 5.306750 0.000000 
11.812707 4.103545 0.000000 
5.025945 3.884322 0.000000 
42.235286 3.016334 0.000000 
14.913586 10.542760 0.000000 
25.487579 7.631005 0.000000 
18.397432 2.652074 0.000000 
52.845036 2.740303 0.000000 
33.456610 7.017469 0.000000 
15.023727 3.848851 0.000000 
1.355278 4.013482 0.000000 
7.052003 7.585010 0.000000 
37.912843 4.663202 0.000000 
26.796601 3.813058 0.000000 
53.994686 3.864444 0.000000 
35.357051 5.644967 0.000000 
22.203024 8.535510 0.000000 
5.231501 4.067863 0.000000 
3.402920 9.993654 0.000000 
37.294068 1.654286 0.000000 
37.839468 1.308827 0.000000 
1.113456 5.771369 0.000000 
17.942223 5.471956 0.000000 
28.892087 6.979809 0.000000 
33.798768 3.220125 0.000000 
15.416094 9.549291 0.000000 
8.438662 7.284214 0.000000 
3.208457 12.138349 0.000000 
2.116398 8.392253 0.000000 
16.801727 10.894798 0.000000 
1.208359 8.553712 0.000000 
25.488659 11.298306 0.000000 
12.867088 14.861352 0.000000 
36.892399 1.958099 0.000000 
57.067952 1.562738 0.000000 
2.387875 9.205852 0.000000 
51.242058 2.478835 0.000000 
6.679412 5.245236 0.000000 
1.589399 11.923726 0.000000 
7.243419 9.744021 0.000000 
56.305821 3.943720 0.000000 
1.590501 3.898881 0.000000 
16.037181 1.019864 0.000000 
29.513969 4.320728 0.000000 
38.475019 1.465526 0.000000 
1.193842 10.065740 0.000000 
2.744033 1.082581 0.000000 
50.336365 3.649755 0.000000 
25.380556 6.981282 0.000000 
33.612197 4.637600 0.000000 
23.815667 10.589599 0.000000 
17.728468 11.919175 0.000000 
23.650393 6.820835 0.000000 
8.681829 3.710731 0.000000 
4.741638 13.055657 0.000000 
35.464996 5.879988 0.000000 
4.603314 10.841860 0.000000 
9.093898 13.660871 0.000000 
2.686978 8.823954 0.000000 
42.261242 2.240932 0.000000 
56.063830 3.963205 0.000000 
30.788281 0.879550 0.000000 
21.467713 11.943663 0.000000 
48.574062 4.108162 0.000000 
22.803140 6.549980 0.000000 
1.205257 2.380952 0.000000 
57.515563 1.524756 0.000000 
15.187842 11.759454 0.000000 
23.655921 10.729072 0.000000 
8.144194 11.522434 0.000000 
19.389908 10.376110 0.000000 
6.814419 1.047487 0.000000 
27.054593 7.189278 0.000000 
20.487908 12.967429 0.000000 
4.869711 2.065943 0.000000 
34.236599 6.687161 0.000000 
34.040936 1.335885 0.000000 
9.826029 11.941645 0.000000 
24.491178 10.876175 0.000000 
47.147260 1.141094 0.000000 
23.733731 1.528427 0.000000 
0.861035 10.254773 0.000000 
10.550869 9.152688 0.000000 
22.838105 5.275512 0.000000 
32.035487 4.942505 0.000000 
9.624744 1.877903 0.000000 
21.257505 0.610375 0.000000 
10.672558 9.551329 0.000000 
19.403804 7.307045 0.000000 
11.744576 7.972320 0.000000 
48.459812 0.805339 0.000000 
44.566123 3.140740 0.000000 
15.839877 9.522690 0.000000 
14.500608 10.360193 0.000000 
7.989786 13.941108 0.000000 
17.540785 9.113904 0.000000 
14.701718 9.048919 0.000000 
15.032284 8.894400 0.000000 
20.850892 1.771444 0.000000 
4.826359 10.251103 0.000000 
9.787165 1.116223 0.000000 
2.254380 14.157566 0.000000 
29.970632 0.690736 0.000000 
10.227369 8.846675 0.000000 
33.884903 3.919595 0.000000 
15.304147 11.362822 0.000000 
17.316062 11.802322 0.000000 
6.443448 4.014117 0.000000 
47.359850 1.717495 0.000000 
4.060139 1.693424 0.000000 
17.545313 1.570582 0.000000 
43.489020 3.201258 0.000000 
12.473817 0.359661 0.000000 
41.558852 1.627648 0.000000 
33.559402 5.294701 0.000000 
30.377800 8.360208 0.000000 
43.664671 3.911595 0.000000 
0.182533 5.374936 0.000000 
8.914398 0.802530 0.000000 
16.237004 9.581509 0.000000 
36.394368 4.260850 0.000000 
16.154986 8.216133 0.000000 
45.256282 0.890336 0.000000 
17.828644 13.457765 0.000000 
23.727976 3.654183 0.000000 
6.482003 0.869120 0.000000 
56.723371 4.116761 0.000000 
3.838559 2.040013 0.000000 
10.007398 11.704574 0.000000 
50.108127 3.754563 0.000000 
23.287898 3.730746 0.000000 
18.980374 0.593588 0.000000 
9.970052 2.006335 0.000000 
9.570768 2.905763 0.000000 
5.897681 13.975882 0.000000 
46.881465 3.067193 0.000000 
2.697668 10.497677 0.000000 
16.797218 3.327135 0.000000 
36.928294 4.582492 0.000000 
32.916740 7.652107 0.000000 
8.369288 11.575204 0.000000 
9.451012 14.128698 0.000000 
27.344255 9.188725 0.000000 
45.181658 1.318349 0.000000 
3.876963 9.458434 0.000000 
44.932138 3.148167 0.000000 
5.175293 7.936950 0.000000 
26.039003 2.968245 0.000000 
5.115838 13.205673 0.000000 
2.992393 14.108469 0.000000 
9.747500 5.115166 0.000000 
22.901980 3.557036 0.000000 
4.425923 7.510890 0.000000 
16.634850 9.654047 0.000000 
56.598108 3.206629 0.000000 
2.185469 13.214053 0.000000 
26.543119 10.823996 0.000000 
30.033958 1.753169 0.000000 
35.728479 5.846006 0.000000 
18.837264 5.693746 0.000000 
19.373342 13.953460 0.000000 
4.339135 7.081649 0.000000 
18.184809 1.422162 0.000000 
8.128587 9.306918 0.000000 
24.456119 3.075752 0.000000 
17.129254 13.240465 0.000000 
2.116972 12.981055 0.000000 
49.972995 0.959582 0.000000 
10.408566 13.454286 0.000000 
6.288908 2.424739 0.000000 
9.170266 3.179643 0.000000 
22.193246 11.099811 0.000000 
25.871124 5.253167 0.000000 
22.078725 13.516466 0.000000 
7.671309 3.395098 0.000000 
2.516039 1.783174 0.000000 
19.032426 11.868480 0.000000 
30.686878 8.139782 0.000000 
20.970033 7.159108 0.000000 
5.230422 12.032900 0.000000 
9.824234 13.415293 0.000000 
19.553735 13.343061 0.000000 
28.722980 5.399245 0.000000 
31.094383 6.632634 0.000000 
49.818197 1.472607 0.000000 
5.526441 14.177291 0.000000 
2.753689 14.186570 0.000000 
22.593814 10.161801 0.000000 
48.306154 3.861520 0.000000 
21.439140 1.603171 0.000000 
46.459913 1.607782 0.000000 
33.147299 7.534201 0.000000 
24.371596 9.542893 0.000000 
10.870601 13.417409 0.000000 
2.354291 12.023707 0.000000 
30.350917 1.432820 0.000000 
20.952661 12.896521 0.000000 
33.175545 2.241526 0.000000 
30.472511 6.849581 0.000000 
3.600511 4.557383 0.000000 
24.482706 4.715310 0.000000 
30.404878 1.649339 0.000000 
13.503122 2.366855 0.000000 
49.541881 1.953592 0.000000 
56.254691 1.104133 0.000000 
32.160414 7.922959 0.000000 
18.221160 8.322798 0.000000 
55.604779 4.396150 0.000000 
19.069333 5.222722 0.000000 
10.544359 10.669542 0.000000 
1.234671 11.361761 0.000000 
17.890411 8.820769 0.000000 
32.613009 8.019584 0.000000 
10.191581 2.928727 0.000000 
4.183814 8.948594 0.000000 
14.117122 1.885290 0.000000 
46.703174 3.131055 0.000000 
38.911489 2.005298 0.000000 
42.886226 1.156124 0.000000 
19.366416 13.499605 0.000000 
56.584812 1.555320 0.000000 
11.064195 5.200048 0.000000 
26.713719 8.477045 0.000000 
28.950072 3.195308 0.000000 
17.541607 4.073713 0.000000 
18.258251 14.236804 0.000000 
37.400904 1.287905 0.000000 
25.755144 10.939159 0.000000 
43.904853 3.930356 0.000000 
53.868886 0.798693 0.000000 
18.186253 12.240970 0.000000 
7.251109 13.549674 0.000000 
13.402690 7.225634 0.000000 
22.519148 8.763980 0.000000 
33.565104 0.814666 0.000000 
13.234102 8.922266 0.000000 
33.120481 0.834808 0.000000 
44.299343 4.199841 0.000000 
4.593952 3.326357 0.000000 
33.752434 2.567541 0.000000 
7.380072 7.782743 0.000000 
41.894803 1.459493 0.000000 
7.348883 1.061747 0.000000 
32.346867 1.812873 0.000000 
11.162039 6.145437 0.000000 
39.781282 0.372777 0.000000 
51.614711 2.306384 0.000000 
9.318941 4.798870 0.000000 
11.478559 1.428077 0.000000 
42.879620 4.408989 0.000000 
44.857688 2.808983 0.000000 
21.696984 11.683631 0.000000 
13.118943 7.711725 0.000000 
0.584265 10.611741 0.000000 
25.637574 2.734385 0.000000 
10.302769 10.616948 0.000000 
21.264015 5.905539 0.000000 
6.172982 2.861436 0.000000 
10.791753 12.350516 0.000000 
15.017744 14.237877 0.000000 
21.963478 0.571646 0.000000 
7.811976 13.454119 0.000000 
23.254718 4.984374 0.000000 
20.960864 3.774427 0.000000 
8.319464 2.149686 0.000000 
9.270805 1.581151 0.000000 
58.600923 3.520243 0.000000 
26.918313 10.845775 0.000000 
13.682741 1.981845 0.000000 
4.097677 0.612456 0.000000 
16.444874 1.012757 0.000000 
12.521508 2.163573 0.000000 
2.556938 13.899661 0.000000 
56.853888 3.010041 0.000000 
23.393857 8.498835 0.000000 
49.716209 1.265282 0.000000 
11.392194 7.882234 0.000000 
7.955887 0.841052 0.000000 
8.109196 1.879037 0.000000 
33.965039 0.947648 0.000000 
11.221229 13.279196 0.000000 
26.927787 8.966024 0.000000 
48.622345 2.134398 0.000000 
1.256286 0.715251 0.000000 
7.347813 3.738784 0.000000 
53.250757 0.836498 0.000000 
28.197410 3.465318 0.000000 
20.735701 5.996044 0.000000 
43.022407 0.397132 0.000000 
15.200303 5.811078 0.000000 
17.085613 7.056945 0.000000 
36.926404 2.201862 0.000000 
6.892802 7.395281 0.000000 
7.870004 6.606455 0.000000 
15.248790 5.586651 0.000000 
15.363178 5.193244 0.000000 
6.304740 5.772629 0.000000 
37.348329 1.900111 0.000000 
32.597106 2.431954 0.000000 
5.695396 6.227215 0.000000 
17.286216 6.913165 0.000000 
6.168196 7.480110 0.000000 
22.562571 6.957958 0.000000 
33.529960 3.561598 0.000000 
31.629592 2.633370 0.000000 
32.036367 4.326047 0.000000 
3.036965 4.869902 0.000000 
22.809311 8.211457 0.000000 
1.643094 4.604150 0.000000 
38.528869 3.473215 0.000000 
28.365608 6.555526 0.000000 
22.050882 8.331473 0.000000 
5.659891 7.501051 0.000000 
54.252194 3.241020 0.000000 
21.797176 8.347768 0.000000 
18.408593 11.633947 0.000000 
31.418952 3.510824 0.000000 
15.086008 6.685480 0.000000 
23.323600 3.467662 0.000000 
14.099441 10.835471 0.000000 
27.244895 7.017061 0.000000 
17.867704 11.715354 0.000000 
33.361350 4.657425 0.000000 
53.105392 3.574748 0.000000 
31.815024 2.418505 0.000000 
13.635339 11.127486 0.000000 
7.483620 10.096189 0.000000 
2.944559 3.906613 0.000000 
2.262798 6.235022 0.000000 
7.812442 6.010112 0.000000 
54.690857 2.407837 0.000000 
15.371648 4.486841 0.000000 
7.604656 7.188173 0.000000 
4.562733 12.883101 0.000000 
53.599970 3.941043 0.000000 
22.544934 2.710474 0.000000 
13.449680 11.324788 0.000000 
16.620246 3.502718 0.000000 
28.386716 7.391933 0.000000 
53.229659 2.577123 0.000000 
14.951534 11.685092 0.000000 
2.761241 5.514925 0.000000 
37.710175 1.537653 0.000000 
23.282797 7.006126 0.000000 
18.930082 3.476291 0.000000 
18.653664 3.089604 0.000000 
26.806736 5.123717 0.000000 
3.514992 12.431328 0.000000 
15.634884 7.494069 0.000000 
4.195726 12.348621 0.000000 
3.329693 4.252175 0.000000 
38.721499 2.376619 0.000000 
17.811601 6.556171 0.000000 
14.698968 10.688935 0.000000 
15.542021 4.059768 0.000000 
23.362798 1.690264 0.000000 
32.149695 1.946058 0.000000 
36.344522 3.894115 0.000000 
8.312010 10.632260 0.000000 
20.702015 8.102438 0.000000 
18.990810 11.228846 0.000000 
7.315687 5.342771 0.000000 
26.544909 1.116955 0.000000 
11.535126 5.083808 0.000000 
54.737999 2.785548 0.000000 
8.217029 9.717210 0.000000 
26.664982 1.515609 0.000000 
26.086540 5.838976 0.000000 
17.901200 10.726650 0.000000 
4.313823 12.939327 0.000000 
14.303249 11.813650 0.000000 
28.737727 7.164686 0.000000 
16.675779 7.643131 0.000000 
8.376483 11.340560 0.000000 
7.590287 10.498752 0.000000 
28.615763 6.925144 0.000000 
4.547926 7.142743 0.000000 
22.496226 2.257878 0.000000 
18.923271 2.247415 0.000000 
26.407016 1.501064 0.000000 
23.982620 3.284171 0.000000 
26.783289 1.256795 0.000000 
23.737135 10.931721 0.000000 
5.099211 7.538209 0.000000 
8.309372 9.944734 0.000000 
42.003553 3.082038 0.000000 
31.191087 3.042145 0.000000 
15.125348 11.523473 0.000000 
8.750100 11.106813 0.000000 
23.831091 11.154014 0.000000 
21.431218 8.617386 0.000000 
19.596173 3.449258 0.000000 
12.064483 5.432207 0.000000 
16.255423 7.991254 0.000000 
19.311411 2.602604 0.000000 
12.240498 4.378130 0.000000 
5.021139 12.986714 0.000000 
21.022180 8.403178 0.000000 
33.613914 2.763345 0.000000 
33.139598 2.499267 0.000000 
21.845254 7.028514 0.000000 
27.016176 6.955877 0.000000 
7.319283 7.556678 0.000000 
17.875732 6.821690 0.000000 
26.510896 6.040151 0.000000 
23.419368 8.261205 0.000000 
26.021983 5.416014 0.000000 
32.740447 5.037981 0.000000 
5.279612 6.395000 0.000000 
10.897924 10.941082 0.000000 
5.170177 12.258110 0.000000 
1.703474 8.656418 0.000000 
31.896861 1.871870 0.000000 
10.759390 11.165139 0.000000 
14.445110 10.571952 0.000000 
11.533767 5.541772 0.000000 
5.111827 6.606737 0.000000 
18.892427 11.670635 0.000000 
19.156144 13.617556 0.000000 
41.680166 1.855770 0.000000 
7.583588 5.254896 0.000000 
24.204366 3.122995 0.000000 
19.153885 11.037432 0.000000 
42.021893 2.130176 0.000000 
26.820237 6.491773 0.000000 
38.809844 3.169157 0.000000 
32.268004 4.805719 0.000000 
18.522279 2.876841 0.000000 
25.096351 9.127508 0.000000 
19.257515 1.968796 0.000000 
17.154039 4.384560 0.000000 
41.287669 2.029435 0.000000 
9.450668 1.461714 0.000000 
8.126952 5.463994 0.000000 
25.817257 1.212671 0.000000 
3.586433 12.659666 0.000000 
37.004489 4.364484 0.000000 
25.937414 10.567700 0.000000 
2.289000 8.578506 0.000000 
38.728287 2.651485 0.000000 
28.279404 5.901539 0.000000 
21.398109 7.376849 0.000000 
16.162867 3.426096 0.000000 
1.795309 4.051574 0.000000 
20.922520 12.675380 0.000000 
22.836420 1.989300 0.000000 
10.984869 13.180045 0.000000 
23.841789 2.814829 0.000000 
40.978302 3.076412 0.000000 
7.482472 9.844358 0.000000 
54.721818 3.232911 0.000000 
4.011654 2.143671 0.000000 
5.777361 5.792821 0.000000 
19.205778 1.708557 0.000000 
25.852841 3.598315 0.000000 
10.547611 13.036053 0.000000 
33.328904 5.291840 0.000000 
22.478950 8.535013 0.000000 
23.887285 7.290785 0.000000 
22.045445 2.127552 0.000000 
23.657672 2.348079 0.000000 
26.196357 3.169093 0.000000 
21.264407 12.073041 0.000000 
53.403356 2.372636 0.000000 
6.607379 5.471589 0.000000 
36.464319 2.278170 0.000000 
54.126217 2.110680 0.000000 
4.626628 12.207042 0.000000 
25.740077 10.074640 0.000000 
36.285226 3.023054 0.000000 
1.552146 4.164918 0.000000 
30.992507 3.267364 0.000000 
38.094670 4.049314 0.000000 
31.893104 4.116212 0.000000 
31.580596 3.710989 0.000000 
24.872592 9.210232 0.000000 
18.556652 10.697631 0.000000 
50.512269 3.808001 0.000000 
17.204590 11.027137 0.000000 
27.871733 5.668585 0.000000 
38.371277 1.699614 0.000000 
27.428138 5.451946 0.000000 
2.298843 8.992214 0.000000 
15.843859 3.726405 0.000000 
1.345058 5.868496 0.000000 
23.950728 1.963240 0.000000 
30.740065 3.130627 0.000000 
19.473045 10.767250 0.000000 
12.619514 4.877116 0.000000 
17.300578 4.874008 0.000000 
18.813484 2.004268 0.000000 
18.171721 12.012574 0.000000 
1.405974 6.358492 0.000000 
15.218843 6.894761 0.000000 
3.133033 5.288627 0.000000 
13.791837 11.843636 0.000000 
3.874977 12.071705 0.000000 
17.449219 5.351405 0.000000 
17.055515 4.159856 0.000000 
9.782548 2.107890 0.000000 
16.774325 3.729833 0.000000 
17.768347 5.649282 0.000000 
6.563040 7.665063 0.000000 
27.513543 7.333857 0.000000 
14.700228 6.483555 0.000000 
37.467674 1.493984 0.000000 
19.404633 3.078041 0.000000 
37.538818 4.416552 0.000000 
7.334485 10.480663 0.000000 
53.886236 2.186375 0.000000 
7.844297 10.924377 0.000000 
3.012343 5.512355 0.000000 
28.152668 7.407953 0.000000 
17.474209 11.635188 0.000000 
40.935111 2.635630 0.000000 
54.005966 3.623503 0.000000 
26.700131 3.233191 0.000000 
4.740408 6.965504 0.000000 
19.859391 14.347752 0.000000 
1.320653 5.621369 0.000000 
23.430678 11.179470 0.000000 
20.559495 8.614746 0.000000 
5.473214 12.704628 0.000000 
25.286978 8.334238 0.000000 
18.151217 6.187387 0.000000 
4.274444 2.421421 0.000000 
14.430698 12.049812 0.000000 
1.422917 10.064277 0.000000 
24.304224 10.925904 0.000000 
4.467676 2.023633 0.000000 
13.063762 12.368810 0.000000 
8.784291 11.449415 0.000000 
20.604263 0.846491 0.000000 
58.841860 2.205948 0.000000 
13.139578 6.811494 0.000000 
41.430536 3.686648 0.000000 
30.554110 0.859218 0.000000 
1.325316 4.902713 0.000000 
17.448366 10.915842 0.000000 
19.504306 2.433917 0.000000 
32.960624 5.431775 0.000000 
5.037694 10.102591 0.000000 
20.307201 1.208395 0.000000 
22.926548 6.769569 0.000000 
22.194016 6.752963 0.000000 
19.887295 3.178591 0.000000 
12.518374 4.395155 0.000000 
41.261435 3.504167 0.000000 
23.817537 5.274133 0.000000 
9.934500 2.613626 0.000000 
33.644197 3.972700 0.000000 
4.417644 2.836058 0.000000 
10.550652 9.360747 0.000000 
25.675026 8.655518 0.000000 
13.481815 7.023030 0.000000 
36.323104 2.777236 0.000000 
23.820211 8.168893 0.000000 
41.795049 1.645785 0.000000 
58.004611 3.729486 0.000000 
3.085607 10.573358 0.000000 
1.295260 5.141181 0.000000 
38.494659 3.878874 0.000000 
15.764605 0.922561 0.000000 
2.617157 1.316299 0.000000 
23.400946 11.620858 0.000000 
25.208717 6.842512 0.000000 
27.390026 4.955815 0.000000 
7.635877 9.463815 0.000000 
26.303905 0.833392 0.000000 
5.283607 14.140635 0.000000 
19.861912 10.730309 0.000000 
13.711703 10.707280 0.000000 
20.778012 12.215164 0.000000 
24.188862 5.041273 0.000000 
1.442000 2.275213 0.000000 
12.280410 5.556064 0.000000 
8.712588 0.843543 0.000000 
33.355396 7.198540 0.000000 
53.272870 4.162875 0.000000 
23.101796 5.085954 0.000000 
3.422005 3.869877 0.000000 
20.284156 12.999260 0.000000 
21.408303 12.533956 0.000000 
46.733177 1.110453 0.000000 
53.805924 3.959611 0.000000 
25.391122 7.439623 0.000000 
47.201312 1.593377 0.000000 
8.958930 13.826331 0.000000 
21.848047 10.292124 0.000000 
27.170788 9.323548 0.000000 
20.523823 12.757343 0.000000 
18.919386 5.827371 0.000000 
11.890917 8.176433 0.000000 
57.142568 1.762824 0.000000 
24.685063 3.169728 0.000000 
25.935567 10.829252 0.000000 
29.321242 4.464571 0.000000 
16.446456 9.489604 0.000000 
25.437834 8.800599 0.000000 
52.789783 3.331798 0.000000 
17.066979 11.415080 0.000000 
7.189756 13.311834 0.000000 
55.955913 4.178549 0.000000 
2.239731 3.821393 0.000000 
28.599375 3.217606 0.000000 
46.713457 1.524117 0.000000 
21.937039 10.693449 0.000000 
2.819230 8.657245 0.000000 
25.368888 7.812327 0.000000 
21.743524 6.799065 0.000000 
26.901124 3.334242 0.000000 
43.409137 3.463366 0.000000 
26.246590 2.896471 0.000000 
9.124591 2.974026 0.000000 
7.013929 1.061652 0.000000 
16.032738 9.623954 0.000000 
25.281678 11.366255 0.000000 
24.271015 11.169598 0.000000 
28.503666 5.539217 0.000000 
34.074027 6.838451 0.000000 
3.153411 11.928138 0.000000 
56.392875 3.726272 0.000000 
22.296788 13.419898 0.000000 
18.247500 10.450397 0.000000 
24.086484 5.279355 0.000000 
22.881876 4.818130 0.000000 
1.815355 6.550210 0.000000 
43.432404 3.880213 0.000000 
18.991383 13.233139 0.000000 
14.946679 3.629202 0.000000 
52.916669 2.935984 0.000000 
27.047279 4.806889 0.000000 
23.833948 7.740063 0.000000 
16.519558 8.066327 0.000000 
3.588608 11.810658 0.000000 
1.416620 8.659031 0.000000 
6.623508 1.017374 0.000000 
14.951459 6.089338 0.000000 
14.877050 12.052231 0.000000 
26.373757 10.949605 0.000000 
23.017848 1.561460 0.000000 
52.918565 4.008509 0.000000 
23.794543 11.527506 0.000000 
53.263327 2.179098 0.000000 
27.203969 1.121618 0.000000 
18.400612 13.908492 0.000000 
1.050918 2.212617 0.000000 
46.912758 1.315919 0.000000 
55.031410 2.568441 0.000000 
25.583666 10.275154 0.000000 
27.025257 2.967635 0.000000 
56.545443 3.919286 0.000000 
11.607311 11.391531 0.000000 
21.006300 7.367817 0.000000 
2.831702 3.221875 0.000000 
10.750476 9.087035 0.000000 
27.517519 1.309556 0.000000 
1.433780 9.065701 0.000000 
16.419632 3.132820 0.000000 
6.340115 14.397605 0.000000 
2.024596 14.206258 0.000000 
25.212494 9.491000 0.000000 
33.665565 7.015499 0.000000 
8.224697 7.197864 0.000000 
25.554844 9.625379 0.000000 
47.381520 1.064790 0.000000 
26.666919 3.641001 0.000000 
56.907640 3.997677 0.000000 
0.847650 2.256586 0.000000 
4.075847 2.537144 0.000000 
53.804629 4.312357 0.000000 
12.619223 5.309070 0.000000 
25.543942 9.038313 0.000000 
18.725244 13.764875 0.000000 
8.255325 6.830995 0.000000 
26.033128 1.610916 0.000000 
46.958598 1.857510 0.000000 
9.618369 2.274594 0.000000 
9.113832 11.135265 0.000000 
54.585986 2.033390 0.000000 
17.374860 9.233922 0.000000 
6.226653 2.624011 0.000000 
51.135432 2.679028 0.000000 
9.004101 13.482987 0.000000 
44.113144 3.901871 0.000000 
27.098688 9.530858 0.000000 
5.582194 12.250081 0.000000 
5.647158 13.985165 0.000000 
30.201107 8.518205 0.000000 
58.425488 3.631807 0.000000 
17.201717 5.295118 0.000000 
15.467774 6.878950 0.000000 
15.425932 5.759411 0.000000 
17.075033 6.790937 0.000000 
32.002041 3.879622 0.000000 
17.058494 4.819015 0.000000 
36.487645 3.177350 0.000000 
15.551431 5.379176 0.000000 
32.150589 4.089117 0.000000 
15.343812 6.666276 0.000000 
2.521441 5.511403 0.000000 
38.504206 2.538224 0.000000 
2.256686 4.046159 0.000000 
1.523558 5.473739 0.000000 
1.523185 5.239817 0.000000 
33.087027 2.755143 0.000000 
27.677512 5.823291 0.000000 
38.276047 1.937904 0.000000 
23.658989 7.610892 0.000000 
37.436809 4.194384 0.000000 
21.858302 7.322703 0.000000 
16.691034 3.950680 0.000000 
17.596541 5.827759 0.000000 
36.524594 2.935237 0.000000 
31.679978 3.486639 0.000000 
53.635679 2.505717 0.000000 
26.943445 6.254822 0.000000 
16.633979 7.376617 0.000000 
31.909643 2.655565 0.000000 
21.898199 8.115732 0.000000 
5.361447 6.633833 0.000000 
23.515015 2.544173 0.000000 
2.016544 4.184518 0.000000 
41.171118 2.627543 0.000000 
53.070801 3.075076 0.000000 
7.230117 5.571441 0.000000 
37.840733 4.023536 0.000000 
14.152513 11.589990 0.000000 
32.471180 4.655709 0.000000 
37.187216 4.173490 0.000000 
17.884951 10.975746 0.000000 
28.024063 7.194211 0.000000 
1.575273 5.966723 0.000000 
32.725719 4.779193 0.000000 
5.205283 6.865188 0.000000 
54.068378 2.336335 0.000000 
41.240022 3.054085 0.000000 
33.353160 2.887688 0.000000 
23.479474 8.043689 0.000000 
12.432715 5.002268 0.000000 
2.481211 3.873563 0.000000 
16.531676 3.760580 0.000000 
8.150407 10.135394 0.000000 
17.446781 11.412266 0.000000 
7.700664 5.505646 0.000000 
13.209865 11.752940 0.000000 
18.637896 10.953305 0.000000 
13.552864 11.902622 0.000000 
19.129719 2.744754 0.000000 
33.412572 4.018845 0.000000 
5.002297 12.450642 0.000000 
7.685378 9.973425 0.000000 
27.174452 6.767077 0.000000 
13.696935 11.373820 0.000000 
7.822969 10.498896 0.000000 
8.081699 9.905905 0.000000 
27.183933 5.350257 0.000000 
15.072687 6.268093 0.000000 
12.379535 4.785951 0.000000 
18.751345 2.872609 0.000000 
23.559444 3.488259 0.000000 
27.107907 5.061238 0.000000 
3.107641 4.634144 0.000000 
14.515497 10.845175 0.000000 
19.145372 3.016619 0.000000 
28.259837 7.194227 0.000000 
15.438503 4.711291 0.000000 
36.541006 4.079461 0.000000 
5.045272 12.710124 0.000000 
21.163396 7.533027 0.000000 
7.714767 9.692183 0.000000 
17.721647 6.326464 0.000000 
11.880956 5.311449 0.000000 
17.430191 11.157887 0.000000 
23.546276 2.121248 0.000000 
32.352892 2.318839 0.000000 
4.908761 7.347134 0.000000 
8.403835 10.870805 0.000000 
3.770795 12.481745 0.000000 
33.265588 4.890462 0.000000 
26.360101 5.803061 0.000000 
28.200417 6.122924 0.000000 
26.307401 1.045172 0.000000 
21.197453 8.344464 0.000000 
14.882683 11.450270 0.000000 
7.814104 5.748171 0.000000 
21.555199 8.376844 0.000000 
37.550468 1.733837 0.000000 
23.070456 1.948676 0.000000 
4.410685 12.702219 0.000000 
7.862097 6.851302 0.000000 
7.753659 6.233913 0.000000 
22.561192 8.277643 0.000000 
32.861090 2.550189 0.000000 
18.138187 11.737217 0.000000 
23.042180 8.150076 0.000000 
17.478766 6.784682 0.000000 
23.589155 1.705360 0.000000 
5.531316 6.425814 0.000000 
1.769327 4.344375 0.000000 
31.439680 2.867740 0.000000 
5.377421 7.471222 0.000000 
1.577845 4.839103 0.000000 
53.013549 3.332516 0.000000 
31.967373 2.263455 0.000000 
11.676649 4.854487 0.000000 
53.247590 3.761203 0.000000 
19.069745 2.477903 0.000000 
23.046501 6.991187 0.000000 
7.372418 7.287138 0.000000 
15.333397 4.205526 0.000000 
54.305607 2.281295 0.000000 
2.743212 3.756551 0.000000 
23.044208 3.357627 0.000000 
53.757993 3.734708 0.000000 
53.099927 2.809592 0.000000 
3.628113 12.023973 0.000000 
15.157807 6.040336 0.000000 
36.205237 3.512857 0.000000 
18.655319 11.517110 0.000000 
6.657726 7.435814 0.000000 
54.033418 3.361304 0.000000 
5.846792 6.022566 0.000000 
22.076574 6.948458 0.000000 
27.053950 1.301024 0.000000 
38.389406 3.663053 0.000000 
38.688612 2.102261 0.000000 
2.976025 5.098970 0.000000 
28.371336 6.792191 0.000000 
18.312499 10.663102 0.000000 
23.656583 11.330084 0.000000 
16.102264 3.672646 0.000000 
6.546227 5.708960 0.000000 
16.397996 3.356862 0.000000 
54.598492 2.972924 0.000000 
16.250076 7.714430 0.000000 
26.197804 5.595690 0.000000 
20.900773 12.413522 0.000000 
25.255694 9.285271 0.000000 
3.128081 4.064228 0.000000 
3.371056 4.533854 0.000000 
4.621793 7.385449 0.000000 
11.418993 5.302841 0.000000 
18.935795 13.702089 0.000000 
32.948109 5.171804 0.000000 
33.440287 4.429647 0.000000 
19.051676 10.791617 0.000000 
22.753135 2.228476 0.000000 
5.918474 7.485814 0.000000 
42.047057 2.847725 0.000000 
25.414495 9.455868 0.000000 
15.784105 3.961680 0.000000 
14.793721 11.854033 0.000000 
11.634244 5.773588 0.000000 
22.415907 2.489527 0.000000 
19.162368 2.222775 0.000000 
20.741951 7.706685 0.000000 
8.233578 10.374647 0.000000 
14.953203 6.476648 0.000000 
27.495490 7.089972 0.000000 
14.947903 10.788326 0.000000 
31.269006 3.295371 0.000000 
16.831508 7.176453 0.000000 
2.002247 8.660079 0.000000 
22.313328 8.314112 0.000000 
32.215324 4.534917 0.000000 
13.840654 10.929489 0.000000 
37.799361 4.440712 0.000000 
25.472927 8.524273 0.000000 
15.819484 7.650019 0.000000 
25.499870 10.028487 0.000000 
37.958381 1.537072 0.000000 
10.477937 13.250839 0.000000 
1.857852 6.323491 0.000000 
10.723632 13.220202 0.000000 
24.647209 9.256350 0.000000 
26.539069 5.234176 0.000000 
5.268629 7.720346 0.000000 
8.643244 11.294453 0.000000 
5.379854 12.335708 0.000000 
25.914775 5.640849 0.000000 
4.462206 12.434054 0.000000 
2.444857 8.789339 0.000000 
23.951987 10.977315 0.000000 
1.571473 8.864994 0.000000 
9.630512 1.316701 0.000000 
26.260454 3.424210 0.000000 
11.967464 4.379928 0.000000 
33.562402 3.311386 0.000000 
4.253687 2.149179 0.000000 
19.439276 1.774379 0.000000 
7.368225 5.130316 0.000000 
1.821896 8.876721 0.000000 
23.937069 3.042782 0.000000 
19.515260 3.689265 0.000000 
46.980851 1.591067 0.000000 
37.135557 2.056395 0.000000 
11.016976 12.921896 0.000000 
18.646125 2.657458 0.000000 
15.469741 7.308781 0.000000 
18.785544 3.299400 0.000000 
26.673601 3.432898 0.000000 
23.524029 7.021713 0.000000 
8.152566 11.283896 0.000000 
13.305962 11.530002 0.000000 
41.538965 2.068712 0.000000 
54.831826 2.591327 0.000000 
25.326173 9.050348 0.000000 
41.774841 2.081681 0.000000 
19.676602 10.631211 0.000000 
19.449942 3.292187 0.000000 
6.840811 5.420598 0.000000 
2.528982 5.928669 0.000000 
19.115311 3.626810 0.000000 
22.683340 2.942627 0.000000 
27.704480 7.430810 0.000000 
11.005358 11.143444 0.000000 
41.922216 3.277672 0.000000 
10.036568 2.445404 0.000000 
26.109120 10.714965 0.000000 
41.152650 2.218431 0.000000 
4.661572 2.118513 0.000000 
30.340146 0.830299 0.000000 
21.931736 1.913541 0.000000 
38.626066 3.283802 0.000000 
39.022466 3.283540 0.000000 
20.521904 1.218051 0.000000 
33.421782 5.085760 0.000000 
42.057913 2.378675 0.000000 
7.481185 10.312562 0.000000 
23.682190 5.057540 0.000000 
28.078956 5.760703 0.000000 
17.659006 11.723147 0.000000 
19.369395 1.566660 0.000000 
4.079326 12.974033 0.000000 
8.112524 9.524362 0.000000 
25.893708 0.993667 0.000000 
12.978481 6.976840 0.000000 
30.553167 3.254151 0.000000 
1.636135 10.043374 0.000000 
16.978843 11.016946 0.000000 
23.671174 8.036908 0.000000 
26.088211 3.573859 0.000000 
8.675129 10.896175 0.000000 
28.289181 5.658210 0.000000 
22.326043 13.195435 0.000000 
20.069080 14.343767 0.000000 
5.208550 10.214601 0.000000 
32.355554 2.060414 0.000000 
56.471883 3.523700 0.000000 
2.078451 6.337452 0.000000 
25.509746 8.278259 0.000000 
5.929337 5.633226 0.000000 
26.547016 1.331685 0.000000 
3.675261 12.848240 0.000000 
26.805881 6.899949 0.000000 
2.797218 1.517978 0.000000 
28.822693 7.367191 0.000000 
20.862785 8.270020 0.000000 
32.985967 2.342790 0.000000 
1.364161 8.430990 0.000000 
23.213594 8.329336 0.000000 
2.904635 10.481844 0.000000 
25.657792 9.212395 0.000000 
43.588918 3.660279 0.000000 
21.966149 10.479098 0.000000 
4.067465 1.953738 0.000000 
37.166213 2.309546 0.000000 
38.281985 3.446603 0.000000 
15.602054 6.648486 0.000000 
36.738864 3.089450 0.000000 
6.497645 5.945148 0.000000 
5.940629 6.267241 0.000000 
6.738677 7.205974 0.000000 
32.271072 3.869636 0.000000 
37.329596 3.972392 0.000000 
32.808454 2.800140 0.000000 
2.785840 4.930644 0.000000 
38.414053 3.257703 0.000000 
7.663726 6.697865 0.000000 
16.558640 7.138938 0.000000 
6.038054 7.244039 0.000000 
22.643568 8.036969 0.000000 
1.819362 4.813172 0.000000 
2.248219 4.293289 0.000000 
32.689875 4.521250 0.000000 
37.610903 1.988856 0.000000 
15.871250 7.391808 0.000000 
36.802122 3.957261 0.000000 
1.722066 5.326660 0.000000 
23.156722 7.224941 0.000000 
53.236030 3.212439 0.000000 
26.745383 5.386632 0.000000 
16.906675 4.361365 0.000000 
5.622209 6.646091 0.000000 
27.237226 5.591573 0.000000 
2.892773 4.162460 0.000000 
5.793261 7.260968 0.000000 
2.476581 4.149624 0.000000 
2.038024 4.437633 0.000000 
15.624261 4.571573 0.000000 
22.936768 2.905498 0.000000 
33.340269 3.411040 0.000000 
54.045486 3.088536 0.000000 
28.154655 6.695711 0.000000 
41.829301 2.494212 0.000000 
33.161474 4.462804 0.000000 
7.589110 6.101166 0.000000 
22.799798 2.691538 0.000000 
22.400138 8.082572 0.000000 
41.828128 2.722485 0.000000 
26.615138 5.806130 0.000000 
23.672457 3.008049 0.000000 
32.360330 2.560181 0.000000 
7.415650 7.028299 0.000000 
54.490528 2.756411 0.000000 
20.948261 8.031161 0.000000 
17.968356 11.504674 0.000000 
21.419529 7.620387 0.000000 
23.273714 3.189627 0.000000 
41.637210 2.319327 0.000000 
53.355242 2.787104 0.000000 
18.460758 11.366148 0.000000 
14.077929 11.075430 0.000000 
23.398724 7.224805 0.000000 
16.481283 3.970820 0.000000 
17.277409 5.530047 0.000000 
37.988916 3.828899 0.000000 
36.571815 2.484863 0.000000 
14.438174 11.576634 0.000000 
15.308214 6.228561 0.000000 
3.993224 12.780389 0.000000 
15.737302 4.181472 0.000000 
12.194636 4.925370 0.000000 
54.229420 2.476761 0.000000 
12.057136 5.157367 0.000000 
2.040825 6.126717 0.000000 
32.457178 4.399575 0.000000 
38.495999 2.813970 0.000000 
2.627930 5.303831 0.000000 
31.736317 2.872113 0.000000 
15.381111 5.988384 0.000000 
19.133479 3.422384 0.000000 
38.574958 3.068522 0.000000 
14.750123 10.949703 0.000000 
4.630239 12.640730 0.000000 
28.151562 6.955719 0.000000 
27.884373 5.907251 0.000000 
17.532948 6.524073 0.000000 
2.397179 5.730489 0.000000 
8.119514 10.842264 0.000000 
13.538845 11.535849 0.000000 
7.709272 10.250689 0.000000 
18.395006 10.875659 0.000000 
8.084833 6.995672 0.000000 
32.104131 2.448268 0.000000 
32.987315 4.901948 0.000000 
17.289777 6.653677 0.000000 
6.046181 5.841227 0.000000 
5.259737 12.535529 0.000000 
38.499348 2.290856 0.000000 
6.996794 5.589466 0.000000 
27.101524 6.496521 0.000000 
27.748543 7.188728 0.000000 
16.015821 3.901252 0.000000 
38.113497 1.725427 0.000000 
11.792886 5.095737 0.000000 
1.617458 6.214199 0.000000 
31.849025 3.661390 0.000000 
21.001581 7.769812 0.000000 
19.337736 3.492978 0.000000 
33.298395 4.227837 0.000000 
31.515057 3.301422 0.000000 
4.809362 12.824542 0.000000 
13.410729 12.102405 0.000000 
26.914290 1.513016 0.000000 
17.662057 11.060486 0.000000 
23.023205 2.197031 0.000000 
27.425964 6.851406 0.000000 
33.583966 3.043884 0.000000 
23.428167 2.312280 0.000000 
21.630897 8.132824 0.000000 
17.127777 5.058077 0.000000 
53.820475 3.480574 0.000000 
41.352728 3.268836 0.000000 
7.137377 7.356104 0.000000 
4.993986 7.072958 0.000000 
53.853593 2.425356 0.000000 
26.783757 6.026990 0.000000 
23.587822 2.777697 0.000000 
23.609789 7.836404 0.000000 
3.949191 12.309057 0.000000 
26.964253 5.296290 0.000000 
5.157337 7.299847 0.000000 
28.509500 7.177618 0.000000 
37.692395 4.219454 0.000000 
18.885279 11.003856 0.000000 
41.098266 2.847153 0.000000 
27.462213 5.704779 0.000000 
1.542717 5.719005 0.000000 
26.079479 1.187102 0.000000 
6.415486 7.470135 0.000000 
13.183772 11.979777 0.000000 
2.445509 6.130234 0.000000 
22.083990 7.174441 0.000000 
14.702501 11.626384 0.000000 
36.440119 3.415657 0.000000 
18.893116 2.670565 0.000000 
7.970532 9.684472 0.000000 
17.902821 6.136066 0.000000 
25.816692 5.873804 0.000000 
17.242143 11.294694 0.000000 
16.353632 3.602321 0.000000 
22.808052 6.972451 0.000000 
19.034625 2.051495 0.000000 
53.376310 3.954517 0.000000 
23.139932 1.722812 0.000000 
8.509592 11.103624 0.000000 
12.445948 5.216153 0.000000 
20.580983 7.902117 0.000000 
7.465526 5.515644 0.000000 
26.937892 6.712966 0.000000 
22.303092 7.003528 0.000000 
14.554618 11.825725 0.000000 
54.470462 3.158990 0.000000 
54.532245 2.250200 0.000000 
3.175323 4.430132 0.000000 
7.911499 10.085900 0.000000 
14.308964 10.757462 0.000000 
18.864477 11.422911 0.000000 
3.447028 12.184656 0.000000 
21.128964 12.308123 0.000000 
2.880930 5.318329 0.000000 
22.251155 2.297218 0.000000 
15.398998 4.944977 0.000000 
16.473344 7.818412 0.000000 
38.241741 3.855359 0.000000 
23.902596 10.770422 0.000000 
23.699904 1.930942 0.000000 
18.095184 10.601353 0.000000 
4.254963 12.555620 0.000000 
13.196991 12.185329 0.000000 
9.569614 1.090888 0.000000 
7.907302 5.541130 0.000000 
1.495153 5.035356 0.000000 
33.492155 3.792163 0.000000 
23.713291 7.417278 0.000000 
23.627613 11.105248 0.000000 
11.208909 5.319385 0.000000 
15.059307 11.280474 0.000000 
28.310787 6.315903 0.000000 
32.064242 4.718342 0.000000 
19.273091 10.845151 0.000000 
2.564344 3.627021 0.000000 
33.123251 5.298194 0.000000 
7.880915 6.392886 0.000000 
36.968393 4.136347 0.000000 
12.367933 4.568917 0.000000 
19.481138 10.559588 0.000000 
2.214772 8.789965 0.000000 
19.289971 2.390856 0.000000 
24.563024 9.447816 0.000000 
25.453093 9.819078 0.000000 
17.667924 6.896756 0.000000 
23.265626 8.091041 0.000000 
22.511651 13.119697 0.000000 
36.195565 3.732114 0.000000 
24.136590 11.016136 0.000000 
22.203876 2.515540 0.000000 
15.451968 5.560059 0.000000 
32.163820 2.188604 0.000000 
3.330295 4.033089 0.000000 
20.232636 14.203144 0.000000 
18.953764 13.470073 0.000000 
21.353612 8.428693 0.000000 
15.658183 5.632147 0.000000 
17.027628 5.478394 0.000000 
15.615301 5.908246 0.000000 
16.886646 5.001227 0.000000 
38.182260 3.221312 0.000000 
17.047315 6.547818 0.000000 
38.284976 2.643109 0.000000 
33.170337 4.010986 0.000000 
31.989654 2.905647 0.000000 
22.688333 7.163516 0.000000 
23.110661 7.906682 0.000000 
31.949522 3.388618 0.000000 
2.395516 5.286454 0.000000 
27.703495 6.088730 0.000000 
15.628886 4.840929 0.000000 
17.279157 6.409950 0.000000 
22.090507 7.434327 0.000000 
32.660105 4.272075 0.000000 
22.489097 7.866339 0.000000 
27.490222 5.955261 0.000000 
27.188749 6.233758 0.000000 
2.247674 4.558315 0.000000 
23.436568 7.644519 0.000000 
7.127023 5.793217 0.000000 
15.709647 6.890721 0.000000 
2.290926 5.497183 0.000000 
2.460108 4.399356 0.000000 
28.065054 6.308670 0.000000 
41.488375 3.055903 0.000000 
23.275059 7.442173 0.000000 
41.743818 3.129180 0.000000 
22.480161 7.155924 0.000000 
15.557602 6.181378 0.000000 
1.763174 5.815093 0.000000 
33.063894 4.211752 0.000000 
21.756508 7.895015 0.000000 
23.291034 2.511496 0.000000 
27.946558 6.793862 0.000000 
53.826784 2.681141 0.000000 
23.074332 2.666600 0.000000 
16.573747 4.154405 0.000000 
6.728124 5.881093 0.000000 
14.644441 11.386612 0.000000 
14.278607 11.417726 0.000000 
16.382537 7.311085 0.000000 
7.534102 6.311522 0.000000 
37.734928 3.801574 0.000000 
38.026639 1.923703 0.000000 
5.388018 7.212914 0.000000 
5.894368 6.997624 0.000000 
53.584469 3.543588 0.000000 
32.953203 2.958223 0.000000 
14.541951 11.122712 0.000000 
36.692538 3.335398 0.000000 
1.735358 5.062869 0.000000 
7.383361 5.769691 0.000000 
32.432289 4.112269 0.000000 
41.591649 2.604462 0.000000 
36.750243 2.831774 0.000000 
38.347032 3.041485 0.000000 
37.076104 3.948335 0.000000 
5.477718 6.835674 0.000000 
36.958167 2.451251 0.000000 
41.391075 2.236350 0.000000 
16.689547 6.940432 0.000000 
21.362049 8.178695 0.000000 
18.707307 11.230028 0.000000 
2.919073 4.433927 0.000000 
26.876176 5.795392 0.000000 
12.127363 4.648817 0.000000 
32.930022 4.625845 0.000000 
54.308965 2.962538 0.000000 
17.851086 11.252898 0.000000 
27.346211 6.612492 0.000000 
27.694373 6.904858 0.000000 
6.966288 7.169461 0.000000 
2.260302 5.966762 0.000000 
53.834225 3.224242 0.000000 
17.703606 11.496863 0.000000 
6.260740 6.004077 0.000000 
6.516992 7.251105 0.000000 
5.797395 6.468156 0.000000 
21.638989 7.463323 0.000000 
54.040924 2.579367 0.000000 
22.890944 2.445889 0.000000 
15.591781 7.089104 0.000000 
23.430664 2.989550 0.000000 
8.266537 11.084256 0.000000 
32.105442 3.638423 0.000000 
18.887410 3.073904 0.000000 
18.464075 11.119381 0.000000 
13.753737 11.595955 0.000000 
15.952993 4.157221 0.000000 
36.569753 3.824528 0.000000 
23.285316 2.093267 0.000000 
2.850609 4.697085 0.000000 
23.531881 3.251289 0.000000 
26.492977 5.536846 0.000000 
32.604968 2.672162 0.000000 
18.221984 11.476211 0.000000 
8.076078 10.561729 0.000000 
2.697428 4.018679 0.000000 
15.208011 6.461463 0.000000 
17.524408 5.586190 0.000000 
18.128912 10.852628 0.000000 
16.042268 7.551819 0.000000 
22.876171 7.966074 0.000000 
33.175009 5.097032 0.000000 
4.023711 12.555994 0.000000 
33.358384 3.159158 0.000000 
16.989718 4.584262 0.000000 
11.952114 4.890792 0.000000 
3.697975 12.252173 0.000000 
4.736387 12.420477 0.000000 
16.806748 4.150413 0.000000 
3.815963 12.698667 0.000000 
37.384937 2.156244 0.000000 
17.622036 11.279275 0.000000 
1.731194 5.569431 0.000000 
12.257648 5.322243 0.000000 
12.272373 5.122323 0.000000 
21.239883 7.756826 0.000000 
28.611939 7.377114 0.000000 
38.137173 3.636377 0.000000 
22.148401 8.105454 0.000000 
41.489469 3.451036 0.000000 
8.041056 5.688178 0.000000 
26.170631 1.433099 0.000000 
54.635299 2.604893 0.000000 
4.761742 7.183334 0.000000 
7.837515 7.093289 0.000000 
23.639280 7.230225 0.000000 
26.334533 1.267838 0.000000 
6.765152 5.637438 0.000000 
1.864934 4.581251 0.000000 
17.668876 6.705185 0.000000 
7.977616 10.316907 0.000000 
13.874779 11.208109 0.000000 
36.545993 2.699339 0.000000 
13.359746 11.893958 0.000000 
4.186691 12.752963 0.000000 
16.282927 3.870911 0.000000 
28.079819 5.960854 0.000000 
41.861268 2.281382 0.000000 
53.276634 2.988579 0.000000 
53.152596 3.961070 0.000000 
17.909949 10.501558 0.000000 
19.245928 3.251874 0.000000 
23.758710 3.407453 0.000000 
28.377828 7.009399 0.000000 
23.055980 3.110441 0.000000 
53.445330 2.596544 0.000000 
31.983095 2.069741 0.000000 
4.846382 12.608546 0.000000 
20.792968 7.901640 0.000000 
11.657671 5.326971 0.000000 
15.576189 4.333621 0.000000 
31.407375 3.112966 0.000000 
32.259152 4.291772 0.000000 
38.458610 2.079127 0.000000 
16.453206 7.558666 0.000000 
2.759226 5.139928 0.000000 
21.096704 8.183734 0.000000 
15.338951 5.405469 0.000000 
7.871720 9.869361 0.000000 
36.963239 2.970929 0.000000 
15.857584 5.832069 0.000000 
37.190831 2.570839 0.000000 
15.846049 6.669916 0.000000 
15.799238 6.106426 0.000000 
6.700508 6.120537 0.000000 
6.585733 7.018173 0.000000 
6.806678 6.985575 0.000000 
15.783587 5.383254 0.000000 
32.361576 3.632711 0.000000 
36.970989 3.259276 0.000000 
32.760176 3.048006 0.000000 
16.463153 6.915027 0.000000 
37.626319 2.256968 0.000000 
37.223369 3.748451 0.000000 
6.076527 6.507662 0.000000 
17.035650 6.301941 0.000000 
16.759121 4.548695 0.000000 
32.230646 3.415224 0.000000 
17.108830 5.709250 0.000000 
15.824233 4.685892 0.000000 
23.004191 7.450480 0.000000 
38.096589 3.000160 0.000000 
22.939163 7.715003 0.000000 
33.148304 3.278534 0.000000 
37.884221 3.605796 0.000000 
2.033090 5.000512 0.000000 
53.517777 2.957678 0.000000 
38.287019 2.192369 0.000000 
2.128894 5.282078 0.000000 
32.385752 2.794364 0.000000 
6.172427 7.030731 0.000000 
22.552497 7.380643 0.000000 
2.594408 4.795544 0.000000 
36.976325 3.742713 0.000000 
16.346860 4.134388 0.000000 
7.373054 6.166852 0.000000 
38.282513 2.412869 0.000000 
16.815261 6.695723 0.000000 
41.377665 2.806597 0.000000 
13.923812 11.458596 0.000000 
31.874945 3.111741 0.000000 
33.301585 3.643610 0.000000 
21.462118 7.904479 0.000000 
15.860837 7.121053 0.000000 
5.877134 6.709175 0.000000 
14.314581 10.978129 0.000000 
27.569373 6.670446 0.000000 
27.455329 6.204539 0.000000 
27.954745 6.533905 0.000000 
21.187255 7.974744 0.000000 
26.977660 5.539297 0.000000 
17.480743 6.257778 0.000000 
27.060049 5.996176 0.000000 
22.008475 7.875970 0.000000 
16.952671 5.242460 0.000000 
16.106083 7.275653 0.000000 
53.787648 2.955681 0.000000 
17.357173 5.760630 0.000000 
21.875359 7.622014 0.000000 
18.067630 11.104864 0.000000 
32.153321 2.700060 0.000000 
23.342537 2.736519 0.000000 
37.830578 1.797128 0.000000 
27.955079 6.118989 0.000000 
15.468396 6.429369 0.000000 
41.570059 3.260378 0.000000 
32.898474 4.387135 0.000000 
5.610038 7.067403 0.000000 
37.585561 3.997465 0.000000 
7.686398 6.463294 0.000000 
23.225932 2.294541 0.000000 
15.635650 5.125501 0.000000 
14.806383 11.199694 0.000000 
23.509414 7.428613 0.000000 
53.357647 3.566296 0.000000 
23.466179 1.909363 0.000000 
22.650237 2.470527 0.000000 
22.927175 7.191155 0.000000 
5.215349 7.091660 0.000000 
33.139953 4.706403 0.000000 
23.774560 3.197796 0.000000 
27.275760 5.838388 0.000000 
7.192781 7.109115 0.000000 
6.917119 5.786404 0.000000 
27.905269 7.008459 0.000000 
6.277485 7.266556 0.000000 
41.625814 3.600037 0.000000 
7.610546 5.887116 0.000000 
54.449746 2.495565 0.000000 
36.728737 2.340206 0.000000 
16.245976 7.480782 0.000000 
7.636356 6.936049 0.000000 
22.303568 7.276434 0.000000 
3.079467 4.263444 0.000000 
14.445998 11.328023 0.000000 
13.939411 11.668164 0.000000 
7.912335 10.710719 0.000000 
53.656411 3.350125 0.000000 
1.809764 6.063828 0.000000 
33.153470 3.029484 0.000000 
5.572392 7.299367 0.000000 
27.318658 6.400319 0.000000 
53.494709 3.748662 0.000000 
18.963520 2.878504 0.000000 
41.253973 2.414618 0.000000 
6.056106 6.072946 0.000000 
13.614110 11.721824 0.000000 
19.022378 3.246516 0.000000 
41.456762 2.425002 0.000000 
36.761853 2.587324 0.000000 
16.901686 6.930725 0.000000 
23.353382 7.859974 0.000000 
16.854968 5.664066 0.000000 
16.713174 5.179572 0.000000 
37.183838 3.077342 0.000000 
16.054057 6.000059 0.000000 
7.322457 6.376136 0.000000 
7.241255 6.869268 0.000000 
6.645142 6.796591 0.000000 
33.073866 3.768789 0.000000 
32.694190 4.018397 0.000000 
37.628605 3.578221 0.000000 
37.932770 3.173447 0.000000 
38.063300 2.294284 0.000000 
38.065896 2.526005 0.000000 
6.964723 6.020269 0.000000 
32.510474 3.409653 0.000000 
16.425624 4.342679 0.000000 
15.907315 5.185361 0.000000 
16.096103 7.006148 0.000000 
1.934175 5.662479 0.000000 
2.272338 5.088821 0.000000 
27.645667 6.297290 0.000000 
17.198351 5.928929 0.000000 
6.185821 6.252801 0.000000 
2.530185 5.045729 0.000000 
2.058492 4.715497 0.000000 
37.104674 3.514258 0.000000 
32.129327 3.150984 0.000000 
22.330406 7.505715 0.000000 
16.816303 6.414676 0.000000 
15.750274 6.399842 0.000000 
36.964993 2.706449 0.000000 
23.180523 7.664588 0.000000 
31.621509 3.079978 0.000000 
22.707913 7.797192 0.000000 
2.002250 5.892282 0.000000 
37.404337 2.427589 0.000000 
22.784080 7.349484 0.000000 
54.048527 2.833133 0.000000 
15.858066 4.411226 0.000000 
41.639473 2.874932 0.000000 
32.581614 2.914424 0.000000 
6.107257 6.796219 0.000000 
6.436730 6.182610 0.000000 
36.612104 3.572933 0.000000 
14.287263 11.196911 0.000000 
53.445521 3.338299 0.000000 
22.139398 7.671596 0.000000 
2.670797 4.537316 0.000000 
53.614421 3.154692 0.000000 
1.911423 5.211046 0.000000 
23.188196 2.922728 0.000000 
18.266059 11.241029 0.000000 
16.819089 4.768091 0.000000 
32.949673 3.170980 0.000000 
17.661110 6.074555 0.000000 
15.899727 5.595898 0.000000 
13.424477 11.714216 0.000000 
16.672678 4.341856 0.000000 
21.633796 7.698762 0.000000 
27.294447 6.047891 0.000000 
27.085177 5.747918 0.000000 
41.369585 2.587249 0.000000 
26.743094 5.612350 0.000000 
53.602848 2.753186 0.000000 
22.249579 7.895905 0.000000 
16.587684 6.749455 0.000000 
7.593592 5.688008 0.000000 
23.098864 2.436139 0.000000 
38.032949 3.409725 0.000000 
6.386399 7.080646 0.000000 
16.151140 4.074912 0.000000 
15.686193 7.279851 0.000000 
5.392163 7.013836 0.000000 
31.728942 3.274807 0.000000 
7.434225 5.976857 0.000000 
5.698637 6.857382 0.000000 
27.775110 6.680006 0.000000 
28.167713 6.483224 0.000000 
38.259319 2.852688 0.000000 
23.266181 1.875952 0.000000 
16.366168 6.677673 0.000000 
37.428454 2.706042 0.000000 
16.578983 4.709472 0.000000 
37.842728 2.917506 0.000000 
16.817083 6.129551 0.000000 
15.997468 6.508037 0.000000 
37.632668 2.521552 0.000000 
6.893747 6.309227 0.000000 
32.585739 3.633210 0.000000 
6.348230 6.423012 0.000000 
16.067834 5.420619 0.000000 
16.065262 4.590883 0.000000 
6.870738 6.771677 0.000000 
16.124987 5.720071 0.000000 
32.738683 3.285781 0.000000 
32.943350 3.388190 0.000000 
32.371635 3.031019 0.000000 
37.368941 3.548121 0.000000 
32.946803 3.979996 0.000000 
37.864733 2.101352 0.000000 
16.772890 5.430547 0.000000 
27.514850 6.446857 0.000000 
2.305860 4.843026 0.000000 
16.953405 5.894056 0.000000 
7.145155 6.197941 0.000000 
37.780279 3.378943 0.000000 
36.858134 3.515137 0.000000 
2.166607 5.720257 0.000000 
16.589130 6.533709 0.000000 
32.525800 3.848423 0.000000 
1.913798 5.424876 0.000000 
7.476833 6.541437 0.000000 
17.425942 6.004073 0.000000 
18.071531 11.312804 0.000000 
27.846893 6.306386 0.000000 
22.538373 7.629823 0.000000 
54.267836 2.690876 0.000000 
15.926255 6.879107 0.000000 
2.689029 4.288657 0.000000 
38.060569 2.764868 0.000000 
16.307364 7.095379 0.000000 
7.231383 5.983271 0.000000 
15.834930 4.945317 0.000000 
36.400853 3.656680 0.000000 
33.289880 3.846306 0.000000 
53.416404 3.134932 0.000000 
7.023872 6.950644 0.000000 
41.850177 2.936394 0.000000 
7.443321 6.773640 0.000000 
14.095789 11.327421 0.000000 
22.348866 7.714448 0.000000 
16.551101 4.507551 0.000000 
53.231181 3.407155 0.000000 
38.113397 2.095653 0.000000 
18.261928 11.035598 0.000000 
16.365546 6.408039 0.000000 
16.053913 4.995013 0.000000 
16.726062 5.867946 0.000000 
16.309211 5.954502 0.000000 
37.687829 3.145889 0.000000 
16.533437 5.361986 0.000000 
16.333869 4.590725 0.000000 
16.327986 5.516030 0.000000 
16.102359 6.740993 0.000000 
7.240382 6.613873 0.000000 
37.861700 2.644385 0.000000 
6.382989 6.851816 0.000000 
32.794211 3.769894 0.000000 
16.158912 4.344847 0.000000 
37.177191 2.815466 0.000000 
37.479192 3.774787 0.000000 
6.757231 6.558327 0.000000 
37.846609 2.383369 0.000000 
32.559652 3.156574 0.000000 
2.456628 4.624227 0.000000 
32.203800 2.915067 0.000000 
17.252923 6.168495 0.000000 
32.853494 4.173007 0.000000 
27.720888 6.486245 0.000000 
16.648437 4.935852 0.000000 
33.126318 3.517580 0.000000 
15.984717 6.259895 0.000000 
36.762682 3.725119 0.000000 
37.255972 3.313484 0.000000 
32.750510 3.508065 0.000000 
2.087050 5.520219 0.000000 
22.753376 7.558131 0.000000 
6.280440 6.640826 0.000000 
16.412425 4.856339 0.000000 
37.432206 3.138035 0.000000 
16.210414 6.193296 0.000000 
16.587511 5.628116 0.000000 
16.566233 6.045005 0.000000 
16.305796 5.280233 0.000000 
6.507106 6.609097 0.000000 
7.118066 6.409151 0.000000 
6.612185 6.362992 0.000000 
16.264867 6.876679 0.000000 
16.357571 5.732004 0.000000 
17.049489 6.084994 0.000000 
32.360809 3.237321 0.000000 
32.936771 3.598285 0.000000 
7.074455 6.751415 0.000000 
37.574863 2.936798 0.000000 
16.200659 6.557263 0.000000 
16.516228 5.845257 0.000000 
16.602157 6.293298 0.000000 
16.119067 5.189243 0.000000 
16.481808 5.105185 0.000000 
37.523701 3.354115 0.000000 
16.197045 4.806945 0.000000 
6.986248 6.565423 0.000000 
16.266300 5.036133 0.000000 
37.665595 2.743817 0.000000 
16.154871 6.380635 0.000000 
15.994061 4.803776 0.000000 
37.359812 2.931872 0.000000 
16.412054 6.184835 0.000000 
50.196967 3.234962 0.000000 
13.337885 9.314702 0.000000 
4.356504 10.547086 0.000000 
3.166808 0.868100 0.000000 
29.165553 1.090492 0.000000 
4.833928 10.819440 0.000000 
47.000397 4.541424 0.000000 
35.012458 5.186235 0.000000 
27.392083 8.732330 0.000000 
14.314450 9.561118 0.000000 
29.426179 2.715863 0.000000 
0.284341 6.896240 0.000000 
49.482104 4.783185 0.000000 
29.831197 7.677513 0.000000 
46.936094 4.234668 0.000000 
52.046003 0.978861 0.000000 
6.459539 12.443237 0.000000 
29.908558 3.068332 0.000000 
45.032929 3.651638 0.000000 
10.812667 2.779258 0.000000 
15.282802 0.420705 0.000000 
8.914246 3.817831 0.000000 
33.031376 5.694286 0.000000 
15.306660 3.899135 0.000000 
12.599507 13.943870 0.000000 

CELLS 22890 91560
3 4180 6569 4845 
3 860 4699 57 
3 6273 8215 9153 
3 3151 1664 857 
3 6879 2061 4791 
3 5582 2845 4762 
3 1555 4146 4226 
3 5550 3154 2825 
3 4889 3986 9521 
3 100 6801 2731 
3 520 4253 1135 
3 2603 2706 5361 
3 9262 11729 10596 
3 11396 11539 11289 
3 5363 7401 7371 
3 6118 8636 7820 
3 6595 1352 3183 
3 8450 6337 9638 
3 3055 7873 5704 
3 7658 6529 3057 
3 3191 2252 3077 
3 2071 2061 6879 
3 2692 5340 8077 
3 754 477 4234 
3 3793 83 879 
3 6278 8124 6102 
3 5452 2750 8176 
3 5967 3826 3158 
3 8179 5977 9179 
3 10556 9258 10393 
3 47 8305 3467 
3 3656 5211 6871 
3 7157 4742 8509 
3 4112 247 8246 
3 8794 8807 7362 
3 6768 8341 9474 
3 10788 10540 9836 
3 3132 6210 8753 
3 3945 2952 1806 
3 10743 10190 5821 
3 8393 8605 6409 
3 3839 6098 6254 
3 5369 2662 2653 
3 4843 9454 2522 
3 6639 1831 4095 
3 3514 7188 38 
3 4117 3087 5947 
3 10465 10006 10469 
3 5272 3349 255 
3 11397 11400 11512 
3 9680 6121 7601 
3 3217 7146 7999 
3 7905 9968 5437 
3 11275 11487 11391 
3 801 583 4784 
3 952 2679 149 
3 5010 3001 6142 
3 467 4004 7307 
3 9409 5553 8752 
3 6102 8130 4843 
3 7202 7912 4468 
3 1193 1754 4022 
3 3971 574 7253 
3 9819 11219 10852 
3 6002 9552 9872 
3 1370 7201 218 
3 3157 1513 4081 
3 3729 2290 3807 
3 7614 5577 5682 
3 5299 2547 2552 
3 3655 7885 6247 
3 1711 3588 3908 
3 8002 9090 5931 
3 4858 6873 4900 
3 9849 9321 10611 
3 6817 4641 4920 
3 1333 4046 4084 
3 1344 3659 3814 
3 9173 4262 7288 
3 9472 5852 3546 
3 9083 8944 10092 
3 1463 3656 1603 
3 1019 6730 1385 
3 4358 4791 2051 
3 9063 3163 5802 
3 6393 4398 6657 
3 1097 7118 8370 
3 6464 1095 4431 
3 5189 3684 7272 
3 3525 3386 5900 
3 7848 10320 9094 
3 3418 753 4590 
3 4891 7179 4659 
3 4776 8247 5051 
3 420 1453 3706 
3 5573 7542 7517 
3 6103 3759 3532 
3 1453 7026 6284 
3 7642 7609 10588 
3 4807 8525 752 
3 2447 2445 3843 
3 8271 7779 4366 
3 1262 1550 4484 
3 1261 1549 3657 
3 9976 8036 9152 
3 9684 4934 6521 
3 1647 2902 3722 
3 8451 581 7101 
3 5551 7825 7499 
3 6078 6038 7316 
3 10605 10974 9955 
3 8655 6366 6350 
3 719 9430 422 
3 5566 2980 2974 
3 9829 11730 10410 
3 4106 6857 9540 
3 8932 10554 9966 
3 8235 7748 10193 
3 2745 1683 1871 
3 9844 11126 10969 
3 881 6637 3316 
3 9850 5486 7955 
3 1860 1657 4817 
3 11246 11236 11113 
3 1771 6777 1211 
3 10804 10820 9820 
3 10631 11350 10448 
3 1278 4655 110 
3 11600 11704 11699 
3 7395 10409 10060 
3 8807 8794 9782 
3 2571 5318 2580 
3 9137 8289 5823 
3 428 8745 1456 
3 4347 7193 4353 
3 1897 1623 3224 
3 6161 9527 3621 
3 9055 6779 9548 
3 7697 5608 5847 
3 2918 5455 2637 
3 1780 1952 3575 
3 5455 7462 10255 
3 865 8408 1672 
3 1665 1917 2641 
3 1394 1030 4870 
3 11033 11392 10883 
3 4861 1899 6768 
3 8646 378 6266 
3 5037 5071 2217 
3 4110 4648 2033 
3 6252 5644 3039 
3 1612 1399 1033 
3 11480 11117 11364 
3 889 2717 8619 
3 11142 11149 11475 
3 5502 2720 7789 
3 5351 7402 9034 
3 1138 5126 1504 
3 7968 7183 4427 
3 3840 6342 6171 
3 4219 6378 6479 
3 3522 7306 9275 
3 1252 4296 85 
3 1874 4856 1802 
3 4203 3699 2251 
3 942 6936 139 
3 5503 2858 2821 
3 9951 8995 7689 
3 936 3907 4148 
3 4222 697 4568 
3 9486 5481 2908 
3 3326 3252 5833 
3 8562 6468 8149 
3 6453 8172 7287 
3 2888 9683 6471 
3 1082 1448 3213 
3 5800 10249 7522 
3 3405 6483 1382 
3 4059 3951 8740 
3 4745 1391 257 
3 3226 5689 2948 
3 11167 10534 9890 
3 1317 3268 149 
3 5008 7232 1315 
3 257 3970 7266 
3 10551 11503 10803 
3 10899 10729 9857 
3 4882 1485 488 
3 5271 490 4257 
3 565 1156 5229 
3 3892 3773 6243 
3 6875 2105 9417 
3 949 4285 1715 
3 8332 2808 2818 
3 8066 2653 2708 
3 9952 10474 10899 
3 1426 1828 344 
3 7535 8970 10129 
3 950 795 1573 
3 1971 1951 9312 
3 9891 9105 7941 
3 5636 6067 9733 
3 11232 11609 11509 
3 7775 9676 3294 
3 4692 1655 4067 
3 9404 10459 7447 
3 6442 3972 8440 
3 4721 2804 1280 
3 11629 11686 11526 
3 10753 10351 11394 
3 11626 11526 11652 
3 9893 10408 9243 
3 7777 7119 2853 
3 7405 8834 7420 
3 8484 4581 4026 
3 8947 7974 5483 
3 821 5156 18 
3 9861 8828 7389 
3 9652 8237 6181 
3 10722 9967 7769 
3 4746 8497 1512 
3 6783 1540 3104 
3 5955 5978 9394 
3 1269 1809 3735 
3 11571 11048 11328 
3 11437 11096 11541 
3 1401 3086 292 
3 4118 4855 6368 
3 7348 7386 5308 
3 625 4670 4306 
3 10535 10762 11103 
3 64 2891 3431 
3 10794 11146 11508 
3 10020 10864 10399 
3 8044 10034 10227 
3 9058 8147 9244 
3 6598 4409 310 
3 3296 1713 1885 
3 645 7312 4961 
3 10071 9564 10111 
3 5664 10212 9239 
3 68 1236 2879 
3 9127 10283 7527 
3 295 3196 7184 
3 4487 8716 4798 
3 7912 7202 3490 
3 1237 7134 2604 
3 7357 7373 8801 
3 776 6992 528 
3 3396 7900 5522 
3 7732 3711 7259 
3 9007 10027 11000 
3 628 4162 5198 
3 3724 7702 7259 
3 1677 4798 1792 
3 7162 4411 4660 
3 4463 1502 5119 
3 627 4068 268 
3 9238 7909 4156 
3 6863 260 9489 
3 262 622 3711 
3 2204 2194 2929 
3 9399 7991 5863 
3 8471 6892 1073 
3 3291 8005 6585 
3 9160 7406 10655 
3 3030 365 1436 
3 3285 6633 874 
3 9039 9156 10257 
3 2595 5320 2564 
3 10633 10064 7903 
3 5303 2563 2543 
3 8395 2763 1198 
3 4134 1754 1193 
3 4583 443 735 
3 3062 2815 5454 
3 9114 7520 8994 
3 10284 7794 10740 
3 3160 5682 3047 
3 4793 2053 2041 
3 783 538 5200 
3 1704 5083 1882 
3 3081 119 1287 
3 5698 5980 3279 
3 2005 4678 8346 
3 10182 10707 9067 
3 4844 2143 4593 
3 6812 682 368 
3 4898 180 983 
3 4331 6311 4261 
3 8364 7154 8325 
3 300 649 4946 
3 9173 10699 7604 
3 329 7944 661 
3 2655 2833 1703 
3 1289 6441 2897 
3 2833 4738 922 
3 9114 7866 7520 
3 324 3235 6552 
3 5447 3400 8072 
3 9606 3857 7739 
3 11654 11592 11628 
3 9363 8242 6658 
3 1827 3736 1299 
3 1723 960 7015 
3 1552 8038 9220 
3 4626 2451 4371 
3 6341 5776 7976 
3 7350 5328 5292 
3 10561 10075 10843 
3 1576 962 5186 
3 1726 6851 8660 
3 9319 7519 2718 
3 7618 10172 10284 
3 1821 2554 1954 
3 5776 2965 5489 
3 1201 2540 1761 
3 7242 5046 9371 
3 6026 3308 5889 
3 6949 9279 7482 
3 897 3614 1692 
3 5293 2569 2540 
3 5719 408 9456 
3 3874 9331 6600 
3 8828 7398 7389 
3 3212 3582 5926 
3 9742 8631 6539 
3 9123 10927 9862 
3 11539 11398 11293 
3 4616 4423 7194 
3 5542 2778 3273 
3 4395 1339 7152 
3 7854 5639 9300 
3 1698 4625 9529 
3 9194 8647 5861 
3 7898 7739 7250 
3 2362 4811 4056 
3 3000 6683 9217 
3 7723 7021 3632 
3 118 4262 1286 
3 6618 1337 8669 
3 5130 8060 4389 
3 3174 984 1350 
3 4696 4716 4677 
3 8377 7977 7681 
3 4965 2126 4652 
3 611 5264 3206 
3 1476 5171 3828 
3 5011 4372 7286 
3 8940 10941 11198 
3 4763 2357 4344 
3 663 2508 4573 
3 4169 5014 1109 
3 6322 5762 3731 
3 3515 8391 6884 
3 4449 1730 1927 
3 1604 6871 1098 
3 4542 9405 6580 
3 4358 2051 2038 
3 6077 3288 3771 
3 8251 4985 9700 
3 3692 4570 8670 
3 3253 1224 3401 
3 8166 8958 5629 
3 8283 7603 4049 
3 8288 4101 7153 
3 8197 4250 7144 
3 7798 5766 9027 
3 6529 5782 4944 
3 7934 8999 10225 
3 9347 8422 6163 
3 245 1385 2958 
3 11022 10165 8922 
3 3036 243 1018 
3 6246 480 4477 
3 611 7075 9149 
3 3515 1385 4944 
3 3186 192 589 
3 2632 1932 1738 
3 10555 7670 10733 
3 6081 10632 8622 
3 3529 5601 2932 
3 5611 7863 7538 
3 3134 3987 6001 
3 10669 5824 10226 
3 9707 5619 7593 
3 4532 990 1356 
3 3463 5754 6035 
3 9523 8592 6489 
3 9631 3399 5116 
3 4065 8025 7271 
3 3815 598 3155 
3 422 3347 719 
3 7628 7534 3099 
3 7648 7628 9256 
3 10488 8940 7509 
3 2268 2260 3341 
3 7782 7621 10008 
3 610 3785 4971 
3 988 4065 197 
3 8418 193 7331 
3 9709 8105 6322 
3 10670 10008 8987 
3 405 7125 1450 
3 7534 10156 9080 
3 3635 2443 3605 
3 5004 4763 6720 
3 2355 2350 4426 
3 1358 4343 201 
3 3567 7315 9616 
3 4763 2359 2357 
3 200 5137 5004 
3 7257 5137 2361 
3 4653 8148 4974 
3 1358 6720 4343 
3 4524 5137 200 
3 3347 5097 719 
3 594 992 6719 
3 6325 9439 8161 
3 6137 8146 9069 
3 9517 3980 8409 
3 8083 6015 9686 
3 8193 8313 6175 
3 6049 8138 6316 
3 9066 6832 10618 
3 8617 6031 6009 
3 579 2409 798 
3 11473 10903 10433 
3 2872 1549 6949 
3 10515 9856 9025 
3 4106 9540 6755 
3 7639 10326 9501 
3 9384 8313 6232 
3 705 11727 403 
3 9615 8212 4313 
3 2514 4272 404 
3 5173 1857 4893 
3 418 718 4430 
3 8348 4272 3766 
3 9510 3766 403 
3 8271 4668 9533 
3 9455 6247 8245 
3 7888 7175 7779 
3 79 882 5205 
3 8758 880 4722 
3 7074 8006 9647 
3 3215 3703 1244 
3 11163 10804 10863 
3 11500 11163 10815 
3 8829 10595 10450 
3 7640 7469 8881 
3 10956 10400 11504 
3 5381 7376 5310 
3 6421 8271 4446 
3 79 5205 1247 
3 8850 8867 8141 
3 3638 7186 9501 
3 4718 1647 836 
3 7300 5722 7748 
3 2668 2577 35 
3 417 2980 3419 
3 4430 6284 9686 
3 7041 406 4495 
3 7740 9969 6124 
3 5084 207 600 
3 9069 9992 5779 
3 5936 5967 3158 
3 3233 1088 8161 
3 3770 6035 6161 
3 107 7193 1275 
3 6624 5230 1089 
3 9527 6083 7867 
3 722 425 36 
3 9370 9988 7528 
3 10685 9232 10065 
3 9470 7528 9988 
3 8816 10025 7371 
3 10393 10193 8925 
3 8888 7487 9988 
3 10544 8973 7512 
3 8955 10065 11730 
3 4002 8508 4405 
3 11372 11431 11081 
3 11602 11599 11564 
3 1911 1648 1872 
3 11566 11640 11413 
3 1648 2598 2557 
3 11345 11049 10554 
3 1872 1799 6846 
3 2551 8122 2552 
3 6846 8092 9372 
3 10863 9840 11163 
3 5485 7838 3793 
3 1492 8330 4743 
3 9691 8387 6183 
3 3902 885 1686 
3 7383 10869 9793 
3 7948 7038 2798 
3 507 6980 1491 
3 6635 97 1265 
3 6621 1150 4581 
3 8330 6391 6635 
3 2949 3902 1686 
3 3667 884 81 
3 4771 6903 8328 
3 1800 2866 1685 
3 5946 3411 3702 
3 5329 2583 2590 
3 11682 11696 11599 
3 2547 1860 2552 
3 3902 5218 885 
3 6047 3627 9281 
3 8681 5181 3978 
3 475 748 4923 
3 5066 1686 885 
3 901 98 3603 
3 6228 10343 9493 
3 3978 6820 8681 
3 10456 10766 11160 
3 8294 7177 4530 
3 4837 470 747 
3 5223 3690 6573 
3 4131 787 7129 
3 552 4833 786 
3 11538 11670 11400 
3 11271 11431 11524 
3 11525 11404 11599 
3 11701 11677 11699 
3 11631 11416 11245 
3 11657 11323 11547 
3 5069 6878 1544 
3 9233 10078 6795 
3 11263 11097 11086 
3 10914 10560 8845 
3 11631 11245 11468 
3 9926 7367 8805 
3 5428 10727 9882 
3 3514 1206 3821 
3 8132 6189 7512 
3 4674 4624 1947 
3 2977 5493 6189 
3 5287 5286 2531 
3 3385 3443 7956 
3 726 430 3202 
3 7486 9272 5822 
3 1090 4742 7157 
3 8365 2769 4494 
3 9951 10832 10897 
3 9864 7404 8806 
3 5462 8728 2862 
3 7440 7362 8807 
3 7022 8356 7176 
3 2632 7831 7034 
3 912 4850 109 
3 3962 6267 4392 
3 2762 7034 7831 
3 4474 3861 811 
3 6813 8067 3202 
3 4890 8592 6653 
3 1176 6392 1737 
3 4353 1697 6662 
3 9937 7593 10974 
3 4612 8509 6359 
3 3590 4397 910 
3 909 3841 3363 
3 5766 3151 3236 
3 3683 1780 1224 
3 7693 6694 9164 
3 11364 11117 10967 
3 6443 8216 9207 
3 1178 4014 3543 
3 4227 8201 6208 
3 7215 3529 248 
3 6401 3527 9678 
3 3224 5611 2923 
3 10406 10895 11490 
3 11298 11627 11556 
3 1917 1952 2637 
3 858 1665 2579 
3 9526 5435 9854 
3 5766 10294 9027 
3 10778 11055 11040 
3 5189 857 3684 
3 3710 2087 4398 
3 9377 10173 2177 
3 1226 6682 3763 
3 5592 9318 2824 
3 11365 10364 11039 
3 4699 6681 7735 
3 11326 11429 11033 
3 11349 11527 11619 
3 7891 3246 5401 
3 5143 6091 3429 
3 11527 11674 11619 
3 10593 10616 11200 
3 11429 11611 11532 
3 11425 11558 11619 
3 63 4470 858 
3 11425 11619 11674 
3 11095 10756 10397 
3 8459 9579 1585 
3 1787 1231 2571 
3 11053 11280 11464 
3 2147 6845 5106 
3 11349 11045 10759 
3 10919 10467 10948 
3 11155 10788 11264 
3 11616 11256 11674 
3 6833 4878 6584 
3 5071 6551 2207 
3 4147 7729 9459 
3 7355 8797 7354 
3 4410 3699 8339 
3 212 998 6663 
3 5343 9914 8871 
3 1918 2533 2727 
3 8053 4269 6479 
3 5502 8949 7689 
3 5502 6285 3090 
3 3501 1582 994 
3 7704 7422 8820 
3 996 210 7296 
3 9260 10217 10432 
3 1230 1786 4986 
3 9834 10800 11199 
3 8361 84 6583 
3 2663 5450 5351 
3 10898 11204 9835 
3 8599 4107 9466 
3 6320 6374 8698 
3 6749 3178 1774 
3 7236 4529 8516 
3 8494 5770 9143 
3 4713 4887 7236 
3 8494 3390 5770 
3 851 6591 4720 
3 7554 9645 3961 
3 11101 11129 11384 
3 11497 10368 11053 
3 4941 6501 6808 
3 8361 1744 6501 
3 11157 11482 10357 
3 384 4461 692 
3 2599 2627 1743 
3 5569 8078 2803 
3 6022 3597 3369 
3 9096 6559 8078 
3 10036 10564 10985 
3 1013 4303 4486 
3 11085 11273 11491 
3 232 7128 4963 
3 7128 4710 4908 
3 636 276 4384 
3 1690 3085 6524 
3 888 1546 3375 
3 11183 11395 10807 
3 5175 88 891 
3 9874 7703 9096 
3 3689 684 377 
3 7019 692 4694 
3 3194 3963 5898 
3 384 9495 8270 
3 7325 9582 11709 
3 7895 9276 7684 
3 8043 6022 9446 
3 694 8597 5144 
3 378 4407 686 
3 4294 4297 6667 
3 215 1366 4727 
3 4943 1866 4962 
3 6039 3745 3698 
3 4036 11718 8339 
3 7446 9236 10523 
3 10583 282 6502 
3 3607 5518 2834 
3 9298 6797 7568 
3 2112 4290 2122 
3 6075 6139 3578 
3 4063 6144 3698 
3 4557 8228 4293 
3 281 3540 1395 
3 6905 8381 11709 
3 6403 9561 8094 
3 9004 7537 10022 
3 8314 4290 9539 
3 5712 3810 8575 
3 6577 7728 7861 
3 4213 4300 2082 
3 1031 3905 1397 
3 6684 4297 8637 
3 7578 5565 7584 
3 4873 6139 6862 
3 5390 9117 9425 
3 9145 7778 9275 
3 6003 8668 8375 
3 8017 9403 9187 
3 8254 8668 6005 
3 135 3205 7306 
3 3116 5699 3225 
3 5962 7778 5864 
3 3943 3633 2220 
3 3522 5973 3376 
3 9425 7688 6459 
3 8489 8530 5954 
3 1301 6938 3810 
3 3079 940 137 
3 3368 3121 2200 
3 1305 939 3591 
3 3805 4194 699 
3 8398 9613 4568 
3 1080 3133 392 
3 3085 2790 5524 
3 3407 3496 2150 
3 4072 6414 6342 
3 256 7057 617 
3 3970 1391 3956 
3 6342 4264 9322 
3 8080 10197 6688 
3 1025 2877 4166 
3 7057 4739 617 
3 3979 6688 7960 
3 257 7266 3448 
3 1391 2877 1025 
3 9098 10033 5727 
3 1081 11723 5103 
3 5977 3299 3838 
3 254 3426 7216 
3 395 4152 1448 
3 1601 6969 1446 
3 1255 4139 87 
3 393 11723 1081 
3 10564 7426 10430 
3 10833 10999 9847 
3 9102 9692 8157 
3 5436 7426 5427 
3 11331 11367 10810 
3 8079 3085 5524 
3 9971 7437 9048 
3 5431 2721 7938 
3 9053 10113 10643 
3 3730 1688 3754 
3 9108 8179 10039 
3 8629 5195 6283 
3 11100 10916 10409 
3 5246 4140 1220 
3 2711 852 1537 
3 7400 5407 5377 
3 8928 10085 5846 
3 9473 8037 6775 
3 8004 9155 9973 
3 6385 6379 8304 
3 7416 5407 7400 
3 498 5239 764 
3 2849 5482 2766 
3 4467 6782 11731 
3 1219 6608 2849 
3 2700 5407 5442 
3 8304 6698 4643 
3 4851 8407 6528 
3 488 6864 4799 
3 4657 4298 9518 
3 4638 249 1388 
3 5997 7860 8539 
3 6414 7198 4264 
3 560 1522 7007 
3 1119 5255 493 
3 760 5185 5088 
3 2145 3592 2155 
3 4927 5239 765 
3 4310 6379 4197 
3 4927 761 5088 
3 7463 7417 5540 
3 1320 5024 5045 
3 7463 5540 6455 
3 460 7199 5125 
3 4597 8276 6298 
3 10569 8916 10988 
3 1599 4663 6829 
3 9507 6280 458 
3 494 5088 761 
3 7263 152 5045 
3 7525 7450 5548 
3 3827 4 7231 
3 5736 347 2786 
3 7914 3827 7231 
3 11309 10799 10569 
3 6828 7493 2786 
3 9469 4517 4485 
3 1064 8696 347 
3 11109 11321 10802 
3 7510 10637 10129 
3 5514 2662 5369 
3 7504 9851 9134 
3 9913 9313 9141 
3 5386 7428 5475 
3 1717 4765 1832 
3 8204 5538 3242 
3 9710 5475 9226 
3 7096 1318 150 
3 10085 10043 7572 
3 7572 9596 10085 
3 5371 7388 9184 
3 10162 7407 9680 
3 5533 2861 2955 
3 2955 2861 946 
3 6876 9412 8059 
3 1727 1842 6664 
3 7814 8750 9656 
3 5226 343 1060 
3 7785 5562 2905 
3 8209 4283 6290 
3 575 5047 1316 
3 3680 4534 1529 
3 22 5075 1190 
3 5562 2968 2905 
3 3435 1716 952 
3 8787 10918 9925 
3 9934 10532 8837 
3 8763 6142 9010 
3 5371 5364 7388 
3 10829 10594 10534 
3 9870 7434 8852 
3 149 2642 1317 
3 1535 847 151 
3 11205 10840 10443 
3 47 9566 8305 
3 9509 8948 5419 
3 1016 1382 6483 
3 3187 1219 3350 
3 10060 5537 5400 
3 7445 5399 5538 
3 9717 7969 6475 
3 7694 10332 9316 
3 8402 3792 4278 
3 9502 8587 6131 
3 358 3438 680 
3 3117 3178 5715 
3 3359 3467 5918 
3 9509 5419 2765 
3 1886 7063 3176 
3 8979 8464 5999 
3 7709 5935 5700 
3 11580 11316 10955 
3 3387 5819 3269 
3 9242 10148 5912 
3 4826 6844 8402 
3 608 274 239 
3 8710 6281 276 
3 7017 632 5133 
3 9133 7564 5567 
3 8189 8971 5767 
3 10590 10993 9910 
3 10610 7964 9896 
3 38 7188 3040 
3 11025 11538 11461 
3 6256 8535 6853 
3 8784 9765 10549 
3 11275 11452 11487 
3 2869 1949 6604 
3 9819 10852 10356 
3 2793 9312 7682 
3 6984 472 5219 
3 10577 10028 7611 
3 8130 8124 3922 
3 9332 7852 10262 
3 8130 5149 9454 
3 3971 1531 574 
3 7777 9101 5311 
3 9725 7751 7785 
3 11337 11419 11542 
3 577 4180 7150 
3 6544 473 4271 
3 4304 10312 9493 
3 10825 11125 11352 
3 11074 11439 11567 
3 8073 6323 4071 
3 5372 7941 2633 
3 2640 1266 7234 
3 900 3339 97 
3 3009 5647 8260 
3 3152 8230 5886 
3 7819 10986 5820 
3 4609 4603 6754 
3 1267 4535 7117 
3 7368 10120 5329 
3 8259 7939 5942 
3 11568 11250 11478 
3 5920 7939 5706 
3 5831 9339 6119 
3 10256 9197 7630 
3 3290 6040 3735 
3 3735 6181 3733 
3 10510 9339 7733 
3 9996 7932 10706 
3 10622 7380 5387 
3 3818 1147 1611 
3 6511 1243 1543 
3 7993 6368 4027 
3 3157 3818 1611 
3 3402 6019 3825 
3 545 7252 4081 
3 8624 3489 5883 
3 1148 4119 7252 
3 7000 5618 3471 
3 3825 6019 6506 
3 6473 3629 7282 
3 11148 10817 10402 
3 7032 5074 409 
3 877 1543 2638 
3 8052 6506 6019 
3 5303 7346 7351 
3 9956 7411 8826 
3 9690 8035 9944 
3 11154 10762 9790 
3 10128 7386 8799 
3 1679 3470 876 
3 11667 11610 11443 
3 2665 72 875 
3 72 4808 7098 
3 9406 9471 5883 
3 8919 9985 11353 
3 6227 3696 411 
3 7796 9588 10247 
3 10884 11380 10431 
3 1239 11720 71 
3 9015 7551 10079 
3 7059 624 625 
3 1790 2962 1236 
3 3997 1849 1632 
3 7927 9989 9675 
3 11443 11304 11134 
3 10423 11166 9042 
3 2680 1848 1745 
3 9831 8861 10462 
3 7223 65 3800 
3 10139 8946 10042 
3 1673 868 3324 
3 6002 4177 3070 
3 820 17 3476 
3 9101 7777 10330 
3 10120 9221 8261 
3 8081 6602 2678 
3 3791 3509 6197 
3 5156 1186 18 
3 3239 1790 1675 
3 1745 2936 6650 
3 9028 7558 9058 
3 2878 1848 2680 
3 2860 5494 5526 
3 9079 7587 10104 
3 7672 6415 9443 
3 1868 1791 2541 
3 7558 8147 9058 
3 1848 1630 2860 
3 7461 10531 8880 
3 7459 10609 9166 
3 7511 10124 10106 
3 10848 11038 11065 
3 7777 5625 10330 
3 2878 1630 1848 
3 5494 2860 2826 
3 6457 5676 5085 
3 4456 6869 9572 
3 9301 10124 7511 
3 7617 10118 9575 
3 10662 9011 11021 
3 5539 3372 2930 
3 5850 4828 3080 
3 8007 5923 5940 
3 4324 342 1059 
3 5893 4757 4468 
3 3452 3148 2266 
3 3705 1057 341 
3 6810 7511 9367 
3 10134 8960 10584 
3 9030 10283 9127 
3 5616 5617 7527 
3 10283 9883 7527 
3 1401 1035 2791 
3 8137 6574 9330 
3 5664 8137 9050 
3 6107 6213 3858 
3 1401 3747 6700 
3 7752 10695 7582 
3 10493 9883 10651 
3 295 7184 3797 
3 295 645 3196 
3 529 8384 6758 
3 8774 4448 6467 
3 6505 524 8436 
3 5119 4009 6564 
3 7070 527 5042 
3 8774 5135 4448 
3 4772 2335 4660 
3 4715 6626 7857 
3 7070 5042 8472 
3 6534 8614 4381 
3 4318 627 5198 
3 6626 4068 7857 
3 293 3100 7324 
3 6415 2879 9443 
3 5860 9268 7736 
3 9722 9908 7583 
3 10728 11019 8879 
3 9136 9950 11007 
3 1791 2604 2541 
3 69 289 5114 
3 7451 7386 10128 
3 8106 7134 3137 
3 1541 1239 3396 
3 525 1136 7058 
3 5111 71 11720 
3 4670 6370 4306 
3 10140 8863 10482 
3 5891 8249 3845 
3 2963 1909 1944 
3 1534 833 8473 
3 5378 5505 7421 
3 4902 7139 9462 
3 11714 1072 1438 
3 2760 5505 5378 
3 10111 9718 5865 
3 6614 4452 8766 
3 1078 8610 375 
3 1440 372 7130 
3 8337 3555 6785 
3 1457 1091 6729 
3 3741 2164 4309 
3 683 371 6785 
3 714 1757 415 
3 438 4317 731 
3 620 4792 261 
3 1909 435 5248 
3 4823 4957 4866 
3 4715 4866 6626 
3 7548 9588 10633 
3 6065 9402 6069 
3 10261 6093 3240 
3 8491 6461 9388 
3 3886 5102 6461 
3 6772 3984 1854 
3 1644 3142 6772 
3 7903 9745 6729 
3 7559 9060 7556 
3 1443 7051 375 
3 6260 8568 6191 
3 11044 11212 11291 
3 1077 6587 1443 
3 4543 4832 8699 
3 2134 6824 4968 
3 6336 4321 3700 
3 2261 2253 5077 
3 6216 6520 3964 
3 1819 8513 1291 
3 11713 1104 4031 
3 3199 368 1066 
3 6572 5083 2163 
3 5932 3287 5717 
3 9342 3814 6198 
3 6013 6271 9447 
3 3588 932 4559 
3 1439 11714 1600 
3 5337 8242 9259 
3 2657 932 1711 
3 8290 9728 4301 
3 3409 5140 6872 
3 9522 9957 8049 
3 2223 924 2233 
3 4096 3817 6187 
3 9340 9987 10726 
3 122 2193 925 
3 8191 10658 10116 
3 5610 7668 3030 
3 6446 4202 8423 
3 1066 4012 3228 
3 3964 1977 1894 
3 5555 7520 5717 
3 4480 2047 2058 
3 4604 1605 1106 
3 5633 6253 3021 
3 6133 9342 6151 
3 4723 7113 7982 
3 1108 1474 6470 
3 4937 737 5187 
3 5316 2652 2529 
3 4479 4848 6541 
3 5919 6238 8648 
3 11124 10750 11319 
3 5302 2544 2564 
3 1444 1078 5148 
3 7139 1645 4886 
3 4774 1199 6640 
3 1646 3847 835 
3 10563 10923 11151 
3 933 3410 5140 
3 11435 11288 11570 
3 6238 8019 3940 
3 6851 1726 964 
3 3876 3868 160 
3 7866 10305 5932 
3 5571 9590 3270 
3 1328 3876 160 
3 2534 2529 1989 
3 7873 7872 9114 
3 3052 6634 10147 
3 834 4886 1645 
3 10901 10378 10105 
3 8783 7336 7360 
3 7442 5596 5429 
3 10835 11338 10983 
3 8789 8790 7346 
3 2610 6582 8222 
3 6341 3847 5776 
3 9998 8851 11222 
3 1296 9462 128 
3 1330 1841 3658 
3 5559 3209 9682 
3 10172 8994 9109 
3 11061 9811 10984 
3 4004 7908 7307 
3 9118 10147 7655 
3 3854 5961 6847 
3 4585 979 176 
3 3659 1344 978 
3 7901 5881 7896 
3 3830 4563 1107 
3 3994 467 7307 
3 6118 4149 3382 
3 5213 1101 3927 
3 4996 164 967 
3 9428 4077 7800 
3 7679 8101 10119 
3 305 4010 8777 
3 8385 8364 4504 
3 452 4937 1467 
3 9797 10506 11180 
3 7698 7608 10658 
3 7443 10704 9170 
3 9987 7910 10726 
3 8354 4625 6352 
3 1435 364 3546 
3 10699 8835 7604 
3 8892 9982 10506 
3 10871 10063 10686 
3 8918 8159 10029 
3 8874 10386 9869 
3 11314 11090 10791 
3 3596 4078 6045 
3 987 1353 9211 
3 3758 6985 5117 
3 2972 3681 5854 
3 3028 5698 3279 
3 8027 7294 3069 
3 3564 6985 5693 
3 5660 5854 7890 
3 6486 5987 3917 
3 7594 10045 7890 
3 9343 10090 9121 
3 116 1283 5253 
3 9506 4781 6399 
3 184 4610 8558 
3 181 4983 1349 
3 9671 4491 8485 
3 5206 179 981 
3 5686 5957 7615 
3 2743 8159 6671 
3 10704 10962 9887 
3 4566 7742 6491 
3 5374 8804 10029 
3 3180 3174 1350 
3 3596 183 1351 
3 7883 6313 4044 
3 4440 4999 7220 
3 1405 4265 3453 
3 4103 1101 457 
3 308 1406 2984 
3 3317 7142 303 
3 1509 3566 541 
3 6780 1881 4354 
3 9217 10246 10661 
3 9201 10272 8071 
3 7562 5591 5702 
3 3918 6225 10338 
3 3583 974 4314 
3 5035 3234 6149 
3 9665 5059 661 
3 8761 10191 9289 
3 452 7988 737 
3 453 5263 660 
3 6618 9227 6900 
3 305 4215 653 
3 119 4034 922 
3 4680 6563 8502 
3 2832 5799 5405 
3 2984 6731 7753 
3 7006 3010 1338 
3 4500 967 164 
3 9994 3424 6300 
3 8669 1337 169 
3 3261 4801 980 
3 6375 7898 3999 
3 4604 8287 8316 
3 8708 6823 4998 
3 8101 8719 9250 
3 1101 4103 3726 
3 10779 9821 10570 
3 11356 11140 10603 
3 8308 7680 10167 
3 9936 10479 7455 
3 11501 10976 9821 
3 7470 5571 5441 
3 3261 1346 4445 
3 6365 172 8476 
3 1988 7334 9371 
3 5648 9492 7622 
3 11642 11608 11520 
3 5080 1501 521 
3 8875 10981 8190 
3 9142 7347 9769 
3 5309 8203 2568 
3 4412 9653 8318 
3 5072 9371 7334 
3 1855 1645 7139 
3 2610 1980 7334 
3 6582 8202 8222 
3 11270 11559 11458 
3 9081 7424 10004 
3 4240 9241 10279 
3 3992 6170 6437 
3 1810 4099 1270 
3 11472 10853 10411 
3 5090 1010 225 
3 7947 6473 3719 
3 10978 9019 9012 
3 3631 6606 7851 
3 8818 8107 10253 
3 11457 11426 11069 
3 7187 1855 8532 
3 10359 10944 11058 
3 7671 10468 9023 
3 5383 5330 9196 
3 11329 11549 11032 
3 6306 3760 6052 
3 9922 10435 11358 
3 8997 7769 9967 
3 8620 9512 6294 
3 9056 7008 3890 
3 9697 4539 8518 
3 10650 3331 6968 
3 11363 11358 10435 
3 1009 5227 223 
3 9981 10437 8883 
3 9881 10957 10572 
3 9672 9023 10299 
3 5550 5426 7454 
3 7349 5298 5331 
3 1942 3760 1754 
3 11406 11396 11026 
3 1293 124 7255 
3 4090 7255 124 
3 11628 11592 11418 
3 2629 8143 5446 
3 11094 9798 10495 
3 8781 7335 7384 
3 7423 10282 10561 
3 10882 10273 7377 
3 11237 11521 11628 
3 9008 10882 10407 
3 9008 9999 8033 
3 3335 957 3594 
3 9811 11061 11066 
3 8480 9438 6390 
3 1113 482 2396 
3 3583 1340 974 
3 482 2394 2396 
3 8781 10521 11486 
3 3948 6233 3685 
3 9862 7959 9123 
3 8498 928 125 
3 5648 7622 6317 
3 5649 7588 5827 
3 4854 6344 9498 
3 6494 7959 5542 
3 826 6386 5245 
3 6643 3425 1511 
3 9224 6711 3149 
3 2626 5331 2556 
3 3309 1942 1967 
3 6648 3162 1638 
3 1093 6702 4416 
3 6973 1969 1945 
3 4388 8100 11711 
3 10422 8886 11131 
3 1490 8336 504 
3 502 5090 1123 
3 8097 7062 4371 
3 11172 10411 8868 
3 11363 11009 10418 
3 1489 601 5242 
3 8773 8211 6522 
3 5404 7389 5366 
3 1378 8693 2800 
3 8878 10838 10418 
3 7973 2787 7077 
3 5145 1010 3787 
3 6687 8739 4619 
3 1486 3874 501 
3 3354 4994 1121 
3 11711 1486 7190 
3 6600 4641 6817 
3 2787 1011 1377 
3 10158 7567 9012 
3 1486 11711 1120 
3 6522 4484 8773 
3 6466 7730 9574 
3 3716 2461 3897 
3 601 1607 225 
3 2934 3073 2502 
3 6994 4651 4703 
3 5995 3697 3716 
3 9494 8028 10158 
3 7632 9247 10290 
3 8434 8307 6132 
3 2444 6902 2442 
3 7871 9334 7707 
3 9492 5648 8285 
3 5889 7889 8556 
3 1132 4854 518 
3 518 7015 4842 
3 2418 4871 4616 
3 3752 1820 6840 
3 4199 4198 7046 
3 1132 3873 1498 
3 4451 3486 6347 
3 5044 7233 2424 
3 483 10344 3862 
3 1483 8394 4522 
3 4989 2336 5005 
3 1416 6693 1050 
3 7142 9741 8087 
3 2352 4551 2348 
3 2394 1480 2392 
3 4216 7965 3903 
3 2382 3267 3676 
3 6268 7958 9376 
3 3534 6129 7965 
3 4338 3258 8618 
3 1480 4682 3832 
3 8480 484 4528 
3 4337 3088 1837 
3 3335 5808 3295 
3 4331 5073 6311 
3 9663 6147 5808 
3 3245 1418 3552 
3 3563 3679 5871 
3 662 4000 4024 
3 9449 6225 6138 
3 2372 5095 2370 
3 9949 9217 10661 
3 2358 3458 3536 
3 9558 7723 9110 
3 649 301 8741 
3 6439 7627 5724 
3 4440 1402 3539 
3 7928 5809 9354 
3 2756 9216 7425 
3 4999 2320 4958 
3 1036 1402 3250 
3 9183 10331 10240 
3 5374 8159 2743 
3 8160 7604 8835 
3 3179 981 4073 
3 2756 7425 6619 
3 6438 768 4906 
3 185 4533 6372 
3 8279 3995 1700 
3 6670 1701 920 
3 6270 180 3301 
3 189 4677 982 
3 3179 4073 9496 
3 5896 3995 9583 
3 5200 4075 8630 
3 4652 2136 3913 
3 3917 5987 3457 
3 1 1168 8712 
3 5200 1141 4075 
3 3981 4972 7308 
3 7755 9354 10285 
3 1142 4179 539 
3 6941 539 8726 
3 4693 4069 8596 
3 3179 1347 981 
3 9685 5789 8281 
3 6435 1507 1141 
3 4881 8499 4818 
3 6728 10260 3067 
3 802 8700 6895 
3 10339 3288 6077 
3 4601 1730 4449 
3 8722 4449 4695 
3 449 1464 4547 
3 9245 3656 6871 
3 448 8580 1098 
3 1095 6464 446 
3 4542 1466 6929 
3 1463 1603 2002 
3 8370 1461 447 
3 7118 3656 9245 
3 4358 7237 4791 
3 8478 2071 6879 
3 2081 8478 6762 
3 7179 4573 7997 
3 9670 4006 7997 
3 4336 2111 2101 
3 10325 7997 6166 
3 11710 663 332 
3 4111 1420 1054 
3 4372 2121 4006 
3 1095 1461 4431 
3 8061 4431 9245 
3 7091 334 665 
3 6976 7602 10619 
3 8478 4940 9687 
3 4852 6879 4791 
3 334 3380 665 
3 8538 4949 1095 
3 663 11710 6547 
3 7213 333 665 
3 8601 7086 5691 
3 7213 665 3380 
3 6134 6166 8482 
3 1420 2508 6547 
3 10581 9889 9962 
3 340 3175 1422 
3 10977 8921 7496 
3 8482 6166 6704 
3 6296 8992 8670 
3 10619 10102 3380 
3 10945 10585 9923 
3 4499 669 338 
3 1602 3568 1096 
3 8282 1096 451 
3 334 666 6976 
3 1602 1096 8282 
3 4949 8538 7091 
3 335 1602 5267 
3 10619 3380 6976 
3 446 8538 1095 
3 1997 4702 1983 
3 1604 1464 3288 
3 6929 1466 451 
3 4729 4600 4702 
3 1983 4695 1927 
3 2009 4736 4729 
3 4701 449 9747 
3 6077 8024 6066 
3 1099 449 4701 
3 4729 4736 4734 
3 8165 6682 3035 
3 5806 8142 6226 
3 5165 667 8282 
3 1863 3113 3035 
3 6173 451 8667 
3 1602 8282 5267 
3 4982 5902 6646 
3 8288 6680 4101 
3 9700 4101 57 
3 2597 6681 1667 
3 8251 337 4985 
3 2077 3710 3244 
3 7576 8142 5806 
3 3113 6680 8166 
3 5165 451 6173 
3 2107 4732 2097 
3 860 4101 6680 
3 3710 6393 5933 
3 10724 7546 8142 
3 8280 6763 7240 
3 4732 6657 4398 
3 8891 7735 8167 
3 6657 3763 6393 
3 1782 6556 2674 
3 6682 8165 7923 
3 1783 2613 1864 
3 1863 1667 3113 
3 5629 8165 3035 
3 1863 3035 1782 
3 6681 860 1667 
3 2597 1667 1863 
3 6680 1667 860 
3 4101 860 57 
3 667 6646 5267 
3 9163 10619 7602 
3 2587 1781 6550 
3 1054 340 3584 
3 6681 8167 7735 
3 8534 338 6759 
3 2587 6550 7430 
3 7430 6550 9643 
3 56 3816 4849 
3 9046 10607 9889 
3 10030 9097 8031 
3 9207 8216 10058 
3 8429 1056 1422 
3 1223 1779 3159 
3 7460 10507 10183 
3 10607 9046 9027 
3 10945 8921 10585 
3 3393 4499 1055 
3 481 1478 2954 
3 10581 9962 8921 
3 338 1055 4499 
3 8601 10231 5902 
3 9748 1422 6581 
3 2997 339 6514 
3 5164 1056 8429 
3 339 4250 6514 
3 3584 340 9748 
3 8759 6581 8922 
3 9748 6581 8759 
3 1478 1112 6696 
3 8759 8922 10165 
3 8505 6246 9484 
3 10165 11022 9923 
3 10165 9190 8505 
3 2958 6730 7496 
3 7518 9046 9889 
3 6884 244 1019 
3 6730 10130 7496 
3 243 611 4121 
3 6660 193 9600 
3 5828 3765 4751 
3 3207 3134 5673 
3 240 609 4956 
3 9997 9702 7645 
3 4971 609 241 
3 8025 5887 9094 
3 2958 7496 7466 
3 10030 9027 9097 
3 8999 5769 9451 
3 10225 7641 7921 
3 10294 7804 9097 
3 8031 3386 6859 
3 5191 6694 1386 
3 10737 7641 10225 
3 5608 2994 3188 
3 1386 2994 3460 
3 247 4112 1021 
3 6038 7641 7961 
3 7088 1594 2932 
3 9164 10313 7693 
3 9504 7641 10737 
3 6038 4956 7316 
3 5601 9504 10313 
3 7921 3785 9149 
3 4956 6038 3125 
3 9681 10230 7705 
3 3134 1355 989 
3 10230 5673 6001 
3 6201 3781 9754 
3 3464 7784 6163 
3 4532 4432 9673 
3 5749 5824 3243 
3 195 9702 5823 
3 196 4432 1356 
3 8119 6813 3499 
3 3260 195 5823 
3 7593 5628 8959 
3 4928 726 7264 
3 3229 429 724 
3 9480 8509 4742 
3 8119 9657 6813 
3 9657 7768 9252 
3 3343 3499 725 
3 3444 1356 3243 
3 10733 5531 7499 
3 7825 5990 9222 
3 10188 10555 8959 
3 9116 9955 7499 
3 991 196 3092 
3 5990 10669 9222 
3 197 1357 2990 
3 2990 2884 5531 
3 609 8543 6660 
3 7782 9413 7621 
3 5887 8769 9094 
3 990 3243 1356 
3 8025 10320 6071 
3 991 3092 2884 
3 1354 3900 988 
3 197 4065 7271 
3 9080 10156 10941 
3 8762 8959 5628 
3 6249 3671 190 
3 7045 7848 10334 
3 6752 988 3163 
3 190 3671 588 
3 7497 9297 6249 
3 8324 6154 3675 
3 5994 7783 5859 
3 8324 3675 6081 
3 7621 6926 9677 
3 9290 588 7330 
3 6926 192 3186 
3 9290 5166 588 
3 10334 8769 5828 
3 589 3765 191 
3 9290 3765 6497 
3 6497 8769 5887 
3 7045 7331 4767 
3 8418 6612 4512 
3 8098 5798 9378 
3 3844 9413 6612 
3 5159 1384 1018 
3 2954 6696 7473 
3 7782 10008 9047 
3 6926 7621 3844 
3 5171 479 1111 
3 9190 6696 3304 
3 6242 3993 3968 
3 480 3304 1112 
3 1110 3828 4776 
3 9385 6242 8247 
3 1110 4776 478 
3 6028 5607 7596 
3 10692 9483 7596 
3 3206 5264 242 
3 4590 8379 3418 
3 9074 8980 7517 
3 5573 7517 5525 
3 7502 8987 7566 
3 5054 478 4777 
3 7003 6322 4172 
3 4777 754 4234 
3 4172 2191 4675 
3 6764 2151 2141 
3 5054 6843 478 
3 479 4217 1111 
3 2191 2181 4675 
3 4172 6322 3731 
3 2201 2191 4172 
3 2211 2201 3731 
3 2919 5525 2966 
3 5811 3341 3191 
3 3077 2241 2966 
3 3191 5705 5811 
3 5971 5908 9448 
3 5705 5586 7566 
3 8098 3186 5798 
3 5705 7566 7830 
3 5811 8012 5908 
3 5993 5971 8324 
3 3498 2284 2276 
3 2342 3777 4280 
3 7483 9061 9000 
3 10632 7783 8622 
3 3076 2970 5600 
3 3168 5613 2970 
3 9000 10156 9333 
3 2970 2324 2316 
3 7206 4021 201 
3 4344 2357 2355 
3 6719 1358 4021 
3 4021 1358 201 
3 198 4974 7230 
3 5004 5137 7257 
3 2346 2342 4280 
3 6695 3099 1359 
3 6720 8528 4343 
3 202 595 4673 
3 7536 9333 7648 
3 5697 8762 3150 
3 6350 6366 4280 
3 9992 6122 7884 
3 9939 7981 9080 
3 5116 3399 1359 
3 6695 993 3708 
3 597 205 3815 
3 593 4728 6935 
3 600 3362 5084 
3 3947 6146 4728 
3 4490 6675 9415 
3 202 4673 8655 
3 7206 8118 4021 
3 992 1358 6719 
3 6146 8146 6935 
3 200 992 594 
3 8588 6719 8475 
3 5137 4950 2363 
3 7230 4490 4708 
3 7875 6043 9415 
3 3759 4020 2373 
3 594 3693 4524 
3 3398 420 3706 
3 420 3398 1088 
3 421 8148 719 
3 5566 2974 6015 
3 7660 9112 10324 
3 8046 4047 3953 
3 4430 6015 2974 
3 4272 8348 8046 
3 4047 6175 3586 
3 3766 9510 8138 
3 8313 9384 3586 
3 9384 6232 8212 
3 6136 8313 8193 
3 4313 4375 2377 
3 4033 2385 2383 
3 9383 6103 8435 
3 2373 4020 2375 
3 2375 4020 4313 
3 2375 4313 2377 
3 3693 594 199 
3 5137 2363 2361 
3 4375 6232 4066 
3 8193 8138 6049 
3 4066 6136 3485 
3 3485 4033 2383 
3 6316 8138 9510 
3 6316 11727 4602 
3 2395 5241 2397 
3 6481 2405 2403 
3 3766 5269 403 
3 4948 4602 11727 
3 705 403 4712 
3 9584 4885 4206 
3 5030 400 7314 
3 580 2407 5233 
3 3638 400 7186 
3 8664 4825 2401 
3 4825 5030 7314 
3 6481 4679 5233 
3 1682 3989 6517 
3 10598 6788 3477 
3 7699 9240 10142 
3 3473 6218 5807 
3 6447 9299 3618 
3 10187 6517 3989 
3 8755 8608 6218 
3 4122 2425 4631 
3 9070 7699 7642 
3 4899 578 797 
3 8023 3835 6123 
3 796 8706 579 
3 2415 8409 2417 
3 4822 6517 4899 
3 3980 2419 2417 
3 4476 9737 6480 
3 5107 797 578 
3 4822 4899 5109 
3 10187 9517 6295 
3 4722 880 1682 
3 4697 2423 2421 
3 9545 10001 10588 
3 8881 10485 9855 
3 7477 7167 3316 
3 3215 5938 3703 
3 10598 3477 6020 
3 3504 9240 8737 
3 2863 7477 7552 
3 8115 582 6480 
3 10989 9467 10509 
3 11170 10434 10911 
3 9467 6447 3524 
3 4822 5109 1797 
3 2961 5713 3356 
3 4454 398 700 
3 4279 582 800 
3 1683 881 9737 
3 398 4206 700 
3 581 799 7209 
3 8718 799 581 
3 78 3316 7167 
3 8021 404 4272 
3 3766 706 5269 
3 9969 10618 4712 
3 7047 2391 5104 
3 1450 6124 1084 
3 9537 4712 5269 
3 406 4668 701 
3 4017 3655 6247 
3 8665 7629 5768 
3 5713 10098 7740 
3 9650 8140 5949 
3 4295 417 4572 
3 1450 6755 3655 
3 405 4017 1085 
3 4017 6247 8432 
3 5744 5510 2989 
3 8432 6247 9455 
3 9976 9433 8036 
3 1451 3651 4495 
3 2902 9433 5722 
3 34 836 5192 
3 5722 10714 8925 
3 4366 4668 8271 
3 836 3722 5192 
3 701 4668 4366 
3 398 7175 4206 
3 7779 8271 6421 
3 7239 6521 4934 
3 4366 7779 7175 
3 4366 7175 398 
3 10546 7431 8867 
3 10062 7998 8953 
3 6856 1693 3801 
3 3709 3837 899 
3 10434 8867 9840 
3 11163 10954 10815 
3 10401 11320 10815 
3 10483 10815 10954 
3 5747 8953 7998 
3 1763 3721 6699 
3 8671 1798 1247 
3 79 7239 1203 
3 5747 6345 3788 
3 1798 1871 3835 
3 3721 7748 6699 
3 9171 7052 2557 
3 10820 11500 11320 
3 10049 8953 9372 
3 11378 10820 11504 
3 11320 11500 10815 
3 9978 10950 9158 
3 8844 5422 9940 
3 10447 10966 11126 
3 8901 9940 8006 
3 6330 10319 9655 
3 7571 7838 8941 
3 1946 6699 2736 
3 1946 1911 1684 
3 11098 10400 10969 
3 5487 8621 9225 
3 10889 8925 10714 
3 8932 7376 9775 
3 2736 6699 8235 
3 2598 5310 2557 
3 5722 8925 7748 
3 10193 10393 9258 
3 5192 7300 3721 
3 6699 7748 8235 
3 2621 6881 1762 
3 2902 1647 1856 
3 9433 10714 5722 
3 7300 7748 3721 
3 10025 9152 7371 
3 3530 4186 838 
3 5317 9152 8036 
3 9433 9976 10714 
3 8925 10889 10393 
3 10887 10498 10025 
3 8955 7444 7565 
3 4322 4594 1912 
3 7401 7444 8864 
3 1947 2671 2816 
3 6645 908 1556 
3 105 1272 4326 
3 6786 424 4916 
3 3991 4326 1272 
3 6714 1089 4598 
3 8495 1556 908 
3 4186 9550 4893 
3 1649 4893 1857 
3 4041 6880 6383 
3 5510 5744 7565 
3 7401 5363 5416 
3 7444 5510 7565 
3 8507 4893 9550 
3 4186 4893 1649 
3 3655 6755 7885 
3 6247 9650 8245 
3 4106 6463 6857 
3 6237 8507 9550 
3 7885 6755 9540 
3 6825 9455 8245 
3 5566 6015 7660 
3 6325 5097 3347 
3 10271 2980 5566 
3 7660 8083 9439 
3 10258 5969 7760 
3 424 8479 4598 
3 7758 9532 5967 
3 3826 6624 1455 
3 5936 3158 4599 
3 9112 5969 9532 
3 599 207 5084 
3 423 6858 4393 
3 3877 8056 8581 
3 208 6935 3362 
3 3621 207 599 
3 3362 8146 6137 
3 10327 9430 6516 
3 4653 208 4178 
3 3061 5619 5763 
3 596 203 3254 
3 3155 5779 3815 
3 596 3254 3150 
3 204 3150 3018 
3 597 3061 205 
3 3018 5628 5619 
3 429 725 5188 
3 599 3770 3621 
3 6950 8056 3877 
3 5763 11726 5754 
3 3508 8584 5711 
3 207 3621 6950 
3 8581 6380 10327 
3 3541 6083 3682 
3 8056 6380 8581 
3 7653 8065 9605 
3 7867 9605 9527 
3 8093 6033 3682 
3 106 1274 7173 
3 5878 9390 7653 
3 720 4254 3931 
3 3499 3343 5839 
3 6273 9153 8584 
3 8128 8966 9116 
3 9750 5754 11726 
3 9175 9153 11726 
3 6653 1812 1697 
3 11091 11351 11089 
3 11204 9100 9835 
3 1557 6779 909 
3 9841 9988 9370 
3 8495 908 6786 
3 6630 1554 1272 
3 4598 6631 6714 
3 7922 3620 8373 
3 7623 4353 6662 
3 6273 8584 7014 
3 908 6645 5204 
3 9470 9988 7487 
3 911 108 8690 
3 7157 728 433 
3 1276 8592 9523 
3 6489 4890 1456 
3 9037 5465 7842 
3 1276 1812 8592 
3 10898 9880 11204 
3 2771 2938 1276 
3 7485 9100 5462 
3 2901 6781 1558 
3 7842 9880 9037 
3 7436 10861 9818 
3 11350 9882 11174 
3 6189 5493 7512 
3 11174 8973 10795 
3 4002 1282 1563 
3 10544 7512 9091 
3 4544 8738 6939 
3 1282 5028 3041 
3 2701 7081 7701 
3 8805 7367 7356 
3 2977 2701 5493 
3 907 4623 4146 
3 1651 4876 1858 
3 9128 7367 9926 
3 2691 2548 1858 
3 1205 1765 4549 
3 9927 11394 10351 
3 5327 5286 7356 
3 9912 10914 10813 
3 11225 11394 10350 
3 10351 11468 11190 
3 11697 11510 11668 
3 43 6795 2527 
3 11468 11245 11190 
3 10351 11190 8805 
3 11645 11704 11631 
3 11525 11468 11404 
3 11701 11699 11645 
3 11547 11387 11056 
3 11650 11657 11600 
3 11416 11056 11245 
3 104 4586 4544 
3 4475 37 1205 
3 840 37 8657 
3 10822 11056 10387 
3 1273 104 7081 
3 9995 10866 8876 
3 5440 2671 5367 
3 2559 37 2538 
3 1205 2600 1765 
3 4594 4322 8185 
3 10822 11245 11056 
3 11245 10822 11190 
3 11120 10907 11323 
3 11547 11056 11416 
3 11431 11271 11081 
3 10889 9976 10498 
3 9258 7376 5381 
3 5381 5310 2598 
3 11657 11431 11579 
3 10907 11120 10539 
3 837 2557 7052 
3 7458 9966 8846 
3 8932 9966 9171 
3 7052 2907 44 
3 1248 837 44 
3 1212 2551 1772 
3 9171 10280 7052 
3 837 7052 44 
3 6846 9372 2926 
3 7074 883 2789 
3 5830 9158 5797 
3 5797 2866 3901 
3 9978 9524 7571 
3 1251 3738 83 
3 2949 1873 6922 
3 4771 5066 6903 
3 2949 1686 1873 
3 1801 1251 2755 
3 5830 3902 2949 
3 1686 5066 4771 
3 82 7073 885 
3 4581 8484 6621 
3 80 7110 883 
3 2789 883 1544 
3 9225 9844 10969 
3 1860 2547 1657 
3 2789 1544 2917 
3 884 1685 2904 
3 3667 81 7227 
3 2866 5797 5515 
3 4877 5925 8621 
3 9225 10969 8901 
3 6394 7917 10264 
3 7073 5066 885 
3 1800 3901 2866 
3 3901 5218 8679 
3 5096 785 5181 
3 550 785 1250 
3 549 5079 7073 
3 6903 1491 4465 
3 2904 1685 2866 
3 1517 3978 1151 
3 786 5167 551 
3 3978 5181 1151 
3 4418 6531 7227 
3 7361 6776 2527 
3 4817 8641 6878 
3 1151 5181 550 
3 8902 7344 9759 
3 7344 5299 9249 
3 5069 1860 4817 
3 4817 1657 4401 
3 11650 11677 11591 
3 9767 8846 10486 
3 11561 11668 11234 
3 11640 11566 11524 
3 11649 11697 11682 
3 11591 11561 11413 
3 11697 11668 11677 
3 11049 11566 11413 
3 9767 10751 10545 
3 11563 10768 11621 
3 8805 9927 10351 
3 10351 10753 11468 
3 11602 11512 11647 
3 11687 11651 11602 
3 11679 11512 11670 
3 11400 11397 11233 
3 11537 11434 11236 
3 11703 11670 11594 
3 11138 10746 9759 
3 10749 11113 11236 
3 11454 11334 11082 
3 1657 2547 2535 
3 9764 7361 10557 
3 11232 11509 11415 
3 3627 1211 6777 
3 1771 1951 6259 
3 6715 6394 3690 
3 7855 10264 6047 
3 552 786 475 
3 7855 6047 9281 
3 5167 3978 1517 
3 551 3690 5223 
3 6820 3978 5167 
3 786 551 7243 
3 748 470 4837 
3 1951 5615 9312 
3 4546 823 4689 
3 4807 7129 8525 
3 5615 1951 1771 
3 748 5223 470 
3 10647 6259 2517 
3 573 6588 1529 
3 6777 6259 10215 
3 9281 4007 7855 
3 5219 1916 1656 
3 10580 9893 7682 
3 749 5219 472 
3 474 752 5224 
3 1210 1770 4987 
3 472 4656 749 
3 2683 2722 5413 
3 6544 4271 7759 
3 1770 3122 1859 
3 5001 7211 4271 
3 3774 7228 1189 
3 7211 7759 4271 
3 1916 3054 1656 
3 9356 7599 10267 
3 1656 4074 845 
3 6234 10144 7211 
3 10773 10918 11036 
3 11593 11537 11412 
3 5914 5527 7636 
3 8131 6412 9723 
3 11025 11461 10755 
3 11679 11647 11512 
3 9964 10346 8787 
3 11706 11679 11644 
3 11255 11440 11626 
3 9479 6041 6465 
3 11255 10747 11316 
3 11461 11538 11263 
3 4959 38 841 
3 6746 1913 2537 
3 10747 10549 9765 
3 3466 5700 5935 
3 11043 10925 11336 
3 4650 1207 4642 
3 8000 7277 7806 
3 2950 4959 841 
3 1948 4211 6747 
3 7749 3641 5082 
3 637 5231 5207 
3 6041 9479 8029 
3 8496 5935 7709 
3 7564 9133 10590 
3 915 4721 112 
3 5519 8000 9288 
3 11333 11461 11086 
3 38 1206 3514 
3 6746 8220 8096 
3 10053 8784 10549 
3 10914 8845 10373 
3 10747 9765 11316 
3 5326 2548 2691 
3 9760 10350 9927 
3 9758 9092 10693 
3 10873 11086 11097 
3 2531 1651 2548 
3 5326 9092 7339 
3 5327 2538 5286 
3 9927 10350 11394 
3 907 5028 114 
3 8176 6868 9407 
3 6189 3041 5028 
3 7123 8508 4876 
3 3128 1281 2909 
3 631 5023 271 
3 4405 1282 4002 
3 916 113 3428 
3 3428 6799 916 
3 1282 4405 114 
3 9882 11350 10631 
3 9283 5790 7456 
3 9882 10631 9407 
3 3289 6248 9286 
3 11342 10861 11122 
3 8132 7512 8973 
3 10451 9906 10943 
3 10943 9906 10057 
3 9283 9980 7485 
3 912 109 3389 
3 10909 9980 7456 
3 7485 9980 9835 
3 9283 7485 7994 
3 2862 4850 912 
3 10471 9980 10909 
3 4661 10300 2777 
3 9826 7486 9257 
3 5434 7456 5790 
3 4249 3990 6542 
3 913 4918 110 
3 4661 111 914 
3 2777 10300 7994 
3 2829 5452 5822 
3 3560 5708 6248 
3 1281 2750 1562 
3 5519 7560 5708 
3 4503 6934 6248 
3 9611 6248 5708 
3 1562 915 3289 
3 3128 3428 113 
3 4721 8658 2804 
3 273 5133 632 
3 5036 8411 271 
3 272 632 7017 
3 280 3560 6934 
3 4503 6248 3289 
3 5180 789 7164 
3 4392 6267 8356 
3 1155 1520 558 
3 5728 3185 3378 
3 5136 1154 8698 
3 4025 1519 5136 
3 1152 4249 559 
3 6542 7030 7164 
3 788 4392 555 
3 11637 11620 11653 
3 7824 9205 6332 
3 5163 7030 3990 
3 788 555 5180 
3 10296 9556 9034 
3 4700 8748 7183 
3 1620 6355 808 
3 11070 11514 11479 
3 7337 9309 10067 
3 5443 2682 5336 
3 4700 556 789 
3 10904 11037 11053 
3 2599 2734 5323 
3 11655 11550 11427 
3 11482 11037 10357 
3 9206 8368 7882 
3 11311 11029 11402 
3 11550 11655 11676 
3 5557 3281 2802 
3 11700 11653 11684 
3 10417 10947 8807 
3 4277 7 7176 
3 1735 3281 1620 
3 4277 7176 8356 
3 4392 8356 7022 
3 11684 11613 11596 
3 7831 5359 8856 
3 11364 10888 11272 
3 10947 9044 7440 
3 11531 11551 11310 
3 11613 11432 11630 
3 11551 11401 11027 
3 11630 11583 11286 
3 1962 1933 2526 
3 5297 9476 2601 
3 9148 7390 10464 
3 7343 7362 5306 
3 11364 10967 10520 
3 10967 9782 8794 
3 10781 10417 9782 
3 11117 9782 10967 
3 10385 10841 11484 
3 10947 7440 8807 
3 2822 5418 2643 
3 7448 9431 10489 
3 10847 10385 11063 
3 5339 5336 2576 
3 7 2576 2682 
3 5443 9026 5557 
3 9636 6267 8110 
3 3962 554 6332 
3 913 5056 1560 
3 3962 4392 788 
3 5858 8110 9205 
3 3170 6392 8174 
3 5939 7824 6332 
3 9636 4277 8356 
3 5825 7807 5726 
3 5089 110 4655 
3 3527 6401 10303 
3 5858 9205 7824 
3 8221 10206 9729 
3 7987 5825 3389 
3 5244 6392 1176 
3 8174 9431 5546 
3 5947 6392 4117 
3 3385 7956 7685 
3 8292 3556 5773 
3 6359 8509 9480 
3 4284 6401 8221 
3 10206 7685 9308 
3 728 7157 8509 
3 6781 911 1558 
3 4758 8514 7235 
3 5055 726 431 
3 7264 6359 8736 
3 4284 432 727 
3 8736 6349 5188 
3 429 5188 724 
3 8745 9480 4742 
3 724 6349 428 
3 7014 4890 6653 
3 6813 3202 430 
3 725 4928 5188 
3 725 430 4928 
3 5188 4928 8736 
3 5621 9400 5745 
3 10109 9252 8289 
3 7538 7579 5552 
3 2996 1961 2923 
3 8292 7863 5986 
3 8067 6813 9657 
3 8422 9754 6163 
3 1383 4956 3125 
3 3358 3313 5745 
3 5621 7579 9400 
3 5892 9681 10340 
3 9702 195 3207 
3 1738 3313 3358 
3 7649 9400 9997 
3 4494 812 2768 
3 1594 1387 2932 
3 812 4494 9 
3 8422 9347 3879 
3 7366 5409 7439 
3 3460 2994 5764 
3 9 3565 812 
3 7784 8201 10163 
3 10340 8196 6076 
3 3746 1624 812 
3 2769 1738 1177 
3 10800 9834 10476 
3 5358 5655 2768 
3 11176 11575 10800 
3 5359 9044 8856 
3 1897 2923 1961 
3 3313 1932 2996 
3 3087 5530 5947 
3 10520 10967 10093 
3 8785 7366 8788 
3 8856 9044 10476 
3 10417 8807 9782 
3 11050 10854 10776 
3 8520 4055 3820 
3 9762 8788 9792 
3 11028 11502 10878 
3 10093 7343 7338 
3 7366 7439 8788 
3 8405 6111 9628 
3 8341 1787 9474 
3 10508 11114 11008 
3 4800 4880 6874 
3 11033 10883 10362 
3 10550 11188 10567 
3 8404 5342 2641 
3 10550 9787 10883 
3 11627 11298 11052 
3 10362 10883 9787 
3 8404 2637 5455 
3 5707 7272 7686 
3 2579 1665 2641 
3 2637 2641 1917 
3 3346 7882 5937 
3 2845 5582 5409 
3 7539 10073 9395 
3 7881 7258 3543 
3 7881 9395 10073 
3 5764 9359 3460 
3 3253 8216 6443 
3 9395 6165 9359 
3 9395 9359 5764 
3 5608 5764 2994 
3 9111 7503 10636 
3 6629 1779 2660 
3 6629 1862 1779 
3 1664 3684 857 
3 10383 11052 10895 
3 11054 10758 11040 
3 9854 10636 9526 
3 10896 9104 10255 
3 2637 1952 2918 
3 5707 9111 7462 
3 11349 11619 11045 
3 5049 2127 2137 
3 10855 10364 11365 
3 11045 11285 10760 
3 1226 4976 6556 
3 9174 8077 5340 
3 11556 11627 11257 
3 11663 11611 11429 
3 2692 6601 1668 
3 6763 5049 7240 
3 4786 58 6657 
3 2127 5049 6763 
3 1668 1864 2692 
3 2207 6551 2197 
3 1783 6845 1227 
3 3246 2591 5401 
3 2613 2582 5338 
3 7374 9770 9174 
3 10858 11285 11039 
3 11252 11040 11055 
3 11252 11533 11611 
3 11422 11425 11528 
3 11533 11039 11422 
3 11528 11243 11532 
3 11392 11532 11095 
3 10756 11105 9771 
3 1227 7151 2582 
3 7891 8907 10012 
3 7374 9174 5340 
3 10012 10593 7374 
3 11285 11045 11558 
3 862 3246 59 
3 9886 11123 10548 
3 10548 9836 7650 
3 10540 10788 11155 
3 863 5143 60 
3 6806 2591 1669 
3 2824 6806 1865 
3 8974 7650 9836 
3 9459 9886 5423 
3 11256 11425 11674 
3 11543 11616 11527 
3 11264 11349 11155 
3 10575 10759 9783 
3 10616 10760 11200 
3 11619 11558 11045 
3 10760 11285 11200 
3 5318 9327 7355 
3 8797 8795 7354 
3 5314 2579 5342 
3 1787 1953 9474 
3 9669 7049 2900 
3 2854 5458 2698 
3 4800 6874 8591 
3 4880 8341 6768 
3 1231 4800 63 
3 2553 1846 1740 
3 11360 10897 10832 
3 2664 814 1626 
3 5509 7422 7704 
3 11543 11527 11264 
3 8795 8820 7422 
3 1180 8408 9624 
3 2571 2580 1787 
3 1231 1787 8341 
3 3107 865 1672 
3 1953 4861 9474 
3 8447 10217 8243 
3 8408 6830 1672 
3 5402 9219 5375 
3 11441 11050 11584 
3 5402 5375 2664 
3 11050 11441 11312 
3 10573 9260 10432 
3 8243 5458 2854 
3 10439 10857 11149 
3 11464 11280 11584 
3 62 865 5061 
3 2727 2533 5347 
3 9624 62 12 
3 5061 3107 6302 
3 5501 9511 2724 
3 1627 1900 3120 
3 211 997 5050 
3 8871 10929 10682 
3 8459 4943 4962 
3 7729 4147 7265 
3 1786 3106 2697 
3 2567 2687 1671 
3 1866 4943 1786 
3 1866 2567 1671 
3 6551 5071 1784 
3 5143 863 8291 
3 8291 2873 9248 
3 10548 11123 9836 
3 8339 11718 4410 
3 4531 4203 2242 
3 9598 8501 5027 
3 2686 9459 5423 
3 6125 8339 6085 
3 2247 3699 4410 
3 6937 6085 6995 
3 6765 8689 5022 
3 8694 6833 998 
3 6085 8339 3699 
3 2846 6663 8309 
3 6477 4878 8694 
3 8121 6663 2959 
3 61 4878 6477 
3 10938 11215 10538 
3 7986 10086 11016 
3 6636 3112 1365 
3 2182 6326 2192 
3 10086 10691 11016 
3 4435 8703 4790 
3 1365 3112 1587 
3 6809 2202 8403 
3 4058 6462 8414 
3 5022 1587 4790 
3 8186 6636 3013 
3 4714 4727 6686 
3 11215 10938 10494 
3 6913 3329 5141 
3 3192 7537 7568 
3 7684 9305 6792 
3 10467 10919 8931 
3 9464 6854 7907 
3 8309 8121 8931 
3 10494 9963 7507 
3 8309 10084 5507 
3 10494 10919 11215 
3 5556 7507 9351 
3 11215 9865 10538 
3 9351 7507 9963 
3 3501 3906 5888 
3 10114 5518 7983 
3 9305 11018 10022 
3 10663 7983 5645 
3 4142 7042 8053 
3 4516 5063 210 
3 62 4952 12 
3 8053 5897 4269 
3 1742 2724 1935 
3 3440 5645 2899 
3 1362 211 5050 
3 8854 7789 5345 
3 2720 1901 7115 
3 5992 3120 8022 
3 5063 4879 7296 
3 1900 1935 6651 
3 3091 1742 1181 
3 3110 5050 997 
3 211 1362 6894 
3 4821 815 12 
3 1900 8611 4879 
3 6830 1741 1934 
3 6651 9511 8022 
3 4158 1741 1180 
3 8982 8022 10208 
3 10432 8982 10897 
3 7689 5501 6285 
3 9951 10897 8995 
3 8995 10897 10208 
3 10439 11149 10832 
3 10897 11360 10432 
3 11427 11482 11578 
3 6970 2558 8227 
3 7337 10067 8782 
3 8233 10296 9309 
3 9043 8227 9310 
3 1629 6808 1847 
3 10558 9310 7340 
3 2528 1629 1847 
3 7340 5290 5280 
3 9309 10458 10067 
3 2723 9556 6964 
3 8233 5283 2549 
3 10348 8782 10067 
3 11070 11479 10865 
3 10388 8873 11361 
3 3265 1844 1736 
3 6821 4862 8705 
3 1687 887 4704 
3 7164 789 556 
3 6355 7724 6356 
3 8599 9724 1519 
3 808 5259 6 
3 1153 4025 4243 
3 7039 633 274 
3 230 6966 602 
3 1154 1520 8698 
3 7278 5086 557 
3 272 630 558 
3 1175 6356 1736 
3 1175 4163 3829 
3 6190 7968 4427 
3 9440 4107 556 
3 557 1519 9724 
3 6617 9466 4120 
3 2549 1183 6964 
3 9556 2723 5351 
3 8442 15 6583 
3 84 8361 9705 
3 809 2723 15 
3 6583 1183 8361 
3 3033 231 8433 
3 6263 6190 8590 
3 7055 8642 4457 
3 5834 8701 3944 
3 6263 6288 3921 
3 6519 4303 233 
3 8442 6583 1253 
3 6501 1847 6808 
3 3945 8701 5845 
3 8734 84 6559 
3 1252 6706 3395 
3 9043 7375 5323 
3 6559 84 886 
3 5569 8858 8078 
3 4635 6808 1629 
3 2528 2524 5280 
3 2528 1847 2524 
3 1183 6583 15 
3 8854 10202 7789 
3 1963 7114 3263 
3 10857 9796 10368 
3 14 6970 2734 
3 3328 1743 3507 
3 4039 4100 6378 
3 817 6970 14 
3 8091 5843 5929 
3 3856 1182 3328 
3 4669 4941 4635 
3 377 4269 5897 
3 694 3218 3369 
3 6378 4219 9581 
3 3597 387 3369 
3 10200 9601 3689 
3 4219 388 3819 
3 4219 685 388 
3 3819 695 3597 
3 8003 5853 3218 
3 3218 5853 3369 
3 8417 6387 3852 
3 8003 8091 5853 
3 9581 3819 6156 
3 7937 8043 3263 
3 8078 10623 9096 
3 8734 1253 84 
3 11164 10991 9874 
3 7050 1874 1802 
3 887 1687 3944 
3 7703 2735 9096 
3 606 5092 232 
3 2753 1259 91 
3 3921 4196 231 
3 6519 9599 4303 
3 3306 233 3203 
3 8352 6933 235 
3 3203 3750 7744 
3 1015 6933 6867 
3 2728 2721 5431 
3 10421 10811 10440 
3 6962 4606 894 
3 894 4606 1691 
3 6943 4606 4963 
3 606 6519 233 
3 5427 7426 10564 
3 10505 10807 10826 
3 5456 5463 7441 
3 8885 10913 10414 
3 2753 91 2728 
3 4327 1379 4486 
3 6275 4185 3720 
3 4319 6896 4311 
3 4739 7057 7763 
3 10031 8937 10444 
3 10469 9223 9062 
3 2967 235 1380 
3 10430 9837 10810 
3 943 140 3609 
3 11173 10999 10833 
3 9847 10005 7441 
3 382 4536 689 
3 5757 8586 6261 
3 6272 6098 3932 
3 2726 2957 5436 
3 7217 8381 7809 
3 10155 7810 10597 
3 6293 5144 8597 
3 386 693 3863 
3 379 5157 686 
3 7809 8381 10155 
3 8381 9084 10155 
3 3963 388 9639 
3 7325 380 7303 
3 381 689 11712 
3 10051 10872 10552 
3 6576 3355 1400 
3 6905 9084 8381 
3 7809 6266 3723 
3 380 687 4557 
3 5157 11709 7217 
3 7446 5476 5469 
3 935 2910 6504 
3 6308 7895 9468 
3 8492 6770 3813 
3 7537 9004 7568 
3 686 5157 3723 
3 10192 9276 7651 
3 10583 10101 282 
3 3357 2834 8240 
3 6331 8262 5888 
3 6797 3192 7568 
3 6792 217 3446 
3 5905 9435 8255 
3 8996 8753 6210 
3 4407 9601 5905 
3 9298 7568 10074 
3 8559 9601 10200 
3 8559 6331 5970 
3 684 3689 9601 
3 8262 9209 5888 
3 10270 9209 5897 
3 3689 8262 10200 
3 1361 3548 209 
3 994 3906 3501 
3 6331 5888 3906 
3 209 3906 994 
3 2893 5529 7907 
3 7895 7684 3446 
3 10114 7983 10663 
3 10074 9435 9298 
3 9468 6838 3965 
3 995 3192 6797 
3 2893 216 2858 
3 6743 1001 3870 
3 6854 1367 2893 
3 1002 1590 2821 
3 3329 1366 5141 
3 6952 216 1367 
3 1588 1366 3329 
3 10101 6206 6743 
3 6326 6686 1588 
3 3329 3013 1588 
3 4433 9634 4714 
3 8295 2182 2172 
3 8403 2192 6326 
3 1588 6686 1366 
3 6326 8295 6686 
3 3745 6039 6220 
3 8295 4714 6686 
3 6743 6206 1589 
3 3745 2152 2142 
3 6571 282 10101 
3 1589 1367 6854 
3 1368 5131 3340 
3 8183 8269 6991 
3 6576 3045 9335 
3 8633 10309 6105 
3 8129 4209 6308 
3 1028 7222 6991 
3 1030 6571 3636 
3 6144 6039 3698 
3 1394 282 1030 
3 10137 7805 9168 
3 6502 282 1394 
3 8183 7310 6058 
3 4297 4294 2102 
3 7029 284 3278 
3 1031 4292 3905 
3 4292 6667 3905 
3 4297 2102 2092 
3 7728 6577 3355 
3 1398 4415 6889 
3 9410 9124 5805 
3 4438 1398 8536 
3 2523 1400 3355 
3 1034 3355 6577 
3 9124 9335 5805 
3 6032 4438 8273 
3 9410 5805 8269 
3 7651 9276 5679 
3 7626 5777 5678 
3 6460 8519 133 
3 935 6504 143 
3 381 142 1310 
3 9713 1034 10250 
3 1571 2733 945 
3 143 6504 1311 
3 4557 3904 8228 
3 8575 6938 3604 
3 6504 2797 1311 
3 6504 7949 2797 
3 688 9582 7325 
3 934 3604 6938 
3 5214 571 7158 
3 8575 5775 10676 
3 10250 1034 287 
3 6770 132 1301 
3 1567 935 3247 
3 6460 133 936 
3 6906 8345 3907 
3 10491 10403 9977 
3 10834 11339 11147 
3 2797 5461 2733 
3 937 6459 134 
3 10405 11147 11339 
3 1303 2770 1568 
3 10491 11010 11346 
3 11346 11087 11339 
3 10491 10834 10403 
3 11147 10405 9814 
3 10083 8904 11186 
3 11343 10403 10834 
3 11346 9810 11087 
3 3505 5954 6079 
3 4232 1528 8779 
3 3783 8273 6597 
3 4931 286 7158 
3 5214 286 1399 
3 2770 5390 2746 
3 639 4931 4867 
3 937 2746 6459 
3 6577 7861 639 
3 284 4242 1032 
3 2039 2027 8557 
3 1612 1159 1399 
3 4438 1032 1398 
3 5115 4889 7269 
3 8725 4424 6889 
3 4300 4297 2092 
3 8010 6075 9589 
3 8557 8430 6740 
3 569 1526 3462 
3 3973 5234 1158 
3 8224 6862 6139 
3 3578 4873 1159 
3 6382 10222 10211 
3 571 1159 4873 
3 8058 10716 10157 
3 4873 3578 6139 
3 568 7269 4200 
3 8375 8668 6215 
3 1527 1161 3619 
3 1526 1160 3310 
3 1991 4889 5115 
3 5031 794 7319 
3 4200 7269 9521 
3 3455 6090 3986 
3 4578 3456 6328 
3 5866 3462 3310 
3 6328 8416 6090 
3 1734 1931 3456 
3 3481 3456 1931 
3 3986 1975 1892 
3 4578 1734 3456 
3 6003 3481 3611 
3 5930 6328 3456 
3 1987 3611 3481 
3 1987 3481 1931 
3 3478 2090 2100 
3 2001 3537 3611 
3 1527 3262 570 
3 5909 3262 3619 
3 5699 7578 7713 
3 5815 7713 8102 
3 10205 7850 9145 
3 5634 2985 3114 
3 3225 5699 5815 
3 5565 7578 5699 
3 5815 3315 3225 
3 2060 2070 2985 
3 7725 5634 5765 
3 2060 3116 2049 
3 10205 7725 7850 
3 5634 5565 2985 
3 8530 8489 5996 
3 8374 7778 5962 
3 5765 5864 7850 
3 7725 10205 10242 
3 1569 3376 3366 
3 8551 5973 8374 
3 5667 9145 3205 
3 7725 10242 7584 
3 8017 10328 5543 
3 9049 7578 7584 
3 10211 4011 9324 
3 9006 9049 10242 
3 5543 10328 9006 
3 6382 4148 6339 
3 1302 2795 936 
3 5390 7465 9117 
3 9145 5667 10205 
3 937 134 3388 
3 9810 9215 10990 
3 3522 9275 5973 
3 10204 6432 8486 
3 3366 5928 5954 
3 7979 2817 6432 
3 8013 3686 8149 
3 7979 6432 10204 
3 941 6471 138 
3 8333 8552 3780 
3 6930 3549 1446 
3 7644 5710 7677 
3 7678 3686 8013 
3 4194 5274 699 
3 7781 9098 5727 
3 9915 10425 10990 
3 2788 939 2817 
3 5844 3271 10625 
3 8486 9177 10204 
3 939 136 3459 
3 8549 5989 5958 
3 1305 3591 3271 
3 9355 5958 5894 
3 5681 5710 7644 
3 3510 3523 2120 
3 3496 5989 3506 
3 5681 3161 3121 
3 2190 3161 2180 
3 7678 9165 7203 
3 3943 2220 2230 
3 9165 10715 10038 
3 6453 10038 6214 
3 9212 9442 699 
3 5274 396 3644 
3 10038 6453 4194 
3 5632 10287 9491 
3 4057 397 7326 
3 3644 9212 5274 
3 9053 8080 5945 
3 9185 616 5272 
3 4346 4439 8172 
3 7287 4434 396 
3 4588 397 1449 
3 4630 7166 4545 
3 7198 256 4264 
3 3979 255 6688 
3 9322 4264 3979 
3 3349 5945 8080 
3 3956 1391 1025 
3 1025 256 4164 
3 3231 5692 7847 
3 1689 4780 6718 
3 10113 5945 7808 
3 5265 10236 4083 
3 5643 7692 5632 
3 6178 3701 8217 
3 4222 9613 9317 
3 696 389 3074 
3 3050 8310 5665 
3 10033 8552 8333 
3 3074 5692 3231 
3 7692 10287 5632 
3 10317 9192 8488 
3 8343 3969 6969 
3 1390 4083 2983 
3 2945 9358 252 
3 7586 10511 9409 
3 10224 7763 5580 
3 390 3231 7262 
3 1601 3050 1080 
3 9648 6084 7815 
3 10031 10444 10934 
3 6314 8089 9688 
3 3969 393 1446 
3 8415 9138 6109 
3 5674 3264 7925 
3 1689 891 4780 
3 891 8583 4780 
3 8329 8889 5424 
3 4390 892 8729 
3 8583 88 6724 
3 6732 1079 1445 
3 4938 6724 1079 
3 3585 6084 7823 
3 3780 1081 1447 
3 4584 1308 942 
3 8552 8310 3549 
3 6930 393 1081 
3 6471 7829 2956 
3 10935 10466 11115 
3 6471 1306 138 
3 7829 10578 9843 
3 10806 11344 11384 
3 10552 10872 11343 
3 10452 10824 11129 
3 11339 10834 11346 
3 7031 941 394 
3 5481 9907 10578 
3 942 139 11723 
3 5103 139 1307 
3 1688 2685 2751 
3 88 6842 6724 
3 8419 3670 6148 
3 6148 4584 6377 
3 943 1570 3961 
3 2957 1255 87 
3 7108 6861 1309 
3 5461 2797 7949 
3 2799 944 2814 
3 3609 8263 9561 
3 10112 381 11712 
3 382 141 6841 
3 141 382 944 
3 2814 1310 2747 
3 8623 6841 4538 
3 7620 8929 7554 
3 3609 9561 6860 
3 7019 8586 3437 
3 8263 6254 6098 
3 3852 692 4461 
3 7426 9102 9837 
3 8533 6842 88 
3 4019 1803 1875 
3 7141 6969 4377 
3 6291 8419 6354 
3 8014 6377 3969 
3 10125 10429 10959 
3 4687 4377 4936 
3 7821 3720 6269 
3 10972 10469 9946 
3 9062 8018 5694 
3 3015 1548 4116 
3 9839 10566 8884 
3 9839 8889 10959 
3 11173 10934 10444 
3 10999 8937 10005 
3 893 90 3720 
3 9147 7821 10006 
3 3413 7247 535 
3 10708 10039 9179 
3 5977 3838 9287 
3 10249 9005 10502 
3 10314 5021 615 
3 3299 5977 8179 
3 251 614 3299 
3 613 4809 4364 
3 9360 8113 3381 
3 854 1661 2906 
3 11130 10803 11370 
3 2700 2666 5407 
3 8859 5482 10018 
3 5442 7416 9155 
3 11436 11638 11368 
3 10908 11179 9913 
3 11273 11161 10840 
3 10123 7463 10009 
3 11205 9800 11469 
3 3277 5121 847 
3 10161 10443 10009 
3 1536 1215 3242 
3 7464 9141 5739 
3 7516 9398 10161 
3 2748 2805 1658 
3 10426 9804 8813 
3 6449 1773 8460 
3 3277 6839 9328 
3 10922 10381 11368 
3 9804 8831 8813 
3 11503 10551 11322 
3 9913 11179 10582 
3 10396 10908 8827 
3 45 847 5121 
3 8813 7381 10582 
3 4924 8555 6888 
3 7417 7464 5388 
3 494 7111 5064 
3 3300 5540 2748 
3 5147 1523 563 
3 6449 1523 1157 
3 5349 2644 2602 
3 4953 4765 45 
3 4305 6627 8466 
3 6449 8460 1523 
3 4422 6798 4560 
3 5739 4633 2805 
3 563 1523 8460 
3 848 563 1658 
3 1773 1658 8460 
3 4141 3066 5979 
3 11158 8914 11197 
3 4197 4924 1777 
3 5407 2666 5377 
3 1661 6558 2906 
3 11158 10801 10018 
3 9482 9973 10586 
3 10046 8831 10551 
3 3184 615 251 
3 8629 1388 5195 
3 1776 6558 1661 
3 2906 7716 7722 
3 613 5195 249 
3 8684 4745 1026 
3 4809 9445 4364 
3 52 5246 1220 
3 1776 1220 4140 
3 9752 4141 5979 
3 10928 10511 7586 
3 3264 250 614 
3 249 5195 1388 
3 9375 4664 4638 
3 1662 4310 1861 
3 4654 4310 1662 
3 4310 4197 1861 
3 6904 8004 9482 
3 4638 4664 5017 
3 3803 2287 3432 
3 4197 6379 6385 
3 6888 53 1221 
3 4745 8684 5800 
3 5882 8629 6283 
3 489 6169 9664 
3 4257 7251 8153 
3 257 1391 3970 
3 4270 2327 2319 
3 5997 3448 7869 
3 3432 2279 3928 
3 6240 3951 3803 
3 3803 3951 2295 
3 756 490 4467 
3 4359 8407 4595 
3 4840 6942 3928 
3 4359 4754 9518 
3 9591 6782 4467 
3 6961 492 759 
3 4357 9591 6487 
3 490 756 3920 
3 10088 492 758 
3 4467 11731 756 
3 6961 6782 4357 
3 6512 4840 8517 
3 8634 4657 4754 
3 4316 6782 6961 
3 4404 498 7079 
3 497 763 6972 
3 2215 4595 8735 
3 6258 8413 4088 
3 4754 4657 9518 
3 4088 8413 4662 
3 4404 765 498 
3 6056 5885 3630 
3 7862 9536 6258 
3 6775 3846 10315 
3 4662 4932 2175 
3 8686 4214 461 
3 9649 7865 5885 
3 6775 499 3846 
3 3846 499 765 
3 4560 6798 8256 
3 8413 7079 4662 
3 4838 8351 6972 
3 499 761 4927 
3 6698 6972 4643 
3 4643 496 6385 
3 6888 495 53 
3 2644 5349 5377 
3 6004 3715 565 
3 4927 4947 5239 
3 8567 6790 792 
3 494 760 5088 
3 6790 564 792 
3 4422 8037 6798 
3 9490 564 6790 
3 5147 7013 3779 
3 6627 560 790 
3 5174 1157 3779 
3 8276 561 5125 
3 8571 562 9457 
3 10179 6982 9126 
3 460 7169 1103 
3 7856 4127 3958 
3 7856 10221 4127 
3 5161 4548 743 
3 9349 4214 8686 
3 6982 3237 9126 
3 5934 7589 9661 
3 7169 560 1103 
3 1469 3938 1103 
3 790 560 7169 
3 742 6721 2510 
3 1103 560 1469 
3 6056 3713 8731 
3 560 7007 1469 
3 1103 3938 5161 
3 2135 3630 3491 
3 8195 7661 7816 
3 7450 5490 5548 
3 6760 9507 1468 
3 5478 2785 5490 
3 2085 2075 745 
3 5593 2921 8063 
3 6430 8421 8553 
3 1103 5161 460 
3 6280 8063 2921 
3 9604 8421 6721 
3 6280 9661 8063 
3 2921 5593 3237 
3 2876 5597 3403 
3 7813 10179 9126 
3 8917 9877 10701 
3 10899 9902 10729 
3 2889 1896 3037 
3 7231 3666 7914 
3 10052 8117 5736 
3 3666 1172 1733 
3 3773 1064 347 
3 9974 10474 10275 
3 8470 6164 3782 
3 8117 10052 10574 
3 7656 10052 9107 
3 8117 11002 11228 
3 6735 1728 1843 
3 1429 6828 2786 
3 5917 6282 7597 
3 154 5025 6893 
3 8882 9952 9857 
3 7493 7471 2786 
3 7661 8195 3454 
3 5474 7524 8968 
3 9701 9898 7524 
3 9701 7524 5720 
3 2839 8125 6738 
3 5474 8125 2839 
3 3119 1599 1063 
3 1429 2786 347 
3 7553 9485 10252 
3 8696 1429 347 
3 1063 346 3806 
3 947 1572 2662 
3 5025 346 1428 
3 3936 344 1061 
3 1428 1062 6893 
3 4912 345 1062 
3 2843 1061 1598 
3 1062 8770 6893 
3 5568 7419 5361 
3 154 6893 947 
3 4038 154 947 
3 8770 947 6893 
3 8125 9374 6738 
3 154 4038 7254 
3 7597 10684 9974 
3 1834 2667 2619 
3 5873 3394 3672 
3 2988 2635 5472 
3 7524 5474 5720 
3 5568 5361 2706 
3 8548 791 5007 
3 7013 4414 7037 
3 8195 3672 3454 
3 9267 4028 6298 
3 5174 3779 6999 
3 3779 1157 1523 
3 8276 4597 5007 
3 8466 6627 4992 
3 2635 2603 5353 
3 4028 4597 6298 
3 8009 4236 7285 
3 2988 1718 2635 
3 1321 4236 2706 
3 1833 1887 3454 
3 2749 3423 954 
3 849 1536 2780 
3 6121 5468 2987 
3 11348 10829 10799 
3 5184 954 847 
3 5121 3277 6455 
3 8571 4953 6449 
3 45 5184 847 
3 9710 7145 3423 
3 5475 2749 5386 
3 5386 7407 7428 
3 7428 9226 5475 
3 2987 1320 4995 
3 8849 11167 10656 
3 9680 7601 10162 
3 8849 10656 7428 
3 10377 11309 10988 
3 8849 7428 7407 
3 8009 5371 9184 
3 7403 8916 7601 
3 10371 10850 9852 
3 11073 11309 10377 
3 5353 5361 7385 
3 8819 10547 10850 
3 10232 10473 9181 
3 5364 5371 2619 
3 7393 5514 5369 
3 1572 947 8770 
3 2653 2662 1572 
3 2653 1313 2708 
3 8066 9134 9380 
3 10371 9852 9794 
3 9380 7393 5369 
3 9380 5369 8066 
3 1572 345 1313 
3 1572 1313 2653 
3 144 2861 2708 
3 11152 10416 10478 
3 5506 5533 7504 
3 3296 2955 1713 
3 9933 9851 7504 
3 11185 10473 9808 
3 8066 5506 9134 
3 9846 9851 10478 
3 9808 10473 7393 
3 11348 11309 11303 
3 10965 11214 10543 
3 9851 11208 10478 
3 10965 10543 9933 
3 7504 9134 5506 
3 9071 9733 7818 
3 6319 9656 8750 
3 8332 8909 5520 
3 1637 3136 825 
3 7818 9733 6017 
3 145 948 1312 
3 5471 7434 10126 
3 6692 1167 7232 
3 5520 9064 8055 
3 8638 4382 6569 
3 2684 5380 2675 
3 147 7232 7168 
3 5471 2818 2759 
3 147 7168 950 
3 5477 7391 5380 
3 7434 5471 5425 
3 11335 10885 11195 
3 11208 10543 9870 
3 11214 8909 10126 
3 11208 10902 10478 
3 9315 7827 9878 
3 10043 10996 10534 
3 10679 9010 9878 
3 11377 10424 11195 
3 9314 5785 3201 
3 1654 4168 843 
3 951 1574 3001 
3 9315 3001 6805 
3 5785 7931 9587 
3 3728 4830 1318 
3 1574 3201 1317 
3 1716 3435 7063 
3 6037 4830 3728 
3 151 954 3423 
3 9596 7572 6639 
3 1716 6638 2765 
3 4190 5846 9596 
3 9226 9890 8928 
3 952 2765 2679 
3 10424 11377 9033 
3 7415 10594 9806 
3 11303 11073 11622 
3 9934 10679 10885 
3 11335 10424 10786 
3 10829 10534 11167 
3 10799 8849 10569 
3 10786 11303 11456 
3 10799 10829 11167 
3 10009 9328 7516 
3 8928 10996 10085 
3 1213 1575 46 
3 9596 5846 10085 
3 9890 9226 10656 
3 11167 8849 10799 
3 10551 11492 11322 
3 11283 11273 11469 
3 1535 1213 6839 
3 5399 7445 8988 
3 11100 10409 10819 
3 5884 8383 9757 
3 10819 11283 11100 
3 9800 8988 7445 
3 10375 11184 9984 
3 1217 49 4183 
3 11491 11553 11274 
3 9984 10470 9054 
3 10783 11274 11638 
3 11553 11491 11283 
3 10783 11085 11274 
3 11638 11274 11553 
3 8975 7575 7573 
3 853 2766 8560 
3 9932 7780 8859 
3 5657 9179 7933 
3 5694 8018 6301 
3 8352 235 2967 
3 3413 5982 7942 
3 10041 9946 9108 
3 10016 8352 2967 
3 236 7279 3550 
3 7573 3381 7247 
3 1139 1505 3792 
3 4922 6844 5002 
3 9739 4747 532 
3 1218 5126 1138 
3 5172 4278 3792 
3 5412 9086 2711 
3 4252 6362 679 
3 779 533 5002 
3 6933 1015 235 
3 10149 5604 8765 
3 6590 7569 7432 
3 3557 6710 1014 
3 4061 7747 9452 
3 5196 534 781 
3 6733 1014 4061 
3 10608 10143 9041 
3 5179 635 7011 
3 779 4747 5015 
3 7664 9041 7532 
3 7432 7569 8825 
3 4667 7040 6513 
3 7864 9115 10152 
3 9054 10470 10149 
3 11716 2509 357 
3 2774 1659 1774 
3 3241 2774 5537 
3 4720 1216 48 
3 48 1216 3117 
3 9535 5715 8171 
3 7395 5400 5604 
3 8765 5604 4720 
3 2828 2774 1774 
3 10060 10409 10916 
3 850 3467 3359 
3 9210 10060 10916 
3 6037 8305 9566 
3 1215 6742 3242 
3 6749 3359 10081 
3 7738 7676 10671 
3 3467 7738 5918 
3 10653 10209 7757 
3 7738 8305 7676 
3 3435 7673 7721 
3 3352 1768 3259 
3 7803 6454 7274 
3 7836 5813 5755 
3 3117 7274 48 
3 8225 2869 6604 
3 842 4351 3608 
3 4167 6604 1768 
3 9242 5918 10148 
3 3438 358 7020 
3 1660 2688 6591 
3 680 3430 359 
3 9213 10152 9115 
3 3438 7020 7803 
3 7864 5715 9115 
3 678 5260 357 
3 7803 7864 10152 
3 4368 677 356 
3 531 5029 4667 
3 6143 9757 8383 
3 357 1660 851 
3 7747 7532 10143 
3 238 634 608 
3 7664 7279 4488 
3 1016 5179 7011 
3 3405 5729 9475 
3 9554 8433 6299 
3 4308 8603 636 
3 5927 3314 3606 
3 4802 353 7140 
3 2507 275 7011 
3 11708 676 355 
3 636 8603 5178 
3 3542 5767 10308 
3 6442 3929 5935 
3 4691 7806 7277 
3 3606 634 275 
3 277 637 4308 
3 5733 7662 9199 
3 603 6427 239 
3 7039 10332 5133 
3 8546 8649 6351 
3 7039 274 3314 
3 280 6934 5078 
3 9199 10145 10648 
3 2865 5519 5708 
3 9199 10648 7734 
3 1027 4646 279 
3 3384 8652 7734 
3 1393 3172 1027 
3 5209 4691 638 
3 674 5231 353 
3 638 4646 8652 
3 1913 1948 2537 
3 3430 3438 5730 
3 278 637 5207 
3 10291 5884 9757 
3 9757 9361 8020 
3 4642 1767 6747 
3 4621 359 6853 
3 3098 1653 3608 
3 1914 1653 3098 
3 8156 6256 9213 
3 11440 11043 11452 
3 3259 1768 1949 
3 5459 9263 7410 
3 4167 4168 8464 
3 9813 11336 10925 
3 11191 10428 11391 
3 5291 5333 2562 
3 9103 9925 10428 
3 9426 10267 7599 
3 9144 7447 9819 
3 2809 1859 3122 
3 1770 1210 6412 
3 2809 3122 5534 
3 9723 4074 5914 
3 5395 5333 9103 
3 5291 5321 7342 
3 2648 5321 2565 
3 1655 1859 2809 
3 7353 9925 9103 
3 10449 10177 8979 
3 5291 7353 5333 
3 1209 2628 1769 
3 5794 7931 7837 
3 3387 6168 10653 
3 5333 5395 2628 
3 3461 6986 41 
3 9314 10736 5785 
3 9587 6983 3268 
3 2562 1209 41 
3 9341 5689 7837 
3 6794 5047 6723 
3 7613 9314 6804 
3 1532 5047 575 
3 9426 7585 10151 
3 6596 9607 7966 
3 844 1655 2648 
3 6116 3294 3916 
3 41 2565 2562 
3 7585 7599 5737 
3 4067 844 6986 
3 1166 7253 574 
3 1166 3294 6723 
3 3922 8124 7253 
3 7253 8124 3971 
3 2522 9454 795 
3 5149 1532 575 
3 1533 4086 1167 
3 576 2522 7168 
3 4857 572 1163 
3 1751 3135 2742 
3 11439 11296 11137 
3 3049 7814 5714 
3 824 1530 1613 
3 4029 4086 5247 
3 1613 1636 824 
3 6736 1940 2742 
3 1636 1905 3167 
3 11072 11393 11446 
3 1636 4239 824 
3 9965 10839 10453 
3 3167 6736 7611 
3 8175 6750 3166 
3 1165 3786 1531 
3 3971 8428 6588 
3 5258 21 824 
3 6588 8428 6239 
3 1859 5058 1770 
3 6234 7211 4576 
3 10144 6234 9345 
3 6613 4460 4534 
3 6179 3680 4683 
3 572 4857 1530 
3 20 823 6975 
3 7228 21 1189 
3 8490 7611 9032 
3 2722 1635 1904 
3 10319 6330 8328 
3 506 1492 4743 
3 3767 1125 1491 
3 6916 506 1125 
3 5946 9740 8257 
3 1125 3937 4465 
3 1608 1492 3702 
3 8484 4026 1609 
3 3767 9419 8487 
3 10139 8103 6027 
3 6980 9419 3767 
3 6789 1126 3411 
3 5079 507 5066 
3 1494 6837 1609 
3 1493 3442 1127 
3 507 6903 5066 
3 4282 4725 6820 
3 508 4794 1493 
3 6250 4026 4581 
3 508 1493 548 
3 553 2521 4131 
3 4833 5167 786 
3 4244 4026 6250 
3 4244 6250 10312 
3 509 1494 4244 
3 6458 8661 822 
3 1187 2831 1748 
3 10312 6250 9493 
3 5212 509 1129 
3 4244 1494 4026 
3 509 8578 1129 
3 3883 6411 6837 
3 509 5138 8578 
3 6754 4603 1495 
3 1495 5101 3883 
3 8265 8335 3872 
3 9220 511 8335 
3 3009 1903 3082 
3 1187 19 4730 
3 6754 1495 1129 
3 6924 6027 8103 
3 5329 10120 8261 
3 10050 7819 10318 
3 9916 8954 10986 
3 5683 3082 3126 
3 8085 10604 5654 
3 3108 1234 1788 
3 8388 3290 3538 
3 9916 8915 8954 
3 10180 8865 7695 
3 8954 8747 5820 
3 8946 5647 10050 
3 5638 2998 8747 
3 4535 7787 7117 
3 511 6789 1496 
3 3883 5212 1129 
3 7788 2886 7116 
3 3089 99 1267 
3 1552 1266 2640 
3 11381 11057 9793 
3 3808 98 901 
3 5966 8103 10042 
3 11477 10949 11068 
3 3808 7234 98 
3 9825 5411 9284 
3 7787 10186 5483 
3 9746 2998 99 
3 11327 10374 10816 
3 8388 3538 5942 
3 5638 8915 9197 
3 10220 8969 10650 
3 3319 904 3042 
3 7939 10256 7580 
3 3143 2998 5638 
3 9197 8241 5638 
3 100 903 6801 
3 1232 7223 2772 
3 868 3497 3324 
3 5433 2689 2772 
3 6181 3735 6040 
3 9339 5836 8232 
3 1809 3290 3735 
3 5836 9339 10510 
3 1233 1540 6783 
3 3431 5680 5831 
3 7061 4064 1512 
3 1540 867 3104 
3 6368 74 4027 
3 545 4081 1513 
3 544 1512 8497 
3 9567 7993 6251 
3 7016 4118 7993 
3 9292 7919 10099 
3 1242 74 2578 
3 8431 6835 4719 
3 3646 1242 1794 
3 2820 2615 8229 
3 11447 10812 11148 
3 3104 867 3629 
3 2844 1543 1243 
3 2820 8229 5751 
3 11048 11447 11148 
3 8861 8838 5433 
3 8839 10817 10687 
3 9875 10817 10622 
3 9790 10762 10535 
3 10817 9848 10622 
3 5344 2584 2638 
3 10027 8801 10535 
3 11449 11568 11478 
3 10987 10535 11103 
3 11250 11154 11478 
3 10496 11373 10837 
3 11103 11244 11460 
3 11011 8964 10457 
3 9956 10423 9042 
3 11569 11478 11051 
3 10762 11154 11250 
3 5433 2772 7918 
3 5486 3800 2911 
3 10936 10462 9850 
3 9850 10228 5486 
3 3734 3497 65 
3 1234 4176 1788 
3 8838 8035 5433 
3 2772 2689 1539 
3 7580 10256 7630 
3 8915 8747 8954 
3 1234 5252 4176 
3 7939 8259 10256 
3 2935 5627 3108 
3 7630 9197 10629 
3 2911 1673 6586 
3 5627 5706 7580 
3 9756 4176 4177 
3 3941 6369 6245 
3 11299 11144 11449 
3 7010 10621 10104 
3 11067 10836 10460 
3 10423 10936 11166 
3 870 2593 67 
3 8826 10460 9956 
3 11177 11011 10457 
3 870 2572 2593 
3 10480 11118 10772 
3 11498 11118 11304 
3 11304 11118 10808 
3 11102 11268 11481 
3 11498 11444 11251 
3 8826 7411 7382 
3 11251 11118 11498 
3 11623 11460 11244 
3 11373 11103 11460 
3 11244 11250 11444 
3 10987 11103 11373 
3 10971 11119 10559 
3 10496 10987 11373 
3 7394 5448 9099 
3 3471 5618 2847 
3 5396 8934 9418 
3 11206 8815 9943 
3 6709 1793 2709 
3 7394 7396 5357 
3 874 4783 3850 
3 11444 11498 11610 
3 9801 10787 11119 
3 11667 11623 11529 
3 11460 10837 11373 
3 11305 11268 11585 
3 11206 9943 10837 
3 2541 5308 2607 
3 10376 11134 10808 
3 11481 11305 11119 
3 11134 11304 10808 
3 7399 9801 9135 
3 10971 10559 9326 
3 1792 2796 1677 
3 11353 10427 11150 
3 3137 69 872 
3 4540 6534 4574 
3 9135 8106 5376 
3 872 69 5114 
3 69 1237 289 
3 298 641 4097 
3 5308 5313 7348 
3 7134 1237 69 
3 642 9414 290 
3 3860 6415 5549 
3 6592 9675 2677 
3 5703 2933 5439 
3 5324 7365 5322 
3 8964 10128 10457 
3 5324 9675 9989 
3 7365 9919 8812 
3 10664 10061 9028 
3 6415 68 2879 
3 10579 9950 9244 
3 8223 6593 7587 
3 9867 10728 8879 
3 2936 2860 5526 
3 10641 10061 8223 
3 1675 1790 2677 
3 9443 2879 5541 
3 5637 3239 8223 
3 1630 2826 2860 
3 2936 8147 6650 
3 9884 7479 9229 
3 9229 5494 8111 
3 11017 10461 11220 
3 818 1630 8390 
3 5625 6193 7741 
3 9408 6193 8390 
3 11355 11065 11573 
3 11508 11540 11241 
3 1745 1184 6495 
3 7726 6495 4596 
3 820 4596 17 
3 6931 1867 1789 
3 9950 9058 9244 
3 2936 1848 2860 
3 7301 3476 17 
3 2681 2761 1235 
3 10003 9079 7835 
3 1867 3640 3518 
3 8297 3640 6245 
3 4275 18 1186 
3 6061 3518 8297 
3 3640 1674 3941 
3 3109 821 18 
3 3109 6543 8085 
3 6543 4275 8274 
3 1186 1747 4124 
3 5156 821 3493 
3 3997 8468 4161 
3 5460 2895 9357 
3 2895 1849 1747 
3 1184 3095 17 
3 1632 1849 2678 
3 11178 10600 10879 
3 19 5138 822 
3 5329 5392 7368 
3 2661 1903 1965 
3 5392 5554 7429 
3 19 8578 5138 
3 1748 2590 1938 
3 4182 6027 8317 
3 4730 19 822 
3 2631 7940 2654 
3 9891 10600 9105 
3 8661 4730 822 
3 10234 6975 9193 
3 4413 6751 1904 
3 8822 8808 7940 
3 4523 4304 9493 
3 10879 9891 10456 
3 10665 9891 7941 
3 2744 10234 7435 
3 5413 9285 10912 
3 7435 9930 8822 
3 8175 6064 9032 
3 11178 11160 11489 
3 11555 11247 11455 
3 11169 10358 11240 
3 11470 11202 11362 
3 10775 11450 11266 
3 9778 9780 10363 
3 11249 11065 11038 
3 11240 11428 11545 
3 9285 8175 11175 
3 10048 10370 10842 
3 9193 5413 9795 
3 11385 11175 10415 
3 10028 10415 9032 
3 11573 11450 11355 
3 6736 2742 10577 
3 2589 7089 1966 
3 22 4558 825 
3 10370 11137 10842 
3 4760 949 146 
3 1715 2808 2944 
3 7089 7786 2741 
3 312 3687 6876 
3 6334 5075 3136 
3 5334 7364 9325 
3 1966 7090 2905 
3 2620 5368 2649 
3 1906 1637 3500 
3 8942 5517 7750 
3 7379 8809 7378 
3 9052 10048 10446 
3 9546 5346 2707 
3 8809 10367 10370 
3 10072 10513 10920 
3 9778 9325 7364 
3 5311 5334 2596 
3 6193 5160 8390 
3 3516 1185 5160 
3 11217 7600 8983 
3 311 1409 4102 
3 1746 3516 2853 
3 1407 6652 3998 
3 8983 7600 7452 
3 10644 7508 9291 
3 1941 2589 1966 
3 23 2707 1191 
3 1941 1966 2905 
3 6367 8467 6212 
3 9412 9040 8059 
3 1410 312 6548 
3 9903 9892 10620 
3 1044 1410 8154 
3 2930 9293 5539 
3 2871 7511 6810 
3 1407 3998 310 
3 6652 1407 1041 
3 10673 7495 10584 
3 9871 10445 8906 
3 11193 7453 10106 
3 10939 9871 11223 
3 6652 1041 3248 
3 1046 313 4620 
3 1411 3975 6540 
3 10698 9903 8367 
3 3372 1045 1411 
3 10518 9853 11187 
3 6869 4620 9572 
3 343 1425 4456 
3 343 6290 4283 
3 9954 10644 9208 
3 8467 3923 3791 
3 5817 8059 9011 
3 7606 5612 7508 
3 5605 3145 4345 
3 8644 9725 6186 
3 10644 9291 9208 
3 4015 3282 6055 
3 344 1828 1885 
3 6665 145 1312 
3 8359 1842 6665 
3 3959 1597 1425 
3 1060 343 4283 
3 5020 6319 8750 
3 2955 946 1713 
3 4170 6017 8378 
3 10518 7617 7904 
3 4001 1060 1727 
3 2882 7904 7617 
3 11221 3705 11001 
3 2882 7617 6664 
3 2810 1595 1423 
3 4912 1427 345 
3 10518 10118 7617 
3 10307 5901 3959 
3 9876 10518 11187 
3 10628 5512 8278 
3 1427 144 1313 
3 10893 11187 9853 
3 5512 7904 3936 
3 2939 9441 5964 
3 4485 1596 1058 
3 10013 8970 10500 
3 9859 10638 9876 
3 2000 4030 1986 
3 3782 6164 3666 
3 2024 4288 2012 
3 9633 3892 6243 
3 348 1430 4266 
3 1596 1424 3371 
3 1986 4030 3898 
3 9485 2887 5523 
3 9024 10500 10252 
3 3204 1057 1595 
3 10500 9024 9859 
3 5587 3204 2810 
3 5561 5523 2894 
3 4156 4288 9238 
3 11001 4515 10678 
3 3204 1595 2810 
3 7491 9089 9876 
3 4425 4380 2036 
3 2059 4472 2048 
3 8778 6444 2513 
3 4472 4508 10229 
3 2881 2969 2239 
3 6901 4521 4356 
3 3664 4237 2089 
3 2089 2099 3664 
3 8039 8007 6024 
3 3364 2109 3776 
3 6807 314 654 
3 8007 5841 5923 
3 654 3661 315 
3 6024 5940 3364 
3 10518 9876 9089 
3 10307 4001 9575 
3 8400 5594 4324 
3 6818 1059 342 
3 10118 5901 9575 
3 1597 4874 6869 
3 8477 4841 3526 
3 6869 4456 1425 
3 8527 6818 342 
3 6548 312 1045 
3 3639 9362 6807 
3 7666 9293 6819 
3 3623 8367 9397 
3 5026 4591 4402 
3 8927 10926 11218 
3 6406 3599 1415 
3 1042 319 3012 
3 7841 7706 10087 
3 9908 10493 9929 
3 5650 3189 2969 
3 10493 9908 9883 
3 10651 9883 10283 
3 7706 9127 10087 
3 3255 2892 1415 
3 5617 10087 9127 
3 7478 8951 9030 
3 7453 8960 5850 
3 5617 9127 7527 
3 319 1415 2892 
3 3012 2892 5616 
3 318 6192 6405 
3 8366 9463 6192 
3 9593 6405 6192 
3 7561 5669 2885 
3 6518 655 315 
3 4370 2189 4394 
3 2209 3624 4155 
3 4394 8366 4370 
3 4155 2199 2209 
3 2219 3189 3624 
3 3255 1415 1049 
3 3189 5650 5826 
3 5907 9463 4155 
3 7841 5826 7706 
3 8951 10651 9030 
3 5640 5547 2978 
3 5536 7577 5650 
3 7752 10212 10695 
3 7582 8951 7478 
3 5547 7478 5536 
3 7706 7577 9127 
3 5650 2969 5536 
3 5547 2881 2978 
3 7953 6153 9273 
3 7752 5640 5818 
3 2978 2258 3148 
3 4144 6174 3649 
3 7766 5818 5899 
3 5640 7752 7582 
3 7766 9239 10212 
3 2351 4715 7064 
3 3864 9273 8253 
3 7953 9239 10323 
3 3858 2306 3649 
3 529 777 8384 
3 10212 5664 9050 
3 9050 10975 8951 
3 3729 6202 6153 
3 5899 5818 3452 
3 8137 10493 10975 
3 9050 8951 10695 
3 3100 644 7324 
3 644 4961 7072 
3 647 296 4188 
3 9273 6153 6202 
3 7970 7189 8253 
3 6107 3858 3649 
3 4188 7189 7970 
3 9368 6107 6174 
3 4188 7970 8692 
3 9368 7970 6107 
3 776 5128 5016 
3 4481 6321 8639 
3 297 5124 648 
3 5135 8774 5128 
3 8436 6610 9719 
3 6610 2341 9719 
3 10337 6007 8041 
3 7070 5273 648 
3 7592 3490 7138 
3 6992 8692 6321 
3 297 3490 647 
3 4468 646 296 
3 3490 7202 647 
3 4939 4188 8692 
3 8016 5662 10524 
3 10894 9909 10717 
3 8234 7312 4757 
3 646 3864 296 
3 3248 7245 7452 
3 9908 10705 7583 
3 8983 7452 8896 
3 9884 9229 9866 
3 3248 7600 6652 
3 11217 8983 10931 
3 7433 7946 7004 
3 10720 11218 8930 
3 6953 2864 643 
3 3100 3131 644 
3 4553 293 7324 
3 294 2995 645 
3 4553 7324 7072 
3 8234 4961 7312 
3 10894 10963 10484 
3 7461 6530 10931 
3 5662 7946 8930 
3 10728 10654 10963 
3 6561 4032 4469 
3 8880 10484 9866 
3 8983 8896 9909 
3 8983 10531 10931 
3 9867 10654 10728 
3 10963 9866 10484 
3 10924 10654 10609 
3 9905 10894 10906 
3 9603 3086 5479 
3 5479 3086 2791 
3 2864 7433 7004 
3 7624 8879 7433 
3 6953 9603 7624 
3 5479 7459 9166 
3 3860 1035 291 
3 10741 7912 7592 
3 1868 2541 2607 
3 298 4540 641 
3 6700 3747 8041 
3 7736 9065 5976 
3 9414 6700 8041 
3 11715 289 640 
3 7070 5124 527 
3 5119 526 1137 
3 1503 5016 4009 
3 4487 1137 526 
3 3747 10337 8041 
3 11715 640 3677 
3 297 648 7138 
3 4097 10198 7853 
3 5042 527 1503 
3 5042 4381 8614 
3 6835 73 6567 
3 73 5151 1241 
3 6835 876 73 
3 9099 7612 10011 
3 3470 7000 5151 
3 5040 410 709 
3 6567 73 7032 
3 7241 8457 710 
3 9406 7822 9471 
3 4478 711 412 
3 3489 3383 5883 
3 4478 412 7246 
3 408 4719 1086 
3 5074 5040 709 
3 1452 7032 409 
3 4466 8624 9565 
3 6255 8724 4328 
3 8790 9991 7351 
3 1757 1853 415 
3 1642 2544 830 
3 8702 2595 1757 
3 9013 9809 7352 
3 6450 5397 7610 
3 9809 9013 11207 
3 730 4749 436 
3 2646 5398 5397 
3 831 1643 2646 
3 8817 10056 10463 
3 8306 3850 6211 
3 8249 5891 7822 
3 4973 713 7149 
3 831 4816 1643 
3 9500 4816 8392 
3 4455 831 28 
3 4048 621 261 
3 6978 4816 4455 
3 1909 9500 435 
3 8392 4816 6978 
3 439 5217 732 
3 1092 3669 6745 
3 1457 5102 3886 
3 6461 5102 5068 
3 3573 3628 732 
3 3573 3240 6093 
3 3637 1091 439 
3 732 8491 4317 
3 437 1458 4967 
3 6745 1458 1092 
3 3573 732 438 
3 8491 3886 6461 
3 3850 4783 6211 
3 8399 4783 5111 
3 8399 8238 6211 
3 8306 6708 3850 
3 4808 4815 6324 
3 7048 412 4053 
3 411 3696 7327 
3 2515 7327 6469 
3 10079 9418 8934 
3 5396 2709 2650 
3 7396 5396 5357 
3 1542 1241 3471 
3 7900 3396 6633 
3 1240 72 2650 
3 7900 3285 7551 
3 1793 6708 4815 
3 71 4783 874 
3 6708 8306 9573 
3 4783 71 5111 
3 263 5111 623 
3 5111 11720 623 
3 263 5190 622 
3 5190 3711 622 
3 3577 8238 8399 
3 262 6678 621 
3 7913 10233 9704 
3 9519 10261 5948 
3 3798 7913 9704 
3 6224 3888 6029 
3 3292 3325 629 
3 264 624 4834 
3 9436 5862 10233 
3 619 7076 3572 
3 7284 4318 5198 
3 10744 4318 7284 
3 2354 3663 2353 
3 7710 10171 7702 
3 5862 3292 3572 
3 4788 8436 9719 
3 4711 7082 4144 
3 267 4709 627 
3 268 6626 4957 
3 4909 628 4957 
3 4866 4957 6626 
3 4909 4957 4823 
3 2339 4823 2343 
3 8070 7284 4162 
3 269 4909 4411 
3 4273 8572 4154 
3 4772 2339 2335 
3 4273 4154 619 
3 4526 2326 2318 
3 4403 8572 4526 
3 619 259 7076 
3 6920 4251 6224 
3 618 3798 7076 
3 629 4411 6997 
3 8572 4403 6920 
3 3888 3327 6029 
3 2302 3888 4251 
3 5791 7770 6029 
3 9519 7991 10261 
3 7991 5791 5863 
3 2294 2286 3327 
3 2294 3888 2302 
3 7770 7991 9519 
3 2993 7196 7980 
3 438 731 3240 
3 5948 8272 9519 
3 620 6863 4792 
3 3882 437 7165 
3 7980 7770 8272 
3 8164 7165 4792 
3 4792 8643 261 
3 8672 621 6678 
3 3643 7048 7745 
3 9394 9629 6016 
3 260 620 4497 
3 8643 7165 4967 
3 1458 437 5199 
3 5199 731 4317 
3 732 4317 438 
3 3573 438 3240 
3 1197 434 5039 
3 10900 10056 10596 
3 6771 1854 1759 
3 8984 10675 10054 
3 1759 1854 3984 
3 9189 8200 9051 
3 4332 3984 6527 
3 683 370 4750 
3 9189 3984 6772 
3 3984 9189 6527 
3 5952 9745 7903 
3 1758 1944 7273 
3 5102 729 5068 
3 7226 4453 4452 
3 7273 1944 5248 
3 10064 10633 8998 
3 7972 5814 7796 
3 2234 3415 2244 
3 6093 10261 7991 
3 3415 5814 3612 
3 9399 6093 7991 
3 3517 3367 2278 
3 8984 7559 7540 
3 5614 7556 7550 
3 3060 5585 2929 
3 2224 3141 2234 
3 10718 10064 8998 
3 7550 7796 5740 
3 29 2941 832 
3 8978 10131 9051 
3 8998 7556 9060 
3 8184 10131 9302 
3 9302 8095 5784 
3 5746 5998 8095 
3 6585 8005 6971 
3 3141 5740 3415 
3 3060 3320 5746 
3 4309 2154 4706 
3 4968 6824 7180 
3 7180 4706 4968 
3 2154 2144 4706 
3 3790 6785 1074 
3 4706 7180 4613 
3 1075 1441 4204 
3 4537 5108 4832 
3 9571 9534 8568 
3 4706 4613 7200 
3 10071 9125 7581 
3 6585 1076 1442 
3 9718 3200 5865 
3 371 6309 3105 
3 371 1074 6785 
3 6785 3790 8337 
3 3291 7832 8005 
3 4204 3200 1075 
3 9534 4543 8699 
3 4321 4832 2094 
3 3647 9534 9571 
3 4321 2084 3700 
3 9453 4611 4259 
3 3876 9726 6114 
3 130 1298 8579 
3 3410 1712 2823 
3 8326 1895 4611 
3 6238 3940 3652 
3 2534 5282 2529 
3 8242 2669 6658 
3 1826 8635 1298 
3 6756 2030 2018 
3 3647 9571 6587 
3 4848 6756 8635 
3 2030 6756 4848 
3 6834 370 3555 
3 30 8395 1198 
3 10214 9090 10111 
3 8337 9564 7581 
3 6771 1759 2763 
3 1854 1644 6772 
3 2656 833 1534 
3 4332 1759 3984 
3 9265 11729 6221 
3 6221 8766 4453 
3 6834 9125 11714 
3 1973 6622 1922 
3 1825 1297 2658 
3 4350 5931 7832 
3 1444 4951 376 
3 1711 1923 2546 
3 6231 8610 4350 
3 1957 7092 5148 
3 4951 7056 376 
3 3214 6892 8002 
3 1895 1618 4611 
3 8326 6508 1978 
3 10056 10900 10463 
3 6436 30 833 
3 2606 1534 1199 
3 6873 30 4681 
3 11338 10512 10983 
3 10056 8817 7412 
3 4552 1073 7056 
3 6892 9125 8002 
3 1841 2851 1890 
3 3071 3287 2088 
3 3047 5682 5577 
3 1474 11713 6470 
3 1470 2257 464 
3 3071 2088 2098 
3 3528 3714 5953 
3 3072 3441 2113 
3 3519 3093 2093 
3 970 6979 6674 
3 6572 2163 2153 
3 3946 2083 2073 
3 4894 9638 8346 
3 4579 6886 8713 
3 1617 3595 1894 
3 10263 6456 6188 
3 4844 6572 2153 
3 4793 2041 6836 
3 1335 2317 167 
3 4399 2305 2313 
3 9559 7845 6440 
3 2309 167 2317 
3 3072 2103 3093 
3 3519 2083 3946 
3 6216 3964 3595 
3 6886 1617 805 
3 8976 10658 7608 
3 2113 3441 2123 
3 10116 10658 8976 
3 5635 3093 3519 
3 123 4756 8709 
3 6456 4593 4092 
3 682 4894 4634 
3 4012 6172 3228 
3 5152 970 8173 
3 6441 7911 9381 
3 9987 9340 10640 
3 1818 2655 1703 
3 3817 4255 6407 
3 2203 122 1290 
3 1882 2555 1704 
3 9559 6440 122 
3 5961 8032 6847 
3 2265 464 2257 
3 6286 7607 5633 
3 5152 1335 167 
3 1333 967 4046 
3 7625 8032 5961 
3 5013 2999 6219 
3 3468 1578 1335 
3 7954 6118 7820 
3 3830 1107 1606 
3 8636 6118 3382 
3 8626 4819 6847 
3 3755 6182 3714 
3 977 174 3127 
3 2248 1470 1104 
3 11713 11721 6470 
3 2168 2178 3795 
3 8299 9342 6198 
3 1577 1334 3017 
3 6271 4399 4507 
3 1578 2325 1335 
3 2325 2317 1335 
3 3468 1335 5152 
3 1104 11713 469 
3 2228 8673 2218 
3 1470 464 6778 
3 9520 4819 8626 
3 2108 3047 2942 
3 2148 3714 3528 
3 3755 6209 6182 
3 6851 2035 4929 
3 3071 2098 2942 
3 3071 5555 5717 
3 964 2023 6851 
3 8660 6851 4929 
3 9420 4408 8213 
3 5316 5282 9323 
3 4506 4611 9453 
3 6274 6238 3652 
3 4611 4827 8326 
3 9720 1712 933 
3 3409 6658 1826 
3 8529 933 130 
3 1981 2529 2652 
3 4335 4420 1439 
3 8473 833 6873 
3 1973 4951 7092 
3 1444 3214 4350 
3 2595 2564 1853 
3 407 6998 4195 
3 11112 11301 10789 
3 2656 1534 2606 
3 4135 6835 8431 
3 6255 4328 4195 
3 10784 9791 10789 
3 10463 9791 8817 
3 4964 4552 7056 
3 1600 11714 8471 
3 4005 5521 2658 
3 7347 9142 5295 
3 8908 7533 7442 
3 2823 5596 3410 
3 1853 1642 715 
3 6998 6568 9565 
3 11062 11301 11476 
3 10378 10835 9817 
3 5868 5668 9311 
3 9456 408 4241 
3 5719 4719 408 
3 407 6553 4863 
3 416 8609 708 
3 3402 6089 6019 
3 2544 5289 2543 
3 830 8609 416 
3 7345 7346 5289 
3 2544 2543 830 
3 11265 11463 11062 
3 11301 11041 10789 
3 6827 2542 8448 
3 4774 8606 6555 
3 10923 10563 9259 
3 11044 10823 9761 
3 3209 6361 9682 
3 4054 1171 1732 
3 8847 8908 7442 
3 10563 10765 9769 
3 4054 8290 6274 
3 8648 6274 6114 
3 161 5257 1329 
3 1726 8660 1890 
3 7866 5932 5717 
3 3287 3576 2078 
3 3270 6360 1726 
3 161 1999 2011 
3 2851 3270 1890 
3 8213 6204 9420 
3 7866 5981 10305 
3 5932 6204 3576 
3 5881 5788 3322 
3 9255 7794 7614 
3 4723 9755 6133 
3 1606 1107 3799 
3 3743 175 6265 
3 11725 6097 9120 
3 4836 4385 2198 
3 9342 8302 3814 
3 7765 10035 9682 
3 6361 3209 1840 
3 1841 4408 3658 
3 5981 9420 10305 
3 3270 9590 6360 
3 6361 7765 9682 
3 6360 9590 7765 
3 5571 2851 5441 
3 11410 11031 11659 
3 11083 11354 11421 
3 10528 9833 8847 
3 8847 7392 10000 
3 7345 8789 7346 
3 5289 5303 2543 
3 11324 10823 11044 
3 9542 6623 2550 
3 4755 4886 834 
3 8064 5362 2606 
3 931 4775 1710 
3 4755 31 4774 
3 8990 9542 5294 
3 1988 1956 6582 
3 10617 9323 7336 
3 5316 5429 2652 
3 10981 10481 9863 
3 9904 9863 7360 
3 3569 1296 5168 
3 1710 4775 4964 
3 11430 11044 11291 
3 10413 8851 9935 
3 5362 8064 8798 
3 11340 11420 11058 
3 3569 5168 7182 
3 128 9462 8319 
3 5783 9292 8570 
3 3402 1968 1908 
3 10372 10770 11128 
3 10921 10784 11093 
3 4902 8532 7139 
3 9462 7139 4886 
3 9998 5658 8771 
3 3570 7182 5168 
3 2801 1576 1328 
3 2819 1839 6575 
3 160 7085 1328 
3 11153 11435 10779 
3 8219 4554 3736 
3 8219 5919 9726 
3 7765 9590 10035 
3 11153 8853 10504 
3 2837 5441 2851 
3 1841 1890 4408 
3 977 1343 3193 
3 1343 175 11725 
3 3270 2851 5571 
3 9590 9038 10035 
3 9131 8049 9957 
3 162 3055 958 
3 3302 8754 1343 
3 9140 10201 7657 
3 3799 1107 3994 
3 1345 979 6737 
3 5449 2655 2924 
3 9478 6187 9280 
3 7523 5965 9234 
3 120 4145 923 
3 7523 9234 8832 
3 5444 8843 10634 
3 8032 10119 7683 
3 741 5213 5053 
3 164 1331 4618 
3 165 4084 7131 
3 4287 6685 1105 
3 7143 465 4212 
3 7131 8101 7679 
3 10119 9250 7683 
3 9250 10244 7683 
3 4387 9200 5276 
3 3531 165 7131 
3 8101 4084 6498 
3 1577 968 8350 
3 9447 3531 7679 
3 9458 7687 10185 
3 1334 11719 166 
3 4779 8502 6563 
3 923 1564 2940 
3 8650 2940 5453 
3 11376 11171 10862 
3 9001 7607 10533 
3 5633 3468 6286 
3 1333 165 5013 
3 8173 970 1336 
3 4281 8669 972 
3 168 1336 4126 
3 11376 10634 11171 
3 11269 11453 11546 
3 11171 11499 10862 
3 10870 10070 10571 
3 6727 9437 8191 
3 7529 5642 9195 
3 2979 8191 5581 
3 10096 9067 10707 
3 7608 7521 8976 
3 10116 8976 10096 
3 6812 368 3199 
3 4012 6520 6172 
3 367 681 8450 
3 8600 5753 9068 
3 10023 8503 5852 
3 3756 9662 8605 
3 3756 5944 9662 
3 8775 6216 3595 
3 4509 7133 3985 
3 4518 8393 4483 
3 6329 3595 6886 
3 9035 8152 8950 
3 4123 365 5855 
3 8950 10677 9035 
3 7668 10182 10723 
3 9899 11376 10862 
3 11308 11557 11494 
3 10390 10640 10870 
3 10655 8832 10859 
3 5335 7359 9340 
3 2695 5355 2605 
3 8821 5355 8192 
3 10210 7801 9570 
3 9277 5610 7529 
3 10707 10677 10096 
3 6812 9635 8062 
3 8393 6409 4483 
3 5153 361 1067 
3 3028 5723 5698 
3 7178 5924 1437 
3 4315 986 4436 
3 1431 3275 1065 
3 4977 1432 360 
3 8796 8892 9797 
3 10571 10877 11139 
3 10116 8950 5581 
3 1284 5034 6726 
3 5307 7370 7359 
3 10870 11139 11281 
3 3520 1070 364 
3 1070 6034 7295 
3 10859 11047 10780 
3 10859 11641 11047 
3 10390 10870 11499 
3 11485 11181 10867 
3 4779 6563 4629 
3 8582 6300 4210 
3 4391 1288 4779 
3 8502 1818 1703 
3 3010 170 1338 
3 9001 7687 7607 
3 3424 972 4210 
3 4680 8502 1703 
3 1818 4779 1288 
3 169 6563 4210 
3 7406 5449 7523 
3 2924 2655 1818 
3 10870 10571 11139 
3 11554 11641 11471 
3 11302 10369 11180 
3 9797 9776 8796 
3 8192 2695 6726 
3 1699 6725 918 
3 11554 11047 11641 
3 11375 11423 11077 
3 11308 11453 11557 
3 11423 11453 11572 
3 3010 7006 9994 
3 4034 8582 4680 
3 11269 11572 11453 
3 11557 11453 11423 
3 6352 8264 4078 
3 115 5034 1284 
3 1351 4128 985 
3 2605 1699 1879 
3 7529 10210 9139 
3 3048 7107 115 
3 4571 363 7083 
3 3216 4640 1068 
3 1435 3546 3197 
3 5852 10614 10023 
3 1069 3197 4645 
3 9635 6812 3199 
3 1431 3985 4587 
3 6408 4369 6373 
3 7133 4509 8393 
3 4645 3216 1434 
3 3293 5796 9658 
3 4640 3293 1433 
3 3681 6408 6373 
3 2046 3753 4369 
3 5854 5980 7890 
3 1434 1068 6748 
3 3069 2972 5660 
3 4369 6408 4622 
3 8504 4436 6230 
3 6230 3596 10329 
3 6595 4128 5238 
3 4617 9622 4132 
3 9170 9887 8900 
3 7443 6491 9597 
3 4128 6595 9714 
3 8558 4610 7083 
3 6372 9622 8453 
3 10589 9569 7665 
3 4533 9622 6372 
3 6372 8453 7665 
3 9211 1353 5139 
3 4151 362 7294 
3 9569 6372 7665 
3 10589 10045 9077 
3 584 3758 5117 
3 7638 10589 9077 
3 7977 9077 7681 
3 5723 7594 5698 
3 1349 4983 3011 
3 1350 984 6428 
3 7826 3180 5686 
3 8264 7690 9570 
3 6595 3183 9714 
3 5686 3180 3068 
3 184 8558 987 
3 1353 4132 4533 
3 4132 987 8558 
3 1353 185 5139 
3 9216 9948 10735 
3 10386 11359 10962 
3 1700 6619 919 
3 6523 917 1698 
3 10519 8835 10699 
3 5374 2623 8160 
3 7742 6619 7425 
3 7742 8874 9597 
3 5584 2937 3046 
3 966 7205 170 
3 4354 1702 4804 
3 782 537 5043 
3 7800 9306 9389 
3 8177 4034 7270 
3 4804 6490 4354 
3 6417 9696 7720 
3 4233 6152 8362 
3 6793 541 3566 
3 2639 1881 1817 
3 6490 8315 9641 
3 10519 10771 9789 
3 9789 10565 8804 
3 6619 4566 919 
3 1813 2712 1698 
3 11269 11143 10771 
3 10386 10962 9869 
3 7443 9170 2712 
3 6491 1813 1283 
3 6731 4003 9344 
3 7753 9993 8945 
3 9389 9306 10302 
3 5690 7870 3081 
3 10565 11143 10791 
3 11485 10386 11181 
3 8742 3927 6353 
3 9203 10338 7883 
3 4010 305 652 
3 8364 4500 7154 
3 9118 10306 7795 
3 485 1482 4114 
3 3927 4937 6353 
3 5187 737 453 
3 4395 9348 6946 
3 8685 7795 10306 
3 9606 6400 8040 
3 5221 326 659 
3 7044 8040 6381 
3 4160 7926 5877 
3 653 4267 306 
3 4267 4215 6388 
3 3918 4010 652 
3 7590 5584 9110 
3 8777 4215 305 
3 651 3865 304 
3 4265 307 1040 
3 3866 304 652 
3 2937 5584 5671 
3 7590 9110 10240 
3 5871 7854 9300 
3 657 4637 6381 
3 8777 9203 6343 
3 6225 3918 3865 
3 5035 1341 173 
3 3880 7104 7680 
3 324 4988 1419 
3 9674 9920 10732 
3 452 4044 6313 
3 3360 327 660 
3 5951 8461 7894 
3 1888 7104 1836 
3 3748 9303 1341 
3 155 7174 3400 
3 10475 10961 10964 
3 11505 11501 11570 
3 5009 959 3007 
3 6167 5009 3007 
3 6525 4378 9653 
3 10273 10882 9008 
3 6424 1919 8640 
3 926 2672 4090 
3 3926 1133 1499 
3 11076 11374 10964 
3 1925 5203 1499 
3 10475 10964 9936 
3 8640 1327 6424 
3 5415 10570 9319 
3 1724 2819 2699 
3 2718 6918 158 
3 155 3400 1324 
3 9522 2836 5385 
3 8072 2773 5464 
3 957 155 3594 
3 4016 6177 8764 
3 7105 2609 1888 
3 1341 4365 975 
3 5672 3127 3051 
3 11259 11140 11462 
3 10504 8877 9823 
3 11288 11548 11066 
3 10905 11066 11636 
3 5385 2836 2609 
3 7792 8836 10059 
3 8640 159 1327 
3 5415 9319 2699 
3 11153 10570 8853 
3 6575 1839 1327 
3 6566 8190 2875 
3 1821 2673 2554 
3 7992 2801 7085 
3 8180 6575 1327 
3 11259 11261 11548 
3 2801 7992 5563 
3 5447 7792 2729 
3 1721 2609 2836 
3 10792 11435 11153 
3 10792 10504 9823 
3 10059 10905 10441 
3 9824 11483 7470 
3 3880 1836 7104 
3 7680 3083 8182 
3 9118 9140 10306 
3 7795 8685 9348 
3 9606 7739 6400 
3 657 6381 325 
3 6661 4984 1405 
3 7886 5695 3535 
3 3360 5837 9674 
3 7978 3994 7307 
3 4265 1040 2937 
3 10185 7687 9001 
3 6634 7655 10147 
3 3234 5743 6149 
3 8545 4445 2927 
3 3814 176 1344 
3 5911 3261 5752 
3 176 9755 4585 
3 3193 7655 6634 
3 5653 5672 3051 
3 3193 11725 9120 
3 7655 9120 10201 
3 4043 5911 6097 
3 9120 6097 7657 
3 9289 10191 6099 
3 467 4563 1472 
3 8316 6099 3957 
3 740 5053 5003 
3 6882 456 4564 
3 4247 8385 4504 
3 3302 1343 977 
3 7655 3193 9120 
3 6198 6176 6209 
3 1343 11725 3193 
3 1345 6737 3999 
3 7898 9201 7739 
3 9038 5571 7470 
3 9824 10973 11261 
3 1342 3051 174 
3 3127 5672 10740 
3 10973 9824 9131 
3 5441 9131 7470 
3 3223 5704 8182 
3 7680 8308 6177 
3 11140 10792 9823 
3 7476 5559 10035 
3 11483 9824 11356 
3 11259 11548 11435 
3 10504 10044 8877 
3 9823 8877 9122 
3 9824 11462 11356 
3 9122 5454 7476 
3 11261 11462 9824 
3 9131 9824 7470 
3 11678 11692 11705 
3 11151 10923 9833 
3 11354 11577 11421 
3 10782 11151 9833 
3 11044 11430 11671 
3 11606 11534 11410 
3 11519 11418 11592 
3 11031 10785 10765 
3 10525 9785 10752 
3 7384 9269 10521 
3 10980 10365 9863 
3 11614 11698 11518 
3 11099 10980 10481 
3 927 159 1706 
3 4835 8628 2874 
3 1706 1919 6566 
3 11235 11290 11418 
3 11577 11614 11421 
3 9904 5895 10981 
3 8791 10495 9798 
3 11587 11290 11094 
3 5309 8033 9999 
3 9798 8875 8791 
3 1919 1706 8640 
3 11511 11705 11658 
3 11520 11661 11521 
3 11433 10757 11116 
3 11519 11577 11235 
3 10007 8792 10525 
3 9269 5959 7526 
3 11671 11615 11552 
3 10752 10769 10525 
3 11698 11614 11648 
3 11590 11398 11658 
3 5215 6341 8727 
3 2542 834 2574 
3 10525 8792 9785 
3 11511 11396 11406 
3 6912 5072 1980 
3 2532 1980 2610 
3 5301 8792 10007 
3 9321 7526 5446 
3 9784 7349 9119 
3 9991 10530 10372 
3 11496 11340 10793 
3 11549 11605 11662 
3 11605 11535 11689 
3 11248 11041 11463 
3 5776 7543 7976 
3 2760 1855 3024 
3 11535 11437 11242 
3 11656 11618 11517 
3 9159 10080 7421 
3 11319 11030 11405 
3 1760 1855 7187 
3 2760 2574 1645 
3 1760 7187 7242 
3 5046 4990 1956 
3 10805 11201 11633 
3 9159 5505 7976 
3 5046 7187 4990 
3 1956 1824 2868 
3 10529 10750 9763 
3 11523 11662 11689 
3 11420 11669 11058 
3 10455 10849 10761 
3 8448 8923 8064 
3 9888 10359 11201 
3 4081 7252 7995 
3 829 11724 1194 
3 10542 9860 7555 
3 27 830 2543 
3 9352 3157 5872 
3 7995 5872 4081 
3 10017 5872 10660 
3 4119 7995 7252 
3 10510 10998 9941 
3 10024 5513 7790 
3 8977 7947 10666 
3 6606 4064 7851 
3 101 904 8683 
3 9694 7637 3042 
3 3104 5829 10069 
3 9967 9881 10942 
3 506 4743 8051 
3 6207 4666 3837 
3 7313 7695 4535 
3 9803 10516 10777 
3 1801 6921 4125 
3 3738 6330 6145 
3 10319 3937 9655 
3 8303 8051 6207 
3 7974 8947 10207 
3 11317 11559 11075 
3 8865 10180 10816 
3 8865 10374 10186 
3 6092 6890 4565 
3 8969 7501 8068 
3 1809 1694 3290 
3 5366 5391 2645 
3 904 4565 8683 
3 10650 8969 8068 
3 3056 8068 7501 
3 10026 10477 10436 
3 6100 7879 10310 
3 6958 8386 223 
3 5365 10207 7383 
3 2693 1551 1265 
3 9825 10026 10436 
3 11381 10869 11075 
3 4666 1265 1551 
3 76 1245 3909 
3 2838 2719 5470 
3 5836 10510 9694 
3 904 3319 1695 
3 7100 4539 6499 
3 6796 7932 9996 
3 3144 7102 1007 
3 7797 10706 7932 
3 4921 4050 1510 
3 543 6606 1510 
3 1147 3818 7061 
3 1144 1510 3631 
3 3425 3617 1610 
3 7947 3719 6796 
3 4050 543 1510 
3 10342 10017 7851 
3 9261 3425 6643 
3 8550 1641 829 
3 7984 5721 9346 
3 5721 10994 9346 
3 11535 11664 11239 
3 3533 828 6993 
3 5350 9146 5426 
3 9154 5508 7555 
3 11535 11605 11664 
3 10770 11242 11582 
3 11128 11582 11541 
3 7494 5570 5498 
3 8986 9941 10517 
3 1510 1144 4921 
3 4050 4921 7170 
3 1373 1592 2781 
3 2898 2781 5498 
3 9614 1375 8449 
3 3354 1487 4766 
3 102 6870 905 
3 9555 7879 6499 
3 9157 5731 8986 
3 220 1371 6691 
3 1810 1878 3571 
3 3027 1371 4705 
3 5498 9182 10668 
3 9586 7767 6967 
3 10004 10503 10949 
3 11477 11327 11379 
3 7424 9081 5470 
3 2719 2838 1270 
3 6207 3837 6050 
3 3789 83 3738 
3 11315 11133 10903 
3 11145 11068 10503 
3 1796 1681 3474 
3 6855 3769 1877 
3 3887 1808 3822 
3 10245 1693 3769 
3 10970 9968 9191 
3 11224 10910 11189 
3 11064 11270 11315 
3 11267 11270 11458 
3 7424 5470 5391 
3 102 905 2645 
3 8840 8828 9803 
3 10777 11136 11267 
3 8088 6535 7793 
3 2752 2636 1696 
3 6856 3822 1877 
3 3875 3709 96 
3 11189 10433 9856 
3 11588 10411 11172 
3 897 3642 3614 
3 11189 10910 10433 
3 10979 5874 7844 
3 9838 10501 8890 
3 5874 9025 5574 
3 11172 8868 10696 
3 9861 10541 11194 
3 11133 11315 11576 
3 4705 1006 7099 
3 9697 6870 4428 
3 7103 2857 7790 
3 9182 5498 2781 
3 1270 4099 4428 
3 102 2645 2719 
3 3589 7879 3811 
3 9555 4099 3571 
3 7103 1373 2857 
3 7797 5570 10706 
3 6958 1374 4040 
3 6048 6086 6095 
3 8886 9972 11131 
3 1593 7009 4040 
3 3075 6493 1375 
3 3890 1374 5227 
3 6948 1009 223 
3 9979 10700 10880 
3 766 5210 7322 
3 4768 4752 6669 
3 6437 8427 6396 
3 7256 500 3321 
3 5350 7358 9146 
3 10542 10037 10527 
3 9031 5298 7349 
3 10412 10468 11383 
3 5550 8258 3154 
3 9146 9961 9827 
3 9784 10831 10354 
3 11457 11239 11664 
3 8463 4258 11717 
3 4240 10279 7112 
3 8814 9961 7358 
3 9827 10860 11383 
3 2981 1852 3554 
3 828 2676 25 
3 7984 5735 3554 
3 2782 5430 2676 
3 829 546 8550 
3 10279 7995 4119 
3 2981 3554 5735 
3 1755 4221 1194 
3 10442 9960 9860 
3 5430 5354 2676 
3 10354 11069 11329 
3 11549 11426 11605 
3 11096 11239 10774 
3 9784 11004 10831 
3 10380 10774 11111 
3 10860 11111 11226 
3 11664 11426 11457 
3 11111 11069 10831 
3 9766 10849 11015 
3 11282 11407 11562 
3 930 1709 2915 
3 1921 6912 1980 
3 8818 5293 8107 
3 11135 10944 10080 
3 10295 9017 9646 
3 5776 5489 7543 
3 11692 11592 11702 
3 9123 10076 10927 
3 11628 11587 11237 
3 10757 11094 10495 
3 2532 8143 2629 
3 127 930 4892 
3 11506 11539 11293 
3 11590 11705 11692 
3 2673 1821 1293 
3 5309 8791 8203 
3 11347 10952 11023 
3 11278 11121 11459 
3 4787 1954 6424 
3 8033 7945 9008 
3 6917 9465 8107 
3 2569 1945 1761 
3 10353 10952 11347 
3 11539 11658 11398 
3 5298 9465 2588 
3 4225 6711 10132 
3 3016 5750 5652 
3 2703 1969 6973 
3 930 444 1709 
3 2525 1972 1955 
3 5312 2612 8250 
3 5000 5100 521 
3 7945 2673 7255 
3 5100 5113 772 
3 9777 10763 11390 
3 11459 10398 10843 
3 7945 7255 4090 
3 2672 2612 5312 
3 5959 2915 5446 
3 7283 7943 3353 
3 11042 11459 10843 
3 5292 5281 7341 
3 2530 2525 5281 
3 7283 3353 440 
3 10561 10282 9150 
3 9608 8207 4352 
3 5542 10100 8250 
3 5100 1705 926 
3 5532 2672 5312 
3 3273 6494 5542 
3 10100 5542 7959 
3 8498 4960 6977 
3 8250 2612 2778 
3 2612 1883 2778 
3 5588 5325 2715 
3 1708 2716 929 
3 3752 1292 1820 
3 6840 1820 1883 
3 5701 7659 7776 
3 4352 3942 929 
3 3212 1920 3582 
3 3942 3582 1708 
3 3063 8285 5648 
3 1955 3451 1823 
3 3063 1972 3212 
3 1920 2560 1708 
3 2614 2715 5325 
3 7423 10398 10076 
3 7632 9334 5652 
3 4022 3760 6306 
3 10132 7667 6053 
3 10335 7570 7588 
3 9282 3171 8198 
3 10290 9334 7632 
3 33 1201 3404 
3 6648 3836 8057 
3 4134 6386 5963 
3 9282 6052 3309 
3 3171 1967 1907 
3 1193 5245 4134 
3 2776 1967 1942 
3 3232 3171 1907 
3 5963 7671 5535 
3 7667 7632 5750 
3 7161 8604 4225 
3 733 4416 8721 
3 4872 442 734 
3 8187 7283 4192 
3 4813 5262 736 
3 3451 6317 4437 
3 4437 5112 1295 
3 1459 1093 3308 
3 734 442 5094 
3 7311 733 5112 
3 8682 9269 5445 
3 6386 8258 5963 
3 3102 1942 1754 
3 1201 4062 3404 
3 2556 5331 5298 
3 6053 7161 10132 
3 441 5910 3149 
3 3842 3280 1121 
3 504 5210 766 
3 8967 8972 10010 
3 3842 505 8427 
3 5210 1145 547 
3 224 9614 5242 
3 4978 1490 504 
3 1607 1123 225 
3 10422 11131 10437 
3 226 1011 3561 
3 9979 10712 7989 
3 601 1489 1607 
3 2752 1696 1811 
3 4805 6691 1371 
3 10422 10024 8886 
3 11131 8887 10880 
3 9931 10411 10853 
3 10501 11133 10844 
3 7730 8868 9931 
3 10830 11325 11136 
3 10982 6020 7975 
3 8104 6292 3822 
3 9838 8890 7498 
3 7498 5480 5574 
3 10588 8991 9070 
3 1263 95 898 
3 7975 3660 5603 
3 1263 3545 3504 
3 5480 8890 9279 
3 2634 9279 6949 
3 10136 10853 8961 
3 8868 7730 7482 
3 11194 8961 10853 
3 896 6429 103 
3 4733 4651 1271 
3 8026 5995 6241 
3 1811 4733 1271 
3 9214 8026 3802 
3 10001 10982 8991 
3 8737 5603 95 
3 6094 6110 6088 
3 5480 7498 8890 
3 8991 5603 9070 
3 9240 3504 6010 
3 1807 3718 3545 
3 6060 3559 6031 
3 6072 3718 6101 
3 5480 2634 2870 
3 6101 3718 3614 
3 6110 3635 6088 
3 93 6466 1262 
3 3165 9727 6429 
3 1369 219 6644 
3 3716 3897 6241 
3 10992 9513 7892 
3 8573 6994 3593 
3 10490 9743 5741 
3 220 4539 1006 
3 8878 10624 10838 
3 11156 10490 8894 
3 4388 6533 8100 
3 3625 1123 1607 
3 3154 6386 1638 
3 6386 3154 8258 
3 7549 7936 6451 
3 9981 8878 10418 
3 3787 1010 1376 
3 4076 1010 5090 
3 7545 10592 7669 
3 4363 2494 2496 
3 10624 7549 9879 
3 3023 1369 6644 
3 1011 7078 4904 
3 4076 1376 1010 
3 8620 4201 6419 
3 9513 3023 7892 
3 7563 9513 10992 
3 2465 2463 3697 
3 9512 5995 9731 
3 8773 4484 1550 
3 8620 6294 4201 
3 4703 1005 219 
3 3593 6294 8573 
3 9214 3802 103 
3 4201 3593 1369 
3 1369 3593 219 
3 8097 3859 4341 
3 1549 2872 895 
3 4231 4079 2457 
3 1550 2951 3165 
3 7195 3657 8015 
3 8711 8097 4089 
3 2634 1261 94 
3 3859 895 4341 
3 2429 3097 2431 
3 6072 6101 9651 
3 8617 9651 6031 
3 6031 9651 6060 
3 6060 10316 6088 
3 6110 8015 6257 
3 4626 4371 7062 
3 8454 93 4443 
3 2453 2451 4626 
3 4450 8454 6891 
3 6060 6088 3605 
3 3635 3605 6088 
3 2453 4626 4450 
3 6009 3544 3503 
3 3559 3544 6031 
3 3482 3305 5786 
3 3544 2439 2437 
3 2439 3559 2441 
3 2441 3559 3605 
3 2443 3635 2445 
3 2455 2453 4450 
3 8211 9391 6241 
3 8678 2469 2467 
3 1004 2475 9432 
3 8678 6419 5182 
3 1378 228 8693 
3 7035 4520 4330 
3 4913 7299 7078 
3 2499 4748 4920 
3 1488 4388 1122 
3 2497 4748 2499 
3 4520 4748 2497 
3 4291 4619 7035 
3 4386 226 1376 
3 2493 4330 2495 
3 2501 4641 2503 
3 4641 6600 3867 
3 2934 2502 2504 
3 2500 2502 3073 
3 2468 3948 3685 
3 5649 3272 3004 
3 5972 3379 3580 
3 7588 5649 7605 
3 3004 3272 2476 
3 4363 2496 3796 
3 3348 2498 2500 
3 10292 7762 8198 
3 2476 3272 2474 
3 7567 10158 9331 
3 5758 6000 3348 
3 7717 8057 6000 
3 7669 5758 5602 
3 9331 3874 6739 
3 7467 7985 8967 
3 10117 7717 7669 
3 5758 3348 3073 
3 5910 441 9610 
3 441 3149 1094 
3 3480 3685 6062 
3 3707 8307 9610 
3 3379 3221 2482 
3 2474 3678 2472 
3 8109 5910 8434 
3 3272 5827 3678 
3 3950 5913 6132 
3 5926 6200 8512 
3 3211 3140 5701 
3 8207 6200 3942 
3 3942 6200 3582 
3 5889 3353 7943 
3 1093 4416 440 
3 5761 3307 5906 
3 6074 8512 6200 
3 6074 6200 9580 
3 5328 9150 8030 
3 8397 3486 4253 
3 6344 4199 4981 
3 3445 6074 3762 
3 1884 1707 4883 
3 521 5100 772 
3 9460 4329 3752 
3 6347 3486 8397 
3 8498 6977 928 
3 8397 4253 9497 
3 6199 9497 4094 
3 4933 9497 10301 
3 3140 3307 5761 
3 2466 2468 3685 
3 8239 2784 2614 
3 1822 1294 2715 
3 3307 2464 3480 
3 2460 3211 2458 
3 6074 5856 8512 
3 6488 4812 4820 
3 4138 3762 9580 
3 6766 9568 4698 
3 4094 4933 2430 
3 6199 4094 4037 
3 10301 520 5110 
3 519 7046 1498 
3 5110 1500 5044 
3 519 8594 2422 
3 8594 4871 2420 
3 3873 7135 1498 
3 8594 7135 4871 
3 7127 4871 3873 
3 6773 2414 4980 
3 4338 5261 960 
3 4216 2410 4562 
3 2392 7204 2390 
3 6697 7868 7060 
3 6389 8394 5065 
3 3245 3377 323 
3 3458 2358 2360 
3 320 1416 7018 
3 4989 8353 7212 
3 3983 2352 2356 
3 6150 6701 8425 
3 5005 4884 6915 
3 2384 3267 2382 
3 3377 5832 5684 
3 2382 3676 2380 
3 8943 7514 7505 
3 2374 7065 4993 
3 5095 6988 2370 
3 5158 487 4473 
3 1483 1117 6668 
3 3934 4846 7060 
3 1118 1483 486 
3 4846 4473 7060 
3 6376 4684 3676 
3 320 656 5208 
3 4060 7276 7514 
3 8275 1050 3834 
3 10146 9578 7715 
3 1050 330 3834 
3 3834 9235 6560 
3 2378 4684 5194 
3 1051 5095 4993 
3 6654 3552 1052 
3 7505 7514 7276 
3 2410 4216 2408 
3 10297 10613 7619 
3 4261 1479 483 
3 9695 7291 4114 
3 10344 9736 3862 
3 9736 10344 6333 
3 5158 7204 487 
3 5065 8394 1484 
3 1134 4199 7046 
3 519 1498 7135 
3 4871 7135 3873 
3 3873 4842 7127 
3 3695 6344 4981 
3 7046 4198 1498 
3 1498 4198 1132 
3 4842 4423 7127 
3 157 5261 1325 
3 4782 4444 9450 
3 5142 5087 773 
3 10301 9497 4253 
3 4338 4337 5261 
3 6194 3622 3903 
3 3812 8389 6420 
3 3653 1116 484 
3 1481 4528 484 
3 5073 1116 3824 
3 1722 3665 3534 
3 1323 5009 3006 
3 9424 6311 8645 
3 8394 1118 1484 
3 6364 3695 5080 
3 7321 124 4975 
3 2764 2813 1838 
3 158 4761 961 
3 7097 5169 773 
3 773 5087 522 
3 2764 6918 9421 
3 5142 8691 5087 
3 4761 5169 7097 
3 8615 522 7321 
3 8355 2813 5473 
3 8340 2855 3088 
3 6390 6147 8677 
3 3111 4114 1482 
3 1117 485 4632 
3 9620 8050 5951 
3 9021 8340 6126 
3 2855 5496 3007 
3 3295 4052 1835 
3 9438 4528 6420 
3 4114 7291 485 
3 3832 4682 9424 
3 5781 3552 8647 
3 5639 7854 3235 
3 10951 10703 10661 
3 7926 9674 10732 
3 4632 8476 9562 
3 6365 8461 3318 
3 9022 5639 5684 
3 4988 10246 6683 
3 4024 4000 6297 
3 10272 6099 10191 
3 7025 304 3866 
3 652 304 3918 
3 10951 9920 10642 
3 3915 6138 8194 
3 10259 9180 5599 
3 9644 8531 5724 
3 3046 9558 5584 
3 5671 7590 9151 
3 10639 10703 8943 
3 7490 6990 10721 
3 4989 5005 8353 
3 5599 3096 10259 
3 5793 486 3891 
3 4245 973 3563 
3 6831 3000 7515 
3 9337 3924 6578 
3 1482 4647 3824 
3 5065 487 1114 
3 1483 1118 8394 
3 4522 6389 4647 
3 7791 10146 9235 
3 8425 3983 3536 
3 1404 3317 303 
3 6150 8425 9578 
3 9183 9644 7627 
3 7185 302 4268 
3 1036 3539 1402 
3 3250 4946 5724 
3 299 7308 4972 
3 4582 2312 4999 
3 4263 1142 1508 
3 4972 6371 3539 
3 8630 5043 783 
3 11722 8060 3960 
3 537 782 4491 
3 4803 6672 9671 
3 5809 10341 9668 
3 9668 6672 3717 
3 1508 540 4263 
3 308 3046 1406 
3 9667 4804 921 
3 782 536 8485 
3 7308 299 540 
3 5848 8945 9696 
3 1143 4389 4263 
3 4389 1509 5130 
3 7723 3632 8531 
3 6417 6649 4796 
3 7054 1036 3250 
3 1143 4263 540 
3 6490 4804 8315 
3 9641 8315 1506 
3 4262 7604 6673 
3 1286 6672 4803 
3 6649 1143 6957 
3 5012 782 5043 
3 536 6676 8485 
3 1140 5130 541 
3 3960 5012 11722 
3 11722 5012 5043 
3 3365 1701 6670 
3 8918 10522 9948 
3 9354 6670 10285 
3 117 920 5060 
3 7839 8918 9216 
3 8918 10029 10522 
3 3286 1815 3995 
3 8279 8084 6270 
3 5253 8084 116 
3 1813 1698 9529 
3 10122 6399 7957 
3 5688 3342 7802 
3 180 8084 983 
3 8334 1813 9529 
3 3146 7957 8662 
3 187 8662 585 
3 8566 5146 4361 
3 3717 3365 5809 
3 5809 3365 9354 
3 7826 10276 9130 
3 1348 6955 179 
3 6549 537 4491 
3 3587 117 7027 
3 3484 3286 9401 
3 7935 8281 5792 
3 8349 3301 5789 
3 8281 7935 9685 
3 585 516 187 
3 769 6395 2519 
3 4945 1976 1893 
3 2020 4340 4737 
3 4340 2032 4205 
3 7225 2008 4737 
3 8357 6395 4764 
3 8756 513 7160 
3 8576 514 2519 
3 769 5146 513 
3 4945 1893 4665 
3 804 1 8712 
3 2044 4731 4205 
3 3146 6115 7957 
3 4627 1497 515 
3 6413 4340 4205 
3 7812 5787 5748 
3 4677 7329 6703 
3 4810 4696 6703 
3 7305 6115 5006 
3 3484 9401 7878 
3 5792 6087 3361 
3 8499 1348 1581 
3 982 3067 3222 
3 1036 4972 3539 
3 1402 4440 300 
3 9576 6925 4208 
3 5941 5792 3330 
3 6915 4884 4875 
3 7220 4999 4958 
3 6371 4223 8596 
3 8596 6941 4693 
3 8281 5789 9496 
3 9230 7027 9304 
3 6307 6925 9576 
3 9515 6549 8099 
3 7858 7755 10285 
3 7878 9401 7935 
3 2264 2272 6716 
3 6716 1141 538 
3 538 8327 7002 
3 3330 3361 2156 
3 2304 2312 4582 
3 4069 8595 8596 
3 6371 8596 8595 
3 6941 8726 4910 
3 4839 6925 4189 
3 3551 3330 2166 
3 3551 5941 3330 
3 2146 3913 2136 
3 2166 3330 2156 
3 3913 6087 8135 
3 4966 4810 6940 
3 4965 7001 6955 
3 1497 4627 4361 
3 4658 586 4555 
3 8576 7067 514 
3 514 1131 6866 
3 6887 4577 8357 
3 4665 1616 6887 
3 4919 1926 7067 
3 4577 8712 1168 
3 3894 1604 8523 
3 1098 8580 8523 
3 6303 1614 6895 
3 1891 1614 6303 
3 6914 3894 9751 
3 8580 9751 8523 
3 3894 1464 1604 
3 802 0 8700 
3 6895 8700 4601 
3 1614 802 6895 
3 8700 0 1169 
3 8700 1169 4601 
3 1169 1730 4601 
3 4547 1464 3894 
3 6895 4601 6914 
3 4695 1983 4702 
3 4601 4449 6914 
3 6895 9751 6303 
3 6914 4449 8722 
3 9747 4695 4702 
3 6914 8722 3894 
3 1464 449 3771 
3 6895 6914 9751 
3 6303 8580 1891 
3 8722 4547 3894 
3 8523 1604 1098 
3 9751 3894 8523 
3 9751 8580 6303 
3 7118 1603 3656 
3 6871 5211 1098 
3 1463 5211 3656 
3 9245 10339 8061 
3 1464 3771 3288 
3 1604 3288 6871 
3 6077 8061 10339 
3 3288 10339 6871 
3 6871 10339 9245 
3 7118 9245 8370 
3 4949 6656 1461 
3 1097 1603 7118 
3 4431 1461 8370 
3 4431 8370 9245 
3 4949 8500 6656 
3 447 1097 8370 
3 1463 2002 1990 
3 447 1461 6656 
3 2002 1097 2014 
3 2026 447 6656 
3 1974 1891 8580 
3 448 1098 5211 
3 448 5211 1463 
3 448 1463 1990 
3 1974 8580 448 
3 1974 448 1990 
3 2002 1603 1097 
3 2014 1097 447 
3 2026 2014 447 
3 2038 2026 6656 
3 2061 2051 4791 
3 9687 4940 332 
3 4940 6879 4852 
3 6656 8500 4358 
3 6656 4358 2038 
3 8500 4442 7237 
3 8500 7237 4358 
3 2081 2071 8478 
3 10102 6296 3848 
3 6762 8478 9687 
3 6762 4891 4659 
3 2091 2081 6762 
3 4659 2091 6762 
3 4659 2101 2091 
3 4336 4659 7179 
3 4372 2131 2121 
3 4006 4336 7997 
3 2141 2131 5011 
3 9670 7997 10325 
3 7286 479 5011 
3 4372 5011 2131 
3 663 4573 4891 
3 4659 4336 2101 
3 2121 2111 4006 
3 7997 4336 7179 
3 2111 4336 4006 
3 9670 10325 6235 
3 3885 6235 6134 
3 6166 7997 4573 
3 4372 4006 9670 
3 4372 9670 7286 
3 4217 479 7286 
3 6235 7286 9670 
3 6764 479 1476 
3 3828 5171 8675 
3 4217 6235 3885 
3 5171 1111 3993 
3 3885 1111 4217 
3 6235 4217 7286 
3 6166 4573 331 
3 331 2508 1420 
3 6235 10325 6134 
3 331 4573 2508 
3 4442 333 4852 
3 4891 4573 7179 
3 6547 2508 663 
3 332 4891 9687 
3 664 332 4940 
3 6879 4940 8478 
3 332 663 4891 
3 9687 4891 6762 
3 4442 8500 7091 
3 1095 4949 1461 
3 7237 4442 4852 
3 7237 4852 4791 
3 8500 4949 7091 
3 4442 7091 665 
3 4442 665 333 
3 4852 664 4940 
3 10102 3848 7213 
3 333 664 4852 
3 664 333 3848 
3 4570 1420 6547 
3 333 7213 3848 
3 664 11710 332 
3 8992 6296 10102 
3 3380 10102 7213 
3 664 3848 11710 
3 8670 8992 6021 
3 6021 3692 8670 
3 8670 4570 11710 
3 3692 1054 4570 
3 8670 11710 6296 
3 4570 6547 11710 
3 6296 11710 3848 
3 9484 6704 4111 
3 1054 1420 4570 
3 6704 6166 331 
3 6704 331 1420 
3 10325 6166 6134 
3 6112 8505 9484 
3 3885 6134 4477 
3 3885 1477 1111 
3 3885 4477 1477 
3 1111 1477 3993 
3 1477 4477 480 
3 1477 5235 3993 
3 1478 3968 1112 
3 480 5235 1477 
3 8759 6112 3584 
3 6704 9484 8482 
3 4477 6134 8482 
3 4477 8482 6246 
3 3304 6246 8505 
3 9484 6246 8482 
3 6704 1420 4111 
3 9484 4111 6112 
3 6112 10165 8505 
3 6246 3304 480 
3 5235 480 1112 
3 6696 9190 7473 
3 3968 5235 1112 
3 6696 1112 3304 
3 9923 10585 7473 
3 9190 3304 8505 
3 6923 4753 244 
3 9320 10977 10130 
3 3584 9748 8759 
3 6112 8759 10165 
3 9923 7473 9190 
3 9923 9190 10165 
3 3692 6021 3175 
3 3175 8429 1422 
3 6021 9679 3175 
3 340 1422 9748 
3 3692 3175 340 
3 3692 340 1054 
3 4111 1054 3584 
3 4111 3584 6112 
3 11012 10619 9163 
3 666 335 3436 
3 9679 6021 11012 
3 10619 8992 10102 
3 8992 10619 11012 
3 7737 7602 3436 
3 7714 9163 10231 
3 7737 9163 7602 
3 6021 8992 11012 
3 9679 11012 7714 
3 7737 3436 6646 
3 4207 8601 5902 
3 3436 5267 6646 
3 669 4499 7086 
3 8667 1466 3078 
3 450 8697 1465 
3 7603 10630 9387 
3 8282 667 5267 
3 451 1096 6929 
3 4542 6580 8697 
3 3416 3568 1602 
3 1096 3568 6929 
3 6066 3416 9612 
3 666 3436 6976 
3 1462 1602 335 
3 3436 335 5267 
3 3416 1602 1462 
3 446 1462 666 
3 3380 334 6976 
3 7602 6976 3436 
3 1462 335 666 
3 446 666 334 
3 334 7091 8538 
3 334 8538 446 
3 9612 6077 6066 
3 8024 7268 6580 
3 4431 8061 6464 
3 446 6464 1462 
3 8061 6077 9612 
3 3568 9405 6929 
3 6464 8061 9612 
3 6464 3416 1462 
3 6066 3568 3416 
3 9612 3416 6464 
3 6077 3771 8024 
3 6066 9405 3568 
3 8024 6580 9405 
3 8024 9405 6066 
3 7268 3771 449 
3 4701 9747 4702 
3 8024 3771 7268 
3 1099 4701 4600 
3 4449 1927 4695 
3 8722 9747 4547 
3 8722 4695 9747 
3 4547 9747 449 
3 4729 4702 1997 
3 7268 449 1099 
3 4600 4701 4702 
3 6580 7268 1099 
3 6580 1099 1465 
3 4648 2021 2033 
3 4734 4600 4729 
3 2009 4729 1997 
3 4734 450 1465 
3 4600 1465 1099 
3 1100 4542 8697 
3 1465 8697 6580 
3 3078 6565 7546 
3 450 1100 8697 
3 6929 9405 4542 
3 1466 4542 1100 
3 2009 2021 4736 
3 4736 8522 4734 
3 4600 4734 1465 
3 9487 8522 6226 
3 8522 450 4734 
3 2021 4648 4736 
3 8522 4736 4648 
3 4110 3351 5806 
3 8522 4648 6226 
3 6565 1100 450 
3 4648 4110 6226 
3 6565 3078 1100 
3 6565 9487 8142 
3 6393 3763 7923 
3 1466 1100 3078 
3 10702 10724 9002 
3 6226 8142 9487 
3 8522 9487 450 
3 8142 7546 6565 
3 9487 6565 450 
3 451 1466 8667 
3 8963 3078 10702 
3 8282 451 5165 
3 8963 8667 3078 
3 6646 667 4982 
3 6173 8667 8963 
3 7737 6646 5902 
3 7737 10231 9163 
3 668 4207 4982 
3 336 4982 667 
3 337 7086 4207 
3 4982 4207 5902 
3 10121 10630 8963 
3 10702 3078 7546 
3 336 5165 8283 
3 10630 6173 8963 
3 7603 8283 10630 
3 5165 336 667 
3 8283 6173 10630 
3 9387 10630 10121 
3 5165 6173 8283 
3 7153 4101 9700 
3 336 8283 4049 
3 336 668 4982 
3 4049 4985 668 
3 4049 668 336 
3 7153 9700 4985 
3 668 337 4207 
3 6744 337 8251 
3 4985 337 668 
3 4985 4049 7153 
3 8288 7603 9387 
3 7603 8288 7153 
3 7603 7153 4049 
3 5675 7595 5622 
3 3351 2045 2057 
3 10724 7576 9002 
3 8958 8166 9387 
3 8142 7576 10724 
3 7546 10724 10702 
3 10121 8963 10702 
3 10121 10702 9002 
3 2033 2045 4110 
3 5622 5806 3351 
3 4110 5806 6226 
3 2045 3351 4110 
3 7576 5806 5622 
3 2991 2057 2067 
3 9002 7576 7595 
3 2991 5622 3351 
3 2057 2991 3351 
3 5675 5622 2991 
3 3244 2991 2067 
3 7576 5622 7595 
3 7663 7923 8165 
3 9002 7595 10055 
3 9002 8958 10121 
3 2991 3244 5675 
3 7663 5933 7923 
3 7595 5675 7663 
3 7595 7663 10055 
3 2067 2077 3244 
3 5675 3244 5933 
3 5675 5933 7663 
3 4398 2087 2097 
3 2077 2087 3710 
3 3244 3710 5933 
3 4398 2097 4732 
3 4786 6657 4732 
3 4853 4732 2107 
3 861 58 4786 
3 6657 58 3763 
3 3763 58 1226 
3 5332 8167 2597 
3 3710 4398 6393 
3 5933 6393 7923 
3 10055 7663 8165 
3 5629 3035 3113 
3 1782 3035 6682 
3 3763 6682 7923 
3 6682 1226 1782 
3 1863 2674 2597 
3 6556 8076 2674 
3 1782 2674 1863 
3 4976 9732 6556 
3 1226 6556 1782 
3 10526 10097 10066 
3 2674 5332 2597 
3 10097 8803 5332 
3 8076 5332 2674 
3 10855 9816 10364 
3 5332 8803 8167 
3 9774 10659 8891 
3 8803 8891 8167 
3 10868 10796 11332 
3 8891 9643 7735 
3 10796 9917 10659 
3 8891 9917 9643 
3 8251 57 1225 
3 6550 4699 7735 
3 7735 9643 6550 
3 4699 1225 57 
3 8166 5629 3113 
3 6680 3113 1667 
3 2597 8167 6681 
3 860 6681 4699 
3 10055 8165 5629 
3 8958 9387 10121 
3 10055 5629 8958 
3 10055 8958 9002 
3 8288 9387 8166 
3 8288 8166 6680 
3 9700 57 8251 
3 5123 6759 338 
3 6744 8251 1225 
3 6550 1225 4699 
3 2587 1666 1781 
3 6550 1781 1225 
3 10710 1666 2587 
3 1666 6759 5123 
3 56 4849 859 
3 859 4849 6759 
3 5164 3393 1421 
3 5774 3816 3159 
3 8962 6472 10032 
3 8534 1055 338 
3 3159 3816 1223 
3 3889 859 6472 
3 859 1666 10710 
3 7430 9643 9917 
3 6472 859 10710 
3 10032 2587 7430 
3 10710 2587 10032 
3 10032 7430 11209 
3 6472 10710 10032 
3 11209 7430 9917 
3 8962 10032 10868 
3 11040 11257 11054 
3 10032 11209 10868 
3 11052 11298 11490 
3 9854 10895 11227 
3 5766 7798 3151 
3 5435 9526 2660 
3 5435 2660 3889 
3 56 859 3889 
3 5435 6472 8962 
3 1223 56 3889 
3 5435 3889 6472 
3 3889 2660 1223 
3 56 1223 3816 
3 6629 2660 9526 
3 2660 1779 1223 
3 6628 1862 6629 
3 1779 2841 3159 
3 1664 1862 6628 
3 6628 6629 7503 
3 7686 3684 6628 
3 7503 9526 10636 
3 6628 3684 1664 
3 5511 5774 3159 
3 857 3236 3151 
3 1664 7080 1862 
3 1664 3151 7080 
3 1862 2841 1779 
3 3236 9172 5766 
3 3151 7798 7080 
3 5766 9172 10294 
3 9097 7804 5900 
3 9027 10294 9097 
3 9027 10030 10607 
3 9027 9046 7798 
3 7080 2841 1862 
3 2841 7080 7798 
3 2841 5511 3159 
3 7144 5774 8197 
3 7518 9889 10725 
3 2841 7798 5511 
3 7518 9176 8197 
3 5511 7798 9046 
3 5511 9046 7518 
3 9962 9889 10607 
3 9503 8031 6859 
3 9962 10607 9503 
3 8031 9097 5900 
3 8921 9962 7466 
3 7466 9962 9503 
3 10607 10030 9503 
3 7466 9503 6859 
3 7460 9897 10507 
3 10581 10725 9889 
3 9176 9897 7460 
3 8921 7466 7496 
3 9176 7460 6514 
3 7144 3816 5774 
3 9176 6514 8197 
3 9176 7518 10725 
3 4849 3816 7144 
3 4849 6616 8534 
3 5774 5511 7518 
3 5774 7518 8197 
3 1666 859 6759 
3 1666 5123 1781 
3 1421 1055 6616 
3 4849 8534 6759 
3 1225 1781 6744 
3 337 669 7086 
3 6744 1781 5123 
3 6744 5123 669 
3 5123 338 669 
3 6744 669 337 
3 5691 7086 4499 
3 5691 4499 3393 
3 3393 1055 1421 
3 4250 6616 7144 
3 4849 7144 6616 
3 8534 6616 1055 
3 8197 6514 4250 
3 6616 4250 1421 
3 6581 1422 1056 
3 2997 6514 7460 
3 6581 1056 2997 
3 4250 339 1421 
3 7714 5691 6279 
3 5164 1421 339 
3 6279 3393 5164 
3 1056 5164 339 
3 7737 5902 10231 
3 9163 7714 11012 
3 4207 7086 8601 
3 10231 8601 7714 
3 6279 9679 7714 
3 5691 7714 8601 
3 5691 3393 6279 
3 9679 6279 3175 
3 6279 5164 8429 
3 6279 8429 3175 
3 1056 339 2997 
3 6581 10183 8922 
3 2997 7460 10183 
3 2997 10183 6581 
3 9897 10945 10507 
3 10183 11022 8922 
3 10725 10581 9897 
3 10725 9897 9176 
3 9897 10581 10945 
3 10507 10945 11022 
3 10945 10581 8921 
3 10585 8921 10977 
3 10945 9923 11022 
3 10507 11022 10183 
3 7473 10585 9320 
3 4753 1019 244 
3 10585 10977 9320 
3 7473 9320 2954 
3 10977 7496 10130 
3 9320 8342 2954 
3 6730 1019 4753 
3 10130 8342 9320 
3 4753 10130 6730 
3 1385 245 4944 
3 1384 244 6884 
3 6884 1019 3515 
3 3036 3694 5769 
3 9088 10737 8999 
3 1384 6884 3694 
3 9451 9088 8999 
3 4753 6923 8342 
3 3694 6884 8391 
3 1018 1384 3694 
3 1018 3694 3036 
3 243 3036 7075 
3 7075 7934 7921 
3 5264 9149 242 
3 3547 610 4512 
3 242 9149 3785 
3 242 610 3547 
3 242 3785 610 
3 4512 241 8418 
3 6078 7316 4971 
3 610 241 4512 
3 9600 8418 241 
3 4971 241 610 
3 3694 8391 5769 
3 3036 5769 7934 
3 7075 3036 7934 
3 7075 7921 9149 
3 4971 3785 6078 
3 10225 7921 7934 
3 7961 7641 9504 
3 5782 6529 7658 
3 7921 7641 6078 
3 7921 6078 3785 
3 7961 3125 6038 
3 7641 6038 6078 
3 240 8543 609 
3 7316 609 4971 
3 609 7316 4956 
3 240 4956 1383 
3 3725 1383 2982 
3 3529 2932 1387 
3 7088 2932 9164 
3 7693 9088 7658 
3 3529 7961 5601 
3 10313 9504 10737 
3 3057 7693 7658 
3 5782 9451 8391 
3 10313 10737 9088 
3 10313 9088 7693 
3 5769 8391 9451 
3 9088 9451 7658 
3 7934 5769 8999 
3 10225 8999 10737 
3 1385 6730 2958 
3 6859 2958 7466 
3 1019 1385 3515 
3 8391 3515 5782 
3 6529 4944 612 
3 6859 245 2958 
3 246 612 3525 
3 612 4944 245 
3 3515 4944 5782 
3 9451 5782 7658 
3 9503 10030 8031 
3 6859 3386 245 
3 612 245 3386 
3 5900 3386 8031 
3 3057 6529 246 
3 3525 612 3386 
3 5601 10313 9164 
3 1386 247 5191 
3 3188 3525 5847 
3 5191 7088 9164 
3 3057 1020 6694 
3 3057 6694 7693 
3 6529 612 246 
3 5847 5900 7804 
3 1020 3057 246 
3 1020 3188 2994 
3 10294 9172 7804 
3 5900 5847 3525 
3 246 3525 3188 
3 7697 9207 10058 
3 7804 9172 9207 
3 7804 7697 5847 
3 7539 5608 7697 
3 9207 7697 7804 
3 9359 8246 3460 
3 2994 1386 1020 
3 1021 5191 247 
3 8246 247 3460 
3 1020 246 3188 
3 5608 3188 5847 
3 6694 1020 1386 
3 247 1386 3460 
3 9164 6694 5191 
3 1021 4112 7087 
3 3464 1387 1594 
3 7087 1594 1021 
3 248 3373 1017 
3 3781 3464 6163 
3 3464 7087 7784 
3 3952 1933 1962 
3 7088 5191 1021 
3 7088 1021 1594 
3 1594 7087 3464 
3 1387 3464 3781 
3 9754 6076 6201 
3 5666 7705 5838 
3 248 3781 3373 
3 9754 3781 6163 
3 3373 5666 2982 
3 8196 6201 6076 
3 1017 7215 248 
3 1383 3725 240 
3 6201 8196 5666 
3 5838 8296 3725 
3 1017 3373 2982 
3 3781 248 1387 
3 6201 5666 3373 
3 6201 3373 3781 
3 7961 9504 5601 
3 2932 5601 9164 
3 3125 7961 7215 
3 248 3529 1387 
3 7961 3529 7215 
3 3125 1017 1383 
3 3125 7215 1017 
3 1383 1017 2982 
3 8543 240 7093 
3 3725 2982 5838 
3 240 3725 7093 
3 5067 194 591 
3 7093 8296 3987 
3 8162 7848 6589 
3 1355 8376 989 
3 193 6660 591 
3 3207 195 1355 
3 8376 9673 3674 
3 6001 5673 3134 
3 3987 3134 989 
3 195 9708 1355 
3 3207 1355 3134 
3 2982 5666 5838 
3 7645 3207 5673 
3 8296 5838 6001 
3 8296 6001 3987 
3 5666 8196 7705 
3 5838 7705 6001 
3 7971 9681 5892 
3 7705 10230 6001 
3 7705 8196 9681 
3 5812 5745 7649 
3 8196 10340 9681 
3 10230 9543 5673 
3 5812 7649 7971 
3 9681 7971 10230 
3 9400 9137 9997 
3 7649 7645 9543 
3 7971 7649 9543 
3 7971 9543 10230 
3 7649 9997 7645 
3 9543 7645 5673 
3 9997 5823 9702 
3 7645 9702 3207 
3 5749 3260 8289 
3 10109 9137 7579 
3 8067 9657 9252 
3 11728 9252 10109 
3 9400 7579 9137 
3 9997 9137 5823 
3 7538 11728 10109 
3 9137 10109 8289 
3 11728 5773 8067 
3 11728 8067 9252 
3 10226 9657 8119 
3 3499 6813 430 
3 9657 10226 7768 
3 9252 5749 8289 
3 5839 8119 3499 
3 725 3499 430 
3 9222 10226 8119 
3 9222 5839 10189 
3 9222 8119 5839 
3 6158 10269 8966 
3 5823 8289 3260 
3 195 990 9708 
3 990 3260 3243 
3 7768 5749 9252 
3 195 3260 990 
3 9708 990 4532 
3 7768 5824 5749 
3 5749 3243 3260 
3 5990 3444 10669 
3 5824 3444 3243 
3 10669 3444 5824 
3 10226 5824 7768 
3 3092 3444 5990 
3 9222 10669 10226 
3 5551 5990 7825 
3 7825 9222 10189 
3 3092 5990 5551 
3 7499 7825 9116 
3 2884 3092 5551 
3 2884 5551 5531 
3 8966 10605 9116 
3 10189 9116 7825 
3 3284 4432 991 
3 196 1356 3444 
3 6071 4432 3284 
3 3284 991 1357 
3 1356 4432 4532 
3 9708 8376 1355 
3 991 4432 196 
3 3092 196 3444 
3 3987 989 194 
3 3987 5067 7093 
3 9708 4532 8376 
3 989 3674 194 
3 3725 8296 7093 
3 8543 7093 5067 
3 3987 194 5067 
3 8543 5067 6660 
3 5067 591 6660 
3 609 9600 241 
3 9673 8162 3674 
3 194 6589 591 
3 989 8376 3674 
3 194 3674 6589 
3 9673 6071 8162 
3 3674 8162 6589 
3 4432 6071 9673 
3 4532 9673 8376 
3 591 6589 4767 
3 10334 9094 8769 
3 8162 6071 10320 
3 8162 10320 7848 
3 193 8418 9600 
3 6660 9600 609 
3 7331 193 4767 
3 7848 4767 6589 
3 6612 8418 7331 
3 4767 193 591 
3 3844 6612 590 
3 7045 4767 7848 
3 590 7331 7045 
3 4751 3765 589 
3 7848 9094 10334 
3 5828 8769 3765 
3 3284 7271 8025 
3 10320 8025 9094 
3 3900 4065 988 
3 1357 991 2884 
3 3163 197 2990 
3 5531 5551 7499 
3 8025 6071 3284 
3 7271 3284 1357 
3 197 7271 1357 
3 2990 1357 2884 
3 5802 2990 5531 
3 10733 7499 9955 
3 5802 5531 7670 
3 7670 10555 10141 
3 5531 10733 7670 
3 5802 7670 10141 
3 9939 9063 10141 
3 9020 10141 10555 
3 10188 9020 10555 
3 9955 10555 10733 
3 6752 3163 10321 
3 5802 3163 2990 
3 9939 10488 9063 
3 10141 9063 5802 
3 4065 3900 5887 
3 4065 5887 8025 
3 6752 1354 988 
3 3163 988 197 
3 3032 7509 7497 
3 10321 3163 9063 
3 7509 10321 10488 
3 10488 10321 9063 
3 6752 10321 7509 
3 7534 7628 9333 
3 10141 9020 9939 
3 10488 10941 8940 
3 1354 6752 3032 
3 7497 8940 9061 
3 10488 9939 10941 
3 11198 10156 9000 
3 7598 9061 7483 
3 9000 7536 7483 
3 7497 7509 8940 
3 9061 8940 11198 
3 190 588 5166 
3 588 3675 7330 
3 9061 9297 7497 
3 3032 190 1354 
3 3900 1354 5166 
3 3900 6497 5887 
3 7497 6249 3032 
3 1354 190 5166 
3 6752 7509 3032 
3 190 3032 6249 
3 9677 8098 10298 
3 5798 10333 8012 
3 3186 589 3333 
3 3333 191 3675 
3 589 191 3333 
3 5798 8012 7830 
3 588 3671 3675 
3 3333 6154 10333 
3 7502 8980 8987 
3 7566 9378 7830 
3 3186 3333 5798 
3 8098 9677 6926 
3 10008 9677 10298 
3 8987 9378 7566 
3 6926 3186 8098 
3 9378 5798 7830 
3 9413 3844 7621 
3 7782 5607 3547 
3 192 6926 3844 
3 590 6612 7331 
3 191 3765 7330 
3 191 7330 3675 
3 3900 5166 6497 
3 3765 9290 7330 
3 7045 10334 5828 
3 4751 589 192 
3 3765 8769 6497 
3 9290 6497 5166 
3 4512 6612 9413 
3 4512 7782 3547 
3 192 3844 590 
3 192 590 4751 
3 7045 5828 4751 
3 7045 4751 590 
3 611 9149 5264 
3 3206 242 3547 
3 6811 4121 9693 
3 5607 3206 3547 
3 6028 3206 5607 
3 10008 10298 8987 
3 4512 9413 7782 
3 5607 9047 7596 
3 1018 243 6811 
3 5159 5162 1384 
3 476 6811 4590 
3 8379 9483 7634 
3 6811 243 4121 
3 9693 4121 6028 
3 243 7075 611 
3 4121 611 3206 
3 476 1475 5159 
3 1384 5162 244 
3 1109 5162 1475 
3 6811 5159 1018 
3 1109 481 6923 
3 4753 8342 10130 
3 481 8342 6923 
3 5162 6923 244 
3 481 5014 1478 
3 2954 1478 6696 
3 2954 8342 481 
3 5014 481 1109 
3 4169 1475 9296 
3 5162 1109 6923 
3 4169 1109 1475 
3 5159 1475 5162 
3 753 9296 476 
3 6811 476 5159 
3 753 5051 9296 
3 476 9296 1475 
3 6509 7634 8105 
3 9693 4590 6811 
3 1478 5014 3968 
3 5235 3968 3993 
3 3968 5014 6242 
3 8247 4169 9296 
3 8675 3993 6242 
3 4169 6242 5014 
3 4776 3828 9385 
3 8247 6242 4169 
3 4776 9385 8247 
3 5051 8247 9296 
3 477 753 3418 
3 4590 753 476 
3 5051 753 477 
3 9483 6028 7596 
3 477 3418 6509 
3 10181 9074 7542 
3 8379 6028 9483 
3 10181 7542 8105 
3 4590 9693 8379 
3 3418 8379 7634 
3 4121 3206 6028 
3 9693 6028 8379 
3 5607 7782 9047 
3 7596 10127 10692 
3 7621 9677 10008 
3 9047 10670 10127 
3 7634 9483 10181 
3 8980 10670 8987 
3 7596 9047 10127 
3 10127 8980 9074 
3 9047 10008 10670 
3 10127 9074 10692 
3 10127 10670 8980 
3 7517 7502 5525 
3 7517 8980 7502 
3 5586 7502 7566 
3 5586 2966 5525 
3 5586 5525 7502 
3 3077 5586 5705 
3 5811 5705 7830 
3 5762 8105 7542 
3 5762 7542 5573 
3 3731 5762 3195 
3 3195 2221 2211 
3 9483 10692 10181 
3 7634 10181 8105 
3 10181 10692 9074 
3 7542 9074 7517 
3 754 5051 477 
3 6509 3418 7634 
3 4234 477 6509 
3 4234 6509 9709 
3 9385 3828 8675 
3 9385 8675 6242 
3 1476 3828 1110 
3 754 4776 5051 
3 1476 479 5171 
3 8675 5171 3993 
3 5011 479 6764 
3 5054 4675 2181 
3 6764 1476 5038 
3 478 4776 754 
3 6843 1110 478 
3 4777 478 754 
3 6509 8105 9709 
3 4234 7003 4777 
3 1476 1110 5038 
3 5038 6843 2161 
3 4234 9709 7003 
3 4777 7003 4675 
3 2141 5011 6764 
3 5038 1110 6843 
3 2151 6764 5038 
3 2151 5038 2161 
3 6843 2171 2161 
3 5054 2181 2171 
3 2171 6843 5054 
3 4675 5054 4777 
3 4675 7003 4172 
3 2201 4172 3731 
3 3195 5762 5573 
3 2919 5573 5525 
3 8105 5762 6322 
3 9709 6322 7003 
3 2211 3731 3195 
3 2221 2919 2231 
3 2231 2919 2966 
3 2241 3077 2252 
3 5705 3191 3077 
3 5586 3077 2966 
3 3195 5573 2919 
3 3195 2919 2221 
3 2241 2231 2966 
3 2260 2252 3191 
3 3341 5811 5908 
3 2276 3494 3498 
3 3494 5971 3498 
3 3494 5908 5971 
3 2292 2284 3495 
3 5994 3495 5993 
3 2284 3498 3495 
3 3487 3391 2300 
3 2260 3191 3341 
3 2268 3494 2276 
3 3341 5908 3494 
3 3341 3494 2268 
3 5811 7830 8012 
3 5908 8012 9448 
3 5798 3333 10333 
3 8012 10333 9448 
3 10298 8098 9378 
3 10298 9378 8987 
3 3333 3675 6154 
3 10333 6154 9448 
3 9448 6154 8324 
3 7598 5613 5685 
3 3675 3671 6081 
3 8324 8622 5993 
3 3495 3498 5993 
3 8324 5971 9448 
3 3498 5971 5993 
3 3391 2308 2300 
3 10632 6081 3671 
3 6081 8622 8324 
3 6249 10174 10632 
3 8622 5994 5993 
3 10174 9297 7761 
3 7783 7761 5859 
3 7761 7783 10174 
3 6249 10632 3671 
3 6249 9297 10174 
3 10632 10174 7783 
3 9297 9061 7598 
3 7536 7648 5760 
3 9061 11198 9000 
3 7483 7536 5600 
3 7761 9297 7598 
3 7761 7598 5685 
3 7598 7483 5613 
3 5685 3391 5859 
3 5613 7483 5600 
3 5613 3168 5685 
3 2308 3168 2316 
3 2970 5613 5600 
3 3391 3168 2308 
3 3076 5600 5760 
3 3487 5994 5859 
3 7783 5994 8622 
3 7761 5685 5859 
3 5994 3487 3495 
3 2292 3495 3487 
3 2292 3487 2300 
3 5685 3168 3391 
3 5859 3391 3487 
3 2316 3168 2970 
3 2324 3076 2334 
3 2334 3076 3344 
3 2338 2334 3344 
3 2342 2338 3777 
3 2324 2970 3076 
3 3344 3076 5760 
3 3344 6023 3777 
3 3344 3777 2338 
3 2346 4280 4471 
3 9204 4343 6507 
3 6507 4426 7132 
3 6366 7132 4471 
3 4471 4280 6366 
3 2350 2346 4471 
3 2350 4471 4426 
3 6507 4344 4426 
3 7132 4426 4471 
3 7257 2361 2359 
3 4763 4344 8528 
3 2365 2363 4950 
3 4950 5137 4524 
3 992 200 5004 
3 6720 4763 8528 
3 4109 4950 10168 
3 8300 7875 8663 
3 4343 8528 6507 
3 4343 7323 201 
3 6507 8528 4344 
3 4426 4344 2355 
3 7257 2359 4763 
3 7257 4763 5004 
3 7323 4343 9204 
3 4673 9204 6507 
3 992 5004 6720 
3 992 6720 1358 
3 4524 200 594 
3 199 594 8588 
3 10168 4524 9538 
3 6043 3911 9415 
3 594 6719 8588 
3 199 3947 592 
3 9538 3693 6043 
3 3911 3693 199 
3 4970 595 202 
3 6350 9256 3708 
3 3567 201 7323 
3 595 7323 9204 
3 9256 6350 6023 
3 4673 6507 7132 
3 7315 595 4970 
3 993 202 3708 
3 7132 6366 4673 
3 202 8655 3708 
3 595 9204 4673 
3 8655 4673 6366 
3 3344 5760 6023 
3 3777 6350 4280 
3 3708 8655 6350 
3 6023 6350 3777 
3 9000 9333 7536 
3 5600 7536 5760 
3 9333 7628 7648 
3 5760 7648 6023 
3 6695 3708 9256 
3 7648 9256 6023 
3 7534 9333 10156 
3 10941 10156 11198 
3 7628 3099 6695 
3 7628 6695 9256 
3 3399 4970 993 
3 1359 993 6695 
3 6122 7315 4970 
3 993 4970 202 
3 5116 203 596 
3 1359 3399 993 
3 204 596 3150 
3 3399 6122 4970 
3 203 3099 6478 
3 9080 10941 9939 
3 6478 3254 203 
3 3099 203 1359 
3 3099 7534 6478 
3 7981 9939 9020 
3 7981 3254 6478 
3 9080 6478 7534 
3 6478 9080 7981 
3 5697 9020 10188 
3 5116 596 7210 
3 7210 596 204 
3 7884 9631 7210 
3 4165 204 597 
3 3815 5779 9525 
3 3815 4165 597 
3 1359 203 5116 
3 3399 9631 6122 
3 7884 6122 9631 
3 7210 9631 5116 
3 9616 6122 9992 
3 9525 7884 4165 
3 9069 10304 9992 
3 9525 9992 7884 
3 9616 9992 7616 
3 6146 6935 4728 
3 3155 8443 5779 
3 9525 5779 9992 
3 8146 10304 9069 
3 8443 9069 5779 
3 8118 8146 6146 
3 6137 7121 5084 
3 198 4728 593 
3 4653 4178 6516 
3 10304 8146 8118 
3 8475 3947 8588 
3 3947 4728 592 
3 1454 1088 6675 
3 8475 6146 3947 
3 8588 3947 199 
3 4728 198 592 
3 199 592 3911 
3 8118 7206 7616 
3 10304 7616 9992 
3 7616 10304 8118 
3 4021 8118 8475 
3 7323 595 3567 
3 9616 7315 6122 
3 9616 7616 3567 
3 7315 3567 595 
3 3567 7616 7206 
3 3567 7206 201 
3 8118 6146 8475 
3 4021 8475 6719 
3 6043 3693 3911 
3 9415 3911 4708 
3 592 198 4708 
3 592 4708 3911 
3 7875 6675 3398 
3 6096 3398 3706 
3 7026 1453 420 
3 1088 3398 6675 
3 3338 1087 4133 
3 6284 7026 9686 
3 3233 420 1088 
3 1454 6675 4490 
3 8083 7026 3233 
3 9439 3233 8161 
3 421 1454 4490 
3 4708 4490 9415 
3 8161 1088 1454 
3 5097 421 719 
3 4974 421 7230 
3 198 7230 4708 
3 4490 7230 421 
3 1454 5097 8161 
3 8148 421 4974 
3 593 4974 198 
3 9430 719 8148 
3 4178 3877 8581 
3 7660 9439 9112 
3 422 720 3967 
3 9429 5566 7660 
3 9429 10324 7758 
3 1454 421 5097 
3 8161 5097 6325 
3 7026 420 3233 
3 7026 8083 9686 
3 7660 6015 8083 
3 9439 8083 3233 
3 2980 716 2974 
3 6015 4430 9686 
3 3953 4047 418 
3 716 418 2974 
3 417 716 2980 
3 3419 2980 10271 
3 4295 4572 6463 
3 4572 417 717 
3 716 417 4295 
3 6857 8140 9540 
3 404 8021 6463 
3 6857 6463 4572 
3 418 716 3953 
3 3953 8021 8046 
3 3766 4272 706 
3 1084 4106 6755 
3 716 4295 3953 
3 4047 8046 6175 
3 4295 6463 8021 
3 4295 8021 3953 
3 1087 1453 6284 
3 8426 718 2516 
3 8426 6284 4430 
3 418 4430 2974 
3 419 8426 2516 
3 1453 3338 3706 
3 718 8426 4430 
3 6284 8426 1087 
3 4047 3586 718 
3 8426 419 1087 
3 3586 2516 718 
3 4047 718 418 
3 8193 6175 8348 
3 4272 8046 8021 
3 4066 6232 6136 
3 6175 8313 3586 
3 6175 8046 8348 
3 8138 8348 3766 
3 6232 8313 6136 
3 3485 6136 6049 
3 6049 6136 8193 
3 8138 8193 8348 
3 4133 9384 8212 
3 4313 8212 4375 
3 2516 3586 419 
3 419 4133 1087 
3 1453 1087 3338 
3 6305 4133 9615 
3 9384 4133 419 
3 9384 419 3586 
3 7875 3398 6096 
3 8663 6096 6103 
3 6096 3706 8435 
3 6305 3338 4133 
3 4524 3693 9538 
3 8300 6043 7875 
3 6096 8663 7875 
3 6675 7875 9415 
3 4950 4524 10168 
3 9538 6185 10168 
3 9538 6043 8300 
3 6185 4109 10168 
3 3759 6103 9383 
3 5921 3532 3422 
3 3706 3338 8435 
3 6096 8435 6103 
3 8435 3338 6305 
3 4020 9615 4313 
3 8663 6103 5921 
3 8663 5921 8300 
3 5921 6103 3532 
3 3422 2369 2367 
3 2365 4950 4109 
3 3422 6185 5921 
3 8300 5921 6185 
3 8300 6185 9538 
3 2367 2365 4109 
3 3422 4109 6185 
3 3422 2367 4109 
3 3532 2369 3422 
3 3759 2373 2371 
3 3532 2371 2369 
3 6305 4020 9383 
3 3532 3759 2371 
3 8212 6232 4375 
3 4066 3485 2381 
3 2377 4375 2379 
3 4020 3759 9383 
3 6305 9383 8435 
3 4133 8212 9615 
3 6305 9615 4020 
3 2379 4375 4066 
3 2381 3485 2383 
3 4033 6049 6316 
3 5104 2391 2389 
3 2379 4066 2381 
3 3485 6049 4033 
3 2385 4033 4602 
3 4033 6316 4602 
3 2387 4948 2389 
3 5240 2395 2393 
3 7126 704 3727 
3 6832 3727 402 
3 6897 5030 8664 
3 705 5104 11727 
3 2391 7047 2393 
3 2393 7047 5240 
3 2395 5240 5241 
3 2385 4602 2387 
3 5104 2389 4948 
3 4602 4948 2387 
3 9510 403 11727 
3 9510 11727 6316 
3 402 5104 705 
3 11727 5104 4948 
3 9969 4712 9537 
3 5269 4712 403 
3 402 705 6832 
3 6832 705 4712 
3 3727 6832 9066 
3 10618 6832 4712 
3 7126 3727 9066 
3 7639 10098 7629 
3 7047 5104 402 
3 7047 704 5240 
3 7047 402 704 
3 5030 6897 703 
3 402 3727 704 
3 5240 704 5241 
3 5241 704 401 
3 7639 9501 4129 
3 401 7126 4129 
3 7126 401 704 
3 8665 5768 7084 
3 7639 7126 9066 
3 703 4129 7186 
3 9501 7186 4129 
3 399 7101 4955 
3 702 4511 400 
3 580 4679 799 
3 4511 8406 7314 
3 4511 7314 400 
3 702 400 3638 
3 4955 7209 4511 
3 4955 4511 702 
3 4825 8664 5030 
3 400 703 7186 
3 4511 7209 8406 
3 7314 8406 4825 
3 2397 5241 6897 
3 703 401 4129 
3 6897 401 703 
3 5030 703 400 
3 2399 6897 8664 
3 5241 401 6897 
3 2397 6897 2399 
3 8664 2401 2399 
3 2403 2401 4825 
3 2403 4825 6481 
3 5233 2405 6481 
3 8406 6481 4825 
3 2407 2405 5233 
3 5170 6814 5107 
3 2409 2407 798 
3 4679 6481 8406 
3 2407 580 798 
3 2409 579 2411 
3 2413 2411 579 
3 796 5170 5107 
3 8409 2415 6416 
3 578 796 5107 
3 2413 579 8706 
3 2415 2413 8706 
3 6295 9517 6416 
3 6416 2415 8706 
3 8108 4631 4697 
3 6484 4339 9544 
3 10982 10001 10598 
3 9544 4697 4320 
3 2423 4631 2425 
3 2423 4697 4631 
3 6492 8755 6218 
3 9517 8409 6416 
3 578 6416 796 
3 2417 8409 3980 
3 2419 4320 2421 
3 2419 3980 4320 
3 2421 4320 4697 
3 4320 3980 6484 
3 6295 578 4899 
3 10187 3989 6484 
3 9517 6484 3980 
3 3989 4339 6484 
3 6484 9544 4320 
3 77 9749 8108 
3 9544 8108 4697 
3 4339 77 8108 
3 8108 6492 4631 
3 77 1244 3703 
3 9749 3703 8755 
3 4899 6517 6295 
3 9517 10187 6484 
3 3989 880 4339 
3 9544 4339 8108 
3 4339 880 77 
3 9749 77 3703 
3 797 5107 8730 
3 9584 10166 4279 
3 6416 578 6295 
3 10187 6295 6517 
3 8718 6814 5105 
3 798 5170 579 
3 579 5170 796 
3 8706 796 6416 
3 799 4679 7209 
3 7209 4679 8406 
3 5170 798 5105 
3 4679 580 5233 
3 5105 799 8718 
3 581 800 4814 
3 580 799 5105 
3 8730 583 797 
3 798 580 5105 
3 5170 5105 6814 
3 6814 8718 4814 
3 8115 10218 801 
3 582 5254 800 
3 4814 4784 6814 
3 581 4814 8718 
3 4814 5254 4784 
3 4814 800 5254 
3 8115 881 10218 
3 4784 5254 801 
3 4784 583 8730 
3 801 9659 583 
3 797 5109 4899 
3 6814 4784 8730 
3 6814 8730 5107 
3 9659 5109 583 
3 583 5109 797 
3 1682 6517 1870 
3 6898 2863 7552 
3 880 3989 1682 
3 3524 1870 6898 
3 4722 7024 8758 
3 880 8758 77 
3 8758 7024 1244 
3 8758 1244 77 
3 3618 1795 7024 
3 6447 4722 3524 
3 6787 3618 9299 
3 7024 1795 1244 
3 1246 2863 1797 
3 1870 3524 1682 
3 4822 1797 1870 
3 4822 1870 6517 
3 6447 7024 4722 
3 3524 4722 1682 
3 1246 7167 2863 
3 6898 9467 3524 
3 1797 2863 6898 
3 1797 6898 1870 
3 9299 6447 10989 
3 7552 9467 6898 
3 7024 6447 3618 
3 1680 3645 3477 
3 7469 6787 9299 
3 3618 1869 1795 
3 878 7068 76 
3 2947 2713 1245 
3 10434 11170 10546 
3 7552 10509 9467 
3 6447 9467 10989 
3 9299 10989 10946 
3 2863 7167 7477 
3 6637 881 1683 
3 9858 7477 10546 
3 7431 7477 3316 
3 801 10218 9659 
3 9659 1246 5109 
3 78 7167 1246 
3 5109 1246 1797 
3 10166 6480 4279 
3 5254 582 801 
3 78 1246 9659 
3 78 9659 10218 
3 78 10218 881 
3 1683 9737 4476 
3 6480 9737 8115 
3 582 8115 801 
3 8115 9737 881 
3 78 881 3316 
3 4206 7175 7888 
3 6123 3835 4476 
3 4476 6480 6123 
3 7888 9584 4206 
3 4366 398 701 
3 7041 9533 4668 
3 4726 5768 2961 
3 7084 701 4454 
3 5098 6425 4454 
3 398 4454 701 
3 4955 702 399 
3 4885 700 4206 
3 8451 9584 4279 
3 10166 9584 7888 
3 6480 582 4279 
3 9584 8451 4885 
3 700 4885 399 
3 5098 3638 6425 
3 399 4885 7101 
3 800 8451 4279 
3 4885 8451 7101 
3 4955 7101 7209 
3 8451 800 581 
3 7101 581 7209 
3 3638 9501 6425 
3 10098 10618 7740 
3 399 702 5098 
3 6425 10326 8665 
3 9501 10326 6425 
3 4454 8665 7084 
3 702 3638 5098 
3 4454 6425 8665 
3 700 399 5098 
3 700 5098 4454 
3 9066 10618 10098 
3 3356 7740 7125 
3 8665 10326 7629 
3 5768 5713 2961 
3 7639 9066 10098 
3 5713 7740 3356 
3 4129 7126 7639 
3 10326 7639 7629 
3 7990 706 2514 
3 2514 706 4272 
3 1084 7990 404 
3 706 9537 5269 
3 9537 706 7990 
3 7990 2514 404 
3 9969 9537 7990 
3 6124 7990 1084 
3 7740 10618 9969 
3 6124 9969 7990 
3 1084 6755 1450 
3 7125 405 3356 
3 6124 1450 7125 
3 6124 7125 7740 
3 7629 10098 5713 
3 7629 5713 5768 
3 7084 5768 4726 
3 1451 2961 1085 
3 406 4726 1451 
3 3651 1085 4017 
3 2961 1451 4726 
3 7084 4726 701 
3 404 6463 4106 
3 404 4106 1084 
3 1450 3655 405 
3 1085 3651 1451 
3 3356 405 1085 
3 3356 1085 2961 
3 717 427 4085 
3 4572 4085 6857 
3 6857 4085 8140 
3 9540 8140 7885 
3 7885 8140 9650 
3 7885 9650 6247 
3 405 3655 4017 
3 3651 8432 6383 
3 8140 9550 5949 
3 9650 5949 8245 
3 3651 4017 8432 
3 6383 8432 4041 
3 427 7094 8507 
3 6237 9550 8140 
3 427 8507 6237 
3 4085 6237 8140 
3 5949 9550 4186 
3 5949 3530 8245 
3 6825 8245 3530 
3 4186 3530 5949 
3 2767 2668 838 
3 1649 838 4186 
3 2621 2577 5317 
3 838 35 3530 
3 6825 35 1202 
3 6881 8036 9433 
3 6825 1202 4041 
3 2902 5722 3722 
3 3530 35 6825 
3 9455 6825 4041 
3 1202 1762 4041 
3 9455 4041 8432 
3 4041 1762 6880 
3 4489 7041 4495 
3 4489 1647 4718 
3 4446 34 6421 
3 9533 4718 4446 
3 34 5192 1203 
3 6880 1762 1856 
3 1856 1647 4489 
3 6880 1856 4489 
3 836 1647 3722 
3 4934 34 1203 
3 1763 6699 1946 
3 1871 1683 4476 
3 1247 7239 79 
3 4718 836 4446 
3 4934 1203 7239 
3 6421 34 4934 
3 6421 9684 7779 
3 6421 4934 9684 
3 7779 8023 7888 
3 7239 1247 6521 
3 9684 8023 7779 
3 6383 6880 4489 
3 6383 4495 3651 
3 836 34 4446 
3 9533 4446 8271 
3 4668 406 7041 
3 4489 4495 6383 
3 1451 4495 406 
3 4726 406 701 
3 4718 9533 7041 
3 4718 7041 4489 
3 9684 6521 8023 
3 7888 6123 10166 
3 7888 8023 6123 
3 10166 6123 6480 
3 6521 1798 3835 
3 6521 3835 8023 
3 7431 3316 6637 
3 5484 7998 10062 
3 4476 3835 1871 
3 1683 2745 6637 
3 7431 6637 8141 
3 8141 2745 5484 
3 6637 2745 8141 
3 8850 10062 10954 
3 10863 10911 10434 
3 9840 8850 10954 
3 10546 7477 7431 
3 8867 7431 8141 
3 7552 7477 9858 
3 10434 10546 8867 
3 10509 7552 9858 
3 10509 9858 10485 
3 11170 10911 10485 
3 10509 10946 10989 
3 7469 9299 10946 
3 10485 10946 10509 
3 2835 7068 878 
3 9855 10485 10911 
3 8881 9855 9129 
3 3871 3474 1681 
3 6787 7469 2835 
3 9689 9129 5438 
3 9858 10546 11170 
3 9858 11170 10485 
3 10946 10485 8881 
3 10450 9820 8829 
3 7469 10946 8881 
3 7640 8881 9129 
3 10863 10434 9840 
3 11163 9840 10954 
3 9855 10911 11216 
3 9855 10595 9129 
3 10911 10863 11216 
3 10562 9953 8834 
3 9855 11216 10595 
3 2618 5384 5394 
3 7405 7414 8829 
3 10595 7414 9129 
3 10595 8829 7414 
3 5438 5384 2713 
3 11163 11500 10804 
3 10863 10450 11216 
3 10863 10804 10450 
3 11216 10450 10595 
3 8671 6345 9721 
3 2975 5484 2745 
3 10483 10954 10062 
3 7998 5484 9721 
3 2975 9721 5484 
3 8141 5484 8850 
3 9840 8867 8850 
3 10062 8850 5484 
3 2975 1871 1798 
3 1247 1798 6521 
3 8671 9721 2975 
3 1871 2975 2745 
3 7998 9721 6345 
3 882 79 1946 
3 1247 5205 8671 
3 1798 8671 2975 
3 5747 7998 6345 
3 5205 6345 8671 
3 1946 1684 882 
3 5205 3788 6345 
3 9372 5747 2926 
3 2926 5747 3788 
3 3788 1684 2926 
3 5747 9372 8953 
3 10483 8953 10049 
3 10049 8092 8844 
3 10401 10483 10049 
3 1799 1248 2702 
3 11504 11320 10956 
3 9940 5422 9647 
3 10401 10815 10483 
3 8953 10483 10062 
3 10956 11320 10401 
3 10956 10401 8844 
3 11378 10562 10820 
3 10804 9820 10450 
3 9953 7420 8834 
3 9820 8834 8829 
3 8829 8834 7405 
3 5384 2618 2713 
3 7838 5485 10601 
3 9953 10562 10966 
3 10447 9953 10966 
3 11126 11098 10969 
3 10601 7420 9953 
3 8941 9953 10447 
3 11320 11504 10820 
3 11500 10820 10804 
3 9820 10820 10562 
3 10966 11378 11126 
3 11378 10966 10562 
3 9820 10562 8834 
3 10400 10956 9940 
3 10400 8901 10969 
3 11504 10400 11098 
3 11126 9844 10950 
3 11378 11504 11098 
3 11378 11098 11126 
3 7571 8941 9978 
3 10950 10447 11126 
3 9978 10447 10950 
3 7513 5925 5515 
3 8941 10447 9978 
3 9524 9978 9158 
3 5487 9225 8901 
3 9940 8901 10400 
3 9158 10950 7513 
3 8621 5487 2917 
3 80 7074 3014 
3 8092 10049 9372 
3 8844 8092 5422 
3 9647 5422 3014 
3 3014 5422 2702 
3 1799 1648 837 
3 10401 10049 8844 
3 10956 8844 9940 
3 2557 837 1648 
3 1684 1872 2926 
3 2702 8092 6846 
3 1872 6846 2926 
3 1911 2598 1648 
3 1872 1648 1799 
3 2702 6846 1799 
3 1248 1799 837 
3 5422 8092 2702 
3 3014 2702 1248 
3 7376 9258 10556 
3 11168 10498 10887 
3 11345 11271 11566 
3 10797 10393 11168 
3 10556 10393 10797 
3 10797 11168 11372 
3 10767 10556 10797 
3 11081 10797 11372 
3 11168 10393 10889 
3 11168 10889 10498 
3 7748 8925 10193 
3 8235 10193 9258 
3 8235 9258 5381 
3 8235 5381 2736 
3 2736 5381 2598 
3 1911 1872 1684 
3 2736 2598 1911 
3 2736 1911 1946 
3 3788 5205 882 
3 3788 882 1684 
3 1203 5192 3721 
3 1203 1763 79 
3 1203 3721 1763 
3 79 1763 1946 
3 2621 8036 6881 
3 1762 6881 1856 
3 6881 9433 2902 
3 6881 2902 1856 
3 10025 10498 9152 
3 7371 5317 5363 
3 10889 10714 9976 
3 10498 9976 9152 
3 3722 5722 7300 
3 3722 7300 5192 
3 2668 5416 5363 
3 2577 2621 1202 
3 7371 9152 5317 
3 2577 1202 35 
3 5363 5317 2577 
3 5363 2577 2668 
3 5317 8036 2621 
3 1202 2621 1762 
3 1764 3620 1857 
3 5744 9274 7565 
3 2767 5416 2668 
3 838 2668 35 
3 1649 1857 2989 
3 2767 5510 5416 
3 1649 2989 2767 
3 5416 5510 7444 
3 2989 5510 2767 
3 1649 2767 838 
3 10685 9274 9232 
3 4544 8511 906 
3 7711 7922 8133 
3 3620 5744 2989 
3 8864 8816 7401 
3 7444 7401 5416 
3 11120 10887 10539 
3 8816 7371 7401 
3 10539 10025 8816 
3 8864 7444 8955 
3 10887 10025 10539 
3 10907 10539 9829 
3 7565 9274 10685 
3 10065 9232 7457 
3 8955 7565 10685 
3 7457 7408 8876 
3 10539 8816 9829 
3 11730 10065 8876 
3 3025 1912 1970 
3 2816 2671 5440 
3 9232 9274 7711 
3 5528 2816 5440 
3 9706 6196 8373 
3 7922 7711 9274 
3 9274 5744 7922 
3 6196 839 1650 
3 839 4510 1650 
3 4322 6631 8185 
3 6714 4510 8561 
3 8133 1650 1912 
3 4598 8479 6631 
3 4510 6631 4322 
3 1650 4510 4322 
3 1650 4322 1912 
3 908 5204 105 
3 8479 4326 6631 
3 8479 105 4326 
3 6631 4326 8185 
3 909 106 3841 
3 6632 9370 7528 
3 6645 1556 6632 
3 1556 6236 1274 
3 3841 7173 7924 
3 4916 721 4393 
3 106 2830 1274 
3 7173 1274 6236 
3 1556 8495 6236 
3 3841 5878 3363 
3 9637 8495 4916 
3 6786 908 105 
3 105 8479 6786 
3 8495 6786 4916 
3 6236 8495 9637 
3 6858 3931 8065 
3 6786 8479 424 
3 1089 6714 1455 
3 7173 6236 7924 
3 7924 9637 4393 
3 7924 6236 9637 
3 7924 6858 9390 
3 9637 4916 4393 
3 720 422 4254 
3 4914 423 721 
3 5230 721 424 
3 721 4916 424 
3 1089 424 4598 
3 6624 4914 5230 
3 1089 5230 424 
3 3826 1455 425 
3 425 8561 36 
3 1204 1764 426 
3 6196 1650 8133 
3 8561 1455 6714 
3 4510 6714 6631 
3 425 1455 8561 
3 36 8561 839 
3 8561 4510 839 
3 3620 2989 1857 
3 36 839 9706 
3 7922 6196 8133 
3 839 6196 9706 
3 8373 1764 1204 
3 6196 7922 8373 
3 1204 722 36 
3 7922 5744 3620 
3 8373 3620 1764 
3 723 426 5173 
3 7094 5173 4893 
3 9706 8373 1204 
3 426 1764 5173 
3 3158 425 722 
3 3158 722 4599 
3 36 9706 1204 
3 722 1204 426 
3 3826 425 3158 
3 5936 6264 9429 
3 10271 6264 3419 
3 426 4599 722 
3 1764 1857 5173 
3 426 8506 4599 
3 427 723 7094 
3 8507 7094 4893 
3 8506 426 723 
3 7094 723 5173 
3 717 5076 427 
3 4085 427 6237 
3 717 3419 5076 
3 427 5076 723 
3 417 3419 717 
3 4572 717 4085 
3 5076 3419 6264 
3 9429 10271 5566 
3 10271 9429 6264 
3 5076 8506 723 
3 9532 10258 5967 
3 7758 5967 5936 
3 9429 7758 5936 
3 6264 5936 8506 
3 5936 4599 8506 
3 6264 8506 5076 
3 9112 3347 5969 
3 9532 5969 10258 
3 9429 7660 10324 
3 7758 10324 9532 
3 9112 6325 3347 
3 422 9430 4254 
3 9439 6325 9112 
3 10324 9112 9532 
3 4974 593 4653 
3 8148 6516 9430 
3 8148 4653 6516 
3 9430 10327 4254 
3 6380 4254 10327 
3 8581 10327 6516 
3 5969 3347 3967 
3 4914 6624 7760 
3 3347 422 3967 
3 5969 3967 7760 
3 3931 4254 6380 
3 8065 8056 9605 
3 6858 423 3931 
3 8065 3931 6380 
3 7760 3967 7302 
3 7302 720 423 
3 423 4914 7302 
3 720 7302 3967 
3 10258 7760 3826 
3 1455 6624 1089 
3 7760 6624 3826 
3 10258 3826 5967 
3 7924 4393 6858 
3 9390 6858 8065 
3 4393 721 423 
3 3931 423 720 
3 7760 7302 4914 
3 5230 4914 721 
3 3770 3463 6035 
3 6035 8151 8093 
3 9390 8065 7653 
3 9527 6950 3621 
3 598 3198 3463 
3 9750 8215 6033 
3 6035 5754 8151 
3 6035 8093 6161 
3 5763 5754 3198 
3 206 3463 3770 
3 7121 206 599 
3 3621 3770 6161 
3 9527 9605 6950 
3 207 3877 600 
3 8065 6380 8056 
3 9605 8056 6950 
3 207 6950 3877 
3 600 3877 4178 
3 3362 600 208 
3 6516 4178 8581 
3 6935 8146 3362 
3 6935 208 593 
3 4653 593 208 
3 4178 208 600 
3 7121 8443 3155 
3 598 3815 205 
3 5084 3362 6137 
3 8443 6137 9069 
3 206 3155 598 
3 206 598 3463 
3 3155 206 7121 
3 8443 7121 6137 
3 206 3770 599 
3 7121 599 5084 
3 3150 5628 3018 
3 597 3018 3061 
3 3018 5619 3061 
3 3198 5754 3463 
3 4165 7210 204 
3 597 204 3018 
3 7884 7210 4165 
3 9525 4165 3815 
3 7981 9020 5697 
3 8959 10555 9955 
3 3254 7981 5697 
3 3254 5697 3150 
3 8762 10188 8959 
3 9707 7696 5619 
3 5697 10188 8762 
3 3150 8762 5628 
3 9707 7593 9937 
3 9955 10974 8959 
3 8959 10974 7593 
3 5628 7593 5619 
3 5619 7696 5763 
3 3061 3198 205 
3 3061 5763 3198 
3 205 3198 598 
3 11726 7696 9175 
3 8128 3343 6158 
3 5763 7696 11726 
3 5754 9750 8151 
3 6158 3343 429 
3 9116 10605 9955 
3 10269 9937 8966 
3 10605 9937 10974 
3 9986 7696 9707 
3 9986 9707 9937 
3 9937 10605 8966 
3 9937 10269 9986 
3 7727 9986 10269 
3 3229 6158 429 
3 10189 5839 8128 
3 10189 8128 9116 
3 8966 8128 6158 
3 10269 6158 3229 
3 3508 3229 724 
3 3229 7727 10269 
3 8215 9750 9153 
3 5711 9175 7727 
3 7696 9986 9175 
3 5711 7727 3229 
3 5711 9153 9175 
3 7727 9175 9986 
3 6033 8151 9750 
3 9153 9750 11726 
3 8151 6033 8093 
3 6161 6083 9527 
3 6161 8093 6083 
3 3541 1557 3363 
3 5878 7653 5804 
3 7867 7653 9605 
3 7867 6083 5804 
3 7867 5804 7653 
3 5804 3363 5878 
3 9390 5878 7924 
3 107 6033 3590 
3 3590 6273 4397 
3 6083 8093 3682 
3 6083 3541 5804 
3 3363 5804 3541 
3 1275 3541 3682 
3 3682 6033 107 
3 3682 107 1275 
3 4347 6779 1557 
3 1275 1557 3541 
3 6779 2880 909 
3 1557 909 3363 
3 7924 5878 3841 
3 7173 3841 106 
3 9055 2880 6779 
3 9548 6779 4347 
3 2880 2830 106 
3 2880 106 909 
3 7193 910 4353 
3 9548 4353 7623 
3 107 910 7193 
3 1275 4347 1557 
3 4353 9548 4347 
3 7193 4347 1275 
3 1697 4397 6653 
3 8592 4890 6489 
3 4353 910 1697 
3 1812 6653 8592 
3 1697 910 4397 
3 6653 4397 7014 
3 6033 8215 3590 
3 107 3590 910 
3 8128 5839 3343 
3 429 3343 725 
3 428 7014 3508 
3 5711 8584 9153 
3 5188 6349 724 
3 3229 3508 5711 
3 7014 8584 3508 
3 428 3508 724 
3 3590 8215 6273 
3 4397 6273 7014 
3 8745 6349 9480 
3 7264 8736 4928 
3 8736 6359 9480 
3 8736 9480 6349 
3 431 727 5055 
3 7264 5055 6359 
3 727 432 4612 
3 5055 4612 6359 
3 911 8690 433 
3 8514 7987 7235 
3 9523 6489 1090 
3 8690 1090 433 
3 428 6349 8745 
3 1456 8745 4742 
3 428 1456 4890 
3 428 4890 7014 
3 6662 1697 1812 
3 5499 8956 9505 
3 10057 9548 7623 
3 9505 7623 6662 
3 2880 9055 5466 
3 8956 10057 9505 
3 2830 5466 9370 
3 10057 9055 9548 
3 10057 7623 9505 
3 108 911 2754 
3 9818 10943 8956 
3 10057 9906 9055 
3 2771 1276 108 
3 8690 9523 1090 
3 6662 1812 2938 
3 1276 9523 108 
3 1812 1276 2938 
3 6662 2938 9505 
3 9505 2938 5499 
3 5499 2771 5465 
3 5465 7436 5499 
3 2771 5499 2938 
3 10943 10057 8956 
3 7436 8956 5499 
3 10602 10451 11213 
3 10828 10448 11091 
3 10419 10898 11386 
3 7436 9818 8956 
3 11089 11342 11091 
3 9818 11300 10943 
3 5943 9278 2901 
3 5465 9037 7436 
3 2754 7842 5465 
3 2754 5465 2771 
3 6781 2754 911 
3 433 1090 7157 
3 7842 2754 6781 
3 9278 5943 10277 
3 1558 911 433 
3 728 4612 432 
3 9523 8690 108 
3 2771 108 2754 
3 8509 4612 728 
3 6338 4284 8221 
3 1558 433 6774 
3 4758 7235 109 
3 728 432 8363 
3 8363 6338 8514 
3 432 6338 8363 
3 4758 1277 6774 
3 728 8363 6774 
3 728 6774 433 
3 6338 8221 9729 
3 7987 10206 9308 
3 6338 9729 8514 
3 8363 8514 4758 
3 6774 8363 4758 
3 6774 1277 1558 
3 2901 1558 1277 
3 109 1277 4758 
3 2862 912 1559 
3 109 4850 1277 
3 9278 6781 2901 
3 4850 2901 1277 
3 8514 9729 7987 
3 5726 5939 3408 
3 7235 7987 3389 
3 7235 3389 109 
3 7987 9308 5825 
3 3139 5726 3408 
3 5780 7994 7485 
3 1559 912 3139 
3 7807 7824 5726 
3 5825 3139 3389 
3 5825 5726 3139 
3 3389 3139 912 
3 1278 1559 3408 
3 3408 1559 3139 
3 5780 5462 2913 
3 1560 1279 2777 
3 2901 4850 5943 
3 2913 2862 1559 
3 4850 2862 8728 
3 9100 7485 9835 
3 2862 2913 5462 
3 8728 9100 5943 
3 8728 5462 9100 
3 10277 9100 11204 
3 9880 10277 11204 
3 11386 9826 10828 
3 10898 9835 10471 
3 9980 10471 9835 
3 7486 10909 9272 
3 9272 10909 7456 
3 10631 10448 9257 
3 10909 9826 10471 
3 10448 9826 9257 
3 5452 2829 2750 
3 10861 10419 11122 
3 9826 11386 10471 
3 11091 11122 10828 
3 10448 10828 9826 
3 11300 9818 11342 
3 10828 11122 11386 
3 11351 11174 10795 
3 11350 11091 10448 
3 9100 10277 5943 
3 8728 5943 4850 
3 10419 9880 10898 
3 11386 10898 10471 
3 7842 6781 9278 
3 7842 9278 9880 
3 9278 10277 9880 
3 9037 9880 10419 
3 10861 9037 10419 
3 11122 10419 11386 
3 7436 9037 10861 
3 9818 10861 11342 
3 10814 11300 11089 
3 11091 11342 11122 
3 10795 10544 10814 
3 9832 8888 10602 
3 9832 9091 8888 
3 9091 7512 5493 
3 10814 9832 11213 
3 7701 9091 5493 
3 1555 1273 2701 
3 5493 2701 7701 
3 8973 10544 10795 
3 11174 11351 11350 
3 5028 2977 6189 
3 8132 8973 10727 
3 11300 11342 11089 
3 10814 11089 10795 
3 11091 11350 11351 
3 11089 11351 10795 
3 8973 11174 10727 
3 1563 1282 3041 
3 2740 5428 9407 
3 9882 10727 11174 
3 6868 8176 2750 
3 2740 9407 6868 
3 9882 9407 5428 
3 10727 5428 8132 
3 2725 916 1563 
3 113 6868 1281 
3 9479 4002 6799 
3 2740 2725 5428 
3 3041 6189 8132 
3 3041 8132 2725 
3 8132 5428 2725 
3 3041 2725 1563 
3 907 2977 5028 
3 114 5028 1282 
3 4623 114 7123 
3 6465 6041 3821 
3 114 4405 7123 
3 4876 4482 1858 
3 7123 4405 8508 
3 4482 6465 3821 
3 4690 4876 1651 
3 2531 5286 2538 
3 7123 4876 4690 
3 840 2531 2538 
3 9092 5326 9666 
3 1858 2548 1651 
3 4623 7123 4690 
3 2559 5315 2600 
3 4690 1651 840 
3 4690 8657 6769 
3 4690 840 8657 
3 4624 9618 4549 
3 840 2538 37 
3 4475 8401 6769 
3 2701 2977 1555 
3 4146 4623 6769 
3 907 114 4623 
3 6769 4623 4690 
3 2977 907 1555 
3 1273 1555 4226 
3 1555 907 4146 
3 4226 4146 8401 
3 8657 4475 6769 
3 6769 8401 4146 
3 8657 37 4475 
3 4674 6939 8738 
3 2559 2600 1205 
3 4475 4549 8401 
3 4475 1205 4549 
3 9618 4586 4226 
3 2671 1947 1765 
3 4624 4674 8738 
3 3025 1970 2816 
3 1765 1947 4624 
3 7408 5440 5367 
3 2600 2671 1765 
3 4586 8738 4544 
3 6625 9470 7487 
3 4549 1765 4624 
3 9618 4226 8401 
3 4624 8738 4586 
3 4226 4586 1273 
3 4624 4586 9618 
3 4549 9618 8401 
3 9091 7701 8888 
3 9091 9832 10544 
3 2701 1273 7081 
3 7701 2840 7487 
3 11300 10814 11213 
3 11300 10451 10943 
3 10814 10544 9832 
3 11213 9832 10602 
3 9841 10451 10602 
3 11213 10451 11300 
3 9906 10451 9841 
3 9988 10602 8888 
3 1554 6625 906 
3 7701 7487 8888 
3 104 906 2840 
3 7081 2840 7701 
3 1273 4586 104 
3 7081 104 2840 
3 6645 7528 9470 
3 6625 7487 2840 
3 6630 9470 6625 
3 3991 8185 4326 
3 5466 9906 9841 
3 9988 9841 10602 
3 5466 9841 9370 
3 2830 9370 6632 
3 9055 9906 5466 
3 2880 5466 2830 
3 1274 2830 6632 
3 1274 6632 1556 
3 6630 5204 6645 
3 7528 6645 6632 
3 6645 9470 6630 
3 5204 1272 105 
3 8511 1554 906 
3 6630 1272 5204 
3 8511 3991 1554 
3 6625 1554 6630 
3 6939 8185 3991 
3 1554 3991 1272 
3 104 4544 906 
3 2840 906 6625 
3 6939 3991 8511 
3 6939 8511 4544 
3 4594 6939 4674 
3 4594 4674 1970 
3 4674 1947 1970 
3 5528 7457 9232 
3 8185 6939 4594 
3 1970 1947 2816 
3 1912 4594 1970 
3 1912 3025 8133 
3 7711 8133 3025 
3 7711 5528 9232 
3 3025 2816 5528 
3 3025 5528 7711 
3 8955 10685 10065 
3 8955 11730 8864 
3 9829 8864 11730 
3 10410 11387 11088 
3 8816 8864 9829 
3 10907 10410 11088 
3 11730 8876 10866 
3 11387 10387 11056 
3 11730 10866 10410 
3 9829 10410 10907 
3 5528 5440 7457 
3 10065 7457 8876 
3 9128 9995 7408 
3 5440 7408 7457 
3 9128 7408 5367 
3 2600 5367 2671 
3 10387 10866 9995 
3 7408 9995 8876 
3 5327 5315 2559 
3 2600 5315 5367 
3 5315 7367 9128 
3 5315 9128 5367 
3 8805 11190 9926 
3 9128 9926 9995 
3 9926 11190 10822 
3 9926 10387 9995 
3 10410 10866 11387 
3 10822 10387 9926 
3 10866 10387 11387 
3 11088 11387 11547 
3 11704 11600 11416 
3 11704 11416 11631 
3 11323 11088 11547 
3 11600 11547 11416 
3 11650 11524 11657 
3 11600 11657 11547 
3 11600 11699 11650 
3 11524 11650 11640 
3 11591 11413 11640 
3 11591 11640 11650 
3 11138 10751 11234 
3 11668 11561 11591 
3 10751 9767 11341 
3 11561 11341 11413 
3 10767 11271 11345 
3 11049 11413 11341 
3 10554 11049 10486 
3 10486 11049 11341 
3 10556 10767 9775 
3 11049 11345 11566 
3 10486 9966 10554 
3 8932 5310 7376 
3 10907 11088 11323 
3 11579 11323 11657 
3 10767 11081 11271 
3 11566 11271 11524 
3 11372 10887 11120 
3 11579 11120 11323 
3 11120 11579 11372 
3 10887 11372 11168 
3 11657 11524 11431 
3 11579 11431 11372 
3 10797 11081 10767 
3 10556 9775 7376 
3 11345 10554 9775 
3 11345 9775 10767 
3 9775 10554 8932 
3 9171 9966 10280 
3 5310 8932 9171 
3 5310 9171 2557 
3 10280 9966 7458 
3 10280 2907 7052 
3 10280 7458 2907 
3 1212 80 44 
3 2907 7458 2551 
3 80 1248 44 
3 2907 2551 1212 
3 883 5069 1544 
3 1772 7110 1212 
3 2907 1212 44 
3 1212 7110 80 
3 1248 80 3014 
3 80 883 7074 
3 3014 7074 9647 
3 7074 2789 8006 
3 9647 8006 9940 
3 10950 9844 7513 
3 2917 5487 2789 
3 9844 9225 7513 
3 5925 4877 2904 
3 9158 7513 5515 
3 5797 3901 8679 
3 9158 5515 5797 
3 9158 5830 9524 
3 8006 2789 5487 
3 8006 5487 8901 
3 7513 9225 5925 
3 4877 81 884 
3 9225 8621 5925 
3 5515 5925 2904 
3 2917 1544 1249 
3 4401 846 4023 
3 1544 6878 1249 
3 2917 4877 8621 
3 884 2904 4877 
3 1249 4877 2917 
3 1250 3901 1800 
3 2904 2866 5515 
3 6594 1800 1685 
3 4514 1685 884 
3 550 1250 1800 
3 550 1800 6594 
3 1249 6878 4418 
3 6531 4401 4023 
3 6878 8641 4418 
3 3667 4514 884 
3 1249 4418 81 
3 1249 81 4877 
3 5288 2535 2547 
3 5288 2547 5299 
3 1772 2552 1860 
3 1772 1860 5069 
3 2551 2552 1772 
3 7110 1772 5069 
3 883 7110 5069 
3 6878 5069 4817 
3 9966 10486 8846 
3 7458 8122 2551 
3 9249 5299 8122 
3 8846 8122 7458 
3 10486 11341 9767 
3 8846 9249 8122 
3 9767 10545 9249 
3 9767 9249 8846 
3 8902 5288 7344 
3 8122 5299 2552 
3 11082 10553 10746 
3 7344 5288 5299 
3 10545 9759 7344 
3 10545 7344 9249 
3 2535 5288 9233 
3 11236 11246 11412 
3 9873 10078 9233 
3 8902 9233 5288 
3 43 846 6795 
3 9233 6795 2535 
3 43 4023 846 
3 6795 846 2535 
3 8641 4817 4401 
3 846 1657 2535 
3 1657 846 4401 
3 8641 4401 6531 
3 4418 8641 6531 
3 7917 6531 6047 
3 6531 7917 7227 
3 4418 7227 81 
3 6394 4514 3667 
3 7917 3667 7227 
3 6715 1151 6594 
3 4514 6594 1685 
3 6594 4514 6715 
3 1517 6715 3690 
3 6715 1517 1151 
3 6594 1151 550 
3 6531 4023 6047 
3 10264 7855 9477 
3 7917 6047 10264 
3 7917 6394 3667 
3 6715 4514 6394 
3 9477 6394 10264 
3 6573 9477 7855 
3 4007 10215 10647 
3 3690 9477 6573 
3 470 4007 747 
3 6394 9477 3690 
3 5223 748 7243 
3 1517 3690 551 
3 1517 551 5167 
3 6573 7855 4007 
3 6573 4007 470 
3 7243 551 5223 
3 470 5223 6573 
3 43 1211 3627 
3 10215 6259 10647 
3 9281 6777 10215 
3 9281 10215 4007 
3 6776 1211 2527 
3 7361 10078 10557 
3 9270 5615 6776 
3 9270 6776 7361 
3 3627 4023 43 
3 1211 43 2527 
3 6047 4023 3627 
3 9281 3627 6777 
3 8902 9759 10553 
3 8902 10553 9873 
3 10768 10557 11334 
3 8902 9873 9233 
3 9873 10553 11334 
3 9873 11334 10557 
3 9873 10557 10078 
3 6795 10078 2527 
3 9764 9270 7361 
3 10078 7361 2527 
3 11649 11680 11609 
3 11621 11530 11665 
3 11082 11415 11454 
3 11334 11454 10768 
3 11680 11651 11687 
3 11680 11687 11694 
3 11649 11651 11680 
3 11646 11681 11593 
3 11682 11651 11649 
3 11609 11680 11509 
3 11510 11649 11609 
3 10746 10553 9759 
3 11510 11609 11451 
3 11082 11232 11415 
3 11451 11232 10746 
3 10553 11082 11334 
3 11609 11232 11451 
3 11510 11234 11668 
3 11232 11082 10746 
3 11138 10545 10751 
3 9759 10545 11138 
3 11561 10751 11341 
3 11451 10746 11138 
3 11234 10751 11561 
3 11650 11699 11677 
3 11591 11677 11668 
3 11451 11138 11234 
3 11451 11234 11510 
3 11682 11697 11701 
3 11696 11701 11645 
3 11599 11651 11682 
3 11696 11682 11701 
3 11649 11510 11697 
3 11701 11697 11677 
3 11404 11468 10753 
3 11404 11231 11564 
3 11631 11468 11525 
3 11231 10748 11233 
3 11645 11631 11525 
3 11696 11525 11599 
3 11699 11704 11645 
3 11696 11645 11525 
3 7367 5315 5327 
3 37 2559 1205 
3 2559 2538 5327 
3 7367 5327 7356 
3 840 1651 2531 
3 5286 5287 9073 
3 5326 7339 5287 
3 5286 9073 7356 
3 7356 9073 9927 
3 7356 9927 8805 
3 7339 9073 5287 
3 2548 5287 2531 
3 10753 11394 11225 
3 10345 9758 10873 
3 11404 10753 11231 
3 11231 11225 10748 
3 11599 11404 11564 
3 11599 11602 11651 
3 10753 11225 11231 
3 11564 11231 11397 
3 11647 11687 11602 
3 11512 11602 11397 
3 9760 9073 7339 
3 9758 7339 9092 
3 9927 9073 9760 
3 11097 11233 10748 
3 11225 10350 10748 
3 11333 10755 11461 
3 9760 7339 9758 
3 9760 10345 10350 
3 9760 9758 10345 
3 10350 10345 10748 
3 10748 10345 11097 
3 11233 11263 11400 
3 11231 11233 11397 
3 11564 11397 11602 
3 10873 10813 11086 
3 11097 11263 11233 
3 11538 11400 11263 
3 11461 11263 11086 
3 9912 10693 9092 
3 1766 1206 6579 
3 9758 10693 10873 
3 10345 10873 11097 
3 10873 10693 10813 
3 7876 6579 5718 
3 10373 11333 10914 
3 9912 10813 10693 
3 9912 10560 10914 
3 10813 10914 11333 
3 10549 10755 10373 
3 10813 11333 11086 
3 11594 11538 11399 
3 11255 11025 10747 
3 11538 11025 11399 
3 11594 11652 11693 
3 11538 11594 11670 
3 11400 11670 11512 
3 11644 11703 11693 
3 11693 11703 11594 
3 11617 11644 11589 
3 11652 11594 11399 
3 11706 11647 11679 
3 11703 11679 11670 
3 11647 11681 11694 
3 11589 11652 11686 
3 11679 11703 11644 
3 11695 11617 11537 
3 11695 11644 11617 
3 11408 11629 11036 
3 11593 11412 11688 
3 11448 11665 11246 
3 11507 10749 11434 
3 11530 11612 11688 
3 11537 11236 11412 
3 11537 11593 11695 
3 11104 11448 11246 
3 11412 11665 11688 
3 11612 11593 11688 
3 11415 11530 11454 
3 11454 11530 11621 
3 11246 11665 11412 
3 11681 11695 11593 
3 11695 11706 11644 
3 11706 11695 11681 
3 11646 11593 11612 
3 11687 11647 11694 
3 11680 11646 11509 
3 11647 11706 11681 
3 11694 11681 11646 
3 11680 11694 11646 
3 11509 11612 11415 
3 11509 11646 11612 
3 11415 11612 11530 
3 10768 11454 11621 
3 11665 11530 11688 
3 9764 10768 11563 
3 11448 11621 11665 
3 10557 10768 9764 
3 11563 10827 11165 
3 11563 11621 11448 
3 10827 11448 11104 
3 9270 9764 11165 
3 5527 2793 7682 
3 10827 9893 11165 
3 11563 11165 9764 
3 9270 11165 10580 
3 9270 10580 5615 
3 10580 9312 5615 
3 6776 1771 1211 
3 6776 5615 1771 
3 6777 1771 6259 
3 471 2511 2517 
3 10647 747 4007 
3 6418 4837 747 
3 2517 747 10647 
3 8717 6919 4656 
3 4656 4837 6418 
3 475 7243 748 
3 4923 748 6919 
3 2517 2511 6418 
3 5224 752 4923 
3 4837 4656 6919 
3 4837 6919 748 
3 471 6259 1951 
3 2511 1971 7156 
3 2517 6259 471 
3 2511 471 1971 
3 749 4656 6418 
3 2517 6418 747 
3 9312 2793 1971 
3 472 8717 4656 
3 2511 7156 749 
3 2511 749 6418 
3 4923 6919 5033 
3 750 472 5001 
3 750 473 5033 
3 8717 5033 6919 
3 750 8717 472 
3 6984 845 4576 
3 5033 8717 750 
3 4271 750 5001 
3 1971 2793 1916 
3 7156 5219 749 
3 7156 1916 5219 
3 6984 4576 5001 
3 10459 7636 9243 
3 11104 11246 11113 
3 3054 2793 5527 
3 7636 5527 9243 
3 9312 10580 7682 
3 5527 7682 9243 
3 471 1951 1971 
3 7156 1971 1916 
3 10408 9893 10827 
3 11448 10827 11563 
3 10580 11165 9893 
3 7682 9893 9243 
3 10852 11104 11113 
3 10356 11113 10749 
3 10408 10827 11104 
3 10852 11113 10356 
3 10459 9243 10408 
3 10459 11366 11219 
3 10408 11104 11366 
3 9819 9964 9144 
3 11366 10852 11219 
3 10459 9404 7636 
3 7342 9144 9964 
3 7342 8787 7353 
3 10356 9964 9819 
3 11219 9819 7447 
3 5414 7447 9144 
3 11219 7447 10459 
3 5534 8131 9404 
3 7636 8131 5914 
3 11104 10852 11366 
3 10408 11366 10459 
3 8131 7636 9404 
3 8131 5534 3122 
3 1916 2793 3054 
3 4074 3054 5914 
3 845 6984 1656 
3 4074 1656 3054 
3 5219 1656 6984 
3 472 6984 5001 
3 750 4271 473 
3 474 4807 752 
3 10144 7759 7211 
3 4576 7211 5001 
3 751 473 4530 
3 4530 6544 8294 
3 3054 5527 5914 
3 4074 9723 5236 
3 1210 5236 6412 
3 8131 9723 5914 
3 42 4576 845 
3 5236 845 4074 
3 4460 6234 42 
3 5236 42 845 
3 4460 9345 6234 
3 42 6234 4576 
3 9198 7759 10144 
3 9198 10144 5915 
3 6544 7759 9198 
3 1939 1750 3166 
3 10144 9345 5915 
3 4238 6064 3166 
3 9198 5915 3581 
3 9198 6751 8294 
3 6613 9345 4460 
3 4987 4460 1210 
3 5915 9345 6179 
3 4534 4987 7297 
3 5058 4987 1770 
3 6412 5236 9723 
3 42 5236 1210 
3 42 1210 4460 
3 5321 5414 9144 
3 7447 5534 9404 
3 3122 1770 6412 
3 3122 6412 8131 
3 5534 7447 5414 
3 5321 9144 7342 
3 2809 5534 5414 
3 2648 5414 5321 
3 2565 5321 5291 
3 7353 8787 9925 
3 2562 2565 5291 
3 7353 5291 7342 
3 4692 1859 1655 
3 2648 2809 5414 
3 10428 10773 11391 
3 10891 10449 11191 
3 11036 11275 10773 
3 9925 10773 10428 
3 10404 10925 11043 
3 11487 10891 11391 
3 11036 11629 11275 
3 10773 11275 11391 
3 11629 11526 11452 
3 11487 11452 11336 
3 11589 11574 11617 
3 10918 10773 9925 
3 11295 11036 10918 
3 10346 9964 10356 
3 11295 10918 11507 
3 9964 8787 7342 
3 11434 11574 11295 
3 11507 10918 10346 
3 10918 8787 10346 
3 10749 10346 10356 
3 11537 11617 11434 
3 11236 11434 10749 
3 11434 11295 11507 
3 10749 11507 10346 
3 11589 11693 11652 
3 11686 11652 11526 
3 11644 11693 11589 
3 11574 11408 11295 
3 11408 11686 11629 
3 11275 11629 11452 
3 11589 11686 11408 
3 11295 11408 11036 
3 11589 11408 11574 
3 11617 11574 11434 
3 10955 10404 11580 
3 11440 11452 11526 
3 11316 11580 11440 
3 11316 11440 11255 
3 11399 11025 11255 
3 11626 11440 11526 
3 11399 11255 11626 
3 11399 11626 11652 
3 10755 11333 10373 
3 10549 10373 10053 
3 10755 10549 10747 
3 10755 10747 11025 
3 2537 2536 5279 
3 10047 10404 8920 
3 8220 5279 10053 
3 8845 10053 10373 
3 10053 5279 8784 
3 9765 10955 11316 
3 8784 5279 8205 
3 4211 6442 8440 
3 5279 2536 8205 
3 8824 5389 8920 
3 8784 8205 8824 
3 8784 8824 9765 
3 8824 8920 10955 
3 8824 10955 9765 
3 10047 7410 10925 
3 10925 7410 9813 
3 11440 11580 11043 
3 11452 11043 11336 
3 8205 2536 2561 
3 8205 5389 8824 
3 7999 8920 5389 
3 2561 5389 8205 
3 10955 8920 10404 
3 11580 10404 11043 
3 2561 2536 1767 
3 4650 4351 39 
3 1948 6747 1767 
3 1207 4650 39 
3 1913 4211 1948 
3 6747 4211 8440 
3 3929 4211 1913 
3 2536 1948 1767 
3 3972 8496 6877 
3 6877 8496 8189 
3 5935 8496 6442 
3 3929 6442 4211 
3 6442 8496 3972 
3 9361 6143 3641 
3 4230 670 349 
3 672 350 3043 
3 8971 9640 5767 
3 5767 9640 10308 
3 9288 9640 8971 
3 5201 3740 9617 
3 4646 638 279 
3 5519 2865 2931 
3 1027 279 2931 
3 8000 7806 9640 
3 4942 280 631 
3 3560 2865 5708 
3 279 7277 2931 
3 1027 2865 1393 
3 2931 7277 8000 
3 9288 8000 9640 
3 9910 9288 8971 
3 10288 8971 8189 
3 8496 7709 8189 
3 6877 8189 3043 
3 9611 5708 7560 
3 9611 7560 10993 
3 10610 9896 9910 
3 9288 10993 7560 
3 1027 2931 2865 
3 280 5078 631 
3 9288 7560 5519 
3 8000 5519 2931 
3 1393 2865 3560 
3 6934 3560 6248 
3 9288 9910 10993 
3 2909 1562 3289 
3 3040 7964 5700 
3 10993 9133 9611 
3 7564 10590 9434 
3 9910 9896 10590 
3 3466 3040 5700 
3 7709 10610 10288 
3 841 3040 3466 
3 3929 3466 5935 
3 8189 7709 10288 
3 8971 10288 9910 
3 7709 5700 10610 
3 10288 10610 9910 
3 3466 3929 1652 
3 6746 2537 8220 
3 1948 2536 2537 
3 1913 6746 1652 
3 2950 1652 6746 
3 1913 1652 3929 
3 841 1652 2950 
3 8845 8220 10053 
3 2537 5279 8220 
3 6746 8096 2950 
3 5718 2950 8096 
3 8096 8220 8845 
3 4959 2950 5718 
3 10560 8096 8845 
3 3040 7188 7964 
3 5700 7964 10610 
3 3466 1652 841 
3 3040 841 38 
3 7964 7188 7963 
3 7964 9434 9896 
3 7963 7188 3514 
3 7963 6041 9366 
3 38 4959 1206 
3 1766 1858 4482 
3 9912 7876 10560 
3 10560 5718 8096 
3 9912 9092 7876 
3 5718 6579 4959 
3 9092 9666 7876 
3 10560 7876 5718 
3 6579 2691 1766 
3 1766 4482 3821 
3 2691 9666 5326 
3 2548 5326 5287 
3 8508 4002 6465 
3 8508 6465 4482 
3 4876 8508 4482 
3 1858 1766 2691 
3 3514 3821 6041 
3 3514 6041 7963 
3 9666 2691 6579 
3 1206 1766 3821 
3 7876 9666 6579 
3 4959 6579 1206 
3 8029 3428 5795 
3 9434 7964 7963 
3 3428 8029 6799 
3 4002 9479 6465 
3 2725 2740 916 
3 6799 8029 9479 
3 1563 916 6799 
3 1563 6799 4002 
3 10631 9257 8176 
3 10631 8176 9407 
3 916 2740 113 
3 1281 6868 2750 
3 2750 2829 1562 
3 1281 1562 2909 
3 2740 6868 113 
3 3428 3128 5795 
3 5567 3128 2909 
3 1281 3128 113 
3 5023 1280 1561 
3 2829 915 1562 
3 5795 3128 5567 
3 5567 2909 9286 
3 7564 5795 5567 
3 9133 9286 9611 
3 8029 5795 9366 
3 8029 9366 6041 
3 9366 5795 7564 
3 9366 9434 7963 
3 10590 9896 9434 
3 7564 9434 9366 
3 5078 6934 112 
3 915 4503 3289 
3 6248 9611 9286 
3 3289 9286 2909 
3 10993 10590 9133 
3 9286 9133 5567 
3 5036 271 6996 
3 5790 9283 10300 
3 914 6996 1561 
3 4721 5822 8658 
3 559 8347 5056 
3 558 630 8411 
3 5036 6996 914 
3 4661 5790 10300 
3 4661 2777 1279 
3 111 1279 8347 
3 914 1561 2794 
3 4721 2829 5822 
3 5078 112 1280 
3 1561 1280 2804 
3 4503 915 112 
3 4503 112 6934 
3 2794 2804 5434 
3 9272 8658 5822 
3 915 2829 4721 
3 112 4721 1280 
3 9826 10909 7486 
3 9257 7486 5452 
3 7486 5822 5452 
3 9257 5452 8176 
3 7456 9980 9283 
3 10300 9283 7994 
3 9272 7456 5434 
3 2794 4661 914 
3 2794 5790 4661 
3 111 4661 1279 
3 5434 5790 2794 
3 2804 2794 1561 
3 8658 9272 5434 
3 8658 5434 2804 
3 7994 4918 7095 
3 3962 788 554 
3 4918 913 7095 
3 7994 7095 2777 
3 1278 110 4918 
3 2913 4918 5780 
3 7485 5462 5780 
3 7994 5780 4918 
3 5726 7824 5939 
3 3408 4655 1278 
3 2913 1559 1278 
3 2913 1278 4918 
3 4655 5939 6332 
3 1518 5163 3990 
3 3408 5939 4655 
3 110 5089 5019 
3 4655 6332 5089 
3 5163 554 788 
3 1518 5019 5089 
3 554 5089 6332 
3 110 5019 913 
3 7095 1560 2777 
3 8347 1279 1560 
3 913 1560 7095 
3 1518 3990 1152 
3 1521 1155 6537 
3 913 5019 5056 
3 1560 5056 8347 
3 1518 554 5163 
3 7030 5180 7164 
3 5089 554 1518 
3 5019 1152 5056 
3 5019 1518 1152 
3 5056 1152 559 
3 4862 789 555 
3 788 5180 5163 
3 1152 3990 4249 
3 4249 6374 8564 
3 5163 5180 7030 
3 3990 7030 6542 
3 6542 7164 4243 
3 6542 4025 6374 
3 4249 6542 6374 
3 1521 8347 559 
3 1521 8564 6320 
3 272 3579 630 
3 6374 6320 8564 
3 4249 8564 559 
3 559 8564 1521 
3 8347 6537 111 
3 8347 1521 6537 
3 111 5036 914 
3 6537 8411 5036 
3 6537 5036 111 
3 271 5023 6996 
3 6996 5023 1561 
3 4942 631 9502 
3 5023 5078 1280 
3 630 5091 271 
3 5023 631 5078 
3 1393 3560 280 
3 4942 6131 3172 
3 1521 6320 1155 
3 6537 1155 8411 
3 6320 1520 1155 
3 1155 558 8411 
3 5091 631 271 
3 630 271 8411 
3 1154 6707 1520 
3 8698 1520 6320 
3 9502 631 5091 
3 8587 5091 3579 
3 6131 4942 9502 
3 8587 9502 5091 
3 1393 280 4942 
3 1393 4942 3172 
3 5091 630 3579 
3 7694 10145 7662 
3 5733 3172 6131 
3 7662 6131 8587 
3 273 632 6707 
3 1520 272 558 
3 7017 3579 272 
3 632 272 1520 
3 8587 3579 7694 
3 10332 7017 5133 
3 603 7278 229 
3 1519 557 5136 
3 557 5086 1154 
3 1520 6707 632 
3 1153 1519 4025 
3 6374 5136 8698 
3 5086 6707 1154 
3 557 1154 5136 
3 4700 9440 556 
3 7164 556 4243 
3 6542 4243 4025 
3 6374 4025 5136 
3 7968 9466 4107 
3 556 1153 4243 
3 556 4107 1153 
3 9724 6617 229 
3 8599 1519 1153 
3 8599 1153 4107 
3 7183 4592 4427 
3 6318 4457 8642 
3 4107 9440 7968 
3 604 230 4070 
3 6355 6356 5259 
3 1175 5259 6356 
3 4427 4592 808 
3 4427 808 6 
3 3281 9627 6355 
3 9018 7474 5579 
3 3281 6355 1620 
3 808 6355 5259 
3 1174 1735 4925 
3 4592 1620 808 
3 8748 4592 7183 
3 9440 7183 7968 
3 1620 4592 6821 
3 4862 4700 789 
3 7183 9440 4700 
3 8748 4700 4862 
3 6821 4925 1735 
3 555 789 5180 
3 8705 4862 555 
3 7022 555 4392 
3 7022 7176 4925 
3 6821 8748 4862 
3 7022 4925 8705 
3 7022 8705 555 
3 5557 9627 3281 
3 6821 8705 4925 
3 2802 3281 1735 
3 2802 1735 1174 
3 4592 8748 6821 
3 1620 6821 1735 
3 10082 9026 10719 
3 11637 11070 11488 
3 10082 9627 5557 
3 9026 5443 10730 
3 7448 9830 9085 
3 10040 7474 9018 
3 11110 9026 10730 
3 11361 11488 10388 
3 11211 9928 10847 
3 3265 9625 5579 
3 10349 11035 10846 
3 9864 10846 11110 
3 10865 10014 10388 
3 11488 11361 10846 
3 11110 10846 11361 
3 5450 2856 5579 
3 10014 7402 8873 
3 11361 10040 11110 
3 11361 8873 10040 
3 11110 10719 9026 
3 11110 10040 10719 
3 9026 10082 5557 
3 7724 10082 9625 
3 9625 10082 9018 
3 9627 10082 7724 
3 6356 3265 1736 
3 6355 9627 7724 
3 6356 7724 9625 
3 10014 9034 7402 
3 8873 7474 10040 
3 8873 7402 7474 
3 10040 9018 10719 
3 10082 10719 9018 
3 9625 9018 5579 
3 10348 10067 11141 
3 10014 10458 9034 
3 11141 10458 10865 
3 10388 10014 8873 
3 10067 10458 11141 
3 11601 11515 11403 
3 10458 10014 10865 
3 11141 11479 11306 
3 11578 11482 11311 
3 11029 10876 10348 
3 10876 8782 10348 
3 11029 10348 11306 
3 9845 9310 10558 
3 10876 10558 8782 
3 11157 10558 10876 
3 11311 10876 11029 
3 11497 10857 10368 
3 9779 9251 7375 
3 7375 9043 9772 
3 10357 9845 11157 
3 9796 10857 10933 
3 8949 9951 7689 
3 10933 8854 9796 
3 10368 9779 10904 
3 11142 10832 11149 
3 11279 11149 10857 
3 10357 11037 10904 
3 11497 11464 11279 
3 9772 9779 7375 
3 10368 10904 11053 
3 11427 11037 11482 
3 11311 11482 11157 
3 10876 11311 11157 
3 10558 11157 9845 
3 11279 11581 11475 
3 11676 11598 11411 
3 11497 11053 11464 
3 11581 11464 11292 
3 9219 9805 10472 
3 11581 11279 11464 
3 10857 11497 11279 
3 11149 11279 11475 
3 9148 8842 8075 
3 11581 10790 11475 
3 10790 11581 11292 
3 7390 5375 9219 
3 11292 11464 11584 
3 11292 11584 11050 
3 11037 11427 11280 
3 11037 11280 11053 
3 11676 11655 11683 
3 11402 11029 11403 
3 11311 11402 11578 
3 11691 11514 11653 
3 11655 11427 11578 
3 11655 11402 11515 
3 11655 11578 11402 
3 11515 11402 11403 
3 10348 11141 11306 
3 11029 11306 11403 
3 11141 10865 11479 
3 11306 11635 11403 
3 11691 11601 11635 
3 11479 11635 11306 
3 11070 11637 11514 
3 11479 11514 11635 
3 10388 11488 11070 
3 10388 11070 10865 
3 11403 11635 11601 
3 11683 11685 11598 
3 11635 11514 11691 
3 11601 11691 11700 
3 11691 11653 11700 
3 11660 11683 11515 
3 11276 11432 11513 
3 11700 11596 11660 
3 11028 10878 10355 
3 11515 11601 11660 
3 11531 11598 11551 
3 11596 11700 11684 
3 11660 11685 11683 
3 11515 11683 11655 
3 11596 11685 11660 
3 11700 11660 11601 
3 11280 11427 11550 
3 11280 11441 11584 
3 11411 11550 11676 
3 11598 11676 11683 
3 10790 10776 10472 
3 9768 8842 9773 
3 11550 11411 11441 
3 11550 11441 11280 
3 10776 10464 10472 
3 10790 10472 9805 
3 11292 11050 10776 
3 10472 7390 9219 
3 10854 10464 10776 
3 11292 10776 10790 
3 11531 11310 11502 
3 11312 10854 11050 
3 9773 10854 10355 
3 11411 11312 11441 
3 9768 9773 10355 
3 10854 9773 10464 
3 10878 9768 10355 
3 11312 10355 10854 
3 5352 5375 7390 
3 10464 7390 10472 
3 10464 9773 9148 
3 6526 1625 2601 
3 5352 8075 2575 
3 1740 1179 6689 
3 9148 9773 8842 
3 8075 8168 6689 
3 5297 10019 9476 
3 10352 11027 10888 
3 8872 7439 7773 
3 11028 11411 11531 
3 11114 10878 11502 
3 11551 11685 11401 
3 11114 11502 11310 
3 10888 11027 11272 
3 11312 11411 11028 
3 11312 11028 10355 
3 11411 11598 11531 
3 11028 11531 11502 
3 11401 11685 11596 
3 11401 11522 11272 
3 11513 11432 11613 
3 11596 11522 11401 
3 11598 11685 11551 
3 11027 11401 11272 
3 11310 11551 11027 
3 11310 11027 10352 
3 11254 11522 11630 
3 11613 11522 11596 
3 11522 11613 11630 
3 11522 11254 11480 
3 11630 11432 11583 
3 10841 11357 11199 
3 10841 11575 11484 
3 11583 11484 11286 
3 9928 9830 10385 
3 11063 11484 11583 
3 11488 11035 11637 
3 11276 11063 11432 
3 8806 11211 10349 
3 10847 9928 10385 
3 11513 11620 11276 
3 11432 11063 11583 
3 10385 11484 11063 
3 10847 11063 11276 
3 11684 11653 11513 
3 11684 11513 11613 
3 11513 11653 11620 
3 11466 11211 10847 
3 11653 11514 11637 
3 11035 11488 10846 
3 11620 11637 11035 
3 11466 10847 11276 
3 11620 11035 11466 
3 7404 5336 7372 
3 11110 10730 9864 
3 10846 9864 10349 
3 11035 10349 11466 
3 11620 11466 11276 
3 8806 9928 11211 
3 10349 11211 11466 
3 10349 9864 8806 
3 2643 5339 2576 
3 9928 8806 7372 
3 9928 9085 9830 
3 7404 5443 5336 
3 7372 5336 5339 
3 9864 10730 7404 
3 8806 7404 7372 
3 5557 2802 5443 
3 10730 5443 7404 
3 5443 2802 2682 
3 5336 2682 2576 
3 4925 7176 1174 
3 2802 1174 2682 
3 1174 7176 7 
3 1174 7 2682 
3 9636 6609 4277 
3 7 810 2576 
3 9205 6267 3962 
3 9205 3962 6332 
3 7 4277 810 
3 8110 6267 9205 
3 8110 6609 9636 
3 6267 9636 8356 
3 9928 7372 9085 
3 2643 810 1622 
3 2643 2576 810 
3 6609 810 4277 
3 11357 9830 7448 
3 5339 9085 7372 
3 3170 2822 1845 
3 5339 5418 9085 
3 5418 5339 2643 
3 5418 2822 5546 
3 2822 2643 1622 
3 6609 1622 810 
3 1622 3749 1845 
3 7807 5825 9308 
3 6609 3749 1622 
3 7956 7807 9308 
3 5858 7824 7807 
3 5858 7956 3443 
3 1176 1737 3385 
3 5858 3749 8110 
3 5858 7807 7956 
3 3443 3385 1737 
3 1737 6392 3170 
3 1737 1845 3443 
3 1737 3170 1845 
3 3749 6609 8110 
3 3170 5546 2822 
3 1845 2822 1622 
3 3443 1845 3749 
3 3443 3749 5858 
3 10489 11199 11357 
3 9830 10841 10385 
3 5418 5546 7448 
3 5418 7448 9085 
3 11286 11484 11575 
3 10781 9782 11117 
3 10800 11575 10841 
3 11357 10841 9830 
3 10476 11176 10800 
3 11575 11176 11286 
3 10841 11199 10800 
3 11176 10476 10417 
3 7646 9036 10489 
3 7448 10489 11357 
3 8174 7646 9431 
3 5546 9431 7448 
3 6392 5947 8174 
3 3170 8174 5546 
3 5530 7831 9036 
3 10489 9834 11199 
3 8174 5947 7646 
3 9431 7646 10489 
3 9044 10947 10476 
3 8856 10476 9834 
3 9036 8856 9834 
3 9036 9834 10489 
3 8856 9036 7831 
3 7034 1932 2632 
3 7646 5947 5530 
3 7646 5530 9036 
3 2762 5530 3087 
3 4117 6392 5244 
3 1623 3087 4117 
3 3861 6304 5986 
3 1623 4117 811 
3 4474 9516 6304 
3 4474 8 10303 
3 3527 1176 3385 
3 811 4117 5244 
3 811 8 4474 
3 5244 1176 8 
3 5244 8 811 
3 8 1176 3527 
3 7685 7956 9308 
3 3527 3385 7685 
3 9678 10206 8221 
3 10303 8 3527 
3 9678 3527 7685 
3 4636 9516 6401 
3 8221 6401 9678 
3 9678 7685 10206 
3 9729 10206 7987 
3 727 4636 4284 
3 6401 9516 10303 
3 4636 6401 4284 
3 432 4284 6338 
3 2762 3087 1897 
3 3224 1623 3861 
3 6304 3861 4474 
3 9516 4474 10303 
3 1623 811 3861 
3 3224 3861 5986 
3 8292 8301 3556 
3 8301 6304 9516 
3 8301 9516 4636 
3 4636 727 431 
3 8301 4636 431 
3 5055 727 4612 
3 6304 8301 8292 
3 726 4928 430 
3 3556 8301 431 
3 3556 431 726 
3 5773 3556 3202 
3 5773 3202 8067 
3 5055 7264 726 
3 3556 726 3202 
3 10109 7579 7538 
3 11728 7863 5773 
3 5611 5986 7863 
3 7538 7863 11728 
3 1932 1961 2996 
3 5552 2923 5611 
3 3224 5986 5611 
3 5552 5611 7538 
3 5986 6304 8292 
3 7863 8292 5773 
3 1177 1738 3358 
3 3266 5812 5892 
3 5621 3313 2996 
3 5552 2996 2923 
3 5552 7579 5621 
3 5745 9400 7649 
3 2996 5552 5621 
3 3313 5621 5745 
3 5812 7971 5892 
3 3266 5892 3565 
3 3358 5745 5812 
3 3358 5812 3266 
3 10340 6076 3565 
3 10340 3565 5892 
3 1177 3358 3266 
3 9 3266 3565 
3 8365 4494 5655 
3 9 1177 3266 
3 2768 5655 4494 
3 9 4494 1177 
3 9044 8365 5655 
3 4494 2769 1177 
3 7034 1961 1932 
3 1738 1932 3313 
3 3224 2923 1897 
3 1623 1897 3087 
3 1897 1961 2762 
3 7831 2632 5359 
3 7831 5530 2762 
3 7034 2762 1961 
3 7440 9044 5655 
3 7440 5655 5358 
3 5359 2769 8365 
3 5359 8365 9044 
3 2769 5359 2632 
3 2769 2632 1738 
3 7362 5358 5306 
3 4014 1178 1739 
3 5306 5358 2585 
3 5306 2539 5284 
3 7338 5284 5285 
3 5409 5582 7439 
3 1898 1962 2539 
3 2585 2539 5306 
3 4112 8201 7784 
3 2526 1933 2592 
3 3831 3952 1962 
3 2539 1962 2526 
3 1624 3879 1898 
3 2585 1898 2539 
3 2585 5358 2768 
3 3746 8422 3879 
3 2585 2768 1624 
3 2585 1624 1898 
3 1624 2768 812 
3 1624 3746 3879 
3 6076 9754 8422 
3 6076 3746 3565 
3 6076 8422 3746 
3 3565 3746 812 
3 3831 1962 1898 
3 4112 7784 7087 
3 3831 10163 3952 
3 7784 9347 6163 
3 1739 1933 4227 
3 3831 3879 9347 
3 4227 3952 8201 
3 7784 10163 9347 
3 9347 10163 3831 
3 3879 3831 1898 
3 8246 9359 6208 
3 6208 6165 4014 
3 6208 4014 4227 
3 3952 4227 1933 
3 9359 6165 6208 
3 8201 3952 10163 
3 8246 6208 8201 
3 8246 8201 4112 
3 7697 10058 7539 
3 5608 7539 5764 
3 3543 6165 7881 
3 7539 9395 5764 
3 9206 7882 10073 
3 10058 10073 7539 
3 6165 9395 7881 
3 3820 1625 3511 
3 9628 5937 8368 
3 10073 7882 7881 
3 7881 7882 7258 
3 3543 10 1178 
3 2845 1739 1178 
3 10 3543 7258 
3 6165 3543 4014 
3 4227 4014 1739 
3 1178 4762 2845 
3 5284 2539 2526 
3 1739 2845 2592 
3 1739 2592 1933 
3 1780 2918 1952 
3 7882 3346 7258 
3 10 7258 3346 
3 1625 1846 2601 
3 4762 1178 10 
3 6526 2601 9476 
3 4055 1846 3820 
3 813 10 3346 
3 8520 3820 6111 
3 5937 3511 3346 
3 1740 8331 1179 
3 3820 1846 1625 
3 3346 3511 813 
3 813 1625 6526 
3 8872 11008 9792 
3 8168 8075 8842 
3 8788 8872 9792 
3 9476 7773 6526 
3 4762 10 813 
3 1625 813 3511 
3 4762 813 6526 
3 4762 6526 5582 
3 2592 2845 5409 
3 5285 7366 7338 
3 2592 5409 5285 
3 2592 5285 2526 
3 7343 5306 5284 
3 5285 5284 2526 
3 7440 5358 7362 
3 8794 7343 10093 
3 10967 8794 10093 
3 10520 10093 8785 
3 8794 7362 7343 
3 7338 7343 5284 
3 7773 7439 5582 
3 7773 5582 6526 
3 5285 5409 7366 
3 7338 8785 10093 
3 7338 7366 8785 
3 10520 8785 9762 
3 8872 7773 10019 
3 8788 9762 8785 
3 10888 10520 9762 
3 10888 9762 10352 
3 11286 11176 10781 
3 11286 11254 11630 
3 10476 10947 10417 
3 11176 10417 10781 
3 10781 11117 11254 
3 11522 11480 11272 
3 11117 11480 11254 
3 10781 11254 11286 
3 9768 10878 10508 
3 9792 11114 10352 
3 11114 11310 10352 
3 9792 10352 9762 
3 11272 11480 11364 
3 10888 11364 10520 
3 10878 11114 10508 
3 8811 8168 8842 
3 11114 9792 11008 
3 10019 7773 9476 
3 10508 11008 10019 
3 8811 8842 9768 
3 8788 7439 8872 
3 11008 8872 10019 
3 8168 5297 2553 
3 1846 2553 2601 
3 2601 2553 5297 
3 10019 8811 10508 
3 2575 1179 11 
3 8321 4184 6532 
3 2553 6689 8168 
3 5297 8168 8811 
3 10019 5297 8811 
3 10508 8811 9768 
3 1179 8331 4513 
3 814 4880 1626 
3 8075 6689 2575 
3 11 1179 4513 
3 1846 4055 1740 
3 4513 6532 8591 
3 4055 8331 1740 
3 2553 1740 6689 
3 63 4800 4470 
3 6532 4513 8331 
3 4184 4470 6532 
3 4184 8321 3933 
3 1231 8341 4800 
3 6874 11 4513 
3 4470 4800 8591 
3 4470 8591 6532 
3 8048 9327 5318 
3 7354 8795 7422 
3 10550 9327 9113 
3 7049 8048 2571 
3 8797 9771 8795 
3 11616 11674 11527 
3 9327 10567 7355 
3 5305 2533 2580 
3 10550 10883 11188 
3 10567 11188 10397 
3 9113 9787 10550 
3 9327 10550 10567 
3 8048 7049 9669 
3 8048 9113 9327 
3 63 858 2900 
3 9669 5314 9113 
3 7049 1231 63 
3 7049 63 2900 
3 9113 5314 7363 
3 9787 9781 10362 
3 9669 2900 5314 
3 7363 5314 5342 
3 11188 10883 11392 
3 11188 11095 10397 
3 7363 9787 9113 
3 9669 9113 8048 
3 10362 11326 11033 
3 11392 11033 11532 
3 11298 10818 11182 
3 9781 9787 7363 
3 10818 10896 11182 
3 9104 9781 7363 
3 9104 7363 5342 
3 8404 2641 2637 
3 3933 1917 1665 
3 858 2579 2900 
3 1665 4184 3933 
3 1917 3283 1952 
3 5314 2900 2579 
3 5342 2579 2641 
3 4184 1665 858 
3 4184 858 4470 
3 6532 8331 8321 
3 3933 8321 6128 
3 8321 8331 4055 
3 8321 8520 6128 
3 1917 3933 3283 
3 6111 3820 3511 
3 8321 4055 8520 
3 3283 3575 1952 
3 6128 8520 8405 
3 5937 6111 3511 
3 5984 3575 8405 
3 6111 8405 8520 
3 8368 5984 9628 
3 5937 9628 6111 
3 6128 8405 3283 
3 6128 3283 3933 
3 5984 3401 3575 
3 8405 3575 3283 
3 1224 55 5189 
3 55 6443 3236 
3 5857 3401 5984 
3 3575 3401 1780 
3 3253 3401 5857 
3 9628 5984 8405 
3 10058 8216 9206 
3 7882 8368 5937 
3 9206 8216 5857 
3 8368 5857 5984 
3 5857 8368 9206 
3 10058 9206 10073 
3 9172 3236 6443 
3 8216 3253 5857 
3 55 3253 6443 
3 9172 6443 9207 
3 3236 857 55 
3 5707 5455 2918 
3 1224 3253 55 
3 5189 55 857 
3 2918 3683 5707 
3 7686 7272 3684 
3 5189 7272 3683 
3 1780 3683 2918 
3 1780 3401 1224 
3 3683 1224 5189 
3 10406 9111 11227 
3 10895 9854 10383 
3 5707 7686 9111 
3 7462 9111 10406 
3 6629 9526 7503 
3 9111 10636 11227 
3 7686 6628 7503 
3 7686 7503 9111 
3 8962 10868 10383 
3 9854 11227 10636 
3 8962 10383 9854 
3 8962 9854 5435 
3 11054 11627 11332 
3 10868 11332 10383 
3 10406 11227 10895 
3 11490 10895 11052 
3 11332 11627 11052 
3 11332 11052 10383 
3 10255 7462 10896 
3 9781 10818 10362 
3 10896 7462 10406 
3 11182 10406 11490 
3 3683 7272 5707 
3 5455 5707 7462 
3 10896 9781 9104 
3 10255 9104 8404 
3 9104 5342 8404 
3 10255 8404 5455 
3 11182 11490 11298 
3 11326 11298 11556 
3 11326 10362 10818 
3 11326 10818 11298 
3 10818 9781 10896 
3 11182 10896 10406 
3 11257 11252 11663 
3 11422 11285 11558 
3 11556 11257 11663 
3 11556 11429 11326 
3 9816 9770 10364 
3 11252 11257 11040 
3 11533 11055 11365 
3 11533 11365 11039 
3 8924 10066 7712 
3 10499 9774 8803 
3 8924 8077 9174 
3 10778 11040 10758 
3 10855 11365 11055 
3 10855 10778 10499 
3 11611 11663 11252 
3 11533 11252 11055 
3 10659 9774 10758 
3 10758 11054 10796 
3 11257 11627 11054 
3 10758 10796 10659 
3 9917 8891 10659 
3 9917 10796 11209 
3 10868 11209 10796 
3 11332 10796 11054 
3 10499 8803 10097 
3 8076 10097 5332 
3 10778 10758 9774 
3 8803 9774 8891 
3 9816 10855 10526 
3 7712 8077 8924 
3 10526 10855 10499 
3 10526 10499 10097 
3 10855 11055 10778 
3 10499 10778 9774 
3 8076 9732 10066 
3 8924 9816 10526 
3 9732 7712 10066 
3 8076 10066 10097 
3 8077 6601 2692 
3 58 4976 1226 
3 4976 7712 9732 
3 6556 9732 8076 
3 4976 58 861 
3 4853 4786 4732 
3 7712 4976 6601 
3 1668 861 8280 
3 4853 2107 2117 
3 4853 6763 8280 
3 4786 4853 8280 
3 4786 8280 861 
3 2117 2127 6763 
3 2117 6763 4853 
3 8280 7240 1668 
3 6601 8077 7712 
3 861 1668 6601 
3 861 6601 4976 
3 10526 10066 8924 
3 9816 8924 9174 
3 2613 2692 1864 
3 1864 1668 7240 
3 9816 9174 9770 
3 10364 9770 10858 
3 1864 7240 5049 
3 5106 5049 2137 
3 5340 2692 2613 
3 5106 1864 5049 
3 5338 5340 2613 
3 1783 1864 5106 
3 5106 2137 2147 
3 6845 2147 2157 
3 1227 6845 8469 
3 2157 8469 6845 
3 8469 2157 2167 
3 3246 7151 59 
3 10173 59 8469 
3 8469 59 1227 
3 2582 7891 5338 
3 2582 7151 7891 
3 8907 9783 10616 
3 59 7151 1227 
3 6845 1783 5106 
3 2582 2613 1783 
3 2582 1783 1227 
3 10858 9770 10593 
3 5338 7374 5340 
3 10012 10616 10593 
3 7374 10593 9770 
3 10593 11200 10858 
3 10364 10858 11039 
3 11556 11663 11429 
3 11033 11429 11532 
3 11611 11533 11422 
3 11425 11256 11243 
3 11611 11422 11528 
3 11611 11528 11532 
3 5338 7891 10012 
3 5338 10012 7374 
3 10759 11045 10760 
3 10759 10760 9783 
3 10858 11200 11285 
3 11039 11285 11422 
3 8823 10575 9783 
3 10616 9783 10760 
3 11422 11558 11425 
3 11528 11425 11243 
3 11095 11243 10756 
3 10756 11256 11105 
3 11532 11243 11095 
3 11392 11095 11188 
3 10968 11105 11307 
3 11092 10384 11307 
3 11243 11256 10756 
3 10397 10756 9771 
3 10077 10575 8823 
3 8823 9783 8907 
3 10575 10540 11155 
3 10575 11155 10759 
3 11264 11527 11349 
3 11155 11349 10759 
3 8134 5401 2591 
3 9377 8248 1669 
3 8907 5401 8823 
3 5592 6091 7650 
3 7891 5401 8907 
3 10012 8907 10616 
3 10540 10575 10077 
3 8134 8823 5401 
3 862 59 10173 
3 2167 10173 8469 
3 862 2591 3246 
3 7151 3246 7891 
3 10173 2167 2177 
3 1669 862 9377 
3 8248 2187 2197 
3 1669 2591 862 
3 9377 862 10173 
3 9377 2177 2187 
3 8134 2591 6806 
3 8248 9377 2187 
3 9318 6806 2824 
3 1865 8248 6551 
3 9836 10540 8974 
3 8134 10077 8823 
3 8134 6806 9318 
3 5143 1228 60 
3 10077 8134 9318 
3 8974 5592 7650 
3 1865 1669 8248 
3 6551 8248 2197 
3 6806 1669 1865 
3 2824 1865 1784 
3 1228 3429 1784 
3 6551 1784 1865 
3 5037 1228 5071 
3 2217 5071 2207 
3 4036 60 11718 
3 2227 5037 2217 
3 3429 1228 5143 
3 6091 5143 8291 
3 863 1670 8291 
3 6091 9248 7650 
3 5037 60 1228 
3 5071 1228 1784 
3 2824 1784 3429 
3 2824 3429 5592 
3 10077 9318 8974 
3 6091 5592 3429 
3 2873 5423 9248 
3 8291 9248 6091 
3 10682 9886 9459 
3 5423 10548 9248 
3 2686 2873 1785 
3 1670 2873 8291 
3 10929 9886 10682 
3 2686 5423 2873 
3 3106 6302 5500 
3 7729 10682 9459 
3 2697 8286 2567 
3 2687 7729 7265 
3 11006 8871 9914 
3 5343 7729 2687 
3 10929 11006 11092 
3 9924 8286 5500 
3 11123 10929 11495 
3 9924 7704 8820 
3 10929 8871 11006 
3 10384 11159 11307 
3 5423 9886 10548 
3 9248 10548 7650 
3 11495 10788 11123 
3 10929 11123 9886 
3 9318 5592 8974 
3 10077 8974 10540 
3 11495 11264 10788 
3 11123 10788 9836 
3 11543 11264 11495 
3 11092 11495 10929 
3 11307 11616 11543 
3 11092 11543 11495 
3 11543 11092 11307 
3 10968 8795 9771 
3 11616 11307 11105 
3 11616 11105 11256 
3 11159 8820 10968 
3 11105 10968 9771 
3 10384 9924 11159 
3 11307 11159 10968 
3 10968 8820 8795 
3 9771 8797 10397 
3 5318 7355 5305 
3 2727 3107 1672 
3 7354 7422 5347 
3 7354 5305 7355 
3 10567 10397 8797 
3 10567 8797 7355 
3 7354 5347 5305 
3 5318 5305 2580 
3 8048 5318 2571 
3 7049 2571 1231 
3 4880 814 6874 
3 8591 6874 4513 
3 6689 1179 2575 
3 2625 11 814 
3 9148 8075 5352 
3 2625 2575 11 
3 11 6874 814 
3 2625 814 2664 
3 2575 2625 5352 
3 9148 5352 7390 
3 5305 5347 2533 
3 2580 1953 1787 
3 1672 6830 1918 
3 2533 1953 2580 
3 6768 1626 4880 
3 8341 4880 4800 
3 2854 1899 1934 
3 6830 4861 1918 
3 2698 1626 1899 
3 4861 6768 9474 
3 5375 2625 2664 
3 2698 2664 1626 
3 5352 2625 5375 
3 9219 5402 7418 
3 5402 2698 5458 
3 8447 5992 8982 
3 5458 7418 5402 
3 2698 5402 2664 
3 6641 2854 1934 
3 6830 1934 4861 
3 4861 1934 1899 
3 6768 1899 1626 
3 2698 1899 2854 
3 10217 8982 10432 
3 5500 6302 7704 
3 7422 5509 5347 
3 5061 865 3107 
3 5509 2727 5347 
3 5509 3107 2727 
3 2533 1918 1953 
3 4861 1953 1918 
3 1672 1918 2727 
3 11006 9914 10384 
3 11006 10384 11092 
3 6302 5509 7704 
3 5500 7704 9924 
3 9914 5343 8286 
3 9914 8286 9924 
3 10384 9914 9924 
3 11159 9924 8820 
3 3107 5509 6302 
3 3106 5500 2697 
3 1866 1786 2697 
3 8286 2697 5500 
3 5061 6302 3106 
3 5061 3106 1230 
3 4986 4952 1230 
3 1786 1230 3106 
3 9624 865 62 
3 1230 62 5061 
3 5249 1180 12 
3 815 4821 6981 
3 6830 8408 1741 
3 5249 12 815 
3 8408 865 9624 
3 1180 9624 12 
3 4158 6641 1741 
3 1180 1741 8408 
3 4157 8447 4158 
3 1741 6641 1934 
3 2854 6641 8243 
3 5458 8243 9260 
3 7418 5458 9260 
3 7418 9260 10573 
3 9219 7418 9805 
3 10790 11142 11475 
3 9805 7418 10573 
3 9805 11142 10790 
3 11360 10832 11142 
3 10573 11142 9805 
3 8447 6641 4158 
3 4157 5249 815 
3 4157 5992 8447 
3 6641 8447 8243 
3 8447 8982 10217 
3 8243 10217 9260 
3 1627 4157 815 
3 4821 6894 4797 
3 4158 1180 5249 
3 4158 5249 4157 
3 10897 8982 10208 
3 9511 6651 2724 
3 10573 10432 11360 
3 10573 11360 11142 
3 8982 5992 8022 
3 10208 8022 9511 
3 10439 10832 9951 
3 10439 9951 8949 
3 5992 4157 3120 
3 8611 6981 4895 
3 1900 6651 3120 
3 1627 3120 4157 
3 4895 6981 4797 
3 1584 996 4895 
3 1627 815 6981 
3 1627 6981 8611 
3 6951 8420 4986 
3 1230 4952 62 
3 12 4952 4821 
3 6981 4821 4797 
3 8420 4952 4986 
3 4943 4986 1786 
3 4821 4952 8420 
3 211 8420 6951 
3 6951 8459 997 
3 3110 5556 6252 
3 997 211 6951 
3 4943 6951 4986 
3 8420 211 6894 
3 8420 6894 4821 
3 4962 5027 9579 
3 212 8694 998 
3 2846 2883 1363 
3 1363 1585 9579 
3 212 6477 8694 
3 8396 6462 4058 
3 5027 8501 9579 
3 9579 8501 1363 
3 1785 1229 2686 
3 1229 61 4147 
3 61 6477 9598 
3 8501 6477 212 
3 864 9598 5027 
3 8501 9598 6477 
3 6951 4943 8459 
3 997 8459 1585 
3 864 1671 2687 
3 1671 5027 4962 
3 1866 1671 4962 
3 8459 4962 9579 
3 2567 5343 2687 
3 1671 864 5027 
3 8286 5343 2567 
3 2697 2567 1866 
3 4147 9459 2686 
3 4147 61 7265 
3 8871 10682 7729 
3 8871 7729 5343 
3 4147 2686 1229 
3 6462 6125 8414 
3 1229 4878 61 
3 7265 61 864 
3 61 9598 864 
3 7265 864 2687 
3 2873 1670 1785 
3 6125 4036 8339 
3 1670 3851 4447 
3 1785 6584 1229 
3 3851 1670 863 
3 3851 863 4036 
3 6584 4447 8396 
3 4447 1785 1670 
3 5037 2227 11718 
3 5037 11718 60 
3 863 60 4036 
3 3851 4036 6125 
3 11718 2227 2237 
3 2237 2247 4410 
3 2237 4410 11718 
3 6462 3851 6125 
3 8414 6125 6085 
3 6937 8414 6085 
3 4203 6085 3699 
3 4447 3851 6462 
3 4447 6584 1785 
3 4580 6584 8396 
3 6462 8396 4447 
3 4878 1229 6584 
3 1586 998 6833 
3 6536 213 999 
3 4058 4580 8396 
3 6584 4580 6833 
3 4878 6833 8694 
3 2247 2251 3699 
3 4435 6995 8703 
3 6995 4203 4531 
3 213 4435 999 
3 6937 4058 8414 
3 2251 2242 4203 
3 6995 4531 8703 
3 6765 4531 2232 
3 2242 2232 4531 
3 213 6536 1364 
3 6765 8703 4531 
3 1587 999 4790 
3 6765 4790 8703 
3 4580 4058 1364 
3 3190 999 1587 
3 6085 4203 6995 
3 6937 6995 4435 
3 4058 213 1364 
3 999 4435 4790 
3 1586 4580 1364 
3 3238 7986 5564 
3 6833 4580 1586 
3 3238 1364 6536 
3 2959 6663 998 
3 2959 998 1586 
3 1363 8501 212 
3 1363 2883 1585 
3 212 6663 2846 
3 5507 10084 7507 
3 1363 212 2846 
3 5507 2846 8309 
3 6937 4435 213 
3 6937 213 4058 
3 1586 1364 3238 
3 3190 6536 999 
3 2959 1586 3238 
3 5564 8912 8121 
3 10691 8912 11016 
3 5564 8121 2959 
3 7986 11016 5564 
3 3238 5564 2959 
3 8309 6663 8121 
3 8931 8121 8912 
3 8931 10919 10084 
3 8931 10084 8309 
3 9093 10948 10940 
3 8912 10467 8931 
3 10084 10919 10494 
3 10084 10494 7507 
3 5545 9087 10086 
3 5545 7986 3190 
3 10691 10467 8912 
3 11016 8912 5564 
3 3112 3190 1587 
3 8689 2212 6809 
3 8186 5545 3112 
3 6809 2212 2202 
3 7986 6536 3190 
3 5545 3190 3112 
3 5545 10086 7986 
3 6536 7986 3238 
3 2232 2222 6765 
3 8689 6809 5022 
3 6765 5022 4790 
3 2222 2212 8689 
3 2222 8689 6765 
3 1365 5022 6809 
3 1000 6326 1588 
3 1587 5022 1365 
3 3112 6636 8186 
3 2202 2192 8403 
3 6809 214 1365 
3 1588 3013 1000 
3 8403 214 6809 
3 1000 3013 6636 
3 214 6636 1365 
3 9087 5545 8186 
3 9087 8186 5623 
3 8186 3013 5623 
3 3421 1589 6854 
3 9087 5623 7544 
3 10940 10948 10467 
3 2182 8295 6326 
3 8403 1000 214 
3 8403 6326 1000 
3 214 1000 6636 
3 1366 6686 4727 
3 1366 215 5141 
3 8295 2172 4714 
3 4433 3745 6220 
3 1001 5141 215 
3 8199 215 4727 
3 3421 1001 1589 
3 10137 3636 6571 
3 6206 1367 1589 
3 3421 6913 5141 
3 5623 3013 3329 
3 5623 6913 7544 
3 5623 3329 6913 
3 9464 3421 6854 
3 5141 1001 3421 
3 6913 3421 9464 
3 7544 6913 9464 
3 9093 7488 10948 
3 7544 9464 10713 
3 5529 2893 2858 
3 1367 216 2893 
3 6854 2893 7907 
3 7907 5529 9093 
3 8965 10091 10538 
3 5529 2858 5503 
3 9294 8126 10091 
3 5131 8126 3340 
3 2821 9294 5503 
3 7488 5529 5503 
3 9294 2821 3340 
3 8965 5503 9294 
3 8240 2834 5518 
3 7907 9093 10713 
3 9865 8965 10538 
3 7488 5503 8965 
3 7488 8965 9865 
3 9464 7907 10713 
3 7544 9990 9087 
3 5529 7488 9093 
3 10713 10940 9990 
3 7544 10713 9990 
3 9087 10691 10086 
3 10940 10467 10691 
3 9990 10691 9087 
3 10713 9093 10940 
3 9990 10940 10691 
3 10948 7488 9865 
3 10948 9865 10919 
3 10919 9865 11215 
3 10494 10938 9963 
3 10663 9963 10114 
3 10091 8126 8240 
3 7675 10663 5645 
3 2899 7219 994 
3 5645 7983 2899 
3 3440 5155 7163 
3 1360 1582 3712 
3 994 1582 2899 
3 10114 8910 5518 
3 7983 3607 7219 
3 2899 7983 7219 
3 994 7219 209 
3 10538 10091 8910 
3 10538 8910 10938 
3 10938 8910 10114 
3 10938 10114 9963 
3 8965 9294 10091 
3 3357 1583 2834 
3 8910 10091 8240 
3 8910 8240 5518 
3 5131 3357 8126 
3 3340 8126 9294 
3 217 995 5131 
3 8126 3357 8240 
3 995 6797 1583 
3 2834 1361 3607 
3 1361 1583 3439 
3 209 3548 3906 
3 7983 5518 3607 
3 7219 3607 209 
3 2834 1583 1361 
3 3607 1361 209 
3 5970 6331 3548 
3 3439 3548 1361 
3 3689 5897 8262 
3 10200 8262 6331 
3 8360 10270 7042 
3 5897 9209 8262 
3 5905 8559 9435 
3 3439 5970 3548 
3 8559 10200 6331 
3 3548 6331 3906 
3 9639 685 8646 
3 3689 377 5897 
3 388 685 9639 
3 388 3963 695 
3 685 4219 4269 
3 685 4269 377 
3 4100 4142 6479 
3 4219 6479 4269 
3 10270 5897 8053 
3 2720 5502 3090 
3 1628 4100 4039 
3 7937 9581 6156 
3 4516 6515 4717 
3 8298 3501 5888 
3 8298 9209 8360 
3 816 5057 13 
3 1582 3501 3712 
3 9209 8298 5888 
3 4045 7042 13 
3 10270 8360 9209 
3 10270 8053 7042 
3 1742 1935 5063 
3 8053 6479 4142 
3 5501 2724 3091 
3 6479 6378 4100 
3 816 1628 3090 
3 4142 4100 816 
3 4142 13 7042 
3 7114 1901 4039 
3 4100 1628 816 
3 4142 816 13 
3 4045 6515 8360 
3 816 3090 5057 
3 13 5057 1181 
3 4045 1181 4717 
3 8360 6515 8298 
3 1742 4717 1181 
3 3091 1181 5057 
3 3712 8298 6515 
3 4717 6515 4045 
3 13 1181 4045 
3 7042 4045 8360 
3 210 5155 1360 
3 1582 3440 2899 
3 3501 8298 3712 
3 1360 3712 4516 
3 9963 7675 9351 
3 210 5063 7296 
3 7163 5645 3440 
3 1360 3440 1582 
3 5507 7507 5556 
3 5644 5645 7163 
3 9963 10663 7675 
3 9351 5644 6252 
3 7675 5645 5644 
3 3450 5155 996 
3 3440 1360 5155 
3 1584 3039 3450 
3 4717 5063 4516 
3 6515 4516 3712 
3 7163 5155 3450 
3 7163 3450 5644 
3 3039 1584 1362 
3 996 7296 4895 
3 2883 5507 5556 
3 2883 3110 1585 
3 9351 7675 5644 
3 3039 5644 3450 
3 2846 5507 2883 
3 1585 3110 997 
3 6252 5050 3110 
3 5556 3110 2883 
3 5556 9351 6252 
3 5050 6252 3039 
3 5050 3039 1362 
3 6894 1362 4797 
3 3450 996 1584 
3 1362 1584 4797 
3 7296 8611 4895 
3 1584 4895 4797 
3 4879 1935 1900 
3 8611 1900 1627 
3 1360 4516 210 
3 5155 210 996 
3 5063 1935 4879 
3 7296 4879 8611 
3 3091 2724 1742 
3 4717 1742 5063 
3 5057 3090 6285 
3 5057 6285 3091 
3 1935 2724 6651 
3 3120 6651 8022 
3 8995 10208 9511 
3 8995 9511 5501 
3 7689 8995 5501 
3 6285 5501 3091 
3 10933 10439 8949 
3 10202 8949 5502 
3 8949 10202 10933 
3 10439 10933 10857 
3 8854 5345 9251 
3 9796 9779 10368 
3 9796 9251 9779 
3 10904 9772 10357 
3 9251 5345 5348 
3 9251 5348 7375 
3 5348 5323 7375 
3 9779 9772 10904 
3 7689 6285 5502 
3 10202 5502 7789 
3 10933 10202 8854 
3 9796 8854 9251 
3 7115 7789 2720 
3 1628 2720 3090 
3 5345 7789 2570 
3 1901 2720 1628 
3 1963 7115 1901 
3 7114 4039 7937 
3 2570 1963 1936 
3 2599 5323 5348 
3 1963 3263 1936 
3 1963 2570 7115 
3 1936 3507 1743 
3 1936 2627 2570 
3 7789 7115 2570 
3 5345 2627 5348 
3 1936 1743 2627 
3 2570 2627 5345 
3 1182 2734 2599 
3 2627 2599 5348 
3 5323 2734 9560 
3 2558 817 1629 
3 4360 4635 817 
3 6970 8227 9560 
3 3856 3328 5843 
3 1743 1182 2599 
3 8544 4360 6546 
3 1182 14 2734 
3 6970 817 2558 
3 5290 2528 5280 
3 6501 9705 8361 
3 1744 1183 2549 
3 2558 1629 2528 
3 2558 2528 5290 
3 1847 1744 2524 
3 8233 9556 10296 
3 5280 2524 5283 
3 5280 7337 7340 
3 2524 1744 2549 
3 2524 2549 5283 
3 8227 9043 9560 
3 6970 9560 2734 
3 5290 9310 8227 
3 5290 8227 2558 
3 9845 10357 9772 
3 9043 5323 9560 
3 9845 9772 9043 
3 9845 9043 9310 
3 9310 5290 7340 
3 10558 7340 8782 
3 5280 5283 7337 
3 7340 7337 8782 
3 9034 10458 10296 
3 5283 9309 7337 
3 6964 9556 8233 
3 9309 10296 10458 
3 9034 9556 5351 
3 7402 5450 7474 
3 2549 6964 8233 
3 5283 8233 9309 
3 1621 2663 809 
3 15 2723 6964 
3 6603 1621 809 
3 2723 2663 5351 
3 5450 2663 2856 
3 1844 4887 4713 
3 7402 5351 5450 
3 7474 5450 5579 
3 1844 3265 2856 
3 1621 2856 2663 
3 5579 2856 3265 
3 9625 3265 6356 
3 8590 6190 3829 
3 1175 6 5259 
3 4427 6 6190 
3 7968 6287 9466 
3 7968 6190 6287 
3 9466 6287 4120 
3 3829 6057 8590 
3 6190 6263 6287 
3 8590 6288 6263 
3 9143 5770 10159 
3 2856 1621 1844 
3 1736 4713 4163 
3 1175 1736 4163 
3 7055 4196 6288 
3 6 1175 3829 
3 6 3829 6190 
3 1736 1844 4713 
3 887 5220 92 
3 4163 4713 8516 
3 4163 6057 3829 
3 4163 8516 6057 
3 8590 6057 6288 
3 6287 6263 4070 
3 6287 4070 4120 
3 6288 4196 3921 
3 6263 3921 4070 
3 605 8433 231 
3 3921 604 4070 
3 7236 4704 4529 
3 4908 4710 4457 
3 8516 4529 6318 
3 8516 8642 6057 
3 8516 6318 8642 
3 6057 8642 6288 
3 8442 4856 9549 
3 4676 4704 4887 
3 4676 4887 6603 
3 4713 7236 8516 
3 4887 1621 6603 
3 4856 8442 1802 
3 1844 1621 4887 
3 7236 4887 4704 
3 1744 8361 1183 
3 6964 1183 15 
3 2663 2723 809 
3 9549 15 8442 
3 809 15 9549 
3 1253 6583 84 
3 6603 809 9549 
3 6603 4856 4676 
3 6603 9549 4856 
3 4676 4856 1874 
3 1802 8442 1253 
3 1802 2735 7050 
3 5834 2920 10219 
3 2735 1253 8734 
3 1802 1253 2735 
3 9096 8734 6559 
3 7703 7050 2735 
3 9096 2735 8734 
3 4704 4676 1687 
3 2920 1874 7050 
3 1874 2920 1687 
3 2952 3945 5845 
3 2920 3944 1687 
3 1874 1687 4676 
3 4529 4704 887 
3 4529 92 6318 
3 4529 887 92 
3 6318 92 4457 
3 6288 8642 7055 
3 4963 606 232 
3 7055 4457 4710 
3 7055 4710 4196 
3 4196 4710 605 
3 4196 605 231 
3 1806 4908 1260 
3 4710 232 605 
3 4710 7128 232 
3 605 232 5092 
3 887 3944 5220 
3 92 1260 4457 
3 7128 4908 4901 
3 5220 1260 92 
3 4901 4908 1806 
3 1260 4908 4457 
3 1876 4901 1806 
3 10219 9874 10991 
3 4963 7128 4901 
3 6943 4901 1876 
3 4606 6519 4963 
3 6943 4963 4901 
3 4963 6519 606 
3 5092 606 3306 
3 1691 6943 1876 
3 7938 6944 9594 
3 4606 6943 1691 
3 2721 1691 6944 
3 1876 1806 2952 
3 1876 6944 1691 
3 1876 2952 6944 
3 7938 9945 9048 
3 8701 5834 5845 
3 2952 9594 6944 
3 2952 5845 9594 
3 6944 7938 2721 
3 5220 3944 8701 
3 5220 3945 1260 
3 5220 8701 3945 
3 1260 3945 1806 
3 2920 7050 7703 
3 9874 9096 10623 
3 3944 2920 5834 
3 5845 5834 8897 
3 10219 7703 9874 
3 10811 11164 11395 
3 2920 7703 10219 
3 5834 10219 8897 
3 10219 10991 8897 
3 5845 8897 9594 
3 886 4941 1545 
3 8078 8858 10623 
3 10095 10505 8858 
3 10623 10826 9874 
3 4218 3996 6340 
3 7172 8003 3218 
3 3375 8127 6706 
3 4296 6546 6784 
3 888 6706 85 
3 3996 85 6784 
3 85 6706 1252 
3 4941 6808 4635 
3 6706 8127 3395 
3 886 84 9705 
3 3395 8127 5569 
3 3395 2803 1545 
3 1252 3395 1545 
3 1252 4669 4296 
3 8078 6559 2803 
3 5569 2803 3395 
3 1744 1847 6501 
3 9705 6501 4941 
3 2803 6559 886 
3 2803 886 1545 
3 6546 3856 5843 
3 14 4360 817 
3 4360 8544 4635 
3 817 4635 1629 
3 4669 8544 4296 
3 85 4296 6784 
3 1252 1545 4669 
3 8544 4669 4635 
3 886 9705 4941 
3 1545 4941 4669 
3 8598 6546 5843 
3 5929 3507 8043 
3 4296 8544 6546 
3 6784 6546 8598 
3 1182 1743 3328 
3 1182 3856 14 
3 4360 14 3856 
3 4360 3856 6546 
3 1901 1628 4039 
3 7937 4039 6378 
3 1963 1901 7114 
3 3263 7114 7937 
3 7937 6156 8043 
3 5929 5843 3328 
3 3263 8043 3507 
3 3263 3507 1936 
3 3328 3507 5929 
3 5929 9446 8091 
3 4219 3819 9581 
3 6378 9581 7937 
3 3369 5853 6022 
3 8043 9446 5929 
3 9218 8091 8003 
3 5853 8091 9446 
3 3996 6784 9218 
3 8091 8598 5843 
3 8598 8091 9218 
3 9218 6340 3996 
3 6784 8598 9218 
3 6340 7172 3863 
3 8597 387 3194 
3 388 695 3819 
3 6156 3819 3597 
3 6156 3597 6022 
3 8043 6156 6022 
3 9446 6022 5853 
3 8597 694 387 
3 695 387 3597 
3 3369 387 694 
3 3218 386 7172 
3 9218 8003 6340 
3 3863 7172 386 
3 8003 7172 6340 
3 4224 6433 1254 
3 5144 693 386 
3 694 386 3218 
3 3852 385 692 
3 3863 6387 6340 
3 6261 3673 11003 
3 6293 3194 10597 
3 6293 3673 5144 
3 694 5144 386 
3 11003 3673 6293 
3 3194 5898 10597 
3 385 3673 4694 
3 3673 693 5144 
3 7810 6261 11003 
3 7810 11003 10597 
3 3673 6261 4694 
3 3673 385 693 
3 8417 3852 4461 
3 9495 6272 8270 
3 6433 8417 4461 
3 8094 8263 6098 
3 3863 693 3852 
3 692 385 4694 
3 693 385 3852 
3 3863 3852 6387 
3 4224 6387 8417 
3 4224 8417 6433 
3 6655 1254 86 
3 86 6433 4527 
3 2811 6655 8188 
3 10807 10505 10382 
3 1254 6433 86 
3 2717 2726 5427 
3 6655 86 8619 
3 6655 8619 7833 
3 2717 5427 7833 
3 10095 5569 8127 
3 7833 5427 10564 
3 7833 10036 8188 
3 6655 7833 8188 
3 6655 2811 1254 
3 7833 10564 10036 
3 10826 10623 8858 
3 4224 1254 1546 
3 5576 8188 8862 
3 8188 10036 8862 
3 8188 5576 2811 
3 4218 6387 4224 
3 1546 1254 2811 
3 4218 4224 1546 
3 3996 888 85 
3 6340 6387 4218 
3 3996 4218 888 
3 3375 6706 888 
3 1546 888 4218 
3 5576 8127 3375 
3 2811 3375 1546 
3 3375 2811 5576 
3 8127 5576 10095 
3 5576 8862 10095 
3 5569 10095 8858 
3 10382 10505 8862 
3 8862 10505 10095 
3 10421 11164 10811 
3 10505 10826 8858 
3 10985 11108 10382 
3 9971 10440 10798 
3 10826 10807 11395 
3 11164 10421 10991 
3 11367 11183 11108 
3 11108 10807 10382 
3 9048 10440 9971 
3 11183 10811 11395 
3 10826 11395 11164 
3 10826 11164 9874 
3 8897 10991 10421 
3 8897 9945 9594 
3 10421 10440 9945 
3 10421 9945 8897 
3 9594 9945 7938 
3 5431 5463 2728 
3 1691 2721 894 
3 1013 233 4303 
3 4606 6962 9599 
3 4606 9599 6519 
3 4303 9599 8320 
3 91 894 2728 
3 4311 6896 8320 
3 6962 8320 9599 
3 7437 5431 9048 
3 10440 9048 9945 
3 7938 9048 5431 
3 2721 2728 894 
3 6962 894 91 
3 5463 5431 7437 
3 9847 7441 8885 
3 8885 9971 10913 
3 8320 6962 4311 
3 5463 5456 2753 
3 1259 4319 4311 
3 91 4311 6962 
3 4486 4303 6896 
3 8320 6896 4303 
3 2790 1805 1259 
3 91 1259 4311 
3 6945 6896 4319 
3 1805 4319 1259 
3 2753 2728 5463 
3 7441 5463 7437 
3 2790 2753 5456 
3 5524 5456 10005 
3 11331 10414 10913 
3 10798 10440 10811 
3 7441 7437 8885 
3 9847 8885 10414 
3 11331 10913 11367 
3 11183 10798 10811 
3 8885 7437 9971 
3 10913 9971 10798 
3 11183 10807 11108 
3 10036 10382 8862 
3 11367 11108 10810 
3 10430 11108 10985 
3 10564 10430 10985 
3 10036 10985 10382 
3 11493 10810 9837 
3 10430 10810 11108 
3 10798 11183 11367 
3 10798 11367 10913 
3 9102 10566 9837 
3 7426 9837 10430 
3 11106 11331 11493 
3 10566 11493 9837 
3 8157 8884 9102 
3 5436 9102 7426 
3 10833 11106 11318 
3 8884 10566 9102 
3 11493 10566 11106 
3 11318 10429 11173 
3 10934 11173 10429 
3 9839 11106 10566 
3 11106 10414 11331 
3 11493 11331 10810 
3 10833 10414 11106 
3 11318 11106 9839 
3 8937 5524 10005 
3 10999 10005 9847 
3 1259 2753 2790 
3 10005 5456 7441 
3 3085 1805 2790 
3 5524 2790 5456 
3 1690 1805 3085 
3 6524 3085 8079 
3 9632 6524 8079 
3 8937 8079 5524 
3 4319 1805 4462 
3 4185 893 3720 
3 9847 10414 10833 
3 10999 11173 10444 
3 10429 11318 10959 
3 11318 11173 10833 
3 10734 8079 8937 
3 10444 8937 10999 
3 9632 5869 4116 
3 7859 10031 10587 
3 9632 8079 10734 
3 10031 10734 8937 
3 1690 6524 893 
3 4462 1805 1690 
3 6524 9632 8481 
3 90 3804 6269 
3 3919 2775 1257 
3 9632 4116 8481 
3 9138 6178 6109 
3 4116 1258 8481 
3 10734 10031 5869 
3 4997 3003 1389 
3 10031 7859 5869 
3 10734 5869 9632 
3 10196 8870 10429 
3 5497 3919 7859 
3 10934 8870 10587 
3 10934 10587 10031 
3 2827 8329 2685 
3 9839 10959 11318 
3 8870 10934 10429 
3 7731 6717 8090 
3 2957 7071 9692 
3 8884 5424 8889 
3 2751 2685 5424 
3 8884 8889 9839 
3 8157 7071 2751 
3 8329 10125 8889 
3 8157 2751 5424 
3 8157 5424 8884 
3 5656 10125 8329 
3 8889 10125 10959 
3 2751 7071 890 
3 3839 3932 6098 
3 6148 6113 8419 
3 87 890 7071 
3 6354 4139 6254 
3 6291 8263 3609 
3 1255 3839 4139 
3 3754 1688 890 
3 6291 6254 8263 
3 9561 8263 8094 
3 889 1547 2717 
3 4139 3839 6254 
3 3932 3839 1547 
3 2957 87 7071 
3 2726 1255 2957 
3 9692 7071 8157 
3 1547 1255 2726 
3 5427 2726 5436 
3 5436 2957 9692 
3 5436 9692 9102 
3 3839 1255 1547 
3 3932 1547 889 
3 1547 2726 2717 
3 8619 2717 7833 
3 6433 4461 8270 
3 6272 8094 6098 
3 6433 8270 4527 
3 86 889 8619 
3 6403 4355 4538 
3 8270 6272 4527 
3 3849 8094 9495 
3 4527 6272 3932 
3 4527 3932 889 
3 4527 889 86 
3 6403 8094 3849 
3 384 8270 4461 
3 8094 6272 9495 
3 3849 384 691 
3 383 691 7019 
3 7019 691 692 
3 3849 9495 384 
3 691 384 692 
3 5757 3437 8586 
3 6261 8586 4694 
3 383 7019 3437 
3 8586 7019 4694 
3 11712 4536 5757 
3 9084 5757 7810 
3 690 383 3437 
3 4536 3437 5757 
3 3849 691 4355 
3 690 4536 382 
3 689 944 382 
3 4536 690 3437 
3 8623 383 690 
3 6841 690 382 
3 690 6841 8623 
3 383 4355 691 
3 6860 6403 4538 
3 8623 4355 383 
3 1570 943 6860 
3 4538 4355 8623 
3 3670 6291 140 
3 140 7053 1308 
3 1309 6841 141 
3 6861 7554 3961 
3 1570 6860 4538 
3 1309 4538 6841 
3 3849 4355 6403 
3 9561 6403 6860 
3 381 1310 689 
3 2799 141 944 
3 142 2747 1310 
3 689 1310 944 
3 2730 142 945 
3 7181 381 688 
3 7181 142 381 
3 11712 5757 9084 
3 945 7181 5120 
3 4969 4293 1311 
3 945 142 7181 
3 5120 688 7325 
3 2747 142 2730 
3 2733 1571 2797 
3 5469 2747 8136 
3 2733 2730 945 
3 8008 6504 2910 
3 6504 8008 7949 
3 5432 2733 5461 
3 2797 1571 1311 
3 8492 3910 6770 
3 3813 6770 1301 
3 3813 1301 1567 
3 3813 1567 3247 
3 132 6770 288 
3 281 3691 1028 
3 5842 3910 8492 
3 5777 3813 3247 
3 8492 3813 5777 
3 5678 10615 7626 
3 1567 2910 935 
3 3247 935 3132 
3 4293 4969 4557 
3 5120 1571 945 
3 935 143 3132 
3 10615 11018 7626 
3 143 1311 4293 
3 143 4293 3132 
3 2943 5842 5679 
3 7651 5842 5777 
3 5842 8492 5777 
3 7651 7626 10192 
3 7651 5777 7626 
3 10615 8996 10022 
3 3247 3132 5678 
3 3247 5678 5777 
3 3904 7920 8228 
3 3132 8753 5678 
3 3132 4293 6210 
3 8996 9004 10022 
3 6210 4293 8228 
3 7920 6741 9246 
3 687 3904 4557 
3 5120 4969 1571 
3 7303 4557 4969 
3 1571 4969 1311 
3 5120 7325 7303 
3 5120 7303 4969 
3 10112 9582 688 
3 7181 688 5120 
3 688 381 10112 
3 9582 10112 6905 
3 7325 11709 380 
3 7303 380 4557 
3 11712 9084 6905 
3 9582 6905 11709 
3 689 4536 11712 
3 10112 11712 6905 
3 11709 8381 7217 
3 379 6741 3904 
3 5757 6261 7810 
3 9084 7810 10155 
3 11709 5157 687 
3 11709 687 380 
3 3904 687 379 
3 3723 5157 7217 
3 687 5157 379 
3 6741 3337 8255 
3 6741 379 3337 
3 378 8646 684 
3 3723 7217 7809 
3 6266 8607 8646 
3 11003 6293 10597 
3 5898 8607 7809 
3 3963 9639 8607 
3 7809 8607 6266 
3 10155 10597 5898 
3 10155 5898 7809 
3 387 695 3194 
3 5898 3963 8607 
3 695 3963 3194 
3 8597 3194 6293 
3 685 377 8646 
3 378 686 3723 
3 377 684 8646 
3 9639 8646 8607 
3 5905 8255 3337 
3 686 3337 379 
3 3337 686 4407 
3 9601 4407 684 
3 684 4407 378 
3 6266 378 3723 
3 6741 8255 9246 
3 9004 10074 7568 
3 9601 8559 5905 
3 4407 5905 3337 
3 5970 3439 9298 
3 9435 10074 8255 
3 5970 9298 9435 
3 5970 9435 8559 
3 995 3357 5131 
3 217 1368 3446 
3 1583 3357 995 
3 3192 995 217 
3 7537 3192 6792 
3 3446 1368 6838 
3 3192 217 6792 
3 9305 10192 11018 
3 3439 1583 6797 
3 3439 6797 9298 
3 10192 9305 7684 
3 3446 7684 6792 
3 7537 6792 9305 
3 7537 9305 10022 
3 8255 10074 9246 
3 8996 10615 8753 
3 10074 9004 9246 
3 6741 7920 3904 
3 9246 9004 8996 
3 9246 8996 7920 
3 6210 8228 7920 
3 6210 7920 8996 
3 5842 7651 5679 
3 6051 7895 6308 
3 7684 9276 10192 
3 11018 10192 7626 
3 5678 8753 10615 
3 11018 10615 10022 
3 6308 4209 3691 
3 288 3910 1029 
3 3691 6051 6308 
3 4209 8129 6502 
3 282 6571 1030 
3 1396 8633 283 
3 4209 6502 1394 
3 281 3336 3691 
3 6743 9202 10101 
3 6206 10583 6952 
3 10995 6502 8129 
3 1590 3340 2821 
3 8129 6308 9468 
3 8129 4419 10995 
3 6051 9276 7895 
3 9468 7895 6838 
3 8129 9468 3965 
3 216 1002 2858 
3 7895 3446 6838 
3 1590 1368 3340 
3 3965 6838 1590 
3 3965 1590 1002 
3 217 5131 1368 
3 6838 1368 1590 
3 1367 6206 6952 
3 216 4419 1002 
3 4419 3965 1002 
3 2858 1002 2821 
3 6206 10101 10583 
3 6952 10583 10995 
3 10583 6502 10995 
3 6952 4419 216 
3 8129 3965 4419 
3 10995 4419 6952 
3 8199 7805 3870 
3 10101 9202 6571 
3 3870 9202 6743 
3 1001 6743 1589 
3 9634 6220 8199 
3 215 3870 1001 
3 7805 9202 3870 
3 8199 3870 215 
3 2172 2162 4714 
3 4727 4714 9634 
3 4727 9634 8199 
3 4433 6220 9634 
3 2162 2152 4433 
3 2162 4433 4714 
3 2142 3698 3745 
3 2152 3745 4433 
3 7805 6220 6039 
3 9168 6144 10309 
3 8199 6220 7805 
3 9168 8633 3636 
3 9202 7805 10137 
3 9202 10137 6571 
3 8633 9168 10309 
3 4290 4063 2122 
3 7805 6039 9168 
3 10137 9168 3636 
3 3698 2142 2132 
3 3698 2132 4063 
3 9539 4290 4294 
3 2122 4063 2132 
3 9168 6039 6144 
3 10309 6144 8314 
3 8314 4063 4290 
3 4294 4290 2112 
3 6144 4063 8314 
3 8314 9539 6105 
3 2102 4294 2112 
3 10309 8314 6105 
3 6667 9539 4294 
3 1030 1396 4870 
3 4292 6105 9539 
3 7310 1396 283 
3 6058 3256 10266 
3 1030 3636 1396 
3 283 8633 6105 
3 3636 8633 1396 
3 4498 3256 6058 
3 1394 4870 7222 
3 1394 1028 4209 
3 1394 7222 1028 
3 4209 1028 3691 
3 6051 3691 3336 
3 2943 3910 5842 
3 6051 3336 5679 
3 6051 5679 9276 
3 3540 3045 1395 
3 3336 1395 2943 
3 1029 3910 2943 
3 3336 2943 5679 
3 4870 1396 7310 
3 4870 8183 7222 
3 4870 7310 8183 
3 7222 8183 6991 
3 1395 3336 281 
3 6991 281 1028 
3 8183 6058 8269 
3 6991 8269 3540 
3 8269 5805 3540 
3 6991 3540 281 
3 3540 5805 3045 
3 288 6770 3910 
3 1395 3045 1029 
3 1395 1029 2943 
3 9335 3355 6576 
3 3045 6576 1029 
3 6576 1400 288 
3 6576 288 1029 
3 8269 6058 9410 
3 7877 7029 3278 
3 10266 7877 9410 
3 10266 9410 6058 
3 6032 10094 9124 
3 5805 9335 3045 
3 4498 1031 3256 
3 10266 7029 7877 
3 1397 284 7029 
3 3256 7029 10266 
3 7310 283 4498 
3 3256 1397 7029 
3 283 1031 4498 
3 7310 4498 6058 
3 4292 9539 6667 
3 3905 6684 4299 
3 283 6105 4292 
3 283 4292 1031 
3 6684 6667 4297 
3 4300 6816 8637 
3 3905 6667 6684 
3 4300 2092 2082 
3 3905 4299 1397 
3 1031 1397 3256 
3 2072 4213 2082 
3 4299 6684 8637 
3 6538 4415 4242 
3 4297 4300 8637 
3 6538 8725 4415 
3 1397 4299 284 
3 1032 4242 4415 
3 4299 8637 4242 
3 4299 4242 284 
3 3278 284 1032 
3 8273 3783 10094 
3 6538 6816 4213 
3 4143 4213 2072 
3 4300 4213 6816 
3 8637 6816 4242 
3 2062 4143 2072 
3 6538 4213 4143 
3 6954 4143 4639 
3 2052 4639 2062 
3 8725 6538 6954 
3 4639 4143 2062 
3 1032 4438 3278 
3 6075 3578 4051 
3 1033 6597 8536 
3 285 1398 6889 
3 4143 6954 6538 
3 6816 6538 4242 
3 6889 4415 8725 
3 6889 4424 566 
3 1032 4415 1398 
3 8536 1398 285 
3 7861 10094 3783 
3 1399 6597 1033 
3 639 7861 5266 
3 5266 3783 286 
3 5266 7861 3783 
3 1399 3783 6597 
3 6577 639 287 
3 5266 4931 639 
3 287 639 4867 
3 9547 10222 6339 
3 6906 4867 8345 
3 8345 9547 6339 
3 10250 287 8437 
3 8437 287 6906 
3 1300 1566 8437 
3 1300 6906 133 
3 10094 7861 7728 
3 1034 6577 287 
3 2523 1034 9713 
3 9713 10250 1566 
3 7877 3278 6032 
3 6597 4438 8536 
3 4438 6597 8273 
3 4438 6032 3278 
3 9124 7877 6032 
3 10094 6032 8273 
3 9410 7877 9124 
3 9335 9124 7728 
3 9124 10094 7728 
3 9335 7728 3355 
3 6849 2523 9713 
3 1034 2523 3355 
3 1400 2523 6849 
3 934 9713 1566 
3 288 1400 132 
3 1300 2928 1566 
3 1301 132 6938 
3 1301 3810 1567 
3 132 1400 6849 
3 132 934 6938 
3 6849 9713 934 
3 6849 934 132 
3 8008 5712 8893 
3 2928 1300 8519 
3 10690 8008 8893 
3 11186 8904 10403 
3 6938 8575 3810 
3 1567 3810 2910 
3 10083 8893 10676 
3 3810 5712 2910 
3 10690 7949 8008 
3 5712 8008 2910 
3 2730 2733 5432 
3 10552 11147 9814 
3 2747 2730 8136 
3 7427 9814 9295 
3 2747 5469 2814 
3 1310 2814 944 
3 9236 5469 8136 
3 5432 8136 2730 
3 9009 5476 7446 
3 5469 5476 2814 
3 5461 7949 10051 
3 10872 8893 11186 
3 7949 10690 10051 
3 5461 7427 5432 
3 5461 10051 7427 
3 5432 9295 8136 
3 7427 10051 10552 
3 11147 10552 11343 
3 9814 9828 9295 
3 7427 9295 5432 
3 9295 9828 9236 
3 9295 9236 8136 
3 5469 9236 7446 
3 9009 10466 10235 
3 9236 9828 10523 
3 7446 10523 9822 
3 11115 10806 10824 
3 10806 9822 11344 
3 10405 9828 9814 
3 10552 9814 7427 
3 10523 9828 10937 
3 10425 10845 11371 
3 10676 5775 10083 
3 11186 10403 11343 
3 8893 10083 11186 
3 8893 10872 10690 
3 5712 8575 10676 
3 5712 10676 8893 
3 10051 10690 10872 
3 11343 10872 11186 
3 10250 8437 1566 
3 934 1566 3604 
3 8575 3604 5775 
3 10083 5775 7849 
3 3604 1566 2928 
3 8519 1300 133 
3 5775 3604 2928 
3 5775 2928 7849 
3 2928 8519 7849 
3 10083 7849 8904 
3 7849 8519 6460 
3 7849 7472 8904 
3 2795 7688 7472 
3 6460 7472 7849 
3 133 3907 936 
3 6460 2795 7472 
3 1302 6459 2795 
3 936 2795 6460 
3 2795 6459 7688 
3 9977 10403 8904 
3 9117 10491 9977 
3 9977 8904 7472 
3 11010 10491 9117 
3 7688 9977 7472 
3 10491 11346 10834 
3 11343 10834 11147 
3 11196 10405 11339 
3 11196 11339 11371 
3 9828 10405 10937 
3 10937 10845 11101 
3 10405 11196 10937 
3 11344 11101 11384 
3 10523 10937 11344 
3 10523 11344 9822 
3 10389 11129 11101 
3 10937 11101 11344 
3 10824 11384 11129 
3 10110 11129 10389 
3 11010 9810 11346 
3 9915 8848 10425 
3 11339 11087 11371 
3 11196 10845 10937 
3 10389 11101 10845 
3 11371 10845 11196 
3 11010 7465 9810 
3 11087 10990 11371 
3 5410 9915 9215 
3 9810 10990 11087 
3 8848 10389 10425 
3 10990 10425 11371 
3 8848 10110 10389 
3 10425 10389 10845 
3 7979 10110 5467 
3 9915 10990 9215 
3 2788 2817 5467 
3 10110 10452 11129 
3 135 938 4569 
3 7465 9215 9810 
3 8042 9915 9660 
3 2690 2783 1569 
3 1303 2946 3205 
3 1568 937 2890 
3 5709 2770 4569 
3 9117 9977 7688 
3 2746 5390 9425 
3 2746 9425 6459 
3 7465 11010 9117 
3 9425 9117 7688 
3 6335 9403 8017 
3 6339 4148 3907 
3 4008 134 1302 
3 4148 1302 936 
3 1302 4148 4008 
3 10211 10222 4232 
3 8746 6382 10211 
3 6382 4008 4148 
3 4008 3388 134 
3 1302 134 6459 
3 4011 4232 1162 
3 1162 570 4011 
3 8746 10211 9324 
3 4011 10211 4232 
3 8760 8779 6862 
3 6127 8010 3513 
3 3949 571 1528 
3 8779 1528 6862 
3 5214 1159 571 
3 1528 4873 6862 
3 3949 7158 571 
3 1528 571 4873 
3 10222 9547 3949 
3 4232 3949 1528 
3 6382 6339 10222 
3 4232 10222 3949 
3 7158 3949 4931 
3 8345 6339 3907 
3 4931 9547 8345 
3 4867 6906 287 
3 8345 4867 4931 
3 9547 4931 3949 
3 1300 8437 6906 
3 133 6906 3907 
3 3578 1612 4051 
3 285 1033 8536 
3 3783 1399 286 
3 5266 286 4931 
3 9589 3973 5031 
3 1525 1612 1033 
3 3578 1159 1612 
3 4051 1525 5234 
3 1399 1159 5214 
3 286 5214 7158 
3 4639 8430 4424 
3 566 1525 285 
3 566 1158 5234 
3 1525 4051 1612 
3 4424 1158 566 
3 6889 566 285 
3 566 5234 1525 
3 285 1525 1033 
3 4424 6954 4639 
3 6740 4639 2052 
3 8430 1158 4424 
3 6954 4424 8725 
3 2039 6740 2052 
3 8557 6740 2039 
3 1524 8430 8557 
3 6740 8430 4639 
3 1158 8430 1524 
3 5225 8557 2027 
3 5031 1524 567 
3 5225 567 8557 
3 4051 5234 3973 
3 567 1524 8557 
3 6075 4051 3973 
3 1524 3973 1158 
3 7319 9589 5031 
3 5031 3973 1524 
3 6127 6075 8010 
3 9589 6075 3973 
3 5225 2027 2015 
3 8010 9589 7319 
3 794 5031 567 
3 1160 5032 568 
3 568 794 5176 
3 5225 2015 5176 
3 5032 8010 7319 
3 5225 5176 794 
3 5225 794 567 
3 5176 2015 2003 
3 5115 7269 568 
3 794 5032 7319 
3 1160 3513 5032 
3 568 5032 794 
3 7293 8224 4493 
3 8311 5866 3310 
3 6139 6075 6127 
3 3513 8010 5032 
3 8224 6139 6127 
3 4493 6127 3513 
3 8760 6862 4824 
3 4493 8224 6127 
3 1162 8779 8760 
3 1527 4824 1161 
3 4232 8779 1162 
3 4011 570 8751 
3 6335 8746 9324 
3 9403 9324 8751 
3 9324 4011 8751 
3 3262 5909 8058 
3 5543 9006 8322 
3 9187 9403 5734 
3 4824 8224 7293 
3 3488 3462 6215 
3 6862 8224 4824 
3 8760 4824 1527 
3 1162 8760 570 
3 8751 5734 9403 
3 7293 4493 569 
3 1161 3488 3619 
3 7293 569 1161 
3 7293 1161 4824 
3 570 8760 1527 
3 570 3262 5734 
3 8751 570 5734 
3 9187 8058 10157 
3 1527 3619 3262 
3 8058 5909 10716 
3 5734 3262 8058 
3 5734 8058 9187 
3 1161 569 3488 
3 9411 8102 5909 
3 5815 8102 5890 
3 9411 5890 8102 
3 1160 4200 3310 
3 5866 8375 6215 
3 1526 3310 3462 
3 569 3462 3488 
3 568 4200 1160 
3 3513 1526 4493 
3 3513 1160 1526 
3 4493 1526 569 
3 5176 2003 5115 
3 2003 1991 5115 
3 5176 5115 568 
3 4889 1991 1975 
3 7269 4889 9521 
3 4200 8311 3310 
3 6090 8416 8311 
3 9521 8311 4200 
3 4889 1975 3986 
3 8311 9521 6090 
3 1615 6885 3455 
3 9521 3986 6090 
3 6328 6885 4578 
3 8311 8416 5866 
3 3462 5866 6215 
3 3456 3481 5930 
3 8416 8375 5866 
3 3488 6215 8254 
3 6005 6003 3611 
3 3986 1892 3455 
3 6885 1615 803 
3 6328 6090 3455 
3 1615 3455 1892 
3 8714 4578 6885 
3 8714 6885 803 
3 803 5 8714 
3 8714 1173 4578 
3 5 1173 8714 
3 1173 1734 4578 
3 3455 6885 6328 
3 8416 6328 5930 
3 8375 8416 5930 
3 8375 5930 6003 
3 6005 8668 6003 
3 3481 6003 5930 
3 1987 2001 3611 
3 6005 3611 3537 
3 3414 3537 2013 
3 2001 2013 3537 
3 2013 2025 3414 
3 2025 3315 3414 
3 3225 2049 3116 
3 5699 3116 5565 
3 2025 2037 3315 
3 8102 10716 5909 
3 5699 7713 5815 
3 3315 5890 3414 
3 2037 2049 3225 
3 2037 3225 3315 
3 3315 5815 5890 
3 5975 6005 3537 
3 7713 10716 8102 
3 5890 9411 5975 
3 8254 6005 5975 
3 5975 3537 3414 
3 6008 8254 9411 
3 5890 5975 3414 
3 6215 8668 8254 
3 3488 6008 3619 
3 3488 8254 6008 
3 3619 6008 5909 
3 8254 5975 9411 
3 6008 9411 5909 
3 10716 7713 10157 
3 9049 7584 10242 
3 10157 7713 7578 
3 10157 7578 9049 
3 7850 5864 7778 
3 7850 7778 9145 
3 6014 5962 3521 
3 7778 8374 9275 
3 8489 5928 8551 
3 8374 5973 9275 
3 5928 5973 8551 
3 6011 6014 3523 
3 7850 7725 5765 
3 5864 3478 5962 
3 6014 3521 3523 
3 3478 3297 2090 
3 5634 7584 5565 
3 2985 5565 3116 
3 7725 7584 5634 
3 3114 2985 2070 
3 5765 5634 3114 
3 3297 2080 2090 
3 5765 3114 3297 
3 5765 3297 5864 
3 2985 3116 2060 
3 3114 2070 2080 
3 3114 2080 3297 
3 3521 3478 2100 
3 3510 2120 2130 
3 6014 8374 5962 
3 5864 3297 3478 
3 5962 3478 3521 
3 2110 3523 3521 
3 2110 3521 2100 
3 8551 8374 6014 
3 8551 6014 6011 
3 3510 6011 3523 
3 5996 3510 3506 
3 2110 2120 3523 
3 2130 2140 3506 
3 3496 2140 2150 
3 5833 7840 9254 
3 5894 3407 3326 
3 3506 2140 3496 
3 5894 9254 9355 
3 2150 2160 3407 
3 3496 5958 5989 
3 3496 3407 5958 
3 8530 6079 5954 
3 8549 5958 9355 
3 5833 5756 7840 
3 5996 6011 3510 
3 3506 3510 2130 
3 8551 6011 8489 
3 5989 5996 3506 
3 6011 5996 8489 
3 5928 8489 5954 
3 8549 6079 8530 
3 5989 8530 5996 
3 3505 6079 3459 
3 3459 5985 3591 
3 8530 5989 8549 
3 6079 8549 5985 
3 9254 5904 5985 
3 9355 5985 8549 
3 3591 939 3459 
3 5985 3459 6079 
3 6432 2817 1305 
3 5904 3591 5985 
3 3366 1304 1569 
3 136 939 2788 
3 7033 136 2788 
3 2817 939 1305 
3 4569 2783 8569 
3 3366 3505 1304 
3 2690 1569 1304 
3 7033 1304 136 
3 3376 5928 3366 
3 1304 3505 136 
3 3366 5954 3505 
3 136 3505 3459 
3 7306 3205 9145 
3 7306 9145 9275 
3 1569 938 3376 
3 5928 3376 5973 
3 9187 10157 9049 
3 9187 9049 10328 
3 9006 10242 10205 
3 9006 10205 8322 
3 8017 9187 10328 
3 9006 10328 9049 
3 2946 2890 8322 
3 2946 5667 3205 
3 8322 10205 5667 
3 8322 5667 2946 
3 4569 1303 135 
3 938 135 3522 
3 135 7306 3522 
3 938 3522 3376 
3 3205 135 1303 
3 1568 2746 937 
3 7465 5390 5709 
3 2783 2690 5410 
3 9324 9403 6335 
3 3388 5543 2890 
3 6335 8017 5543 
3 2890 5543 8322 
3 4008 6382 8746 
3 4008 6335 3388 
3 4008 8746 6335 
3 3388 6335 5543 
3 2770 2746 1568 
3 2890 937 3388 
3 2946 1303 1568 
3 2946 1568 2890 
3 5709 5390 2770 
3 4569 2770 1303 
3 9215 7465 5709 
3 9215 8569 5410 
3 9660 9915 5410 
3 2783 4569 938 
3 5709 4569 8569 
3 5709 8569 9215 
3 5410 8569 2783 
3 1569 2783 938 
3 9660 5410 2690 
3 7033 2690 1304 
3 9660 7033 8042 
3 5467 2817 7979 
3 8848 9915 8042 
3 7033 9660 2690 
3 10110 8848 5467 
3 2788 8042 7033 
3 8042 2788 5467 
3 8042 5467 8848 
3 8486 6432 137 
3 940 3079 3855 
3 8486 137 940 
3 6471 9683 7829 
3 137 6432 1305 
3 3271 5904 10625 
3 5821 3855 3079 
3 5844 3079 3271 
3 5821 10190 8013 
3 3855 8013 6468 
3 4152 3213 1448 
3 3686 1448 8149 
3 8013 8149 6468 
3 3855 1306 940 
3 394 8562 1082 
3 1448 1082 8149 
3 8333 6899 3213 
3 5727 4152 7781 
3 10657 10033 9098 
3 9212 7781 9442 
3 5643 5632 2896 
3 9491 7781 9212 
3 9481 8054 10317 
3 10287 10657 9098 
3 7756 10287 7692 
3 3644 9491 9212 
3 9192 7692 8488 
3 9630 697 10150 
3 5727 3213 4152 
3 395 3805 5268 
3 10287 9098 9491 
3 9442 7781 4152 
3 9098 7781 9491 
3 5632 9491 3644 
3 395 3686 7203 
3 3805 9165 10038 
3 1448 3686 395 
3 4152 5268 9442 
3 4152 395 5268 
3 9442 5268 699 
3 2896 5632 3644 
3 4434 8172 6947 
3 1083 3644 396 
3 5274 9212 699 
3 5643 2896 4057 
3 1449 2896 1083 
3 395 7203 3805 
3 5268 3805 699 
3 7287 396 4194 
3 4194 3805 10038 
3 10625 10241 5844 
3 7677 10715 9165 
3 7678 9364 9165 
3 7203 9165 3805 
3 10190 9167 9364 
3 10190 9364 7678 
3 8013 10190 7678 
3 3686 7678 7203 
3 137 1305 3271 
3 137 3271 3079 
3 8013 3855 5821 
3 10190 10743 9167 
3 3271 3591 5904 
3 10625 9254 7840 
3 5821 3079 10743 
3 10743 5844 10241 
3 10241 9167 10743 
3 5844 10743 3079 
3 5985 9355 9254 
3 5904 9254 10625 
3 7644 9167 7764 
3 7840 10241 10625 
3 9364 9167 7644 
3 6214 10038 10715 
3 9364 7644 7677 
3 9364 7677 9165 
3 10241 7840 7764 
3 3161 3252 2180 
3 7840 5756 7764 
3 10241 7764 9167 
3 3326 3407 2160 
3 3407 5894 5958 
3 3161 5756 3252 
3 5894 5833 9254 
3 5756 5833 3252 
3 2170 3326 2160 
3 7764 5756 5681 
3 3121 3161 2190 
3 5833 5894 3326 
3 3252 2170 2180 
3 3252 3326 2170 
3 2200 3121 2190 
3 5710 3121 3368 
3 5756 3161 5681 
3 7764 5681 7644 
3 5681 3121 5710 
3 7677 5988 10715 
3 7677 5710 5988 
3 2210 3368 2200 
3 2210 2220 3633 
3 5988 6214 10715 
3 5988 3633 6214 
3 6453 4346 8172 
3 3633 3368 2210 
3 3943 2230 4346 
3 4439 2240 2250 
3 4439 2250 4545 
3 4502 2275 4191 
3 2230 2240 4346 
3 6947 3955 4434 
3 2250 2259 4545 
3 4439 6947 8172 
3 4439 4545 6947 
3 8172 4434 7287 
3 4630 4588 7166 
3 4545 7166 6947 
3 3368 3633 5988 
3 3368 5988 5710 
3 2240 4439 4346 
3 3943 4346 6453 
3 3943 6453 6214 
3 3943 6214 3633 
3 396 5274 4194 
3 7287 4194 6453 
3 1083 396 4434 
3 3955 6947 7166 
3 2896 3644 1083 
3 1449 1083 3955 
3 1083 4434 3955 
3 1449 3955 4588 
3 389 4556 10150 
3 6802 4588 4630 
3 4222 4568 9613 
3 6422 3912 6130 
3 5663 3227 3084 
3 9613 8398 6422 
3 5851 3626 3227 
3 5851 6130 3626 
3 9317 6422 6130 
3 4502 6802 4630 
3 7916 9317 6130 
3 4191 8398 4502 
3 6802 397 4588 
3 7166 4588 3955 
3 8398 4568 6802 
3 8398 6802 4502 
3 2267 4502 4630 
3 2259 4630 4545 
3 2283 4191 2275 
3 2267 4630 2259 
3 2275 4502 2267 
3 6422 4191 3912 
3 3912 4191 2283 
3 3626 3912 2291 
3 8398 4191 6422 
3 9613 6422 9317 
3 3626 6130 3912 
3 2291 3912 2283 
3 7916 6130 5851 
3 3227 3626 2299 
3 5663 3084 5687 
3 2299 3626 2291 
3 5903 3374 3600 
3 2307 3227 2299 
3 3084 3227 2307 
3 2315 3084 2307 
3 3084 2315 3374 
3 3374 2323 3600 
3 4270 8178 6414 
3 2315 2323 3374 
3 3084 3374 5687 
3 2323 2331 3600 
3 5903 7754 5687 
3 7574 5663 5687 
3 5903 3600 6171 
3 7960 5903 6171 
3 9322 6171 6342 
3 7708 5851 5663 
3 5663 5851 3227 
3 7916 5851 7708 
3 7708 5663 7574 
3 3074 9350 5692 
3 9379 7754 10197 
3 9059 7708 7574 
3 9379 7574 7754 
3 7574 5687 7754 
3 7960 6171 9322 
3 5687 3374 5903 
3 7754 7960 10197 
3 7754 5903 7960 
3 10197 7960 6688 
3 5692 9059 10643 
3 9053 9059 9379 
3 9059 7574 9379 
3 9053 9379 8080 
3 9059 9053 10643 
3 9350 7916 7708 
3 9379 10197 8080 
3 5945 3349 3737 
3 9317 7916 7066 
3 4080 5867 4556 
3 7708 9059 9350 
3 3074 3231 696 
3 389 4222 7066 
3 3074 7066 9350 
3 7066 7916 9350 
3 5692 9350 9059 
3 389 697 4222 
3 4057 2896 1449 
3 10150 697 389 
3 7066 4222 9317 
3 4568 7326 397 
3 4568 397 6802 
3 6908 4057 9630 
3 697 7326 4568 
3 8488 5643 6908 
3 9630 7326 697 
3 1449 397 4057 
3 5643 4057 6908 
3 7692 5643 8488 
3 5867 6908 4556 
3 4057 7326 9630 
3 6908 9630 10150 
3 4556 389 696 
3 3074 389 7066 
3 4080 4556 696 
3 7823 8089 6314 
3 4080 696 390 
3 3231 7847 7262 
3 7756 7692 9192 
3 5867 8488 6908 
3 6908 10150 4556 
3 5867 4080 9481 
3 5665 3133 3050 
3 10317 8488 5867 
3 5738 9192 8054 
3 9481 10317 5867 
3 8654 9481 7012 
3 7012 390 698 
3 696 3231 390 
3 391 4938 1079 
3 10739 7815 7847 
3 5150 6732 8654 
3 7847 7815 7262 
3 3794 698 390 
3 9648 7815 10739 
3 10113 7847 10643 
3 10113 10739 7847 
3 10643 7847 5692 
3 7808 10739 10113 
3 5945 10113 9053 
3 5272 616 3349 
3 6688 3349 8080 
3 10236 616 9185 
3 255 3349 6688 
3 254 7216 3737 
3 3737 7808 5945 
3 7216 7808 3737 
3 616 3737 3349 
3 4083 254 5265 
3 616 5265 3737 
3 3426 7951 7216 
3 7808 9648 10739 
3 4083 1390 254 
3 5265 254 3737 
3 9392 6084 9648 
3 7951 9648 7808 
3 5876 9392 7951 
3 7216 7951 7808 
3 9392 7823 6084 
3 7815 3794 7262 
3 3276 3426 1390 
3 7951 9392 9648 
3 8074 6006 5950 
3 1390 3426 254 
3 7951 3426 5876 
3 3276 1390 1024 
3 6006 3276 3809 
3 1024 1390 2983 
3 3809 3276 1024 
3 253 1024 4997 
3 8217 3701 5950 
3 9138 8729 6178 
3 3809 1024 253 
3 3809 6109 8217 
3 6718 8089 3433 
3 3433 1257 1804 
3 5876 3276 6006 
3 9392 8074 7823 
3 5950 8089 8074 
3 3585 3794 6084 
3 5876 6006 8074 
3 7823 8074 8089 
3 3426 3276 5876 
3 9392 5876 8074 
3 891 88 8583 
3 5738 8054 3208 
3 4938 391 6314 
3 9688 8089 6718 
3 4780 4938 9688 
3 4938 8583 6724 
3 4938 6314 9688 
3 4938 4780 8583 
3 4377 1080 4936 
3 8054 6732 3208 
3 8533 4936 6842 
3 6724 1445 1079 
3 6842 4936 392 
3 6732 5150 1079 
3 6842 392 1445 
3 6842 1445 6724 
3 7756 5738 5665 
3 392 3208 1445 
3 8054 8654 6732 
3 3208 6732 1445 
3 7823 6314 3585 
3 5150 391 1079 
3 6314 391 3585 
3 3794 390 7262 
3 3585 391 698 
3 390 7012 4080 
3 3585 698 3794 
3 6084 3794 7815 
3 9481 8654 8054 
3 10317 8054 9192 
3 698 391 5150 
3 698 5150 7012 
3 9481 4080 7012 
3 8654 7012 5150 
3 10657 8310 10033 
3 5727 8333 3213 
3 5665 8310 10657 
3 7756 10657 10287 
3 10657 7756 5665 
3 8310 3050 3549 
3 7756 9192 5738 
3 5665 5738 3133 
3 1082 6899 394 
3 5103 1447 1081 
3 10033 8310 8552 
3 3780 6930 1081 
3 1082 3213 6899 
3 1447 6899 3780 
3 5727 10033 8333 
3 6899 8333 3780 
3 3855 6468 1306 
3 940 2956 8486 
3 8149 1082 8562 
3 6468 138 1306 
3 10110 7979 10452 
3 9177 2956 7829 
3 940 1306 2956 
3 8486 2956 9177 
3 9177 9843 10452 
3 10204 10452 7979 
3 10452 10204 9177 
3 9843 9177 7829 
3 2956 1306 6471 
3 2888 1307 2908 
3 394 941 138 
3 8562 138 6468 
3 6899 1447 394 
3 8562 394 138 
3 2888 6471 941 
3 7031 394 1447 
3 139 2908 1307 
3 5103 7031 1447 
3 10806 11384 10824 
3 9843 10824 10452 
3 5481 9683 2888 
3 1307 2888 941 
3 10466 9822 10806 
3 11115 10824 9843 
3 10466 10806 11115 
3 5481 2888 2908 
3 7829 9683 10578 
3 9843 10578 11115 
3 11115 10578 9907 
3 7547 6936 4087 
3 10578 9683 5481 
3 9907 9486 10742 
3 5103 11723 139 
3 2908 139 6936 
3 3969 6377 393 
3 1446 393 6930 
3 1307 941 7031 
3 1307 7031 5103 
3 8552 3549 6930 
3 8552 6930 3780 
3 1446 3549 1601 
3 3133 5738 3208 
3 1080 3050 3133 
3 392 3133 3208 
3 4377 6969 1601 
3 3050 1601 3549 
3 8343 6969 7141 
3 7141 4377 4687 
3 4377 1601 1080 
3 4936 1080 392 
3 8014 6148 6377 
3 393 6377 11723 
3 8343 8014 3969 
3 6969 3969 1446 
3 6113 8014 9353 
3 4687 1256 1803 
3 3730 8343 4019 
3 4019 4687 1803 
3 6148 3670 4584 
3 4087 7053 9645 
3 3670 1308 4584 
3 6377 4584 11723 
3 9486 2908 6936 
3 4087 6936 942 
3 1308 4087 942 
3 4584 942 11723 
3 10935 9907 10742 
3 9645 7053 3961 
3 9907 5481 9486 
3 10742 9486 7547 
3 9009 9822 10466 
3 10935 11115 9907 
3 8929 10466 10935 
3 8929 10935 10742 
3 7446 9822 9009 
3 10235 10466 8929 
3 5476 9009 9609 
3 7620 7108 9609 
3 8929 10742 7554 
3 8929 7620 10235 
3 9486 6936 7547 
3 10742 7547 7554 
3 7547 4087 9645 
3 7547 9645 7554 
3 9609 7108 2799 
3 1309 6861 1570 
3 140 943 7053 
3 1308 7053 4087 
3 9009 10235 9609 
3 5476 2799 2814 
3 9609 10235 7620 
3 6861 7620 7554 
3 1309 141 7108 
3 9609 2799 5476 
3 7620 6861 7108 
3 2799 7108 141 
3 6861 3961 1570 
3 1309 1570 4538 
3 3961 7053 943 
3 6860 943 3609 
3 6291 3609 140 
3 3670 140 1308 
3 6254 6291 6354 
3 4139 3869 87 
3 6291 3670 8419 
3 6354 8419 6113 
3 6148 8014 6113 
3 3869 890 87 
3 8014 8343 9353 
3 6113 3754 3869 
3 9353 8343 3730 
3 9353 3730 3754 
3 6354 6113 3869 
3 6354 3869 4139 
3 6113 9353 3754 
3 3869 3754 890 
3 3730 1875 1688 
3 890 1688 2751 
3 1875 2827 2685 
3 1875 2685 1688 
3 10196 10125 7731 
3 2685 8329 5424 
3 10429 10125 10196 
3 8870 10196 8090 
3 7207 3602 7731 
3 8870 5497 10587 
3 891 3602 5175 
3 2827 5656 8329 
3 5656 7207 7731 
3 10196 7731 8090 
3 3601 5656 2827 
3 1803 2827 1875 
3 7731 10125 5656 
3 7207 5656 3601 
3 8343 7141 4019 
3 3730 4019 1875 
3 2827 1803 3601 
3 3601 1256 5175 
3 4019 7141 4687 
3 1256 4687 8533 
3 4687 4936 8533 
3 1256 8533 88 
3 3602 891 1689 
3 6718 4780 9688 
3 6717 3602 1689 
3 6717 1689 1804 
3 5175 7207 3601 
3 1256 3601 1803 
3 1256 88 5175 
3 7207 5175 3602 
3 7731 3602 6717 
3 3919 7214 7859 
3 1689 6718 1804 
3 5497 8870 8090 
3 3433 3701 1257 
3 1804 2775 6717 
3 8089 5950 3433 
3 6718 3433 1804 
3 89 1257 3701 
3 5950 3701 3433 
3 6006 3809 8217 
3 6006 8217 5950 
3 4390 10133 4181 
3 253 6109 3809 
3 89 3701 6178 
3 6109 6178 8217 
3 1548 892 4390 
3 10133 10184 4181 
3 4390 8729 9138 
3 8415 6109 253 
3 7214 3919 89 
3 8729 89 6178 
3 892 1548 3015 
3 1548 4181 1258 
3 1804 1257 2775 
3 6717 2775 8090 
3 1257 89 3919 
3 2775 5497 8090 
3 7859 10587 5497 
3 3919 5497 2775 
3 5869 7859 3015 
3 892 7214 89 
3 7859 7214 3015 
3 5869 3015 4116 
3 89 8729 892 
3 7214 892 3015 
3 1258 4116 1548 
3 1258 4181 3804 
3 10184 9396 3804 
3 90 6269 3720 
3 10184 6301 9396 
3 3804 9396 6269 
3 9396 6301 8018 
3 9396 8018 6269 
3 3184 7967 5694 
3 8018 9062 9223 
3 7967 9062 5694 
3 3704 3896 252 
3 10469 9062 9946 
3 3184 3704 615 
3 10184 3804 4181 
3 4390 4181 1548 
3 7893 10184 10133 
3 10133 4390 9138 
3 6301 10184 7893 
3 1389 8415 253 
3 3896 6301 7893 
3 4150 10133 8415 
3 10133 9138 8415 
3 10133 4150 7893 
3 3896 7893 4150 
3 1023 4150 1389 
3 4150 1023 3896 
3 3896 3704 6301 
3 10314 615 9358 
3 252 9358 615 
3 5694 6301 3704 
3 252 3896 1023 
3 3184 5694 3704 
3 615 3704 252 
3 6496 7967 3184 
3 6496 3184 251 
3 615 5021 251 
3 6496 251 3299 
3 614 3838 3299 
3 6496 8179 9108 
3 251 5021 614 
3 250 613 4364 
3 9287 3838 4364 
3 4809 4608 4628 
3 9287 4364 9445 
3 4235 854 51 
3 4235 9445 4628 
3 854 4628 1661 
3 9287 9445 4235 
3 9287 9602 7933 
3 4235 4628 854 
3 51 854 6608 
3 10708 9179 5657 
3 9602 9287 4235 
3 5657 7933 3187 
3 51 9602 4235 
3 6496 3299 8179 
3 10039 8179 9179 
3 7933 9179 5977 
3 7933 5977 9287 
3 7967 6496 9108 
3 10972 10465 10469 
3 7275 50 530 
3 3187 7933 9602 
3 9602 51 3187 
3 2849 2766 1538 
3 5657 3187 3350 
3 4228 8574 6140 
3 3187 51 1219 
3 8833 7969 9932 
3 3350 1219 1538 
3 1139 535 3381 
3 9444 5482 2849 
3 530 5172 1505 
3 6608 9444 2849 
3 1219 2849 1538 
3 7722 10018 9444 
3 2766 7780 8560 
3 10803 11565 11370 
3 7780 9932 9717 
3 8859 10018 10801 
3 8859 10801 10960 
3 5482 8859 7780 
3 5482 7780 2766 
3 10392 10809 10381 
3 11565 10960 10801 
3 11565 11503 11107 
3 9932 7969 9717 
3 11492 10783 11436 
3 10375 9984 8825 
3 10783 10426 11085 
3 11274 11085 11491 
3 11085 11161 11273 
3 11491 11273 11283 
3 11492 9804 10783 
3 11436 10783 11638 
3 10783 9804 10426 
3 11085 11179 11161 
3 11107 10960 11565 
3 11503 11565 10803 
3 11107 11503 11322 
3 11107 11322 10809 
3 10551 9804 11492 
3 11322 11492 11436 
3 7416 7400 8831 
3 10551 8831 9804 
3 8831 7400 8813 
3 7381 5349 9313 
3 10426 8813 10582 
3 10694 8827 10908 
3 10426 10582 11179 
3 10426 11179 11085 
3 7400 5377 7381 
3 7400 7381 8813 
3 2806 1778 1222 
3 7381 9313 10582 
3 11130 9155 10046 
3 10803 10046 10551 
3 10046 9155 7416 
3 10046 7416 8831 
3 7722 7716 8914 
3 11158 11370 10801 
3 5979 9482 10586 
3 11197 9973 11130 
3 11565 10801 11370 
3 10803 11130 10046 
3 9973 9155 11130 
3 11197 11130 11158 
3 2906 7722 6608 
3 51 6608 1219 
3 10018 5482 9444 
3 7722 9444 6608 
3 6558 7716 2906 
3 854 2906 6608 
3 10586 11197 8914 
3 7722 8914 10018 
3 11130 11370 11158 
3 8914 11158 10018 
3 4809 7147 4608 
3 4628 4608 1661 
3 9752 7716 6558 
3 4140 6558 1776 
3 7147 4638 5017 
3 4608 1776 1661 
3 5017 1220 1776 
3 5017 1776 4608 
3 1662 3066 4141 
3 10586 9973 11197 
3 6904 9482 3066 
3 3066 9482 5979 
3 6558 4140 9752 
3 7716 9752 10586 
3 9752 5979 10586 
3 7716 10586 8914 
3 1777 2779 6904 
3 9482 8004 9973 
3 9155 8004 5442 
3 7416 5442 5407 
3 7381 5377 5349 
3 7464 10694 9141 
3 9313 5349 5382 
3 4633 1222 54 
3 2644 5377 2666 
3 1221 2700 2779 
3 1663 856 8688 
3 856 2666 53 
3 5442 8004 2779 
3 1861 6904 3066 
3 1777 1221 2779 
3 6904 2779 8004 
3 53 2666 2700 
3 2779 2700 5442 
3 2700 1221 53 
3 2666 856 2644 
3 2602 2644 1663 
3 8688 856 495 
3 495 760 8688 
3 856 1663 2644 
3 1778 2602 1663 
3 1778 1663 6679 
3 762 495 6888 
3 53 495 856 
3 760 494 6679 
3 8688 6679 1663 
3 4197 6385 4924 
3 4197 1777 1861 
3 762 6888 8555 
3 4924 6888 1221 
3 6864 488 4334 
3 8277 4664 9375 
3 4141 855 1662 
3 3066 1662 1861 
3 5246 855 4141 
3 4140 4141 9752 
3 4924 1221 1777 
3 1861 1777 6904 
3 52 1220 4664 
3 5017 4664 1220 
3 4141 4140 5246 
3 52 4664 8277 
3 4312 4013 1022 
3 4013 4638 1388 
3 4905 4799 4795 
3 6169 8277 6135 
3 855 5246 52 
3 4795 8277 4905 
3 8465 10336 2925 
3 9016 10953 5674 
3 1388 1022 4013 
3 6135 8231 9664 
3 10953 9911 10502 
3 10249 10930 7522 
3 4312 1022 258 
3 10336 7774 10502 
3 5882 6283 7774 
3 10336 10502 9005 
3 6283 3954 9738 
3 3954 5195 613 
3 1022 1388 8629 
3 1022 8629 5882 
3 4013 9375 4638 
3 249 4638 7147 
3 6283 5195 3954 
3 250 4364 3838 
3 4809 249 7147 
3 4608 7147 5017 
3 3954 613 250 
3 614 250 3838 
3 613 249 4809 
3 9445 4809 4628 
3 9738 5674 10953 
3 5021 3264 614 
3 7774 9738 10953 
3 3264 3954 250 
3 10502 7774 10953 
3 8938 7691 5553 
3 3954 3264 5674 
3 9016 9911 10953 
3 3954 5674 9738 
3 6283 9738 7774 
3 253 4997 1389 
3 2945 7691 9358 
3 9016 8938 9911 
3 5553 7691 2945 
3 3264 5021 7925 
3 7691 10314 9358 
3 10314 7691 7925 
3 10314 7925 5021 
3 4150 8415 1389 
3 1023 3003 2945 
3 3003 5553 2945 
3 1023 2945 252 
3 8752 3003 4997 
3 2983 4997 1024 
3 8752 5553 3003 
3 1389 3003 1023 
3 9409 8752 6106 
3 6106 8752 4997 
3 5575 7586 6106 
3 2983 6106 4997 
3 8938 5553 9409 
3 10928 7522 10930 
3 7925 7691 9016 
3 9911 8938 10511 
3 7691 8938 9016 
3 7925 9016 5674 
3 8938 9409 10511 
3 9911 10511 10930 
3 10224 7522 10928 
3 9911 10930 10502 
3 6106 2983 5575 
3 10236 5265 616 
3 7834 9266 5575 
3 4083 5575 2983 
3 5575 9266 7586 
3 6106 7586 9409 
3 5575 4083 7834 
3 7834 10236 9185 
3 4083 10236 7834 
3 7057 4166 5580 
3 9266 7834 7763 
3 4739 9185 5272 
3 7834 9185 7763 
3 9266 7763 10224 
3 7586 9266 10928 
3 7522 10224 5580 
3 10502 10930 10249 
3 5800 2877 4745 
3 9266 10224 10928 
3 10511 10928 10930 
3 10336 9005 2925 
3 8684 9005 10249 
3 5882 7774 10336 
3 8539 6289 6431 
3 5882 10336 8465 
3 5882 258 1022 
3 258 6431 4312 
3 4013 6135 9375 
3 4013 4312 6135 
3 9375 6135 8277 
3 4312 6431 8231 
3 4312 8231 6135 
3 6135 9664 6169 
3 4799 4905 755 
3 9005 8684 2925 
3 8465 1392 258 
3 1026 3751 1392 
3 2925 1392 8465 
3 1392 6431 258 
3 8465 258 5882 
3 2925 8684 1026 
3 2925 1026 1392 
3 1026 3448 3751 
3 1392 3751 6431 
3 8231 6431 6289 
3 8231 4220 9664 
3 3920 756 4220 
3 6289 4220 8231 
3 8539 7860 6289 
3 6289 3920 4220 
3 7251 490 3920 
3 7860 3920 6289 
3 3751 3448 5997 
3 5991 3432 3928 
3 3751 5997 8539 
3 3751 8539 6431 
3 2877 5580 4166 
3 256 617 4264 
3 1026 4745 257 
3 1026 257 3448 
3 7522 5580 5800 
3 4745 2877 1391 
3 8684 10249 5800 
3 2877 5800 5580 
3 3979 617 255 
3 9185 4739 7763 
3 5580 7763 7057 
3 4166 7057 256 
3 4739 5272 255 
3 4739 255 617 
3 4264 617 3979 
3 9322 3979 7960 
3 1025 4166 256 
3 1025 4164 3956 
3 4164 256 7198 
3 6414 4264 6342 
3 6357 3956 6445 
3 6445 4164 8178 
3 3970 3956 6357 
3 3970 9307 7266 
3 3970 6357 9307 
3 7266 7869 3448 
3 3956 4164 6445 
3 4059 2303 3951 
3 6357 6445 8740 
3 6357 6240 9307 
3 4164 7198 8178 
3 4072 3840 2333 
3 7198 6414 8178 
3 4153 2319 2311 
3 3600 2331 3840 
3 3600 3840 6171 
3 2327 4270 4072 
3 3840 4072 6342 
3 2331 2333 3840 
3 2333 2327 4072 
3 4270 2319 4153 
3 4059 2311 2303 
3 6414 4072 4270 
3 8178 4270 4153 
3 6445 8178 4153 
3 6445 4059 8740 
3 4153 2311 4059 
3 4153 4059 6445 
3 8740 3951 6240 
3 8047 7860 5997 
3 6240 3803 6018 
3 7251 3920 7860 
3 3951 2303 2295 
3 3803 2295 2287 
3 3432 2287 2279 
3 3928 2279 2271 
3 2518 6512 8517 
3 2271 4840 3928 
3 4840 2271 2263 
3 6487 757 2518 
3 6942 5991 3928 
3 3803 3432 6018 
3 6942 4257 8153 
3 4840 6512 6942 
3 5991 8153 8047 
3 6357 8740 6240 
3 7869 8047 5997 
3 3432 5991 6018 
3 6240 7869 9307 
3 6240 6018 7869 
3 9307 7869 7266 
3 6018 5991 8047 
3 6018 8047 7869 
3 5991 6942 8153 
3 8047 8153 7860 
3 4257 490 7251 
3 8153 7251 7860 
3 5271 4257 757 
3 6512 4257 6942 
3 2518 757 6512 
3 6512 757 4257 
3 492 4357 758 
3 8627 4467 5271 
3 4357 492 6961 
3 4316 1119 1485 
3 493 759 4851 
3 4851 6642 8735 
3 4357 9698 758 
3 491 8517 2255 
3 4851 759 6642 
3 492 6642 759 
3 9698 6487 2518 
3 8517 4840 2263 
3 4357 6487 9698 
3 491 2518 8517 
3 9698 2518 491 
3 491 9621 7328 
3 7328 9698 491 
3 9621 2245 10088 
3 8517 2263 2255 
3 491 2255 9621 
3 9621 8780 2245 
3 10088 8772 492 
3 2245 2235 10088 
3 758 9698 7328 
3 758 9621 10088 
3 2255 8780 9621 
3 7328 9621 758 
3 10088 2235 8772 
3 492 8772 6642 
3 2225 2215 8735 
3 2225 8735 6642 
3 2225 6642 8772 
3 2235 2225 8772 
3 2215 2205 4595 
3 2195 2185 4754 
3 7079 498 8634 
3 2185 2175 4932 
3 2185 4932 4754 
3 8634 4932 7079 
3 6258 3592 5840 
3 4932 8634 4754 
3 2195 4754 4359 
3 8413 4404 7079 
3 4662 7079 4932 
3 8735 4595 4851 
3 4838 6698 1119 
3 2205 2195 4359 
3 2205 4359 4595 
3 8351 4838 6528 
3 8407 4851 4595 
3 4298 6528 8407 
3 9518 8407 4359 
3 8351 6528 4298 
3 9518 4298 8407 
3 764 4298 4657 
3 498 4657 8634 
3 3846 765 4404 
3 3846 4404 9536 
3 4947 764 5239 
3 498 764 4657 
3 498 765 5239 
3 764 4947 497 
3 4947 763 497 
3 764 497 4298 
3 5018 4947 6987 
3 6987 4947 4927 
3 4334 1485 6698 
3 496 8555 6385 
3 6972 6698 4838 
3 5255 6961 759 
3 6528 4838 493 
3 6528 493 4851 
3 497 6972 8351 
3 497 8351 4298 
3 4357 6782 9591 
3 8627 5271 757 
3 1119 4316 5255 
3 493 5255 759 
3 4467 490 5271 
3 4467 8627 9591 
3 6487 9591 8627 
3 6487 8627 757 
3 9664 4220 489 
3 4882 4316 1485 
3 489 756 11731 
3 488 1485 4334 
3 11731 6782 4882 
3 11731 755 489 
3 6961 5255 4316 
3 6782 4316 4882 
3 6698 1485 1119 
3 4838 1119 493 
3 11731 4882 755 
3 4795 52 8277 
3 4334 6698 8304 
3 4334 8304 6379 
3 4220 756 489 
3 755 4882 488 
3 6169 489 4905 
3 6169 4905 8277 
3 4799 755 488 
3 755 4905 489 
3 855 52 4795 
3 855 4654 1662 
3 4654 4795 4799 
3 4654 6864 4310 
3 855 4795 4654 
3 4310 6864 6379 
3 4654 4799 6864 
3 6379 6864 4334 
3 496 762 8555 
3 6385 8555 4924 
3 5185 495 762 
3 5185 5018 6987 
3 6972 763 4643 
3 8304 4643 6385 
3 5185 762 5018 
3 763 496 4643 
3 763 4947 5018 
3 5185 6987 5088 
3 5088 6987 4927 
3 499 4927 765 
3 496 763 5018 
3 496 5018 762 
3 495 5185 760 
3 8688 760 6679 
3 5064 6679 494 
3 4560 494 761 
3 7111 4560 8256 
3 9735 6004 565 
3 499 6775 4422 
3 563 8567 792 
3 761 499 4422 
3 761 4422 4560 
3 4246 6798 8037 
3 10315 9536 7862 
3 8256 6798 4400 
3 5229 4305 7037 
3 8001 3715 6004 
3 4246 793 4400 
3 6798 4246 4400 
3 8256 9490 7111 
3 4246 565 793 
3 564 4414 792 
3 4305 8466 7037 
3 793 7037 564 
3 4915 1522 1156 
3 5229 7037 793 
3 1522 560 6627 
3 8466 4992 6999 
3 5125 790 7169 
3 5125 7169 460 
3 3938 8553 5161 
3 460 743 4127 
3 5275 4548 9604 
3 5161 743 460 
3 1156 4305 5229 
3 565 5229 793 
3 1522 4305 1156 
3 3715 1156 565 
3 6627 4305 1522 
3 7007 8686 461 
3 1469 7007 461 
3 9417 2105 2095 
3 7229 8312 4907 
3 461 4907 1469 
3 8312 8553 3938 
3 4907 3938 1469 
3 4548 8553 8421 
3 3237 6982 459 
3 5228 6865 7229 
3 4907 8312 3938 
3 4104 4649 6430 
3 8312 6430 8553 
3 5228 744 462 
3 461 7229 4907 
3 5270 745 5228 
3 744 7229 461 
3 9649 8001 6004 
3 5885 3491 3630 
3 3715 8001 9349 
3 3715 4915 1156 
3 7007 1522 4915 
3 9349 4915 3715 
3 4915 9349 8686 
3 4915 8686 7007 
3 8037 4422 6775 
3 8037 9473 9735 
3 4246 8037 9735 
3 4246 9735 565 
3 7865 9473 7862 
3 9536 10315 3846 
3 6775 10315 9473 
3 9735 9473 6004 
3 6258 5840 7862 
3 9473 7865 6004 
3 9473 10315 7862 
3 7865 5840 5885 
3 6004 7865 9649 
3 8001 9649 6056 
3 9349 8001 6348 
3 6875 2115 2105 
3 8001 6056 6348 
3 9349 6348 4214 
3 5840 3491 5885 
3 9649 5885 6056 
3 6348 6056 8731 
3 6348 4707 4214 
3 9536 4404 8413 
3 9536 8413 6258 
3 3592 3491 5840 
3 7862 5840 7865 
3 3592 6258 4088 
3 2165 4088 4662 
3 2135 3491 2145 
3 2155 3592 4088 
3 2175 2165 4662 
3 2165 2155 4088 
3 2125 3630 2135 
3 3713 2125 2115 
3 3491 3592 2145 
3 3713 3630 2125 
3 6056 3630 3713 
3 8731 3713 6875 
3 3713 2115 6875 
3 744 461 4214 
3 8731 6875 4707 
3 8720 9417 2095 
3 462 8720 5270 
3 5270 8720 8659 
3 8720 2095 8659 
3 4104 6430 8312 
3 463 2075 2065 
3 6760 2043 4954 
3 8659 2095 2085 
3 8659 2085 745 
3 745 2075 463 
3 6430 4649 8421 
3 8659 745 5270 
3 8720 462 9417 
3 463 2065 1102 
3 463 1102 4104 
3 6875 9417 4707 
3 8731 4707 6348 
3 4707 9417 462 
3 4707 462 744 
3 5228 7229 744 
3 4707 744 4214 
3 8312 7229 6865 
3 5270 5228 462 
3 745 463 6865 
3 745 6865 5228 
3 6865 463 4104 
3 6865 4104 8312 
3 1468 6721 4649 
3 1102 4649 4104 
3 1468 2510 6721 
3 4649 6721 8421 
3 9507 8616 6280 
3 458 6280 2921 
3 6280 8616 9661 
3 10281 8917 8926 
3 5597 7475 7589 
3 9661 10281 8063 
3 4954 8616 9507 
3 6760 1468 8526 
3 5597 5934 3403 
3 8616 5934 9661 
3 9507 458 1468 
3 1102 1468 4649 
3 4954 9507 6760 
3 8526 1468 1102 
3 2055 6760 8526 
3 2065 8526 1102 
3 5934 4376 3403 
3 2055 8526 2065 
3 2043 6760 2055 
3 2031 4954 2043 
3 4376 2031 2019 
3 5597 7589 5934 
3 8616 4954 4376 
3 4954 2031 4376 
3 8616 4376 5934 
3 2019 2007 3403 
3 2019 3403 4376 
3 5478 7475 5597 
3 2876 3403 2007 
3 2876 1995 2785 
3 7450 8882 7449 
3 5478 5597 2876 
3 1995 2876 2007 
3 2785 1995 1979 
3 2785 1979 2889 
3 1979 1896 2889 
3 8905 8917 7475 
3 1619 3257 3037 
3 5626 5548 3037 
3 1619 3037 1896 
3 5677 5626 3257 
3 807 3257 1619 
3 7525 5548 5626 
3 3037 5548 2889 
3 5677 7656 5626 
3 3257 5626 3037 
3 2889 5490 2785 
3 2785 5478 2876 
3 2889 5548 5490 
3 5478 7449 7475 
3 8952 8882 7450 
3 5490 7449 5478 
3 7525 8952 7450 
3 5490 7450 7449 
3 9107 8952 7525 
3 7656 7525 5626 
3 9107 7525 7656 
3 10574 7656 5677 
3 11002 10574 7914 
3 7914 5677 3827 
3 10216 8952 9107 
3 7471 5736 2786 
3 7656 10574 10052 
3 9107 7471 10216 
3 7449 8882 8905 
3 10684 8125 8968 
3 8882 8952 9952 
3 8895 7471 7493 
3 9902 9898 10729 
3 9877 8917 8905 
3 9898 10701 9877 
3 9857 8905 8882 
3 7589 7475 8917 
3 8926 5593 8063 
3 9857 9877 8905 
3 7449 8905 7475 
3 458 2921 2510 
3 458 2510 1468 
3 7589 8917 10281 
3 7589 10281 9661 
3 5275 9604 742 
3 742 9604 6721 
3 3237 5275 742 
3 2921 742 2510 
3 8421 9604 4548 
3 8553 4548 5161 
3 743 4548 459 
3 3237 742 2921 
3 459 5275 3237 
3 9126 3237 5593 
3 9947 5593 8926 
3 8926 8063 10281 
3 9126 5593 9947 
3 10701 8926 8917 
3 9701 7813 9947 
3 10701 9947 8926 
3 9947 10701 9898 
3 7524 9902 8968 
3 4548 5275 459 
3 10221 7199 4127 
3 743 459 3958 
3 7816 6982 10179 
3 459 6982 3958 
3 743 3958 4127 
3 10179 8195 7816 
3 6982 7816 3958 
3 3672 8195 5873 
3 5720 5474 2792 
3 9126 9947 7813 
3 5873 5720 3394 
3 9947 9898 9701 
3 7813 5720 5873 
3 10899 11229 9902 
3 9898 9902 7524 
3 10474 11229 10899 
3 9902 11229 8968 
3 9877 9857 10729 
3 9877 10729 9898 
3 9974 11229 10474 
3 8895 9952 10216 
3 8952 10216 9952 
3 9857 9952 10899 
3 9107 10052 7471 
3 10216 7471 8895 
3 8895 10275 10474 
3 8895 10474 9952 
3 8968 11229 10684 
3 10684 7597 9374 
3 10275 8895 7493 
3 10275 7493 10237 
3 7493 6828 10237 
3 10275 9132 9974 
3 10237 6828 3119 
3 10237 5917 9132 
3 9374 8125 10684 
3 9974 10684 11229 
3 3119 5917 10237 
3 10237 9132 10275 
3 5474 8968 8125 
3 5474 2839 2792 
3 1834 6738 3434 
3 7597 9974 9132 
3 6282 9374 7597 
3 6282 5917 8541 
3 3119 3806 5917 
3 9132 5917 7597 
3 6738 9374 3434 
3 8541 5917 3806 
3 4367 6282 8541 
3 4367 5025 154 
3 3434 1322 1834 
3 2667 7929 5364 
3 8541 3806 5025 
3 8541 5025 4367 
3 1834 2619 1719 
3 8009 5568 4236 
3 4367 1322 3434 
3 1719 2619 2705 
3 153 2792 956 
3 956 2839 1719 
3 6738 1834 1719 
3 6738 1719 2839 
3 6282 4367 3434 
3 6282 3434 9374 
3 1719 2705 956 
3 153 1321 3394 
3 2792 2839 956 
3 7285 956 2705 
3 1833 2603 1887 
3 5472 7601 6121 
3 153 4236 1321 
3 3394 1321 3672 
3 5472 6121 2988 
3 955 4995 152 
3 1887 2635 1718 
3 1718 2988 955 
3 2603 2635 1887 
3 3574 9267 7661 
3 2706 2603 1833 
3 3454 1887 3574 
3 1718 955 4028 
3 1718 3574 1887 
3 1321 2706 1833 
3 3672 1833 3454 
3 7285 4236 153 
3 3672 1321 1833 
3 956 7285 153 
3 2792 153 3394 
3 10179 7813 5873 
3 10179 5873 8195 
3 7813 9701 5720 
3 3394 5720 2792 
3 3574 4028 9267 
3 7661 9267 7856 
3 7816 7661 7856 
3 7816 7856 3958 
3 1718 4028 3574 
3 3454 3574 7661 
3 10221 8276 7199 
3 4127 7199 460 
3 9267 6298 10221 
3 9267 10221 7856 
3 4597 7263 5007 
3 561 4992 790 
3 10221 6298 8276 
3 7199 8276 5125 
3 4992 791 6999 
3 8466 6999 7013 
3 562 5174 791 
3 561 790 5125 
3 5007 791 561 
3 790 4992 6627 
3 791 4992 561 
3 5007 561 8276 
3 4400 793 564 
3 4400 9490 8256 
3 7013 5147 4414 
3 7037 4414 564 
3 494 4560 7111 
3 848 4633 54 
3 4400 564 9490 
3 7111 4525 5064 
3 7111 9490 4525 
3 2806 2602 1778 
3 4525 9490 6790 
3 848 2805 4633 
3 4525 6790 54 
3 1658 563 8460 
3 3779 1523 5147 
3 4414 5147 792 
3 6999 3779 7013 
3 8466 7013 7037 
3 6790 8567 54 
3 1222 1778 5064 
3 792 5147 563 
3 8567 563 848 
3 5382 2602 2806 
3 5064 1778 6679 
3 4525 54 1222 
3 4525 1222 5064 
3 5349 2602 5382 
3 9313 5382 9141 
3 9141 5382 8474 
3 4633 2806 1222 
3 2806 4633 8474 
3 2806 8474 5382 
3 8474 4633 5739 
3 5388 2805 2748 
3 54 8567 848 
3 2805 848 1658 
3 3300 1773 1214 
3 562 5024 9457 
3 4953 8571 9457 
3 5024 562 5045 
3 5045 562 8548 
3 1157 8571 6449 
3 8571 1157 562 
3 791 5174 6999 
3 7263 5045 8548 
3 7263 8548 5007 
3 152 7263 4597 
3 955 4597 4028 
3 791 8548 562 
3 5174 562 1157 
3 4765 9457 5024 
3 1717 2749 954 
3 4995 1320 152 
3 955 152 4597 
3 1832 5024 1320 
3 152 1320 5045 
3 2988 6121 4995 
3 2988 4995 955 
3 9680 7407 5468 
3 1832 4765 5024 
3 5468 2616 2987 
3 6121 2987 4995 
3 954 5184 1717 
3 2616 1832 2987 
3 2616 1717 1832 
3 2987 1832 1320 
3 1773 6449 1214 
3 1214 4953 45 
3 4953 9457 4765 
3 5184 4765 1717 
3 1658 1773 2748 
3 6455 3300 5121 
3 6449 4953 1214 
3 3300 1214 5121 
3 9141 8474 5739 
3 5388 5739 2805 
3 5540 5388 2748 
3 3300 2748 1773 
3 10582 9313 9913 
3 10396 10840 11161 
3 7417 8827 7464 
3 9141 10694 9913 
3 8827 10694 7464 
3 5388 7464 5739 
3 7463 6455 9328 
3 6455 5540 3300 
3 4765 5184 45 
3 1214 45 5121 
3 10123 7417 7463 
3 5540 7417 5388 
3 8827 7417 10123 
3 10009 7463 9328 
3 9913 10694 10908 
3 11179 10908 11161 
3 10396 8827 10123 
3 10443 10123 10009 
3 10396 10443 10840 
3 11273 10840 11469 
3 10123 10443 10396 
3 10908 10396 11161 
3 6839 6907 7516 
3 10009 7516 10161 
3 7516 9328 6839 
3 151 3423 7145 
3 6907 6839 1213 
3 953 1536 849 
3 3277 847 1535 
3 1535 151 1319 
3 9328 6455 3277 
3 6839 3277 1535 
3 847 954 151 
3 1535 1319 1213 
3 5475 3423 2749 
3 2616 2749 1717 
3 2749 2616 5386 
3 9680 5468 6121 
3 3423 5475 9710 
3 7145 7915 3064 
3 7428 10656 9226 
3 7915 5846 3064 
3 5468 7407 5386 
3 5468 5386 2616 
3 10162 10569 8849 
3 10162 8849 7407 
3 11348 10799 11309 
3 10377 10107 8819 
3 11560 11330 11078 
3 10850 10377 8819 
3 11185 10875 10473 
3 10850 11330 11073 
3 7419 8819 7385 
3 8916 10569 10162 
3 10988 10107 10377 
3 11073 10377 10850 
3 7403 10107 8916 
3 7601 8916 10162 
3 8916 10107 10988 
3 10569 10988 11309 
3 7385 10107 7403 
3 5353 5472 2635 
3 8819 10107 7385 
3 7419 7385 5361 
3 7403 7601 5472 
3 5353 2603 5361 
3 7403 5472 5353 
3 7403 5353 7385 
3 10286 7419 5568 
3 4236 5568 2706 
3 10286 5568 8009 
3 2705 8009 7285 
3 8819 7419 10547 
3 7388 5364 9181 
3 10547 7419 10286 
3 10547 9852 10850 
3 10286 8009 9184 
3 10286 9184 10547 
3 10547 9184 9852 
3 10850 10371 11330 
3 9852 9184 7388 
3 9852 7388 9794 
3 2705 2619 5371 
3 2705 5371 8009 
3 7929 9181 5364 
3 7929 2667 7254 
3 1834 1322 2667 
3 2619 2667 5364 
3 1322 4367 154 
3 4038 5514 7929 
3 1322 154 7254 
3 1322 7254 2667 
3 4038 2662 5514 
3 7929 10232 9181 
3 7929 7254 4038 
3 2662 4038 947 
3 10875 9794 10473 
3 7393 10473 10232 
3 5514 7393 10232 
3 5514 10232 7929 
3 11078 10371 10875 
3 9794 7388 9181 
3 10875 10371 9794 
3 10473 9794 9181 
3 11330 10371 11078 
3 10416 9846 10478 
3 11078 10875 11297 
3 10416 9808 9846 
3 10416 11185 9808 
3 9380 9808 7393 
3 2708 5506 8066 
3 2653 8066 5369 
3 2861 5506 2708 
3 144 2708 1313 
3 11297 10416 11152 
3 11152 10902 9812 
3 9380 9134 9846 
3 9380 9846 9808 
3 9933 10543 9851 
3 9134 9851 9846 
3 10626 9933 9071 
3 5533 5506 2861 
3 11109 11643 11321 
3 11297 10875 11185 
3 11185 10416 11297 
3 10802 11152 9812 
3 11622 11330 11560 
3 11321 11078 11297 
3 10802 11321 11297 
3 10802 11297 11152 
3 11643 11456 11560 
3 11330 11622 11073 
3 11456 11622 11560 
3 11321 11560 11078 
3 10594 10829 11132 
3 11303 11309 11073 
3 11132 11348 11303 
3 11109 10885 11335 
3 7415 8948 10594 
3 9806 10594 11132 
3 10829 11348 11132 
3 10424 11335 11195 
3 11132 11303 10786 
3 11132 10786 9806 
3 11303 11622 11456 
3 10786 11456 11335 
3 11560 11321 11643 
3 11456 11643 11335 
3 10679 11195 10885 
3 10532 11109 10802 
3 11335 11643 11109 
3 10885 10532 9934 
3 7415 5419 8948 
3 10594 8948 10534 
3 9806 10786 10424 
3 9806 9033 7415 
3 2679 5419 5403 
3 9033 9806 10424 
3 5419 7415 5403 
3 7827 9315 6805 
3 5403 9033 7827 
3 9878 11195 10679 
3 11377 11195 9878 
3 7391 7413 5380 
3 9010 10679 9934 
3 10532 10802 9812 
3 7391 9934 8837 
3 7434 9870 10126 
3 10885 11109 10532 
3 8837 10532 9812 
3 8837 9812 8852 
3 5425 2675 5380 
3 11152 10478 10902 
3 9812 10902 8852 
3 8852 10902 9870 
3 10543 11208 9851 
3 11214 10126 9870 
3 11208 9870 10902 
3 10965 8909 11214 
3 10543 11214 9870 
3 9064 8909 10965 
3 9064 10626 7818 
3 7413 8852 7434 
3 2759 147 2675 
3 8909 9064 5520 
3 4274 5008 1830 
3 9010 9934 7391 
3 9010 5477 8763 
3 8837 8852 7413 
3 8837 7413 7391 
3 7413 7434 5425 
3 7413 5425 5380 
3 2675 5425 2759 
3 2818 5471 8332 
3 10126 8909 8332 
3 10126 8332 5471 
3 8332 5520 2808 
3 2818 1830 1315 
3 6569 4274 4285 
3 2808 1830 2818 
3 7298 4345 146 
3 2808 1715 1830 
3 6692 7232 5008 
3 1830 5008 1315 
3 6569 6692 4274 
3 1715 4274 1830 
3 5010 3026 1316 
3 950 2684 2675 
3 1315 7232 147 
3 950 2522 795 
3 8763 3026 5010 
3 1573 2684 950 
3 2818 1315 2759 
3 2675 147 950 
3 1315 147 2759 
3 5471 2759 5425 
3 951 3001 5010 
3 5477 5380 2684 
3 148 5010 1316 
3 1573 3026 2684 
3 6794 148 5047 
3 1316 3026 1573 
3 5047 148 1316 
3 575 1573 795 
3 10736 7837 5785 
3 3201 5785 3268 
3 148 3164 951 
3 3164 6804 951 
3 6804 3201 1574 
3 3001 1574 6805 
3 6804 1574 951 
3 148 951 5010 
3 3201 3268 1317 
3 2679 2765 5419 
3 6805 1574 1317 
3 6805 1317 2642 
3 9315 9010 6142 
3 9315 6142 3001 
3 5010 6142 8763 
3 3026 5477 2684 
3 7827 11377 9878 
3 9315 9878 9010 
3 9010 7391 5477 
3 8763 5477 3026 
3 2642 149 2679 
3 5403 7415 9033 
3 2642 2679 5403 
3 2642 5403 7827 
3 9033 11377 7827 
3 2642 7827 6805 
3 3176 3728 1831 
3 1886 6639 6638 
3 3176 1831 1886 
3 1716 1886 6638 
3 5696 3728 3176 
3 1831 3728 1318 
3 6037 3728 5696 
3 7063 1886 1716 
3 7676 6037 5696 
3 10209 7673 9336 
3 5696 3176 7721 
3 952 149 6983 
3 7721 7063 3435 
3 7673 9587 9336 
3 1716 2765 952 
3 6983 149 3268 
3 5696 7721 9106 
3 7673 6983 9587 
3 3435 952 6983 
3 3435 6983 7673 
3 7676 9106 10175 
3 6168 3465 8218 
3 7931 9336 9587 
3 5785 9587 3268 
3 9106 10653 10175 
3 6168 40 3465 
3 9106 10209 10653 
3 7931 5794 5819 
3 8305 6037 7676 
3 10671 7676 10175 
3 7721 10209 9106 
3 5696 9106 7676 
3 7673 10209 7721 
3 7063 7721 3176 
3 6749 10081 8171 
3 10148 7738 10671 
3 3467 8305 7738 
3 5918 7738 10148 
3 3359 5918 10081 
3 5755 10153 7836 
3 10081 5918 9242 
3 5912 10148 8218 
3 7864 7274 3117 
3 3178 3117 1216 
3 5715 3178 8171 
3 9535 7836 9115 
3 5604 5400 2828 
3 1216 1774 3178 
3 8171 3178 6749 
3 3359 6749 1659 
3 2828 1216 4720 
3 8765 4720 6591 
3 4720 5604 2828 
3 1216 2828 1774 
3 5400 5537 2774 
3 1774 1659 6749 
3 8204 6742 3241 
3 1659 850 3359 
3 3467 850 47 
3 9566 47 1215 
3 6037 9566 4830 
3 1536 3242 2780 
3 3241 1659 2774 
3 5400 2774 2828 
3 850 1659 3241 
3 850 6742 47 
3 850 3241 6742 
3 47 6742 1215 
3 10470 7395 10149 
3 9984 9054 7432 
3 10470 10409 7395 
3 10149 7395 5604 
3 5400 7395 10060 
3 5537 10060 9210 
3 3241 5537 8204 
3 11205 10443 10161 
3 8204 9210 5538 
3 3242 5538 2780 
3 4190 3064 5846 
3 9398 8988 10161 
3 5537 9210 8204 
3 6742 8204 3242 
3 4830 9566 1215 
3 4830 150 1318 
3 4830 1215 150 
3 1318 7096 4095 
3 1831 1318 4095 
3 1831 6639 1886 
3 9509 6638 7572 
3 9596 6639 4095 
3 10043 8948 9509 
3 6638 9509 2765 
3 6638 6639 7572 
3 9509 7572 10043 
3 10534 8948 10043 
3 10996 10043 10085 
3 150 1215 1536 
3 150 1536 953 
3 1319 1575 1213 
3 46 2647 6907 
3 150 953 7096 
3 4095 7096 9596 
3 1575 953 849 
3 2647 849 2780 
3 1575 849 46 
3 1213 46 6907 
3 7096 953 4190 
3 3064 1319 7145 
3 953 1575 4190 
3 7096 4190 9596 
3 9890 10996 8928 
3 9226 7915 9710 
3 10534 10996 9890 
3 11167 9890 10656 
3 3064 1575 1319 
3 7145 1319 151 
3 4190 1575 3064 
3 5846 7915 8928 
3 9226 8928 7915 
3 9710 7915 7145 
3 11205 10161 8988 
3 5538 5399 2780 
3 2647 5399 9398 
3 6907 9398 7516 
3 2647 2780 5399 
3 9398 5399 8988 
3 46 849 2647 
3 6907 2647 9398 
3 11553 11283 11442 
3 11184 10819 10470 
3 9210 10916 7445 
3 9210 7445 5538 
3 9800 10916 11100 
3 11469 11100 11283 
3 11100 11469 9800 
3 10916 9800 7445 
3 11469 10840 11205 
3 9800 11205 8988 
3 11322 11436 10809 
3 2732 5412 2711 
3 11368 11638 11079 
3 11442 11283 10819 
3 10381 8833 10392 
3 11107 10392 10960 
3 11436 11368 10809 
3 11107 10809 10392 
3 10015 8833 10381 
3 10392 8833 9932 
3 5412 8833 10015 
3 11368 10381 10809 
3 11442 10375 11079 
3 11553 11079 11638 
3 11079 11553 11442 
3 11184 11442 10819 
3 10375 8825 10922 
3 11079 10922 11368 
3 11442 11184 10375 
3 11079 10375 10922 
3 6590 4183 7569 
3 10627 10015 10922 
3 10819 10409 10470 
3 11184 10470 9984 
3 5029 49 6963 
3 5412 7969 8833 
3 4183 7249 9086 
3 10627 10922 8825 
3 2732 2711 1537 
3 9086 10627 7569 
3 9086 5412 10015 
3 10922 10015 10381 
3 9086 10015 10627 
3 7569 10627 8825 
3 1537 5126 1218 
3 853 1538 2766 
3 9086 7249 2711 
3 5412 2732 7969 
3 531 6932 1504 
3 1138 1504 4278 
3 5232 5126 1537 
3 7155 1537 852 
3 1138 4278 5172 
3 535 4922 781 
3 1218 1138 530 
3 1505 5172 3792 
3 1138 5172 530 
3 8113 1139 3381 
3 50 1218 530 
3 6140 5657 3350 
3 8574 8113 9360 
3 1505 4930 530 
3 6475 1218 50 
3 7275 4228 853 
3 1537 1218 2732 
3 9717 8560 7780 
3 6475 7969 2732 
3 6475 2732 1218 
3 6475 50 8560 
3 6475 8560 9717 
3 10960 10392 9932 
3 10960 9932 8859 
3 7275 4930 4228 
3 1538 4228 3350 
3 530 4930 7275 
3 50 853 8560 
3 4228 1538 853 
3 7275 853 50 
3 3350 4228 6140 
3 5657 7575 10708 
3 4228 4930 8574 
3 6140 8574 9360 
3 7575 6140 9360 
3 7573 7942 8975 
3 4930 1505 8113 
3 4930 8113 8574 
3 3381 535 7247 
3 3381 7573 9360 
3 7575 9360 7573 
3 10708 8975 10039 
3 10041 10039 8975 
3 7942 7573 7247 
3 5657 6140 7575 
3 10708 7575 8975 
3 7967 9108 9946 
3 7967 9946 9062 
3 8975 8913 10041 
3 10039 10041 9108 
3 1258 3804 90 
3 1258 90 8481 
3 10469 10006 9223 
3 8018 9223 6269 
3 8481 90 893 
3 8481 893 6524 
3 9223 10006 7821 
3 9223 7821 6269 
3 10041 8913 10972 
3 10006 7484 10265 
3 8913 10465 10972 
3 10041 10972 9946 
3 8913 8975 7942 
3 8913 5982 10016 
3 3720 7821 6275 
3 9147 10265 10311 
3 9147 10006 10265 
3 10311 6474 6275 
3 1690 893 4185 
3 6275 7821 9147 
3 6474 4185 6275 
3 6474 10311 8445 
3 4185 6474 4462 
3 4185 4462 1690 
3 6945 6474 4327 
3 1014 6710 1380 
3 3557 8445 10311 
3 9147 10311 6275 
3 10311 10265 3557 
3 3750 1379 6733 
3 7484 2967 6710 
3 10265 6710 3557 
3 7484 10016 2967 
3 6710 2967 1380 
3 3413 4671 5982 
3 10016 7484 10465 
3 10006 10465 7484 
3 10265 7484 6710 
3 5982 8352 10016 
3 8913 10016 10465 
3 4671 8352 5982 
3 7942 5982 8913 
3 4922 535 1139 
3 1505 1139 8113 
3 781 4671 3413 
3 7247 3413 7942 
3 3413 535 781 
3 534 6867 6933 
3 1139 3792 4922 
3 781 4922 5196 
3 4922 5002 5196 
3 534 6933 4671 
3 3792 8402 6844 
3 3792 6844 4922 
3 5196 5002 780 
3 6867 5081 1381 
3 532 778 4550 
3 6844 4826 5002 
3 236 3550 1381 
3 5243 4061 1380 
3 1380 235 5243 
3 6677 1381 3550 
3 780 6867 534 
3 4671 6933 8352 
3 5196 780 534 
3 781 534 4671 
3 8445 3557 234 
3 8445 4327 6474 
3 234 3557 1014 
3 234 6733 1379 
3 4462 6474 6945 
3 4462 6945 4319 
3 8445 234 4327 
3 6945 4486 6896 
3 1013 4486 1379 
3 4327 4486 6945 
3 3750 1013 1379 
3 234 1379 4327 
3 7747 4061 6677 
3 1014 6733 234 
3 5243 6677 4061 
3 1380 4061 1014 
3 1015 6677 5243 
3 1015 5243 235 
3 10143 9452 7747 
3 4061 9452 6733 
3 7744 9452 10143 
3 3550 7747 6677 
3 3203 233 1013 
3 7744 3750 9452 
3 3203 1013 3750 
3 9452 3750 6733 
3 606 233 3306 
3 3306 3203 5810 
3 10608 7744 10143 
3 7532 7747 3550 
3 9041 10143 7532 
3 6483 9475 7664 
3 4488 7279 236 
3 3550 7279 7532 
3 6910 607 236 
3 1381 6677 1015 
3 9416 7332 607 
3 6910 5081 533 
3 5081 236 1381 
3 6867 1381 1015 
3 9416 6910 5015 
3 780 5081 6867 
3 780 5002 533 
3 780 533 5081 
3 5002 4826 779 
3 1016 237 5179 
3 236 5081 6910 
3 607 6910 9416 
3 533 779 5015 
3 533 5015 6910 
3 6281 6909 4747 
3 5015 6909 9416 
3 6513 6545 4550 
3 532 4747 779 
3 4098 3988 354 
3 4108 7040 4607 
3 3988 676 354 
3 355 4607 677 
3 4979 677 4607 
3 677 11708 355 
3 4667 4550 778 
3 6513 7040 4108 
3 852 49 5029 
3 7040 6963 4607 
3 6545 9739 4550 
3 4826 532 779 
3 4667 6513 4550 
3 532 4550 9739 
3 6932 778 8402 
3 4826 778 532 
3 531 4667 2512 
3 6932 8402 4278 
3 778 4826 8402 
3 778 6932 2512 
3 531 2512 6932 
3 1504 6932 4278 
3 1537 7155 5232 
3 5126 5232 1504 
3 2711 7249 852 
3 7155 852 5029 
3 5232 7155 531 
3 5232 531 1504 
3 5029 7040 4667 
3 2512 4667 778 
3 531 7155 5029 
3 7040 5029 6963 
3 852 7249 49 
3 4979 5222 356 
3 4183 6590 1217 
3 49 4979 6963 
3 9086 7569 4183 
3 7249 4183 49 
3 5222 1217 1775 
3 7432 8825 9984 
3 2688 6590 7432 
3 6591 9054 8765 
3 2688 7432 9054 
3 8765 9054 10149 
3 2688 1660 1775 
3 6590 1775 1217 
3 1775 6590 2688 
3 6591 2688 9054 
3 5222 1775 5260 
3 11716 851 48 
3 357 5260 1660 
3 1660 5260 1775 
3 4720 48 851 
3 6591 851 1660 
3 49 1217 4979 
3 6963 4979 4607 
3 4979 1217 5222 
3 356 5222 678 
3 4108 4607 355 
3 354 7106 675 
3 4979 356 677 
3 677 4368 11708 
3 2509 678 357 
3 5260 678 5222 
3 4368 678 6362 
3 6454 11716 7274 
3 48 7274 11716 
3 851 11716 357 
3 679 6362 2509 
3 679 2509 6454 
3 2509 11716 6454 
3 7020 6454 7803 
3 6362 8383 4368 
3 678 4368 356 
3 4252 679 358 
3 2509 6362 678 
3 676 3210 354 
3 10291 9757 8020 
3 5884 3210 11708 
3 8383 11708 4368 
3 11708 8383 5884 
3 3210 5884 10291 
3 8383 4252 6143 
3 7020 679 6454 
3 680 3641 358 
3 7020 358 679 
3 3430 680 3438 
3 5730 3438 7803 
3 5082 680 359 
3 6853 3430 8540 
3 9213 6256 8540 
3 5730 8540 3430 
3 9563 10308 7806 
3 3043 8189 5767 
3 352 5209 5207 
3 9617 9361 7749 
3 7106 9373 4896 
3 675 4896 353 
3 9361 9757 6143 
3 3641 4252 358 
3 8383 6362 4252 
3 6143 4252 3641 
3 277 7140 5231 
3 9373 10291 8020 
3 10291 9373 7106 
3 10291 7106 3210 
3 353 4896 7304 
3 3542 10308 9563 
3 7304 4896 9373 
3 7304 6315 5070 
3 4308 636 277 
3 5231 7140 353 
3 637 277 5231 
3 674 353 7304 
3 7140 277 636 
3 6909 5015 4747 
3 675 353 4802 
3 6826 8150 6545 
3 7140 636 4384 
3 6545 8150 9739 
3 7140 4384 4802 
3 675 4098 354 
3 11708 3210 676 
3 4108 3988 6513 
3 354 3210 7106 
3 675 7106 4896 
3 6545 6513 3988 
3 6545 4098 6826 
3 4108 355 676 
3 4108 676 3988 
3 4802 4384 6826 
3 9739 8150 4747 
3 6281 8150 6826 
3 4098 6545 3988 
3 4802 6826 4098 
3 4802 4098 675 
3 7332 9416 237 
3 6281 4747 8150 
3 8710 6909 6281 
3 4384 6281 6826 
3 276 5179 8710 
3 237 1016 7332 
3 9416 6909 237 
3 5179 276 635 
3 607 8625 4488 
3 7664 7532 7279 
3 8710 5179 237 
3 8710 237 6909 
3 6483 7664 4488 
3 607 4488 236 
3 7332 1016 8625 
3 7332 8625 607 
3 3203 7744 5810 
3 10138 10608 9041 
3 10711 9041 9475 
3 6483 8625 1016 
3 6299 3306 5810 
3 5810 7744 10608 
3 5092 3306 6299 
3 10138 5810 10608 
3 5810 9382 6299 
3 604 3921 231 
3 9143 10159 9382 
3 10138 9382 5810 
3 10138 9041 10711 
3 10138 7771 9382 
3 9041 7664 9475 
3 3405 238 3185 
3 4488 8625 6483 
3 3405 3185 5729 
3 5729 5728 7771 
3 10711 7771 10138 
3 10711 9475 5729 
3 10711 5729 7771 
3 5092 6299 8433 
3 5092 8433 605 
3 5770 9554 10159 
3 9382 10159 6299 
3 3390 3033 5770 
3 9554 3033 8433 
3 5770 3033 9554 
3 10159 9554 6299 
3 604 3033 3390 
3 3378 608 239 
3 3378 8344 5728 
3 7771 9143 9382 
3 5729 3185 5728 
3 7771 5728 9143 
3 608 3185 238 
3 634 238 275 
3 6351 2507 635 
3 7011 275 1382 
3 1382 238 3405 
3 6483 3405 9475 
3 275 238 1382 
3 7011 1382 1016 
3 8649 2507 6351 
3 5178 635 276 
3 636 5178 276 
3 4384 276 6281 
3 8649 275 2507 
3 635 2507 7011 
3 3606 275 8649 
3 6351 635 5178 
3 8546 8603 9557 
3 8603 6351 5178 
3 9557 4308 7043 
3 7043 278 3384 
3 7043 4308 637 
3 7043 637 278 
3 8603 4308 9557 
3 7734 7043 3384 
3 5209 6713 4691 
3 279 4691 7277 
3 10145 9316 5927 
3 8546 6351 8603 
3 10648 8546 9557 
3 7734 9557 7043 
3 3314 634 3606 
3 5927 3606 8546 
3 3606 8649 8546 
3 5927 8546 10648 
3 239 6427 3378 
3 5728 8344 9143 
3 3185 608 3378 
3 229 602 5183 
3 4120 230 602 
3 8494 9143 8344 
3 6966 3390 8494 
3 6966 8494 6427 
3 3390 230 604 
3 3033 604 231 
3 230 3390 6966 
3 5183 6966 6427 
3 8344 3378 6427 
3 8344 6427 8494 
3 608 634 274 
3 239 633 5129 
3 5927 9316 3314 
3 634 3314 274 
3 5129 5086 603 
3 6427 603 5183 
3 603 239 5129 
3 5086 273 6707 
3 4070 230 4120 
3 9466 6617 8599 
3 229 6617 602 
3 5183 602 6966 
3 9724 8599 6617 
3 602 6617 4120 
3 557 9724 7278 
3 603 229 5183 
3 603 5086 7278 
3 229 7278 9724 
3 633 5133 273 
3 5129 273 5086 
3 3579 7017 7694 
3 9316 7039 3314 
3 7017 10332 7694 
3 8587 7694 7662 
3 239 274 633 
3 5129 633 273 
3 5133 633 7039 
3 10332 7039 9316 
3 7694 9316 10145 
3 7662 10145 9199 
3 10145 5927 10648 
3 7734 10648 9557 
3 6131 7662 5733 
3 8652 9199 7734 
3 1027 3172 4646 
3 8652 5733 9199 
3 5733 8652 4646 
3 5733 4646 3172 
3 9563 7806 6713 
3 278 638 3384 
3 5070 674 7304 
3 7806 10308 9640 
3 359 4621 671 
3 6046 6315 8020 
3 350 672 5201 
3 3542 3043 5767 
3 351 3542 9563 
3 6713 7806 4691 
3 672 3740 5201 
3 6315 7304 9373 
3 8652 3384 638 
3 279 638 4691 
3 673 6713 352 
3 5207 5209 278 
3 352 6713 5209 
3 278 5209 638 
3 9563 6713 673 
3 5070 352 674 
3 5207 5231 674 
3 5207 674 352 
3 673 352 5070 
3 6046 8020 9361 
3 673 5070 3483 
3 8020 6315 9373 
3 3483 6315 6046 
3 9617 3768 5201 
3 351 9563 673 
3 351 3483 3740 
3 5070 6315 3483 
3 673 3483 351 
3 3483 6046 3740 
3 351 672 3542 
3 351 3740 672 
3 349 671 4615 
3 7281 349 3768 
3 5201 670 350 
3 6046 9361 9617 
3 6046 9617 3740 
3 9361 3641 7749 
3 9617 7749 3768 
3 3641 680 5082 
3 7749 7281 3768 
3 3430 6853 359 
3 5082 359 671 
3 5082 671 7281 
3 5082 7281 7749 
3 4615 671 4621 
3 8535 4621 6853 
3 4650 4621 8535 
3 4351 6256 3608 
3 7281 671 349 
3 4642 1207 1767 
3 4615 4621 4650 
3 4615 4642 8510 
3 3043 3542 672 
3 3043 350 6877 
3 5201 3768 670 
3 3972 4230 8440 
3 3972 6877 350 
3 670 3768 349 
3 3972 350 670 
3 3972 670 4230 
3 6747 8440 8510 
3 4615 4230 349 
3 4230 4615 8510 
3 4230 8510 8440 
3 4615 4650 4642 
3 8510 4642 6747 
3 1207 39 3217 
3 2561 3217 5389 
3 1653 2586 842 
3 3217 7999 5389 
3 2561 1767 1207 
3 2561 1207 3217 
3 3217 39 7146 
3 1914 2869 2670 
3 7999 7146 2586 
3 7999 10047 8920 
3 5459 7410 5360 
3 2586 5360 7999 
3 10925 10404 10047 
3 5360 10047 7999 
3 5459 5360 2670 
3 5360 7410 10047 
3 10449 10891 9813 
3 11336 10891 11487 
3 11191 11391 10891 
3 9813 10891 11336 
3 9103 10428 9959 
3 10689 10449 8979 
3 7353 9103 5333 
3 2562 5333 2628 
3 5395 9103 9959 
3 11191 9959 10428 
3 2738 9607 6596 
3 4167 5250 4168 
3 2869 8225 5459 
3 7410 9263 9813 
3 9813 9263 10449 
3 11191 10689 9959 
3 11191 10449 10689 
3 2738 2628 5395 
3 10177 8464 8979 
3 10689 8979 7966 
3 4168 3124 5999 
3 10689 9607 9959 
3 10689 7966 9607 
3 9959 9607 5395 
3 5395 9607 2738 
3 3182 5737 3147 
3 1915 1950 6596 
3 5661 5737 3182 
3 2738 1950 1769 
3 2738 1769 2628 
3 7966 8979 5999 
3 7966 3124 6596 
3 1950 2738 6596 
3 6596 3124 1915 
3 1949 2869 1914 
3 2586 2670 5360 
3 10177 8225 8464 
3 5999 8464 4168 
3 8225 9263 5459 
3 2869 5459 2670 
3 9263 8225 10177 
3 9263 10177 10449 
3 4650 8535 4351 
3 39 842 7146 
3 39 4351 842 
3 7146 842 2586 
3 6853 8540 6256 
3 8535 6256 4351 
3 842 3608 1653 
3 2586 1653 2670 
3 3332 1949 1914 
3 1653 1914 2670 
3 9213 10153 8156 
3 6256 8156 3608 
3 8156 5755 3098 
3 8156 3098 3608 
3 5755 5813 3332 
3 3098 3332 1914 
3 1949 1768 6604 
3 8225 6604 8464 
3 1949 3332 3259 
3 9237 9535 8171 
3 3465 3352 5912 
3 5813 3259 3332 
3 9115 10153 9213 
3 5730 9213 8540 
3 8156 10153 5755 
3 3098 5755 3332 
3 5730 7803 10152 
3 5730 10152 9213 
3 10153 9115 7836 
3 9237 10081 9242 
3 3117 5715 7864 
3 7274 7864 7803 
3 9115 5715 9535 
3 7836 9237 5813 
3 8171 10081 9237 
3 8155 3352 3259 
3 8218 3465 5912 
3 9242 5912 8155 
3 7836 9535 9237 
3 5813 9237 8155 
3 9237 9242 8155 
3 5813 8155 3259 
3 1208 1768 3352 
3 5912 3352 8155 
3 10175 6168 8218 
3 3465 1208 3352 
3 843 40 3387 
3 843 3269 1654 
3 10671 10175 8218 
3 10671 8218 10148 
3 3387 40 6168 
3 10653 6168 10175 
3 10209 9336 7757 
3 10653 7757 3387 
3 7757 9336 5819 
3 7837 7931 5785 
3 3226 5794 5689 
3 5819 3387 7757 
3 5794 3269 5819 
3 7931 5819 9336 
3 1654 3269 3226 
3 5689 5794 7837 
3 3387 3269 843 
3 40 5250 1208 
3 3269 5794 3226 
3 5661 9341 7585 
3 4167 1768 1208 
3 40 1208 3465 
3 843 4168 5250 
3 843 5250 40 
3 1208 5250 4167 
3 6604 4167 8464 
3 4168 1654 3124 
3 5999 3124 7966 
3 3124 1654 1915 
3 2948 5689 5661 
3 1915 1654 3226 
3 1915 2948 1950 
3 1915 3226 2948 
3 1950 3182 1769 
3 2948 5661 3182 
3 9585 7852 6986 
3 9426 7599 7585 
3 5737 5803 3147 
3 6116 9356 7775 
3 3294 9676 6723 
3 6116 7775 3294 
3 574 3294 1166 
3 7613 3164 7591 
3 10267 9676 7775 
3 795 5149 575 
3 1166 3922 7253 
3 9341 10151 7585 
3 5661 7585 5737 
3 9676 10267 7591 
3 7591 9426 7613 
3 10736 10151 9341 
3 5689 9341 5661 
3 9426 10151 7613 
3 3164 7613 6804 
3 9341 7837 10736 
3 10151 9314 7613 
3 10151 10736 9314 
3 6804 9314 3201 
3 3164 148 6794 
3 6723 1532 1166 
3 1316 1573 575 
3 5047 1532 6723 
3 10267 9426 7591 
3 9676 6794 6723 
3 7591 3164 6794 
3 7591 6794 9676 
3 3922 1166 1532 
3 3922 5149 8130 
3 3922 1532 5149 
3 9454 5149 795 
3 6102 4843 4086 
3 576 7168 7232 
3 1167 4843 576 
3 7168 2522 950 
3 4843 2522 576 
3 1167 576 7232 
3 6569 4180 6692 
3 4274 6692 5008 
3 1167 6692 1533 
3 7150 1940 1905 
3 577 5247 1533 
3 1167 4086 4843 
3 5247 4086 1533 
3 4180 1533 6692 
3 6102 4029 3492 
3 1164 5247 577 
3 1533 4180 577 
3 8744 7150 1905 
3 6102 8124 8130 
3 4843 8130 9454 
3 8428 8124 6278 
3 4029 5247 1164 
3 4857 8428 6278 
3 3492 6278 6102 
3 4857 6278 3492 
3 1613 4029 1164 
3 6102 4086 4029 
3 3492 4029 1613 
3 1530 3492 1613 
3 1530 824 21 
3 1164 577 8744 
3 1164 1636 1613 
3 1163 6239 4857 
3 1530 4857 3492 
3 1189 21 5258 
3 1636 8744 1905 
3 1163 1529 6239 
3 4857 6239 8428 
3 21 4683 572 
3 21 572 1530 
3 7297 4686 573 
3 1531 3916 574 
3 4686 3786 1165 
3 1529 6588 6239 
3 1165 1531 6588 
3 8428 3971 8124 
3 1531 3971 6588 
3 1165 6588 573 
3 10267 7775 9356 
3 5803 3461 3147 
3 9585 9356 7852 
3 3916 3294 574 
3 1950 2948 3182 
3 1769 3182 3147 
3 7599 9356 5803 
3 7599 5803 5737 
3 9585 6986 3461 
3 1209 2562 2628 
3 5803 9356 9585 
3 5803 9585 3461 
3 9332 4067 7852 
3 6116 7852 9356 
3 1531 3786 3916 
3 6116 10262 7852 
3 10262 6116 3916 
3 10262 3916 3786 
3 4692 4067 9332 
3 7852 4067 6986 
3 4686 4692 9332 
3 3786 9332 10262 
3 3147 3461 1209 
3 3147 1209 1769 
3 844 2565 41 
3 3461 41 1209 
3 41 6986 844 
3 2565 844 2648 
3 844 4067 1655 
3 2648 1655 2809 
3 5058 1859 4692 
3 5058 4692 4686 
3 9332 3786 4686 
3 5058 7297 4987 
3 5058 4686 7297 
3 4987 4534 4460 
3 3680 6613 4534 
3 1529 4534 573 
3 6179 6613 3680 
3 4683 3680 1163 
3 4686 1165 573 
3 7297 573 4534 
3 3680 1529 1163 
3 4683 1163 572 
3 4683 21 7228 
3 1750 4238 3166 
3 1750 1189 4238 
3 4238 5258 4239 
3 9345 6613 6179 
3 1750 1939 3581 
3 6179 4683 7228 
3 6179 3774 5915 
3 6179 7228 3774 
3 5915 3774 3581 
3 8679 3902 5830 
3 9524 2949 6922 
3 1873 1686 4771 
3 6921 8328 4125 
3 2949 9524 5830 
3 8679 5830 5797 
3 1491 6903 507 
3 1127 6690 1493 
3 6903 4465 8328 
3 4771 8328 6921 
3 3442 6980 1127 
3 785 5096 549 
3 1873 4771 6921 
3 1873 1801 6922 
3 8328 4465 10319 
3 8328 6330 4125 
3 10319 4465 3937 
3 8051 4743 9623 
3 4465 1491 1125 
3 3937 1125 506 
3 6916 1492 506 
3 3937 8051 9655 
3 1608 8733 8330 
3 4743 6635 9623 
3 1608 3702 3411 
3 6789 8257 3449 
3 8330 1492 1608 
3 8733 1608 1126 
3 1491 6980 3767 
3 1125 3767 6916 
3 3702 1492 6916 
3 3702 6916 8487 
3 5946 3702 8487 
3 3767 8487 6916 
3 5886 9740 9419 
3 3442 9419 6980 
3 5886 8230 9740 
3 9419 9740 8487 
3 6789 3411 8257 
3 9740 5946 8487 
3 1126 6789 511 
3 8257 8230 6411 
3 9740 8230 8257 
3 1130 3449 5101 
3 1496 6789 3449 
3 1130 510 3177 
3 3442 4794 5886 
3 3442 5886 9419 
3 3411 5946 8257 
3 3449 8257 6411 
3 1127 5079 6690 
3 1493 6690 548 
3 1516 8521 548 
3 1493 4794 3442 
3 784 6690 549 
3 7073 5079 5066 
3 507 5079 1127 
3 507 1127 6980 
3 3901 1250 5218 
3 8679 5218 3902 
3 6690 5079 549 
3 82 885 5218 
3 550 5181 785 
3 1250 82 5218 
3 549 7073 82 
3 785 82 1250 
3 5096 784 549 
3 785 549 82 
3 4725 5096 8681 
3 6228 4581 553 
3 4725 784 5096 
3 8681 5096 5181 
3 548 784 4725 
3 1150 6815 5277 
3 4725 1516 548 
3 784 548 6690 
3 6820 4833 4282 
3 4725 4282 1516 
3 1516 4282 1150 
3 1516 1150 6621 
3 6815 4833 787 
3 787 4833 552 
3 5167 4833 6820 
3 8681 6820 4725 
3 8525 7129 552 
3 752 475 4923 
3 552 7129 787 
3 4833 6815 4282 
3 786 7243 475 
3 552 475 8525 
3 9365 4807 6397 
3 752 8525 475 
3 7129 9365 4131 
3 553 4581 5277 
3 4523 9493 8073 
3 9365 10343 4131 
3 1150 4282 6815 
3 5277 6815 2521 
3 787 4131 2521 
3 787 2521 6815 
3 4131 10343 553 
3 2521 553 5277 
3 9493 6250 6228 
3 5277 4581 1150 
3 1516 6621 8521 
3 1609 4026 1494 
3 553 10343 6228 
3 4581 6228 6250 
3 5138 4244 6599 
3 6458 7941 8661 
3 6599 10312 4304 
3 8767 4689 4417 
3 4244 10312 6599 
3 5138 6599 822 
3 4244 5138 509 
3 1494 509 5212 
3 6754 8578 9654 
3 9654 19 1187 
3 8521 8484 1128 
3 1128 1609 3152 
3 1609 6837 3152 
3 6837 5212 3883 
3 1128 508 8521 
3 8484 8521 6621 
3 3152 4794 1128 
3 1609 1128 8484 
3 1128 4794 508 
3 8521 508 548 
3 5886 4794 3152 
3 6837 1494 5212 
3 8230 3152 6837 
3 8230 6837 6411 
3 3449 6411 5101 
3 8317 6924 4603 
3 6411 3883 5101 
3 1130 3872 1496 
3 4603 510 1495 
3 1129 1495 3883 
3 6924 3177 510 
3 1495 510 5101 
3 3177 6924 8103 
3 3177 8103 5966 
3 10635 10042 8946 
3 5647 3009 3082 
3 6027 8260 10139 
3 8103 10139 10042 
3 3427 3009 8260 
3 10139 8260 8946 
3 6924 510 4603 
3 4609 1748 4182 
3 3427 8260 6027 
3 8317 6027 6924 
3 8317 4603 4609 
3 8578 6754 1129 
3 4609 6754 9654 
3 19 9654 8578 
3 5554 4730 8661 
3 9105 8661 7941 
3 1748 4609 1187 
3 2831 1187 4730 
3 1938 2590 2583 
3 1633 3126 3082 
3 1938 2583 1965 
3 1938 1965 3427 
3 4182 8317 4609 
3 1187 4609 9654 
3 1938 4182 1748 
3 2590 1748 2831 
3 4182 1938 3427 
3 4182 3427 6027 
3 2583 2661 1965 
3 1965 1903 3009 
3 5451 2850 2661 
3 1903 1633 3082 
3 2583 8261 2661 
3 1903 2850 1633 
3 10020 10399 8903 
3 2661 2850 1903 
3 9357 6162 7700 
3 2850 3493 1633 
3 6162 8369 5156 
3 3493 821 1633 
3 3126 1633 821 
3 3126 821 3109 
3 5683 3126 5654 
3 6160 3005 8214 
3 3126 3109 5654 
3 5683 5654 7674 
3 8085 10680 10604 
3 5654 10604 7674 
3 3427 1965 3009 
3 8260 5647 8946 
3 10635 8946 10050 
3 5683 5647 3082 
3 8957 10042 10635 
3 7674 10604 10986 
3 8957 10635 10318 
3 5609 7819 5820 
3 5647 5683 10050 
3 10635 10050 10318 
3 7674 10986 7819 
3 10318 7819 5609 
3 10050 5683 7674 
3 10050 7674 7819 
3 5820 8747 9746 
3 5820 3089 5609 
3 10629 8915 9916 
3 10986 8954 5820 
3 7313 4535 99 
3 3089 2886 5609 
3 902 99 2998 
3 8747 2998 9746 
3 8957 5609 7788 
3 1553 2581 901 
3 9746 99 3089 
3 2886 1553 7116 
3 2886 7788 5609 
3 5609 8957 10318 
3 1267 2886 3089 
3 9746 3089 5820 
3 10042 10681 5966 
3 3177 3872 1130 
3 10042 8957 10681 
3 8335 511 1496 
3 5101 510 1130 
3 3449 1130 1496 
3 5966 8265 3872 
3 5966 3872 3177 
3 8038 1126 511 
3 8335 1496 3872 
3 9220 8335 6244 
3 3603 7788 7116 
3 7788 3603 8265 
3 10681 8265 5966 
3 8335 8265 6244 
3 3808 7974 7234 
3 10681 8957 7788 
3 10681 7788 8265 
3 7234 1266 98 
3 3603 6244 8265 
3 6244 3603 98 
3 6244 98 1266 
3 1608 3411 1126 
3 8733 1126 8038 
3 8038 511 9220 
3 1266 9220 6244 
3 1552 900 8038 
3 8733 6391 8330 
3 6391 8733 8038 
3 1552 2640 2617 
3 6391 8038 900 
3 97 7122 1265 
3 2617 900 1552 
3 1266 1552 9220 
3 5365 2617 2640 
3 5365 2640 7974 
3 3808 5483 7974 
3 7234 7974 2640 
3 2581 5483 3808 
3 901 3603 7116 
3 2581 3808 901 
3 7117 1553 1267 
3 7787 5483 2581 
3 7117 2581 1553 
3 2886 1267 1553 
3 7116 1553 901 
3 7695 7787 4535 
3 99 4535 1267 
3 7695 8865 7787 
3 7117 7787 2581 
3 5411 10180 7695 
3 2807 902 1268 
3 5411 7695 2807 
3 902 7313 99 
3 10816 10180 11379 
3 2807 7695 7313 
3 7501 9284 6801 
3 9284 10026 9825 
3 3538 1694 903 
3 3345 6605 8259 
3 3538 3290 1694 
3 903 3056 6801 
3 3538 903 3345 
3 8241 9197 10256 
3 8388 5942 9338 
3 5942 3538 3345 
3 2731 5411 2807 
3 2731 1268 100 
3 2731 2807 1268 
3 6605 8241 8259 
3 2807 7313 902 
3 1268 902 3143 
3 902 2998 3143 
3 1268 6605 100 
3 10629 9197 8915 
3 10629 9916 10680 
3 8747 8915 5638 
3 3143 6605 1268 
3 2935 5706 5627 
3 5627 7630 5646 
3 9338 5942 7939 
3 5706 7939 7580 
3 3143 5638 8241 
3 8259 8241 10256 
3 3143 8241 6605 
3 3345 8259 5942 
3 100 6605 3345 
3 100 3345 903 
3 6040 8388 6276 
3 5920 5706 3324 
3 7223 1232 65 
3 6276 8388 9338 
3 9338 7939 5920 
3 3324 5706 2935 
3 6276 9338 5920 
3 3497 5920 3324 
3 1232 3734 65 
3 868 65 3497 
3 7918 2772 7223 
3 7918 3800 5486 
3 3739 1232 1539 
3 3734 1232 3739 
3 5831 3688 3431 
3 2772 1539 1232 
3 6181 6040 9652 
3 3734 6276 3497 
3 9652 3734 8237 
3 6119 3739 3688 
3 6040 3290 8388 
3 6040 6276 9652 
3 3734 9652 6276 
3 3497 6276 5920 
3 3056 1694 6607 
3 6607 1809 6890 
3 5836 3733 8232 
3 8237 3734 3739 
3 8232 6181 8237 
3 8232 8237 6119 
3 3733 6181 8232 
3 9339 8232 6119 
3 8237 3739 6119 
3 9339 5831 7733 
3 10998 7733 8997 
3 7069 2953 64 
3 1233 2891 64 
3 5831 5680 7733 
3 866 64 3431 
3 2615 2820 1540 
3 5680 3431 2891 
3 5680 7769 8997 
3 5373 2953 9690 
3 2891 1233 6783 
3 7769 2891 6783 
3 10069 6783 3104 
3 5680 2891 7769 
3 10722 8977 10957 
3 7769 6783 10069 
3 8977 10069 5829 
3 4897 7282 75 
3 3104 3629 5829 
3 75 7282 3629 
3 3629 6473 5829 
3 4897 6511 8497 
3 4897 8497 4746 
3 4855 1147 544 
3 8452 6511 1543 
3 4688 75 867 
3 7282 4897 4746 
3 544 8497 6511 
3 6511 8452 4855 
3 75 3629 867 
3 2820 867 1540 
3 6511 4897 1243 
3 4688 8382 2844 
3 4897 75 1243 
3 8382 9875 10622 
3 8229 10687 5751 
3 2820 4688 867 
3 2820 5751 4688 
3 75 4688 1243 
3 1243 4688 2844 
3 9790 10535 8801 
3 544 6511 4855 
3 6368 877 74 
3 1543 2844 2638 
3 1543 877 8452 
3 7357 5319 7373 
3 7373 5344 7380 
3 5751 10687 9875 
3 5387 2638 2844 
3 5751 9875 8382 
3 5751 8382 4688 
3 8382 10622 5387 
3 8382 5387 2844 
3 2689 7069 866 
3 2953 5373 2615 
3 10687 8229 8839 
3 9944 5373 9690 
3 1540 1233 2615 
3 7069 2689 8035 
3 5373 8229 2615 
3 2953 2615 1233 
3 3739 1539 3688 
3 6119 3688 5831 
3 2953 1233 64 
3 7069 8035 9690 
3 5433 8035 2689 
3 1539 866 3688 
3 1539 2689 866 
3 3688 866 3431 
3 64 866 7069 
3 2953 7069 9690 
3 9944 8035 8838 
3 8861 5433 7918 
3 10932 8838 9831 
3 10462 8861 10228 
3 9831 8838 8861 
3 10228 8861 7918 
3 9944 8838 10932 
3 10892 9831 10462 
3 10402 10932 11048 
3 10932 11328 11048 
3 11571 11447 11048 
3 10932 10402 9944 
3 5373 9944 8839 
3 10537 8810 9848 
3 9944 10402 8839 
3 5373 8839 8229 
3 8839 10402 10817 
3 10687 10817 9875 
3 10622 9848 7380 
3 5387 5344 2638 
3 5319 5344 7373 
3 7380 5344 5387 
3 2584 5344 5319 
3 8801 7373 8810 
3 7380 9848 8810 
3 7380 8810 7373 
3 5370 7357 9007 
3 10987 10027 10535 
3 10402 11048 11148 
3 10817 10812 9848 
3 11154 11051 11478 
3 11148 10812 10817 
3 9848 10812 10537 
3 8810 10537 9790 
3 11051 11447 11569 
3 11299 11447 11571 
3 11447 11299 11569 
3 11447 11051 10812 
3 10537 10812 11051 
3 10537 11051 11154 
3 10537 11154 9790 
3 8810 9790 8801 
3 11103 10762 11244 
3 11444 11568 11251 
3 10762 11250 11244 
3 11460 11623 11258 
3 11569 11299 11449 
3 11569 11449 11478 
3 11444 11250 11568 
3 11251 11568 11449 
3 10836 9956 10460 
3 11177 11118 10480 
3 11067 10460 11144 
3 11449 10772 11251 
3 10892 10836 11328 
3 11299 11067 11144 
3 11067 11299 11571 
3 11067 11328 10836 
3 11328 9831 10892 
3 10836 10423 9956 
3 10932 9831 11328 
3 11571 11328 11067 
3 10892 10462 10936 
3 11166 9872 9552 
3 7411 9956 9042 
3 2681 2593 5379 
3 10892 10936 10423 
3 10892 10423 10836 
3 9042 11166 7962 
3 6931 1789 2761 
3 11166 9552 7962 
3 9042 5421 7411 
3 4177 869 1674 
3 3640 8297 3518 
3 5252 869 4177 
3 3070 1674 1867 
3 4177 4176 5252 
3 869 66 4113 
3 9756 4177 6002 
3 3070 4177 1674 
3 9872 9756 6002 
3 9552 6002 3070 
3 9850 7955 9872 
3 10936 9872 11166 
3 10228 7918 5486 
3 7955 5486 2911 
3 10462 10228 9850 
3 10936 9850 9872 
3 3800 868 2911 
3 6586 1788 4176 
3 65 868 3800 
3 7223 3800 7918 
3 3324 2935 1673 
3 1673 1788 6586 
3 2911 868 1673 
3 1788 1673 2935 
3 66 1234 3005 
3 3108 1788 2935 
3 7955 2911 6586 
3 7955 6586 9756 
3 6586 4176 9756 
3 7955 9756 9872 
3 9329 9231 8214 
3 3005 6160 66 
3 5646 8214 3005 
3 1234 66 5252 
3 3108 5627 5646 
3 8214 5646 9329 
3 3005 1234 3108 
3 3005 3108 5646 
3 10604 10680 9916 
3 10604 9916 10986 
3 5627 7580 7630 
3 5646 7630 9329 
3 5654 3109 8085 
3 10680 9231 9329 
3 6160 8214 9231 
3 8085 9231 10680 
3 10629 10680 9329 
3 10629 9329 7630 
3 3109 18 6543 
3 8085 6543 9231 
3 6369 4113 8069 
3 6543 8274 9231 
3 8069 4113 6160 
3 8274 6160 9231 
3 869 5252 66 
3 4113 66 6160 
3 3941 4113 6369 
3 9592 4124 4161 
3 869 4113 3941 
3 869 3941 1674 
3 5156 8369 1186 
3 18 4275 6543 
3 8069 8274 4275 
3 4124 1747 4161 
3 6160 8274 8069 
3 6369 8069 4124 
3 1186 8369 1747 
3 1186 4124 4275 
3 8069 4275 4124 
3 6369 4124 9592 
3 6245 6369 9592 
3 6245 9592 8468 
3 3616 1632 820 
3 4161 8468 9592 
3 8081 2678 5460 
3 1747 1849 4161 
3 4161 1849 3997 
3 9079 10104 10621 
3 10108 5460 9357 
3 8369 2895 1747 
3 2678 1849 2895 
3 9357 2895 8369 
3 7726 10514 9842 
3 11362 10958 11080 
3 2678 2895 5460 
3 8869 10108 10958 
3 10514 9715 8081 
3 8869 8081 5460 
3 4596 820 6602 
3 9715 6602 8081 
3 1632 6602 820 
3 3616 6036 6203 
3 9079 6036 7835 
3 7301 17 3095 
3 2678 6602 1632 
3 3997 1632 3616 
3 820 3476 3616 
3 3997 6203 8468 
3 3997 3616 6203 
3 6061 3562 3518 
3 3616 3476 6036 
3 6203 6036 6061 
3 10003 7587 9079 
3 6036 9079 10621 
3 3095 7506 7301 
3 3476 7835 6036 
3 10003 10641 7587 
3 10104 7587 3412 
3 67 7010 3412 
3 870 3412 6593 
3 3239 1675 6593 
3 7587 6593 3412 
3 10104 3412 7010 
3 2681 5421 2761 
3 3562 7010 1235 
3 870 6593 1675 
3 10621 7010 3562 
3 10621 3562 6061 
3 7010 67 1235 
3 1789 1867 3518 
3 8468 6203 8297 
3 8468 8297 6245 
3 6036 10621 6061 
3 6203 6061 8297 
3 3941 6245 3640 
3 1674 3640 1867 
3 9552 3070 6931 
3 1789 3518 3562 
3 3070 1867 6931 
3 1235 1789 3562 
3 7962 9552 6931 
3 2761 1789 1235 
3 7962 6931 2761 
3 5379 7382 7411 
3 7962 2761 5421 
3 7962 5421 9042 
3 11144 10460 9802 
3 11177 10808 11118 
3 7411 5421 5379 
3 67 2681 1235 
3 5322 5379 2593 
3 2681 5379 5421 
3 8826 7382 8812 
3 8826 9802 10460 
3 7365 9989 9919 
3 8812 10480 9802 
3 8826 8812 9802 
3 11144 10772 11449 
3 8812 9919 10480 
3 10772 11118 11251 
3 9802 10480 10772 
3 9802 10772 11144 
3 11498 11304 11610 
3 11444 11529 11244 
3 11623 11244 11529 
3 11610 11529 11444 
3 11445 11667 11585 
3 11258 11623 11445 
3 11268 11445 11585 
3 11610 11667 11529 
3 11586 11258 11445 
3 11060 11445 11268 
3 10457 10808 11177 
3 9919 11177 10480 
3 10915 11305 11134 
3 11304 11443 11610 
3 11445 11623 11667 
3 11585 11667 11443 
3 11585 11443 11305 
3 10376 10808 10457 
3 10915 11119 11305 
3 11134 11305 11443 
3 11102 11481 10787 
3 10787 11481 11119 
3 11102 11060 11268 
3 11481 11268 11305 
3 10559 11119 10915 
3 8799 10915 10376 
3 11150 10394 11353 
3 10568 10787 9801 
3 8964 7451 10128 
3 10457 10128 10376 
3 10915 11134 10376 
3 8799 10376 10128 
3 8964 9989 7927 
3 7927 6592 5703 
3 7927 7451 8964 
3 9989 11011 9919 
3 2677 5324 2572 
3 7382 7365 8812 
3 9989 8964 11011 
3 9919 11011 11177 
3 2681 67 2593 
3 5379 5322 7382 
3 7365 7382 5322 
3 5324 2677 9675 
3 67 3412 870 
3 2593 2572 5322 
3 1675 2677 2572 
3 1675 2572 870 
3 5322 2572 5324 
3 7365 5324 9989 
3 1236 6592 1790 
3 2962 3239 5637 
3 1236 4935 6592 
3 1790 6592 2677 
3 68 4935 1236 
3 2879 1236 2962 
3 2933 4935 871 
3 5177 68 6415 
3 68 871 4935 
3 4935 2933 5703 
3 1791 290 640 
3 2933 2607 5439 
3 5439 7451 5703 
3 6592 7927 9675 
3 6592 4935 5703 
3 7927 5703 7451 
3 7451 5439 7386 
3 5313 2604 8106 
3 8799 7386 7348 
3 8799 10559 10915 
3 9801 11119 10971 
3 7348 10559 8799 
3 10568 9801 7399 
3 9326 7348 5313 
3 5313 8106 9326 
3 10971 9135 9801 
3 5417 10002 7399 
3 5376 7399 9135 
3 5439 2607 5308 
3 5439 5308 7386 
3 2541 2604 5313 
3 7348 9326 10559 
3 9135 10971 9326 
3 9135 9326 8106 
3 5313 5308 2541 
3 2604 1791 1237 
3 8106 2604 7134 
3 8106 3137 5376 
3 7134 69 3137 
3 5376 5417 7399 
3 5376 3137 2651 
3 5522 9619 3038 
3 641 289 11715 
3 640 289 1237 
3 2651 3137 872 
3 2796 8206 5417 
3 3677 640 290 
3 9414 642 10278 
3 640 1237 1791 
3 290 1868 642 
3 291 642 1676 
3 9414 10278 6700 
3 291 10278 642 
3 1676 642 1868 
3 291 1676 871 
3 2933 1676 2607 
3 290 1791 1868 
3 1676 1868 2607 
3 8935 7672 9136 
3 5541 2879 2962 
3 68 5177 871 
3 2933 871 1676 
3 3860 5177 6415 
3 5549 6415 7672 
3 291 5177 3860 
3 2791 3860 5549 
3 1035 10278 291 
3 5177 291 871 
3 7530 9136 5541 
3 10924 9884 10654 
3 7459 5549 7672 
3 8935 9136 11007 
3 7479 9244 5526 
3 7479 5526 5494 
3 8935 11007 10924 
3 7479 10579 9244 
3 3095 6650 7558 
3 9244 8147 5526 
3 6650 8147 7558 
3 9950 10579 11007 
3 10664 9950 7530 
3 5541 2962 5637 
3 9058 9950 10664 
3 9443 9136 7672 
3 9950 9136 7530 
3 10061 7530 5637 
3 9136 9443 5541 
3 7530 5541 5637 
3 10061 5637 8223 
3 10641 8223 7587 
3 2962 1790 3239 
3 8223 3239 6593 
3 7835 3476 7301 
3 7835 7301 7506 
3 9028 10641 10003 
3 7506 10003 7835 
3 7506 3095 7558 
3 7506 9028 10003 
3 7506 7558 9028 
3 10641 9028 10061 
3 9028 9058 10664 
3 10061 10664 7530 
3 10997 10612 8860 
3 9734 8011 6495 
3 4596 6495 1184 
3 3095 1184 6650 
3 4596 9715 7726 
3 9734 9842 10688 
3 6602 9715 4596 
3 17 4596 1184 
3 11253 11540 11508 
3 8869 10514 8081 
3 7726 9715 10514 
3 11202 10514 11362 
3 8860 8011 10688 
3 9734 6495 7726 
3 10764 10688 9842 
3 11202 9842 10514 
3 10688 8011 9734 
3 9842 9734 7726 
3 7741 9921 8993 
3 11542 11249 11038 
3 5457 8011 8860 
3 10997 8860 11146 
3 2878 5457 9408 
3 8011 2680 6495 
3 6495 2680 1745 
3 1184 1745 6650 
3 818 2826 1630 
3 8390 2878 9408 
3 1745 1848 2936 
3 8147 2936 5526 
3 10612 7741 9408 
3 10612 5457 8860 
3 10612 9408 5457 
3 8011 5457 2680 
3 8390 1630 2878 
3 5457 2878 2680 
3 10363 10851 11337 
3 9921 7741 10612 
3 10461 10330 8993 
3 10461 9921 10794 
3 9921 10997 10794 
3 11220 11241 10851 
3 10461 8993 9921 
3 10997 9921 10612 
3 11419 11337 11241 
3 10794 11220 10461 
3 11508 11241 11220 
3 10461 11017 10330 
3 10363 9780 10851 
3 10363 11337 11038 
3 9780 9101 11017 
3 10851 11017 11220 
3 10289 9325 10513 
3 10848 9778 10363 
3 9778 7364 9780 
3 10851 9780 11017 
3 10367 10775 10370 
3 8809 10370 10048 
3 11450 10775 11355 
3 8809 10048 7378 
3 10775 10367 11355 
3 11573 11639 11555 
3 10513 10848 10920 
3 10367 10920 11355 
3 10363 11038 10848 
3 10920 11065 11355 
3 9325 9778 10513 
3 10920 10848 11065 
3 11675 11542 11419 
3 11241 11337 10851 
3 11639 11573 11249 
3 11639 11624 11536 
3 11038 11337 11542 
3 11249 11624 11639 
3 11555 11450 11573 
3 11249 11573 11065 
3 11247 11555 11536 
3 11240 10358 11262 
3 11567 11455 11313 
3 11555 11455 11450 
3 10766 11455 11247 
3 11489 11247 11536 
3 11555 11639 11536 
3 11489 11428 11262 
3 11249 11542 11624 
3 11536 11428 11489 
3 11624 11542 11675 
3 11146 10764 11253 
3 11428 11240 11262 
3 11080 10958 10399 
3 11417 11675 11419 
3 11417 11419 11540 
3 11419 11241 11540 
3 10764 9842 11202 
3 11260 11540 11253 
3 10794 11508 11220 
3 8860 10688 11146 
3 10997 11146 10794 
3 11417 11540 11260 
3 11474 10864 11169 
3 11470 11260 11253 
3 11146 11253 11508 
3 11146 10688 10764 
3 11253 10764 11470 
3 10764 11202 11470 
3 11362 10514 8869 
3 11260 11080 11046 
3 9885 10358 11169 
3 11470 11080 11260 
3 11260 11046 11417 
3 11470 11362 11080 
3 11046 10399 10864 
3 11417 11046 11474 
3 11417 11545 11675 
3 10020 8903 7481 
3 11046 10864 11474 
3 11046 11080 10399 
3 9221 5451 8261 
3 11362 8869 10958 
3 10399 10958 8903 
3 3493 5620 6162 
3 7700 8903 10108 
3 8869 5460 10108 
3 10958 10108 8903 
3 7481 8903 7700 
3 9357 7700 10108 
3 5156 3493 6162 
3 8369 6162 9357 
3 2661 8261 5451 
3 2850 5620 3493 
3 2850 5451 5620 
3 6162 5620 7700 
3 5620 5451 7481 
3 10599 9885 11169 
3 11169 10864 10599 
3 9221 10020 7481 
3 5451 9221 7481 
3 5620 7481 7700 
3 10599 10120 9885 
3 8802 7429 10600 
3 10599 9221 10120 
3 9885 8802 10358 
3 9885 10120 7368 
3 7429 5554 9105 
3 8261 2583 5329 
3 7368 5392 7429 
3 2831 4730 5554 
3 7941 6458 2633 
3 2590 2831 5392 
3 9105 5554 8661 
3 8802 7368 7429 
3 10600 7429 9105 
3 9885 7368 8802 
3 10358 11178 11262 
3 2831 5554 5392 
3 2590 5392 5329 
3 10665 8808 10456 
3 9891 10879 10600 
3 8802 10600 11178 
3 11160 10766 11247 
3 10358 8802 11178 
3 11262 11178 11489 
3 10020 9221 10599 
3 10020 10599 10864 
3 11474 11169 11240 
3 11428 11624 11675 
3 11474 11240 11545 
3 11474 11545 11417 
3 10456 9799 10766 
3 10456 11160 10879 
3 11178 10879 11160 
3 11489 11160 11247 
3 11675 11545 11428 
3 11624 11428 11536 
3 9799 8808 8822 
3 10709 10234 9193 
3 10456 8808 9799 
3 11266 11450 11455 
3 20 2744 1188 
3 9930 10825 10497 
3 2744 2631 1188 
3 7940 7435 8822 
3 2654 7940 5372 
3 2631 2744 7435 
3 6975 10234 2744 
3 6975 2744 20 
3 4071 1188 1749 
3 7940 2631 7435 
3 10456 9891 10665 
3 8808 5372 7940 
3 6599 4304 1634 
3 7941 5372 10665 
3 8808 10665 5372 
3 2654 1749 2631 
3 1850 2633 1634 
3 6599 1634 822 
3 1634 2633 6458 
3 1634 6458 822 
3 1850 4304 4523 
3 8073 9365 6323 
3 1634 4304 1850 
3 2633 2654 5372 
3 1749 4523 4071 
3 4417 4689 20 
3 1850 4523 1749 
3 2631 1749 1188 
3 1850 1749 2654 
3 1850 2654 2633 
3 6323 6397 8767 
3 4672 4546 4689 
3 9365 6397 6323 
3 4417 20 1188 
3 10343 9365 8073 
3 4071 4417 1188 
3 9493 10343 8073 
3 4523 8073 4071 
3 5033 751 5224 
3 5033 5224 4923 
3 9365 7129 4807 
3 6397 4807 474 
3 4672 4530 7177 
3 473 751 5033 
3 8767 6397 4672 
3 751 474 5224 
3 473 6544 4530 
3 751 4672 474 
3 4413 4546 7177 
3 4530 4672 751 
3 6397 474 4672 
3 8767 4672 4689 
3 6323 8767 4417 
3 6323 4417 4071 
3 4546 4413 1635 
3 2683 5413 9193 
3 20 4689 823 
3 6975 2683 9193 
3 6751 4413 8294 
3 9198 8294 6544 
3 7177 8294 4413 
3 1635 4413 1904 
3 1635 823 4546 
3 7177 4546 4672 
3 1939 1904 6751 
3 3581 6751 9198 
3 6751 3581 1939 
3 1904 1939 6750 
3 3774 1189 1750 
3 3774 1750 3581 
3 8175 9285 6750 
3 3166 6750 1939 
3 1904 6750 2722 
3 10912 9285 11175 
3 2722 9285 5413 
3 9193 9795 10709 
3 2683 1635 2722 
3 9285 2722 6750 
3 823 1635 2683 
3 823 2683 6975 
3 7435 10234 9930 
3 9795 5413 10912 
3 10234 10709 9930 
3 8822 10497 9799 
3 8822 9930 10497 
3 9799 11313 10766 
3 9799 10497 11313 
3 10766 11313 11455 
3 10825 11352 11074 
3 10497 11074 11313 
3 11266 11567 11439 
3 11074 11567 11313 
3 10825 10709 9795 
3 10825 9795 11125 
3 9795 10912 11125 
3 11352 11439 11074 
3 9930 10709 10825 
3 10497 10825 11074 
3 11230 11296 10839 
3 11125 11446 11352 
3 11352 11446 11439 
3 11266 11137 10775 
3 10370 10775 11137 
3 10842 11296 11230 
3 11439 11137 11266 
3 11567 11266 11455 
3 7786 9072 5516 
3 11296 10842 11137 
3 10839 11296 11393 
3 11446 11296 11439 
3 8942 10453 11014 
3 11385 10912 11175 
3 10415 11014 11072 
3 11446 11393 11296 
3 9965 11230 10839 
3 10453 10839 11393 
3 10453 11393 11014 
3 9032 10415 11175 
3 10415 10028 11014 
3 10415 11072 11385 
3 11125 10912 11385 
3 11125 11072 11446 
3 11014 11393 11072 
3 11385 11072 11125 
3 8490 9032 6064 
3 8490 4238 4239 
3 9032 11175 8175 
3 6064 8175 3166 
3 5258 824 4239 
3 8490 3167 7611 
3 8490 6064 4238 
3 5258 4238 1189 
3 8942 11014 10028 
3 7611 10028 9032 
3 3167 4239 1636 
3 8744 1636 1164 
3 8490 4239 3167 
3 6736 3167 1905 
3 7150 4845 1940 
3 1905 1940 6736 
3 2742 5517 10577 
3 6736 10577 7611 
3 1751 4382 1190 
3 9072 7786 9052 
3 1751 1190 3135 
3 2742 3135 5517 
3 4180 4845 7150 
3 577 7150 8744 
3 1940 4845 1751 
3 1940 1751 2742 
3 4382 4845 6569 
3 4903 6358 4558 
3 1751 4845 4382 
3 8589 22 6822 
3 4274 1715 4285 
3 22 1190 6822 
3 6569 4285 8638 
3 4382 6822 1190 
3 146 4903 4760 
3 4285 4760 8638 
3 4170 1829 3145 
3 4760 8589 6822 
3 8638 4760 6822 
3 8638 6822 4382 
3 4903 4558 8589 
3 4903 8589 4760 
3 8589 4558 22 
3 1190 5075 3135 
3 22 825 5075 
3 3135 6334 5517 
3 5075 825 3136 
3 5075 6334 3135 
3 8644 6186 6358 
3 4558 3982 825 
3 7785 3500 6186 
3 6358 3982 4558 
3 3982 6358 6186 
3 3500 7785 7090 
3 3982 6186 3500 
3 3982 1637 825 
3 2741 3136 1637 
3 3500 1637 3982 
3 7090 1966 1906 
3 7090 1906 3500 
3 6334 3136 5516 
3 1906 2741 1637 
3 7378 9052 5356 
3 7089 2741 1906 
3 7750 6334 5516 
3 5516 3136 2741 
3 9965 7750 9072 
3 7786 5516 2741 
3 10577 5517 8942 
3 10577 8942 10028 
3 5517 6334 7750 
3 8942 9965 10453 
3 10446 9965 9072 
3 7750 9965 8942 
3 7750 5516 9072 
3 9965 10446 11230 
3 10842 11230 10446 
3 9052 10446 9072 
3 9052 7378 10048 
3 10446 10048 10842 
3 10920 10367 10072 
3 7379 7378 5368 
3 2589 2649 5356 
3 7786 5356 9052 
3 7378 5356 5368 
3 1941 2905 2968 
3 9546 2707 6959 
3 2649 5368 5356 
3 7379 5368 5346 
3 1191 1752 3219 
3 10367 8809 10072 
3 5346 5368 2620 
3 9057 10513 10072 
3 7379 10072 8809 
3 8086 9546 6959 
3 7379 9057 10072 
3 9778 10848 10513 
3 10289 10513 9057 
3 2594 5334 8086 
3 10289 8086 9325 
3 5311 7364 5334 
3 8086 5334 9325 
3 6367 3923 8467 
3 2707 5346 2620 
3 3923 1631 819 
3 6959 2594 8086 
3 9057 7379 5346 
3 9057 9546 10289 
3 23 6959 2707 
3 1191 2707 2620 
3 9057 5346 9546 
3 10289 9546 8086 
3 2594 6959 819 
3 3509 5778 6197 
3 6959 23 819 
3 6120 3687 3472 
3 1631 2594 819 
3 3791 819 23 
3 6367 4082 3923 
3 3791 3923 819 
3 9040 9412 7606 
3 3509 23 1191 
3 6120 6212 8467 
3 6197 8467 3791 
3 7930 5778 7606 
3 5612 2968 5562 
3 3219 5778 3509 
3 23 3509 3791 
3 3219 2968 5612 
3 5562 9291 7508 
3 1752 2968 3219 
3 5778 5612 7606 
3 2620 2649 1752 
3 2620 1752 1191 
3 3509 1191 3219 
3 5778 3219 5612 
3 5356 7786 2589 
3 1966 7089 1906 
3 1941 2649 2589 
3 7089 2589 7786 
3 2905 7090 7785 
3 6055 3282 5714 
3 1752 2649 1941 
3 1752 1941 2968 
3 7508 5612 5562 
3 9291 5562 7785 
3 9291 7785 7751 
3 9291 7751 9208 
3 9656 9954 7814 
3 5714 9208 7751 
3 3049 8750 7814 
3 5714 7814 9208 
3 10662 11021 9954 
3 7814 9954 9208 
3 9011 8059 9040 
3 11021 9040 10644 
3 10034 6290 10227 
3 11021 9011 9040 
3 9040 7508 10644 
3 11021 10644 9954 
3 6197 5778 7930 
3 9040 7606 7508 
3 8467 6197 6120 
3 10243 7930 9412 
3 6197 7930 6120 
3 6876 3169 312 
3 3472 6212 6120 
3 10243 6120 7930 
3 9716 6212 3939 
3 3687 6120 10243 
3 1410 3472 3687 
3 312 3169 1045 
3 1410 3687 312 
3 1410 6548 8154 
3 7930 7606 9412 
3 10243 9412 6876 
3 3975 3169 5817 
3 5817 3169 8059 
3 3687 10243 6876 
3 3169 6876 8059 
3 1045 3169 3975 
3 6290 343 4456 
3 3975 5817 8044 
3 10227 6290 4456 
3 1411 1045 3975 
3 6540 8044 9572 
3 313 1411 6540 
3 4620 6540 9572 
3 10620 7666 9362 
3 6819 313 1046 
3 3372 1411 2930 
3 6819 2930 313 
3 3975 8044 6540 
3 1411 313 2930 
3 1046 4620 6960 
3 4620 313 6540 
3 6319 4283 8209 
3 10227 4456 9572 
3 8209 6290 10034 
3 8044 10227 9572 
3 9954 9656 10662 
3 9011 10034 5817 
3 9011 10662 10034 
3 5817 10034 8044 
3 9712 1828 1312 
3 948 3049 3282 
3 10662 9656 8209 
3 10662 8209 10034 
3 1060 4283 5020 
3 1727 6665 1842 
3 1425 343 5226 
3 1727 1060 5020 
3 8209 9656 6319 
3 4283 6319 5020 
3 2882 1426 7244 
3 1312 6404 9712 
3 5020 145 6665 
3 5020 6665 1727 
3 1842 1426 2882 
3 3296 5636 2955 
3 4035 1885 1828 
3 8359 1828 1426 
3 8378 9712 6404 
3 145 8750 3049 
3 8378 6404 4170 
3 3282 3049 5714 
3 8359 6665 1312 
3 8359 1312 1828 
3 5020 8750 145 
3 1312 948 6404 
3 145 3049 948 
3 1714 1829 4170 
3 6404 948 1714 
3 4015 8644 8266 
3 9725 8644 6055 
3 7751 6055 5714 
3 7785 6186 9725 
3 7751 9725 6055 
3 1314 1829 8266 
3 4903 8266 6358 
3 3282 4015 1714 
3 8266 8644 6358 
3 3145 6017 4170 
3 4015 6055 8644 
3 948 3282 1714 
3 6404 1714 4170 
3 1829 1714 4015 
3 1829 4015 8266 
3 1314 146 4345 
3 8055 2944 5520 
3 5605 6017 3145 
3 4345 3145 1314 
3 1314 4903 146 
3 7298 2944 8055 
3 8266 4903 1314 
3 1829 1314 3145 
3 5605 4345 8055 
3 5520 2944 2808 
3 1715 2944 949 
3 4285 949 4760 
3 949 2944 7298 
3 5605 8055 9064 
3 5605 9064 7818 
3 5605 7818 6017 
3 146 949 7298 
3 4345 7298 8055 
3 10965 9933 10626 
3 10965 10626 9064 
3 9933 7504 9071 
3 10626 9071 7818 
3 6017 9733 6067 
3 4035 3296 1885 
3 4035 9712 8378 
3 6067 8378 6017 
3 1061 1885 1713 
3 1598 946 1427 
3 8378 6067 4035 
3 9712 4035 1828 
3 9071 7504 5533 
3 9071 5636 9733 
3 5533 2955 5636 
3 5533 5636 9071 
3 6067 5636 3296 
3 6067 3296 4035 
3 5964 4912 2939 
3 8770 345 1572 
3 1313 345 1427 
3 1598 1061 1713 
3 1428 2939 1062 
3 8770 1062 345 
3 2912 1427 4912 
3 9441 10013 8898 
3 1598 1427 2912 
3 8278 2912 5964 
3 2912 4912 5964 
3 8278 8898 10628 
3 144 1427 946 
3 144 946 2861 
3 1713 946 1598 
3 1061 2843 3936 
3 7904 7244 3936 
3 1061 344 1885 
3 9853 7904 5512 
3 8278 2843 2912 
3 7904 2882 7244 
3 3936 7244 344 
3 1842 8359 1426 
3 7244 1426 344 
3 10628 9853 5512 
3 8278 5512 2843 
3 9859 10893 10500 
3 8898 8278 5964 
3 5512 3936 2843 
3 2912 2843 1598 
3 8970 10013 10646 
3 6829 10637 3298 
3 10893 9853 10628 
3 10893 10628 8898 
3 10013 9441 10646 
3 6829 4663 9178 
3 10893 8898 10013 
3 10500 8970 10252 
3 10893 10013 10500 
3 10893 9859 11187 
3 9876 11187 9859 
3 7500 9024 5523 
3 9024 10252 9485 
3 7909 4030 4156 
3 10638 9859 7500 
3 5523 9024 9485 
3 8970 10646 10129 
3 8970 7535 7553 
3 10252 8970 7553 
3 6927 348 2887 
3 6829 9178 10637 
3 3298 10637 7510 
3 9441 7148 7510 
3 10646 7510 10129 
3 3298 7510 7148 
3 1062 2939 4912 
3 8898 5964 9441 
3 10646 9441 7510 
3 6893 5025 1428 
3 7148 346 3298 
3 2939 1428 7148 
3 2939 7148 9441 
3 5025 3806 346 
3 1428 346 7148 
3 3806 3119 1063 
3 346 1063 3298 
3 1429 4663 1599 
3 1063 6829 3298 
3 3119 6828 1599 
3 1063 1599 6829 
3 1599 6828 1429 
3 4663 8696 7028 
3 4663 1429 8696 
3 1064 3773 3892 
3 4663 7028 9178 
3 10637 9178 10129 
3 7028 8696 1064 
3 6927 9485 7553 
3 7028 1064 1728 
3 7950 3898 4030 
3 3773 347 5736 
3 10052 5736 7471 
3 11228 6243 3773 
3 11228 3773 8117 
3 10574 11002 8117 
3 5736 8117 3773 
3 10574 5677 7914 
3 8470 6243 11228 
3 3257 807 3827 
3 3257 3827 5677 
3 807 4 3827 
3 4 1172 7231 
3 1172 3666 7231 
3 11002 7914 6164 
3 11002 6164 11228 
3 8470 11228 6164 
3 3666 6164 7914 
3 9633 6243 7950 
3 3782 3666 1733 
3 1728 3878 1843 
3 7909 7950 4030 
3 6243 8470 7950 
3 9633 7950 7909 
3 7950 8470 3898 
3 3898 3782 1930 
3 8470 3782 3898 
3 1733 1930 3782 
3 3898 1930 1986 
3 4030 2000 4156 
3 3892 3878 1728 
3 4137 4266 1430 
3 2012 4156 2000 
3 4137 7909 9238 
3 4288 4156 2012 
3 3878 4137 1843 
3 7028 6735 9178 
3 9633 7909 3878 
3 1843 1430 3044 
3 1064 3892 1728 
3 7028 1728 6735 
3 7909 4137 3878 
3 9633 3878 3892 
3 10129 9178 7535 
3 7535 6735 3044 
3 3044 7553 7535 
3 6735 7535 9178 
3 6927 7553 3044 
3 1843 3044 6735 
3 348 6927 1430 
3 4137 1430 1843 
3 2887 9485 6927 
3 1430 6927 3044 
3 5523 2887 2894 
3 5523 5561 7500 
3 4517 1424 1596 
3 2894 1596 3371 
3 9469 4485 8441 
3 3705 341 11001 
3 3371 1424 6883 
3 7491 9876 10638 
3 4383 1058 348 
3 1058 1596 2894 
3 1596 4485 4517 
3 4508 2069 4541 
3 1058 2887 348 
3 1058 4383 4485 
3 2894 2887 1058 
3 4485 4383 8441 
3 6791 4383 4266 
3 9238 4266 4137 
3 4380 8441 6791 
3 4266 4383 348 
3 4266 9238 6791 
3 4288 2024 4380 
3 8441 4383 6791 
3 4288 6791 9238 
3 6791 4288 4380 
3 4425 8441 4380 
3 2036 4380 2024 
3 4472 9469 4425 
3 2048 4425 2036 
3 10229 9469 4472 
3 4425 9469 8441 
3 4425 2048 4472 
3 9469 10229 4517 
3 1424 4517 4515 
3 4508 4472 2059 
3 4515 10229 10678 
3 1057 3204 6883 
3 2069 4508 2059 
3 10678 10229 4508 
3 10678 4508 4541 
3 4237 4541 2079 
3 4541 2069 2079 
3 10678 4541 6410 
3 5940 3664 3364 
3 4237 2079 2089 
3 6327 11221 6410 
3 4237 6410 4541 
3 6410 4237 6327 
3 3364 3664 2099 
3 4517 10229 4515 
3 1424 341 6883 
3 10678 6410 11001 
3 4515 341 1424 
3 1595 1057 3094 
3 11001 341 4515 
3 3094 1057 3705 
3 11221 11001 6410 
3 5923 3705 11221 
3 6327 4237 3664 
3 3094 3705 5923 
3 5940 5923 6327 
3 5923 11221 6327 
3 5940 6327 3664 
3 8477 3526 5841 
3 6117 8039 3661 
3 8477 5841 6117 
3 8007 5940 6024 
3 1423 3526 4841 
3 4333 8477 6117 
3 5841 8007 6117 
3 4333 3661 654 
3 1595 3526 1423 
3 2810 1423 4324 
3 8477 4333 4841 
3 6818 4874 1059 
3 3526 1595 3094 
3 341 1057 6883 
3 5841 3526 3094 
3 5841 3094 5923 
3 3371 6883 8424 
3 3371 5561 2894 
3 8424 6883 3204 
3 8424 3204 5587 
3 9859 9024 7500 
3 7500 5561 9393 
3 10638 7500 9393 
3 8424 5561 3371 
3 5587 7491 9393 
3 8424 9393 5561 
3 10638 9393 7491 
3 5594 5587 2810 
3 9393 8424 5587 
3 7491 5587 5594 
3 9089 7491 5594 
3 8400 4324 3022 
3 5594 2810 4324 
3 3022 4324 1059 
3 9089 5594 8400 
3 9089 5901 10118 
3 3022 1059 1597 
3 3959 5226 10307 
3 7904 9853 10518 
3 10118 10518 9089 
3 8400 3022 5901 
3 8400 5901 9089 
3 7617 9575 6664 
3 2882 6664 1842 
3 6664 9575 4001 
3 6664 4001 1727 
3 9575 5901 10307 
3 4001 5226 1060 
3 3959 1425 5226 
3 10307 5226 4001 
3 3022 1597 3959 
3 3022 3959 5901 
3 6960 4620 6869 
3 1597 6869 1425 
3 6960 6869 4874 
3 1059 4874 1597 
3 1423 4841 342 
3 1423 342 4324 
3 314 6818 8527 
3 8527 342 4841 
3 6960 6818 1412 
3 4333 8527 4841 
3 6807 1412 314 
3 4333 314 8527 
3 1412 1046 6960 
3 6818 6960 4874 
3 3930 6819 1046 
3 1412 6818 314 
3 3930 1046 1412 
3 3930 1412 6807 
3 8045 8154 6548 
3 8045 6548 3372 
3 2871 8154 9301 
3 11203 10886 10445 
3 6548 1045 3372 
3 8045 3372 5539 
3 9301 8045 8933 
3 9293 2930 6819 
3 8933 10576 11203 
3 10438 11203 10445 
3 8933 11203 10438 
3 10124 11193 10106 
3 8933 10124 9301 
3 8045 9301 8154 
3 8045 5539 8933 
3 10124 8933 10438 
3 9900 8960 7453 
3 10106 7453 9367 
3 8715 4828 5850 
3 7453 5850 5676 
3 3058 8715 8960 
3 10584 8960 9900 
3 309 4828 1408 
3 8960 8715 5850 
3 3599 6406 7495 
3 11223 9900 10939 
3 9082 7495 10673 
3 10673 9871 7561 
3 10939 9900 11193 
3 10438 11193 10124 
3 10438 10445 10939 
3 10438 10939 11193 
3 11223 10584 9900 
3 11193 9900 7453 
3 10445 10886 8906 
3 10445 9871 10939 
3 10584 11223 10673 
3 7561 8267 9082 
3 11223 9871 10673 
3 9082 6620 3599 
3 6620 9082 8267 
3 8267 7561 2885 
3 7495 9082 3599 
3 6620 8267 1414 
3 8267 2885 1048 
3 4379 4187 6928 
3 10698 5669 8906 
3 8906 7561 9871 
3 8906 5669 7561 
3 10673 7561 9082 
3 9892 10576 9293 
3 4342 317 1413 
3 9903 6068 8367 
3 5669 3623 2885 
3 9362 6068 10620 
3 10886 10698 8906 
3 8367 5669 10698 
3 9903 10698 10886 
3 10576 5539 9293 
3 9892 9903 10886 
3 8933 5539 10576 
3 11203 10576 10886 
3 3930 9362 7666 
3 3930 7666 6819 
3 9293 7666 9892 
3 9903 10620 6068 
3 7666 10620 9892 
3 10576 9892 10886 
3 9362 3930 6807 
3 9362 3639 6068 
3 315 3639 654 
3 4333 654 314 
3 6807 654 3639 
3 6068 3639 4429 
3 315 655 4429 
3 6068 9397 8367 
3 3776 6384 6024 
3 4429 9397 6068 
3 4342 4289 6901 
3 655 6444 4429 
3 8039 6518 3661 
3 6117 3661 4333 
3 3661 6518 315 
3 3639 315 4429 
3 6117 8007 8039 
3 3776 2109 2119 
3 6384 3776 4402 
3 3776 6024 3364 
3 3364 2099 2109 
3 8039 6024 6384 
3 6384 4591 6518 
3 3776 2119 4402 
3 1047 8778 8446 
3 4402 2119 2129 
3 6518 8039 6384 
3 6518 4591 655 
3 6384 4402 4591 
3 655 2513 6444 
3 4591 316 2513 
3 4591 2513 655 
3 8778 2513 316 
3 6757 316 5026 
3 8446 316 6757 
3 2129 5026 4402 
3 316 4591 5026 
3 6757 5026 2139 
3 5026 2129 2139 
3 6757 2139 2149 
3 6757 2149 4859 
3 4289 8446 4859 
3 2159 4859 2149 
3 4356 4521 2169 
3 2159 4521 4859 
3 1413 1047 4289 
3 4859 8446 6757 
3 4342 1413 4289 
3 4521 4289 4859 
3 1047 6444 8778 
3 8446 8778 316 
3 9397 6444 1413 
3 4289 1047 8446 
3 4429 6444 9397 
3 8367 3623 5669 
3 1048 2885 317 
3 1413 3623 9397 
3 6444 1047 1413 
3 317 4342 1048 
3 3623 1413 317 
3 3623 317 2885 
3 4187 1048 4342 
3 6901 4289 4521 
3 318 6620 1414 
3 1414 8267 1048 
3 1049 1415 3599 
3 1049 3599 6620 
3 9463 9593 6192 
3 318 1414 4379 
3 1049 6405 3255 
3 3255 10672 5617 
3 10672 6405 9593 
3 4394 2189 2199 
3 10087 10672 7841 
3 5826 5907 3624 
3 1049 6620 318 
3 4379 1414 4187 
3 6405 1049 318 
3 6192 318 4379 
3 4187 4342 6901 
3 4356 2169 2179 
3 1414 1048 4187 
3 6928 4187 6901 
3 4521 2159 2169 
3 6928 6901 4356 
3 6928 4356 4370 
3 4356 2179 4370 
3 6928 8366 4379 
3 4370 2179 2189 
3 6928 4370 8366 
3 4379 8366 6192 
3 9463 8366 4394 
3 4155 4394 2199 
3 5907 9593 9463 
3 4155 9463 4394 
3 7841 9593 5907 
3 3624 5907 4155 
3 7706 5826 5650 
3 7706 5650 7577 
3 3624 2209 2219 
3 2229 2969 3189 
3 3624 3189 5826 
3 3189 2219 2229 
3 2969 2229 2239 
3 2881 2239 2249 
3 2978 2249 2258 
3 2881 2249 2978 
3 5640 2978 3148 
3 3148 2258 2266 
3 5907 5826 7841 
3 9593 7841 10672 
3 7478 7577 5536 
3 2881 5536 2969 
3 5547 7582 7478 
3 9030 10651 10283 
3 5640 7582 5547 
3 2881 5547 5536 
3 5818 3148 3452 
3 3668 3452 2274 
3 3452 2266 2274 
3 3668 2274 2282 
3 3807 2290 2298 
3 3807 2298 3858 
3 3668 2282 3729 
3 6107 7970 8253 
3 2298 2306 3858 
3 3807 6213 6202 
3 3196 9239 7184 
3 6153 5899 3668 
3 6153 3668 3729 
3 6202 3729 3807 
3 6153 10323 5899 
3 3668 5899 3452 
3 3729 2282 2290 
3 7577 7478 9030 
3 7577 9030 9127 
3 5640 3148 5818 
3 7752 5818 7766 
3 5617 2892 3255 
3 10672 3255 6405 
3 10672 10087 5617 
3 2892 5617 5616 
3 7495 6406 10134 
3 7495 10134 10584 
3 8960 10134 8653 
3 319 6406 1415 
3 10975 10651 8951 
3 10695 8951 7582 
3 10323 9239 7766 
3 10695 10212 9050 
3 5899 10323 7766 
3 7752 7766 10212 
3 5624 5616 7583 
3 9722 5616 7527 
3 7527 9883 9722 
3 5616 5624 3012 
3 1042 3058 8653 
3 6406 8653 10134 
3 8653 6406 319 
3 3012 319 2892 
3 319 1042 8653 
3 8653 3058 8960 
3 1408 3053 2971 
3 3053 3012 5624 
3 1042 3012 3053 
3 8016 3131 5662 
3 5616 9722 7583 
3 9958 10717 8896 
3 9722 9883 9908 
3 10705 10926 8989 
3 645 2995 3196 
3 9050 8137 10975 
3 2995 5664 3196 
3 645 295 7312 
3 8137 9330 10493 
3 10975 10493 10651 
3 6574 8137 2995 
3 3196 5664 9239 
3 9273 3797 7953 
3 6153 7953 10323 
3 3807 3858 6213 
3 6202 6213 8253 
3 7953 3797 7184 
3 7953 7184 9239 
3 3864 3797 9273 
3 8253 9273 6202 
3 8253 6213 6107 
3 7970 9368 8692 
3 646 3797 3864 
3 7189 3864 8253 
3 6321 8692 9368 
3 6174 6107 3649 
3 4757 7312 295 
3 4757 295 646 
3 295 3797 646 
3 296 647 7202 
3 4757 646 4468 
3 4757 5893 8234 
3 3864 7189 296 
3 4468 296 7202 
3 296 7189 4188 
3 647 4188 4939 
3 4939 8692 6992 
3 8639 6174 7082 
3 297 647 4939 
3 297 6992 5124 
3 297 4939 6992 
3 776 5016 527 
3 10741 5893 7912 
3 7592 7912 3490 
3 3490 297 7138 
3 7592 10645 10741 
3 2864 293 643 
3 5860 7072 9268 
3 9268 5893 10741 
3 10645 7592 10198 
3 3131 294 644 
3 7072 4961 8234 
3 7072 8234 9268 
3 7072 5860 4553 
3 9268 8234 5893 
3 7912 5893 4468 
3 8989 8927 5606 
3 8911 7433 11019 
3 294 4961 644 
3 7324 644 7072 
3 7433 8911 7946 
3 7004 7946 3100 
3 7946 5662 3100 
3 7004 3100 293 
3 10720 8911 10906 
3 10894 10484 9909 
3 8930 7946 10720 
3 10906 8911 9905 
3 10926 8930 11218 
3 10926 8927 8989 
3 9958 11218 10720 
3 8911 10720 7946 
3 5662 8930 10524 
3 7583 8989 5624 
3 9929 10524 10705 
3 10926 10524 8930 
3 9330 6574 8016 
3 5662 3131 3100 
3 3131 6574 294 
3 4961 294 645 
3 6574 3131 8016 
3 9330 8016 9929 
3 8137 5664 2995 
3 6574 2995 294 
3 10524 10926 10705 
3 5624 5606 3053 
3 8016 10524 9929 
3 7583 10705 8989 
3 10493 9330 9929 
3 9908 9929 10705 
3 3058 1042 1408 
3 5606 5624 8989 
3 309 2971 7245 
3 8927 9958 8896 
3 8896 7452 7843 
3 1408 1042 3053 
3 7843 7245 2971 
3 5606 2971 3053 
3 3080 4828 1041 
3 3080 5085 5676 
3 1408 2971 309 
3 4828 309 1041 
3 9367 7453 5676 
3 3080 5676 5850 
3 8715 3058 1408 
3 8715 1408 4828 
3 9301 7511 2871 
3 311 6810 1409 
3 7511 10106 9367 
3 6810 6457 1409 
3 3472 1410 1044 
3 311 2871 6810 
3 1044 8154 2871 
3 1044 311 3939 
3 3472 1044 3939 
3 3472 3939 6212 
3 1044 2871 311 
3 3939 311 4102 
3 3899 4102 1409 
3 3764 4082 8181 
3 9367 5676 6457 
3 9367 6457 6810 
3 3080 1407 5085 
3 6457 1043 1409 
3 4409 3899 1043 
3 5085 1043 6457 
3 10248 3998 6652 
3 5085 310 1043 
3 8181 6367 9716 
3 4102 9716 3939 
3 1409 1043 3899 
3 4102 8181 9716 
3 8181 4082 6367 
3 9716 6367 6212 
3 3764 8181 6503 
3 3899 8181 4102 
3 4409 6598 6503 
3 3899 6503 8181 
3 1043 310 4409 
3 3899 4409 6503 
3 4496 6598 4469 
3 6561 9188 4032 
3 6598 310 3998 
3 6598 6561 4469 
3 10248 7600 11217 
3 10248 9188 6561 
3 3080 1041 1407 
3 5085 1407 310 
3 7600 10248 6652 
3 7600 3248 7452 
3 2971 5606 7843 
3 7245 7843 7452 
3 7843 5606 8927 
3 7843 8927 8896 
3 309 7245 3248 
3 309 3248 1041 
3 10720 10906 9958 
3 8896 10717 9909 
3 10906 10717 9958 
3 11218 9958 8927 
3 9909 10484 10531 
3 9909 10531 8983 
3 9905 10963 10894 
3 10906 10894 10717 
3 11217 10931 9188 
3 2842 8111 2826 
3 10931 10531 7461 
3 6530 7461 2842 
3 6503 4496 7120 
3 9188 10931 6530 
3 1746 4469 1185 
3 16 2842 818 
3 3998 10248 6561 
3 3998 6561 6598 
3 10248 11217 9188 
3 4032 9188 6530 
3 1631 1902 2596 
3 1937 4496 1746 
3 6503 6598 4496 
3 7120 4496 1937 
3 3923 4082 1631 
3 2594 2596 5334 
3 1631 4082 1902 
3 7120 3764 6503 
3 2545 2596 1902 
3 1631 2596 2594 
3 3764 1964 1902 
3 3764 1902 4082 
3 1937 7119 1964 
3 7120 1964 3764 
3 1746 2853 1937 
3 7120 1937 1964 
3 1185 3516 1746 
3 4469 1746 4496 
3 1937 2853 7119 
3 1964 2545 1902 
3 5625 2853 3516 
3 6193 3516 5160 
3 9780 7364 9101 
3 2545 5311 2596 
3 7777 5311 2545 
3 7119 2545 1964 
3 7364 5311 9101 
3 11017 9101 10330 
3 8993 10330 5625 
3 7119 7777 2545 
3 7777 2853 5625 
3 8993 5625 7741 
3 5625 3516 6193 
3 7741 6193 9408 
3 16 5160 1185 
3 5160 818 8390 
3 4032 6530 16 
3 818 2842 2826 
3 818 5160 16 
3 4032 1185 4469 
3 6530 2842 16 
3 4032 16 1185 
3 8880 9229 8111 
3 7461 8111 2842 
3 10531 10484 8880 
3 7461 8880 8111 
3 9229 7479 5494 
3 8111 5494 2826 
3 10579 7479 9884 
3 9866 9229 8880 
3 11007 10579 10924 
3 10654 9884 9866 
3 10579 9884 10924 
3 10609 10654 9867 
3 8935 10924 10609 
3 8935 7459 7672 
3 8935 10609 7459 
3 5549 5479 2791 
3 3860 2791 1035 
3 10278 1035 6700 
3 9603 5479 9166 
3 7459 5479 5549 
3 2791 3086 1401 
3 1035 1401 6700 
3 9867 8879 9166 
3 9867 9166 10609 
3 292 3086 6953 
3 7624 9603 9166 
3 10654 9866 10963 
3 10728 10963 9905 
3 9166 8879 7624 
3 643 3370 292 
3 11019 10728 9905 
3 11019 9905 8911 
3 8879 11019 7433 
3 7624 7433 2864 
3 643 293 4553 
3 293 2864 7004 
3 3370 4553 5860 
3 10645 10198 9065 
3 7624 2864 6953 
3 9603 6953 3086 
3 292 6953 643 
3 3370 643 4553 
3 292 3370 3747 
3 292 3747 1401 
3 3370 5860 5976 
3 3370 5976 3747 
3 7592 7853 10198 
3 11715 3677 6007 
3 9268 10741 7736 
3 5860 7736 5976 
3 7736 10741 10645 
3 7736 10645 9065 
3 8462 10198 4097 
3 7138 7853 7592 
3 5124 7070 648 
3 7138 648 7853 
3 8472 298 5273 
3 648 5273 7853 
3 8472 8614 298 
3 5273 4097 7853 
3 5042 8614 8472 
3 7070 8472 5273 
3 9065 10198 8462 
3 9065 6007 10337 
3 11715 8462 4097 
3 298 4097 5273 
3 5976 9065 10337 
3 5976 10337 3747 
3 9065 8462 6007 
3 8041 3677 9414 
3 8041 6007 3677 
3 9414 3677 290 
3 5114 289 641 
3 8462 11715 6007 
3 4540 5114 641 
3 4097 641 11715 
3 872 5114 4574 
3 8614 4540 298 
3 5114 4540 4574 
3 872 1677 2651 
3 2578 5319 5370 
3 7357 8801 10027 
3 2584 5319 2578 
3 7612 10674 10011 
3 2696 5370 9161 
3 5151 876 3470 
3 2696 9161 6666 
3 3156 3646 1794 
3 6666 9161 10238 
3 5151 73 876 
3 7612 5618 7000 
3 10238 3470 6666 
3 5370 5319 7357 
3 5370 9007 9161 
3 7357 10027 9007 
3 9161 10674 10238 
3 10027 10987 11000 
3 5357 2665 5448 
3 10987 10496 11000 
3 9007 10674 9161 
3 11460 11258 10837 
3 10674 9007 11000 
3 8815 7394 9943 
3 10837 9943 10496 
3 10496 9943 10011 
3 5618 9099 5448 
3 9942 7396 8815 
3 9943 7394 9099 
3 9943 9099 10011 
3 10496 10011 11000 
3 7000 10238 7612 
3 10011 10674 11000 
3 10238 10674 7612 
3 5618 7612 9099 
3 2665 875 2847 
3 5448 2847 5618 
3 3471 2847 1542 
3 4808 1240 4815 
3 5357 2650 2665 
3 5448 2665 2847 
3 2665 2650 72 
3 6324 411 2515 
3 875 72 7098 
3 3383 3489 709 
3 4808 6324 8457 
3 7098 7241 5048 
3 875 7098 5048 
3 875 1542 2847 
3 7098 8457 7241 
3 5048 7241 5040 
3 1542 5048 5040 
3 5074 709 409 
3 6965 3383 410 
3 7241 410 5040 
3 5040 1241 1542 
3 5048 1542 875 
3 1241 5040 5074 
3 1241 5074 73 
3 10238 7000 3470 
3 6666 3470 1679 
3 3471 1241 5151 
3 3471 5151 7000 
3 73 5074 7032 
3 6567 7032 1452 
3 4719 6567 1086 
3 407 4863 707 
3 1452 409 4466 
3 707 4241 408 
3 8624 6255 9565 
3 4466 6568 1452 
3 5883 8724 6255 
3 9565 6255 4195 
3 409 709 3489 
3 409 3489 4466 
3 5883 6255 8624 
3 3489 8624 4466 
3 8724 5883 9471 
3 8724 5891 7192 
3 8724 9471 5891 
3 713 4644 5099 
3 708 4195 4328 
3 7192 4328 8724 
3 7192 5891 4229 
3 7192 4229 715 
3 4229 415 715 
3 7192 416 4328 
3 2595 1853 1757 
3 415 1853 715 
3 9078 5320 2595 
3 8680 4455 28 
3 9078 2595 8702 
3 9078 6450 7610 
3 6450 8702 1196 
3 714 4229 3845 
3 414 6911 714 
3 1757 1196 8702 
3 4229 5891 3845 
3 4229 714 415 
3 1196 1757 6911 
3 414 713 5099 
3 1757 714 6911 
3 1196 8680 28 
3 8249 4973 7149 
3 3845 414 714 
3 3845 7149 414 
3 6911 414 5099 
3 6911 5099 8680 
3 6911 8680 1196 
3 6978 4455 4644 
3 5099 4455 8680 
3 713 413 4644 
3 5099 4644 4455 
3 8392 6978 4749 
3 8493 4644 413 
3 7246 412 4973 
3 9488 6346 8493 
3 4973 712 713 
3 7149 713 414 
3 6965 9406 3383 
3 7822 4478 7246 
3 412 712 4973 
3 7246 4973 8249 
3 9406 4478 7822 
3 9471 7822 5891 
3 7149 3845 8249 
3 7246 8249 7822 
3 9406 6965 6469 
3 410 3383 709 
3 6469 6965 710 
3 3383 9406 5883 
3 8457 2515 710 
3 7241 710 410 
3 4478 9406 6469 
3 710 6965 410 
3 711 4478 6469 
3 2515 6469 710 
3 8306 8120 6227 
3 7048 712 412 
3 7327 3696 711 
3 7327 711 6469 
3 711 3696 4053 
3 6016 8120 10254 
3 3696 8120 6016 
3 9488 413 3643 
3 3696 6016 4053 
3 9629 7745 7048 
3 7828 7745 9394 
3 8238 8120 6211 
3 6016 9629 4053 
3 711 4053 412 
3 3643 712 7048 
3 9629 7048 4053 
3 713 712 413 
3 9461 6745 8252 
3 712 3643 413 
3 4644 8493 6978 
3 4749 6978 8493 
3 9488 10239 7817 
3 730 8392 4749 
3 436 4749 6346 
3 9488 7817 6346 
3 9461 8643 4967 
3 4749 8493 6346 
3 436 6346 3669 
3 7828 10239 7745 
3 9394 7745 9629 
3 8252 7817 7828 
3 7745 10239 3643 
3 3643 10239 9488 
3 413 9488 8493 
3 7828 5978 6080 
3 9461 4967 6745 
3 7828 6080 8252 
3 7817 3669 6346 
3 7817 8252 3669 
3 436 1092 5127 
3 3669 8252 6745 
3 3669 1092 436 
3 261 8643 4048 
3 6080 9461 8252 
3 3882 7165 8164 
3 4792 7165 8643 
3 3711 6678 262 
3 4048 8643 9461 
3 3502 621 4048 
3 6080 4048 9461 
3 622 3447 3577 
3 3502 262 621 
3 3447 5955 3577 
3 6080 3502 4048 
3 3502 6080 5978 
3 3447 622 262 
3 9394 5978 7828 
3 10239 7828 7817 
3 5955 8238 3577 
3 3577 8399 263 
3 8120 8238 10254 
3 6016 10254 9394 
3 263 622 3577 
3 8238 5955 10254 
3 9394 10254 5955 
3 5978 3447 3502 
3 5978 5955 3447 
3 3502 3447 262 
3 1238 4991 6570 
3 6633 1239 71 
3 5111 263 8399 
3 4783 8399 6211 
3 11013 9985 5522 
3 10079 8934 10431 
3 11013 5522 9015 
3 7551 3285 6709 
3 9015 7900 7551 
3 874 3850 1678 
3 9418 7551 6709 
3 9418 2709 5396 
3 7900 6633 3285 
3 6709 3285 1678 
3 6633 71 874 
3 3285 874 1678 
3 6227 9573 8306 
3 8120 8306 6211 
3 6324 9573 6227 
3 3696 6227 8120 
3 4815 9573 6324 
3 8457 6324 2515 
3 6324 6227 411 
3 2515 411 7327 
3 9573 4815 6708 
3 2709 1240 2650 
3 72 1240 4808 
3 7098 4808 8457 
3 1793 1240 2709 
3 6709 2709 9418 
3 4815 1240 1793 
3 1678 1793 6709 
3 1678 3850 6708 
3 1678 6708 1793 
3 10366 9942 8815 
3 7396 8934 5396 
3 9942 10431 8934 
3 9942 8934 7396 
3 7396 7394 8815 
3 10366 11586 11060 
3 5396 2650 5357 
3 7394 5357 5448 
3 11445 11060 11586 
3 11258 11206 10837 
3 10366 8815 11206 
3 11586 11206 11258 
3 10884 11060 11102 
3 11380 11102 10821 
3 10431 9942 10884 
3 11586 10366 11206 
3 10366 11060 10884 
3 10366 10884 9942 
3 10884 11102 11380 
3 10431 11150 10427 
3 10431 11380 11150 
3 11013 11353 9985 
3 9015 10079 10427 
3 11013 10427 11353 
3 7551 9418 10079 
3 10427 10079 10431 
3 8919 11353 10394 
3 10002 10394 10568 
3 5522 7900 9015 
3 11013 9015 10427 
3 10821 10787 10568 
3 10002 10568 7399 
3 11102 10787 10821 
3 11380 10821 11150 
3 10821 10568 10394 
3 10821 10394 11150 
3 5376 2651 5417 
3 8919 7772 9985 
3 7772 8919 8206 
3 5417 8206 10002 
3 872 4574 1677 
3 2651 2796 5417 
3 6570 8206 2796 
3 1677 2796 2651 
3 6448 4798 8716 
3 4798 1677 4574 
3 9985 7772 9619 
3 1792 6570 2796 
3 10002 8206 8919 
3 10002 8919 10394 
3 9619 7772 4991 
3 6570 7772 8206 
3 1541 3038 873 
3 6570 4991 7772 
3 5522 9985 9619 
3 5522 3038 3396 
3 8542 1541 873 
3 4991 3038 9619 
3 265 8542 4670 
3 3038 1541 3396 
3 6370 4670 7136 
3 873 3038 4991 
3 70 7136 873 
3 5193 11720 1239 
3 6562 70 8707 
3 1792 1238 6570 
3 6562 7136 70 
3 1238 70 4991 
3 7136 8542 873 
3 70 873 4991 
3 6370 7136 6562 
3 4869 526 1502 
3 626 4306 4865 
3 4009 6467 6564 
3 7317 4306 6370 
3 4307 6370 6562 
3 8542 7136 4670 
3 624 264 11720 
3 6370 4307 4349 
3 7109 774 7058 
3 6370 4349 7317 
3 268 628 5198 
3 4463 1136 1502 
3 4307 1136 4349 
3 4307 1502 1136 
3 4865 4306 7317 
3 4487 4798 6534 
3 8707 4869 6562 
3 4307 6562 4869 
3 4307 4869 1502 
3 1238 6448 8707 
3 4869 8716 526 
3 8716 4869 8707 
3 1238 8707 70 
3 6448 1792 4798 
3 4487 4381 1137 
3 1238 1792 6448 
3 8707 6448 8716 
3 4540 8614 6534 
3 4574 6534 4798 
3 1503 1137 4381 
3 1503 4381 5042 
3 526 8716 4487 
3 4381 4487 6534 
3 5128 8774 5016 
3 527 5016 1503 
3 5016 6467 4009 
3 1503 4009 1137 
3 777 5135 5128 
3 5016 8774 6467 
3 1137 4009 5119 
3 526 5119 1502 
3 528 6321 4481 
3 777 4481 8384 
3 4481 777 528 
3 776 527 5124 
3 528 5128 776 
3 6992 776 5124 
3 777 5128 528 
3 6321 528 6992 
3 8639 9368 6174 
3 4144 3649 2314 
3 6321 9368 8639 
3 4481 8639 7082 
3 3649 2306 2314 
3 7082 6174 4144 
3 529 5135 777 
3 4144 2314 2322 
3 4144 2322 4711 
3 2322 2330 4711 
3 7082 8384 4481 
3 4711 6758 8384 
3 4711 8384 7082 
3 8456 529 6758 
3 2330 6758 4711 
3 775 5135 529 
3 8456 6758 2337 
3 4448 5135 775 
3 4193 4789 774 
3 6758 2330 2337 
3 6610 529 8456 
3 6610 8456 2341 
3 8456 2337 2341 
3 9719 2341 2345 
3 775 529 6610 
3 775 6610 8436 
3 4448 775 524 
3 6505 4561 6476 
3 4561 6505 4788 
3 2345 4788 9719 
3 775 8436 524 
3 4448 7109 6564 
3 8436 4788 6505 
3 524 4193 774 
3 7109 4463 6564 
3 4448 6564 6467 
3 7058 4463 7109 
3 524 7109 4448 
3 7058 1136 4463 
3 6564 4463 5119 
3 4349 1136 525 
3 6476 7857 6848 
3 6476 4193 6505 
3 524 774 7109 
3 7197 525 4789 
3 774 2520 7058 
3 7058 2520 525 
3 4349 525 7317 
3 4789 4709 7197 
3 525 7197 7317 
3 267 626 4865 
3 7197 4865 7317 
3 4865 7197 267 
3 626 267 4318 
3 3417 626 4318 
3 7284 5198 4162 
3 4709 4068 627 
3 267 627 4318 
3 4068 6626 268 
3 627 268 5198 
3 2520 774 4789 
3 2520 4789 525 
3 6848 4068 4709 
3 7197 4709 267 
3 4709 4789 6848 
3 6505 4193 524 
3 6848 4193 6476 
3 7857 3663 7064 
3 4788 2345 2349 
3 3663 6476 4561 
3 2349 4561 4788 
3 3663 4561 2353 
3 2349 2353 4561 
3 4789 4193 6848 
3 4068 6848 7857 
3 7857 6476 3663 
3 7064 3663 2354 
3 7064 2354 2351 
3 2347 4866 4715 
3 7064 4715 7857 
3 269 628 4909 
3 4411 4772 4660 
3 4715 2351 2347 
3 4866 2347 2343 
3 4866 2343 4823 
3 4823 2339 4772 
3 4660 2335 2326 
3 4660 2326 4526 
3 4909 4823 4772 
3 4909 4772 4411 
3 7162 4660 4526 
3 7162 4273 6997 
3 7162 4526 8572 
3 4154 8572 6920 
3 2310 4251 4403 
3 2318 4403 4526 
3 269 4162 628 
3 4957 628 268 
3 3325 4162 269 
3 629 269 4411 
3 3417 4318 10744 
3 8070 4162 3325 
3 5816 8070 3325 
3 629 3325 269 
3 4411 7162 6997 
3 629 270 3292 
3 7162 8572 4273 
3 6997 4273 270 
3 4403 4251 6920 
3 4154 7196 259 
3 2993 259 7196 
3 4154 259 619 
3 4154 6920 7196 
3 259 2993 618 
3 260 3798 618 
3 259 618 7076 
3 8272 9489 2993 
3 7980 6224 6029 
3 9436 5816 5862 
3 9704 3572 7076 
3 9704 5862 3572 
3 270 629 6997 
3 5816 3325 3292 
3 3572 3292 270 
3 619 3572 270 
3 619 270 4273 
3 10744 7284 8070 
3 10171 5816 9436 
3 10171 8070 5816 
3 5862 5816 3292 
3 4306 266 625 
3 7710 10744 10171 
3 7059 3417 7710 
3 10171 10744 8070 
3 3417 7059 266 
3 266 4306 626 
3 7059 625 266 
3 3417 266 626 
3 265 625 624 
3 4834 7059 7710 
3 3417 10744 7710 
3 7702 7732 7259 
3 7710 7702 7260 
3 7702 10233 7732 
3 4834 7710 7260 
3 4834 7260 264 
3 10171 9436 7702 
3 7260 7702 3724 
3 4670 625 265 
3 8542 5193 1541 
3 7059 4834 624 
3 265 5193 8542 
3 624 11720 5193 
3 3396 1239 6633 
3 265 624 5193 
3 1541 5193 1239 
3 623 11720 264 
3 623 264 3724 
3 264 7260 3724 
3 623 3724 5190 
3 3724 7259 5190 
3 623 5190 263 
3 7732 6678 3711 
3 7259 3711 5190 
3 4497 6678 7913 
3 10233 7702 9436 
3 7913 7732 10233 
3 9704 10233 5862 
3 6678 7732 7913 
3 4497 7913 3798 
3 260 4497 3798 
3 7076 3798 9704 
3 8164 6863 8272 
3 2993 9489 618 
3 6678 4497 8672 
3 621 8672 261 
3 8672 4497 620 
3 9489 260 618 
3 260 6863 620 
3 8672 620 261 
3 1643 4816 9500 
3 730 436 5127 
3 1909 1643 9500 
3 435 9500 8392 
3 5068 730 5127 
3 3881 5199 9388 
3 435 8392 730 
3 435 730 5068 
3 729 435 5068 
3 6461 5068 8632 
3 5248 435 729 
3 7273 729 434 
3 2963 1944 6614 
3 7273 5248 729 
3 8244 6614 8766 
3 6614 1944 1758 
3 7226 4452 1197 
3 5039 1457 6729 
3 3323 4453 1644 
3 29 1197 5039 
3 5952 2941 29 
3 7226 832 4453 
3 4453 832 1644 
3 3323 1644 1854 
3 5039 9745 29 
3 7226 29 832 
3 5952 8208 2941 
3 832 3142 1644 
3 729 5102 434 
3 7273 434 1758 
3 6729 9745 5039 
3 434 1197 1758 
3 4452 1758 1197 
3 7226 1197 29 
3 7903 6729 3637 
3 5217 3886 8491 
3 7548 7903 3637 
3 1091 3637 6729 
3 29 9745 5952 
3 10718 8998 9060 
3 5952 7903 10064 
3 5952 10064 8208 
3 7556 8998 7550 
3 7548 10633 7903 
3 10247 6310 10195 
3 10633 9588 8998 
3 732 3628 439 
3 5217 439 1091 
3 7972 10195 9402 
3 6310 7548 3637 
3 5199 4317 9388 
3 5199 3881 1458 
3 732 5217 8491 
3 4317 8491 9388 
3 434 5102 1457 
3 1091 3886 5217 
3 3886 1091 1457 
3 434 1457 5039 
3 8632 5127 3881 
3 1458 6745 4967 
3 5068 5127 8632 
3 6461 8632 9388 
3 3881 1092 1458 
3 5199 437 731 
3 3882 731 437 
3 7165 437 4967 
3 5127 1092 3881 
3 8632 3881 9388 
3 8272 5948 8164 
3 6863 8164 4792 
3 3240 731 3882 
3 3240 5948 10261 
3 3882 8164 5948 
3 3882 5948 3240 
3 3628 3573 6069 
3 10268 6093 9399 
3 2278 3367 2286 
3 5791 6029 3327 
3 3573 6093 6069 
3 6030 3558 6065 
3 6863 9489 8272 
3 9519 8272 7770 
3 10268 9399 6030 
3 3367 5791 3327 
3 8272 2993 7980 
3 7770 7980 6029 
3 7196 6920 6224 
3 7196 6224 7980 
3 2318 2310 4403 
3 2310 2302 4251 
3 2294 3327 3888 
3 4251 3888 6224 
3 9399 5863 6030 
3 7991 7770 5791 
3 5863 5791 3367 
3 3517 5863 3367 
3 2286 3367 3327 
3 6030 5863 3517 
3 2270 3517 2278 
3 6065 10268 6030 
3 6069 10268 6065 
3 3615 2262 2254 
3 6030 3517 3558 
3 3517 2270 3558 
3 6065 3615 6042 
3 3558 2270 2262 
3 3615 3612 6042 
3 7972 9402 6042 
3 3558 2262 3615 
3 3558 3615 6065 
3 2254 2244 3612 
3 2254 3612 3615 
3 3415 5740 5814 
3 3612 5814 6042 
3 3141 3415 2234 
3 2244 3415 3612 
3 6093 10268 6069 
3 9402 6065 6042 
3 3628 6069 10195 
3 10247 7548 6310 
3 6069 9402 10195 
3 3628 6310 439 
3 3628 10195 6310 
3 439 6310 3637 
3 7796 10247 7972 
3 5814 7972 6042 
3 9588 7548 10247 
3 7972 10247 10195 
3 7550 9588 7796 
3 5740 7796 5814 
3 8208 10064 10718 
3 8208 10718 10054 
3 10718 9060 10054 
3 8208 5558 2941 
3 7540 8981 8984 
3 10054 8978 5558 
3 7540 7631 8981 
3 10131 8184 9051 
3 7559 5598 5572 
3 5585 5572 2929 
3 5572 5585 7540 
3 5572 7540 7559 
3 7556 5598 7559 
3 8984 8981 10675 
3 9060 7559 8984 
3 9060 8984 10054 
3 8998 9588 7550 
3 7556 5614 5598 
3 5740 5614 7550 
3 2992 2929 5572 
3 5614 5740 3141 
3 3034 2992 5598 
3 5614 3141 3034 
3 3034 2224 2214 
3 3141 2224 3034 
3 5614 3034 5598 
3 3034 2214 2992 
3 5598 2992 5572 
3 2992 2214 2204 
3 2992 2204 2929 
3 7540 5585 7631 
3 3741 2174 2164 
3 3060 2184 3320 
3 3406 5784 8112 
3 2929 2194 3060 
3 5585 3060 5746 
3 3060 2194 2184 
3 3320 2184 2174 
3 3320 2174 3741 
3 5746 3320 5998 
3 6141 4309 7200 
3 3320 3741 5998 
3 5746 8095 7631 
3 2164 2154 4309 
3 3741 6141 5998 
3 3741 4309 6141 
3 5998 6141 8112 
3 2144 2134 4968 
3 2144 4968 4706 
3 5585 5746 7631 
3 8095 5998 8112 
3 8981 7631 9302 
3 8577 9189 9051 
3 7631 8095 9302 
3 8981 10131 10675 
3 4309 4706 7200 
3 6141 6363 8112 
3 7180 1075 4613 
3 372 1440 6363 
3 2134 2124 6824 
3 1441 373 6971 
3 2124 373 6824 
3 2124 2114 373 
3 6824 373 1441 
3 373 2114 5108 
3 4832 2104 2094 
3 1076 373 5108 
3 2104 5108 2114 
3 4321 8699 4832 
3 2104 4832 5108 
3 3790 1074 1440 
3 6363 6141 7200 
3 4613 1075 372 
3 4613 6363 7200 
3 3406 8112 6363 
3 372 6363 4613 
3 7180 6824 1441 
3 7180 1441 1075 
3 8981 9302 10131 
3 10675 10131 8978 
3 3406 3105 5784 
3 8112 5784 8095 
3 8208 10054 5558 
3 3142 8200 6772 
3 10054 10675 8978 
3 5558 8200 3142 
3 2941 5558 3142 
3 2941 3142 832 
3 8978 9051 8200 
3 8978 8200 5558 
3 6309 9051 8184 
3 5784 8184 9302 
3 1440 1074 3406 
3 5784 3105 8184 
3 1074 3105 3406 
3 1440 3406 6363 
3 4204 5865 3200 
3 1075 3200 372 
3 6971 8005 4204 
3 6971 4204 1441 
3 4348 6309 371 
3 3105 6309 8184 
3 7647 3790 7130 
3 3200 7130 372 
3 8577 6527 9189 
3 8200 9189 6772 
3 8593 6527 4348 
3 6309 8577 9051 
3 3105 1074 371 
3 6309 4348 8577 
3 9564 8337 7647 
3 7130 3790 1440 
3 3291 1442 374 
3 1076 6971 373 
3 3291 6585 1442 
3 4543 4537 4832 
3 3291 374 7218 
3 3647 4543 9534 
3 6585 6971 1076 
3 1442 1076 4537 
3 1076 5108 4537 
3 1442 4537 4543 
3 9534 8699 6336 
3 2084 4321 2094 
3 3700 2074 3757 
3 8116 6191 9530 
3 2084 2074 3700 
3 4321 6336 8699 
3 2074 2064 3757 
3 3700 6082 6336 
3 3757 4091 9530 
3 2064 4091 3757 
3 6541 1958 4406 
3 4479 2054 2042 
3 4479 2042 4848 
3 9577 8116 4091 
3 3757 6082 3700 
3 2054 4479 4091 
3 2054 4091 2064 
3 8116 3908 6191 
3 9530 6191 6082 
3 1923 3908 4406 
3 4091 8116 9530 
3 4091 4479 9577 
3 8116 4406 3908 
3 2042 2030 4848 
3 4479 6541 9577 
3 8579 2018 2006 
3 8529 2006 1994 
3 1994 6508 8529 
3 2006 8529 8579 
3 6508 1994 1978 
3 6508 8326 9720 
3 6756 8579 1298 
3 1826 1958 6541 
3 8579 8529 130 
3 933 1712 3410 
3 1958 1923 4406 
3 9577 4406 8116 
3 4848 8635 6541 
3 9577 6541 4406 
3 1298 8635 6756 
3 8579 6756 2018 
3 7218 6231 7832 
3 8568 6260 9571 
3 7051 6587 4559 
3 7051 129 375 
3 1443 6587 7051 
3 129 4005 1297 
3 1923 1711 3908 
3 3908 3588 6191 
3 1443 375 8610 
3 4350 8610 1078 
3 3647 6587 1077 
3 7218 7832 3291 
3 4350 3214 5931 
3 10214 5865 8005 
3 4350 7832 6231 
3 8610 6231 1443 
3 1443 6231 1077 
3 374 1442 4543 
3 374 3647 1077 
3 7218 1077 6231 
3 4559 6587 9571 
3 4559 6260 3588 
3 4559 9571 6260 
3 3588 6260 6191 
3 8568 9534 6336 
3 6082 3757 9530 
3 8568 6336 6082 
3 8568 6082 6191 
3 4204 8005 5865 
3 9718 7647 7130 
3 7832 5931 10214 
3 7832 10214 8005 
3 1077 7218 374 
3 3647 374 4543 
3 8337 3790 7647 
3 10111 5865 10214 
3 7130 3200 9718 
3 7647 10111 9564 
3 8337 7581 3555 
3 683 4348 371 
3 7647 9718 10111 
3 9564 10071 7581 
3 3323 1854 6771 
3 4332 6527 8593 
3 1198 1759 4332 
3 1198 4332 4681 
3 6527 8577 4348 
3 4750 370 4900 
3 8593 4348 4750 
3 3555 683 6785 
3 8244 2963 6614 
3 4452 6614 1758 
3 11729 8244 8766 
3 4453 8766 4452 
3 2646 1643 2737 
3 1944 1909 5248 
3 2737 1909 2963 
3 9262 10596 10056 
3 4455 4816 831 
3 5397 7387 7610 
3 1643 1909 2737 
3 5398 2737 5491 
3 2737 2963 5491 
3 11729 8766 6221 
3 9901 9265 7468 
3 3323 6221 4453 
3 6221 3323 9265 
3 2763 1759 1198 
3 9262 8244 11729 
3 9265 3323 6771 
3 10596 11729 9901 
3 9076 10983 10170 
3 2737 5398 2646 
3 831 3662 28 
3 2963 8244 5491 
3 7412 9262 10056 
3 831 2646 3662 
3 28 3662 1196 
3 3662 2646 5397 
3 3662 5397 6450 
3 5398 5491 7412 
3 5398 7387 5397 
3 5491 8244 9262 
3 5491 9262 7412 
3 11729 9265 9901 
3 10596 9901 11210 
3 9265 6771 7468 
3 9901 10512 11210 
3 7468 6771 2763 
3 7468 10170 10512 
3 4750 4900 4681 
3 8593 4681 4332 
3 4348 683 4750 
3 8593 4750 4681 
3 8002 9125 10071 
3 9090 10071 10111 
3 8002 10071 9090 
3 5931 9090 10214 
3 7581 6834 3555 
3 3555 370 683 
3 7581 9125 6834 
3 370 1438 4900 
3 8471 9125 6892 
3 3214 8002 5931 
3 2669 1958 6658 
3 6872 3410 5596 
3 6541 8635 1826 
3 1958 2669 1923 
3 7051 4559 129 
3 2657 5295 7906 
3 932 3588 1711 
3 932 2657 7248 
3 1444 4350 1078 
3 7280 1078 375 
3 4559 932 129 
3 375 1297 7280 
3 1072 4858 1438 
3 6834 1438 370 
3 376 1073 6892 
3 376 6892 3214 
3 30 6436 8395 
3 2763 10170 7468 
3 6873 833 30 
3 4681 30 1198 
3 1196 3662 6450 
3 8702 6450 9078 
3 5398 7412 7387 
3 9791 10463 10789 
3 11112 10900 11338 
3 10512 9901 7468 
3 11338 11210 10512 
3 10170 2763 8395 
3 10983 10512 10170 
3 10983 9076 9817 
3 8473 6873 4858 
3 4900 6873 4681 
3 1072 5052 4858 
3 1438 4858 4900 
3 10900 11210 11338 
3 10835 10983 9817 
3 369 1072 1439 
3 11714 1438 6834 
3 7387 7412 8817 
3 7387 8863 7610 
3 10596 11210 10900 
3 11112 10835 11476 
3 7387 8817 8863 
3 7610 10140 9078 
3 10170 8395 9076 
3 9817 7902 10105 
3 9076 8395 6436 
3 9076 7902 9817 
3 6436 833 2656 
3 5052 8473 4858 
3 1957 5148 1825 
3 7280 5148 1078 
3 375 129 1297 
3 7280 1297 1825 
3 1439 1072 11714 
3 8471 11714 9125 
3 376 3214 1444 
3 7092 1444 5148 
3 1958 1826 6658 
3 9363 10068 8242 
3 1826 1298 3409 
3 6658 3409 9363 
3 129 932 7248 
3 2658 5521 5294 
3 1711 2546 2657 
3 7248 7906 4005 
3 2546 1923 2669 
3 2546 2669 5337 
3 4519 1732 1929 
3 6360 7765 6361 
3 2023 2035 6851 
3 3287 2078 2088 
3 746 464 9520 
3 5881 3322 3528 
3 4399 2313 11719 
3 1578 3468 3021 
3 8444 6557 4911 
3 5788 9255 5682 
3 1298 130 5140 
3 1298 5140 3409 
3 8529 6508 933 
3 1712 4827 1924 
3 6508 9720 933 
3 130 933 5140 
3 1978 1895 8326 
3 4827 4611 4506 
3 1618 4259 4611 
3 3823 6151 8299 
3 2011 2023 161 
3 4929 2035 2047 
3 4929 2047 4480 
3 9520 464 2265 
3 4847 2301 2293 
3 121 2243 2233 
3 2332 1578 969 
3 1289 5077 5216 
3 4396 1993 1977 
3 4396 1977 3964 
3 5202 2183 2173 
3 3072 2113 2103 
3 3093 2103 2093 
3 4793 4501 2053 
3 1565 2223 2213 
3 805 2 8713 
3 970 167 6979 
3 3817 4096 2285 
3 5216 2253 2243 
3 1565 924 2223 
3 5202 2173 5083 
3 5083 2173 2163 
3 3441 4092 2123 
3 6886 3595 1617 
3 8346 2017 2005 
3 6337 2017 8346 
3 2005 1993 4678 
3 9638 6337 8346 
3 4678 1993 4396 
3 6520 4396 3964 
3 3595 3964 1894 
3 3946 2073 4202 
3 6337 6836 2029 
3 3519 2093 2083 
3 6836 2041 2029 
3 6337 2029 2017 
3 2133 4593 2143 
3 4092 2133 2123 
3 1565 2213 1290 
3 925 2193 2183 
3 5216 2243 121 
3 924 121 2233 
3 6441 121 924 
3 2916 924 1565 
3 7911 2916 5444 
3 1290 2213 2203 
3 2694 1565 1290 
3 7910 6440 10726 
3 925 2183 5202 
3 925 1704 2622 
3 5589 5716 3072 
3 5589 3072 3093 
3 5589 3093 5635 
3 1071 4123 3772 
3 2203 2193 122 
3 6440 7845 10726 
3 6188 5716 7698 
3 5716 3441 3072 
3 4759 5077 1564 
3 6441 924 2916 
3 1882 5083 6572 
3 4844 2153 2143 
3 8513 6572 4844 
3 4593 2133 4092 
3 4756 6456 8709 
3 7698 10658 9437 
3 3772 4589 1437 
3 2053 4501 2063 
3 4501 4793 4589 
3 4829 6836 8450 
3 5635 3519 5974 
3 4202 2073 2063 
3 5974 3946 6446 
3 4501 4202 2063 
3 6329 4579 3610 
3 8713 6886 805 
3 2 1170 8713 
3 6836 6337 8450 
3 367 4894 682 
3 4894 8346 4678 
3 4634 4678 8656 
3 3610 4579 1731 
3 1170 4579 8713 
3 8656 4396 6520 
3 5944 6277 9662 
3 6172 6520 6216 
3 8775 3595 6329 
3 4793 6836 4829 
3 367 8450 9638 
3 4678 4396 8656 
3 4634 4012 368 
3 7608 5589 7521 
3 5855 365 10723 
3 3519 3946 5974 
3 5635 7811 7521 
3 4501 4589 8423 
3 681 367 4458 
3 367 9638 4894 
3 4634 4894 4678 
3 4136 6277 3610 
3 4579 6329 6886 
3 1170 1731 4579 
3 6172 6216 8775 
3 6277 6329 3610 
3 8775 6329 6277 
3 4136 3610 1928 
3 4829 8450 681 
3 4458 367 682 
3 8656 6520 4012 
3 3228 5944 3756 
3 3946 4202 6446 
3 5974 8585 7811 
3 4202 4501 8423 
3 7718 7178 3420 
3 4793 4829 4589 
3 8423 3772 4123 
3 4844 4593 4756 
3 1291 4806 2859 
3 3441 6188 4092 
3 8709 3650 123 
3 3441 5716 6188 
3 9437 10658 8191 
3 5716 5589 7608 
3 5716 7608 7698 
3 5077 1289 1564 
3 9899 8832 9234 
3 9340 10726 7845 
3 2622 9559 925 
3 6572 1819 1882 
3 5083 1704 5202 
3 2555 1882 2566 
3 2859 1819 1291 
3 1289 121 6441 
3 8843 10390 11171 
3 1290 122 6440 
3 1290 6440 2694 
3 2622 7845 9559 
3 925 9559 122 
3 8513 4844 4756 
3 1291 4756 123 
3 4756 4593 6456 
3 8709 6456 10263 
3 6456 4092 6188 
3 10263 6188 7698 
3 2916 1565 2694 
3 7910 2694 6440 
3 925 5202 1704 
3 2566 5406 5307 
3 1819 6572 8513 
3 1291 8513 4756 
3 4126 6674 8438 
3 4847 2293 4096 
3 9280 6407 4145 
3 4759 6761 5077 
3 2329 2332 969 
3 166 969 5041 
3 2332 2325 1578 
3 969 1578 3021 
3 6013 3775 6271 
3 4507 11719 1334 
3 3002 6900 7719 
3 1336 970 6674 
3 1336 6674 4126 
3 6187 3817 6407 
3 4126 8438 9478 
3 9280 6187 6407 
3 4145 8515 4759 
3 1564 1289 2897 
3 923 4759 1564 
3 2940 1564 2897 
3 8438 6187 9478 
3 7208 9280 4145 
3 6407 8515 4145 
3 7208 120 4391 
3 6253 3017 5041 
3 3021 5041 969 
3 8173 3002 9551 
3 7874 4391 7289 
3 8350 6271 4507 
3 1334 166 5041 
3 1577 4507 1334 
3 1577 3017 2999 
3 6286 5152 8173 
3 970 5152 167 
3 6013 7625 5961 
3 3312 2289 2297 
3 2297 3775 3312 
3 9447 8350 3531 
3 6778 464 746 
3 465 1105 4387 
3 8032 7143 4212 
3 8032 4212 6847 
3 468 6398 8410 
3 3823 3795 2178 
3 8524 1473 1108 
3 468 6133 6398 
3 8410 6398 4836 
3 8299 6198 6209 
3 4031 7820 11713 
3 469 11713 1474 
3 2168 3795 3755 
3 6265 8754 9162 
3 3755 3795 6209 
3 6176 3659 3743 
3 4385 6151 3823 
3 3795 8299 6209 
3 7954 4031 6778 
3 9200 6778 746 
3 2265 2273 9520 
3 746 8626 4212 
3 746 9520 8626 
3 4212 8626 6847 
3 6398 6151 4385 
3 2188 3823 2178 
3 8673 1108 6767 
3 6767 4836 2208 
3 2228 469 1474 
3 8673 1474 1108 
3 2158 2168 3755 
3 3714 6182 5953 
3 2198 4385 2188 
3 3795 3823 8299 
3 2138 2148 3528 
3 2138 3322 2128 
3 2158 3755 3714 
3 2158 3714 2148 
3 2248 2257 1470 
3 4031 1470 6778 
3 2281 3854 4819 
3 2273 4819 9520 
3 6398 4385 4836 
3 6767 2218 8673 
3 8410 4836 6767 
3 8410 6767 1108 
3 6847 4819 3854 
3 5961 3854 3312 
3 6013 5961 3312 
3 6013 3312 3775 
3 6271 3775 4399 
3 4507 4399 11719 
3 8515 6407 4255 
3 4255 2269 6761 
3 8515 6761 4759 
3 167 2309 6979 
3 6674 6979 4847 
3 8438 6674 4847 
3 4096 2293 2285 
3 8438 4847 4096 
3 8438 4096 6187 
3 6979 2309 2301 
3 6979 2301 4847 
3 3817 2285 2277 
3 3817 2277 4255 
3 8515 4255 6761 
3 5077 2253 5216 
3 1289 5216 121 
3 4255 2277 2269 
3 6761 2269 2261 
3 6761 2261 5077 
3 11719 2313 2321 
3 11719 2329 166 
3 11719 2321 2329 
3 166 2329 969 
3 4819 2273 2281 
3 3854 2281 2289 
3 3854 2289 3312 
3 2238 1104 469 
3 3775 2297 2305 
3 3775 2305 4399 
3 4385 3823 2188 
3 1470 4031 1104 
3 2248 1104 2238 
3 4836 2198 2208 
3 6767 2208 2218 
3 8673 2228 1474 
3 2238 469 2228 
3 2098 2108 2942 
3 2118 3160 3047 
3 1985 6557 8444 
3 3977 2068 3576 
3 3576 2068 2078 
3 3652 4054 6274 
3 6114 6274 9626 
3 9728 4519 8444 
3 1929 1985 8444 
3 1929 8444 4519 
3 6557 1999 1329 
3 964 161 2023 
3 2058 3977 4480 
3 5932 3576 3287 
3 2138 3528 3322 
3 3160 5788 5682 
3 2108 2118 3047 
3 2942 3047 5577 
3 2128 3322 3160 
3 2128 3160 2118 
3 1985 1999 6557 
3 1840 1329 6361 
3 8660 4929 6615 
3 6204 3977 3576 
3 3 1171 3652 
3 8019 3853 9453 
3 1732 4519 4054 
3 1171 4054 3652 
3 2058 2068 3977 
3 9420 5981 3658 
3 2823 1712 1924 
3 1981 3853 1989 
3 3 3652 3940 
3 4259 8019 9453 
3 10068 9363 7533 
3 5596 7533 6872 
3 4827 4506 1924 
3 1981 1989 2529 
3 6623 1957 2550 
3 5294 2550 2658 
3 4005 7906 5521 
3 8990 10176 9542 
3 7248 2657 7906 
3 5521 10194 7397 
3 2657 2546 5295 
3 7906 9142 10194 
3 2658 2550 1825 
3 7280 1825 5148 
3 5295 2546 5337 
3 7347 10563 9769 
3 5337 2669 8242 
3 9259 10068 10923 
3 10068 7533 8908 
3 7533 9363 6872 
3 806 3940 4259 
3 806 4259 1618 
3 806 3 3940 
3 129 7248 4005 
3 1297 4005 2658 
3 5140 3410 6872 
3 3409 6872 9363 
3 9720 8326 4827 
3 9720 4827 1712 
3 5052 1072 369 
3 1600 8471 1073 
3 4335 1439 1600 
3 4335 1600 4552 
3 6640 5052 369 
3 4420 369 1439 
3 1073 376 7056 
3 1073 4552 1600 
3 10463 10900 11112 
3 10463 11112 10789 
3 11112 11338 10835 
3 11476 10835 10378 
3 7610 8863 10140 
3 9078 9013 5320 
3 8863 8817 9791 
3 10482 11207 10140 
3 1679 876 4135 
3 4719 6835 6567 
3 4466 9565 6568 
3 1086 707 408 
3 74 2584 2578 
3 2696 2578 5370 
3 2696 6666 1794 
3 4135 876 6835 
3 6666 1679 1794 
3 3646 6251 4027 
3 1794 1679 3156 
3 5668 8431 10652 
3 1452 6568 1086 
3 1452 1086 6567 
3 1642 830 416 
3 715 416 7192 
3 1853 2564 1642 
3 715 1642 416 
3 6553 407 708 
3 416 708 4328 
3 9078 10140 9013 
3 5320 7352 5302 
3 2696 1794 1242 
3 2696 1242 2578 
3 9565 4195 6998 
3 707 4863 4241 
3 877 2584 74 
3 4027 74 1242 
3 5668 5868 3156 
3 4135 3156 1679 
3 3156 4135 5668 
3 10652 8431 5719 
3 4195 708 407 
3 6998 407 707 
3 9013 10140 11207 
3 11030 10754 11287 
3 9791 10784 10482 
3 9791 10482 8863 
3 1199 1534 6640 
3 5052 1534 8473 
3 9076 6436 7902 
3 5362 2656 2606 
3 7902 6436 2656 
3 7902 2656 5362 
3 8612 4335 4775 
3 3570 5168 931 
3 1444 7092 4951 
3 7056 4951 4964 
3 1534 5052 6640 
3 8606 4420 6555 
3 6640 369 8606 
3 8612 4420 4335 
3 6622 1973 6623 
3 2550 1957 1825 
3 4335 4552 4775 
3 1922 4951 1973 
3 7092 1957 1973 
3 4951 1922 4964 
3 4774 6640 8606 
3 4420 8606 369 
3 1710 4964 1922 
3 2867 1922 6622 
3 11062 11463 11301 
3 11476 11301 11112 
3 10105 7902 5362 
3 10105 8798 10901 
3 11041 11093 10784 
3 10482 10921 11207 
3 11062 11476 10378 
3 10105 10378 9817 
3 6553 708 8609 
3 27 8609 830 
3 5302 5289 2544 
3 2564 2544 1642 
3 3156 5868 3646 
3 1242 3646 4027 
3 6568 6998 707 
3 6568 707 1086 
3 2638 2584 877 
3 8452 877 6368 
3 4135 8431 5668 
3 5868 9311 8458 
3 8431 4719 5719 
3 8052 6019 9292 
3 7352 7345 5302 
3 5320 5302 2564 
3 9809 10021 7352 
3 9013 7352 5320 
3 10361 10921 11389 
3 10921 9809 11207 
3 10482 10784 10921 
3 9809 10361 10021 
3 8268 4863 6553 
3 27 6553 8609 
3 8268 6553 1195 
3 1195 27 2563 
3 6012 9311 7919 
3 5868 6251 3646 
3 10652 5719 10099 
3 8052 9456 4241 
3 7352 10021 7345 
3 5302 7345 5289 
3 11041 11248 11093 
3 10921 10361 9809 
3 11127 11062 10901 
3 8798 10105 5362 
3 9786 10901 8798 
3 9786 8798 8923 
3 11301 11463 11041 
3 10789 11041 10784 
3 11248 11463 11666 
3 10901 11062 10378 
3 8064 2606 6827 
3 31 1199 4774 
3 4552 4964 4775 
3 4505 931 128 
3 834 31 4755 
3 8319 4505 128 
3 8319 4755 6555 
3 8612 6555 4420 
3 8612 4775 4505 
3 2867 1710 1922 
3 7492 10176 9935 
3 9542 2550 5294 
3 11151 10765 10563 
3 9259 7347 5337 
3 3925 1959 1989 
3 3925 1989 3853 
3 5919 6195 6238 
3 3853 1981 4506 
3 9833 10923 8908 
3 9833 8908 8847 
3 7533 5596 7442 
3 7392 5316 9323 
3 7492 9542 10176 
3 8990 7397 9761 
3 5294 5521 7397 
3 7397 10492 9761 
3 1973 1957 6623 
3 6622 6623 7492 
3 5521 7906 10194 
3 10492 11212 9761 
3 7906 5295 9142 
3 10194 9142 10492 
3 9259 10563 7347 
3 5337 7347 5295 
3 9259 8242 10068 
3 10923 10068 8908 
3 8019 3925 3853 
3 9453 3853 4506 
3 5596 2823 5429 
3 7442 5429 7392 
3 2823 1924 2652 
3 2823 2652 5429 
3 1924 4506 1981 
3 1924 1981 2652 
3 6195 8019 6238 
3 8648 6238 6274 
3 9626 6274 8290 
3 4519 8290 4054 
3 6195 3925 8019 
3 3940 8019 4259 
3 8444 4911 9728 
3 4519 9728 8290 
3 1999 161 1329 
3 6557 1840 4911 
3 4480 3977 8213 
3 10305 6204 5932 
3 3977 6204 8213 
3 4480 6615 4929 
3 9162 7901 7896 
3 3322 5788 3160 
3 9255 5788 7901 
3 5953 5881 3528 
3 7531 7520 5555 
3 3071 5717 3287 
3 2942 5577 5555 
3 2942 5555 3071 
3 161 964 5257 
3 1329 5257 6361 
3 4480 8213 6615 
3 8660 6615 1890 
3 3648 3925 6195 
3 5919 8648 9726 
3 3868 6114 9626 
3 4301 9626 8290 
3 1725 963 4301 
3 4911 4301 9728 
3 6557 1329 1840 
3 4911 1725 4301 
3 5257 964 6360 
3 3270 1726 1890 
3 7531 5577 7614 
3 7794 9255 10293 
3 7901 10293 9255 
3 5682 9255 7614 
3 964 1726 6360 
3 5257 6360 6361 
3 6204 10305 9420 
3 8213 4408 6615 
3 2815 1725 3209 
3 1840 1725 4911 
3 9420 3658 4408 
3 6615 4408 1890 
3 7872 7866 9114 
3 7520 7866 5717 
3 5555 5577 7531 
3 7267 7872 7873 
3 7794 10284 9109 
3 7614 9109 7531 
3 9109 7614 7794 
3 10740 5771 3127 
3 5981 7866 7872 
3 10172 9109 10284 
3 7531 9109 8994 
3 7531 8994 7520 
3 3876 6114 3868 
3 6114 9726 8648 
3 2815 3062 963 
3 4301 3868 9626 
3 3648 6195 5919 
3 3736 5919 8219 
3 963 160 3868 
3 963 3868 4301 
3 1725 1840 3209 
3 5454 9642 3062 
3 5282 5296 7336 
3 3648 1959 3925 
3 2608 1959 1827 
3 3736 3648 5919 
3 9769 10765 10785 
3 10492 7397 10194 
3 1827 1299 2874 
3 1959 2534 1989 
3 10176 10823 9935 
3 6622 9541 2867 
3 10785 11291 11212 
3 10785 10492 9769 
3 5659 7182 3570 
3 2867 3570 1710 
3 3570 2867 5659 
3 5659 9541 8851 
3 5168 128 931 
3 3570 931 1710 
3 9761 10823 8990 
3 9542 7492 6623 
3 11465 10782 11277 
3 10782 10528 11083 
3 8847 7442 7392 
3 10000 10617 11192 
3 10785 11212 10492 
3 9769 10492 9142 
3 2529 5282 5316 
3 5429 5316 7392 
3 4775 931 4505 
3 8612 4505 6555 
3 9541 6622 7492 
3 9541 7492 9935 
3 5294 7397 8990 
3 10176 8990 10823 
3 8923 8798 8064 
3 6827 2606 1199 
3 31 2542 6827 
3 31 6827 1199 
3 11238 11265 11127 
3 11238 11127 10805 
3 9462 4886 8319 
3 6555 4755 4774 
3 11389 11093 11287 
3 11265 11062 11127 
3 11666 11463 11265 
3 11607 11265 11238 
3 8789 10021 10529 
3 11389 10921 11093 
3 10754 10361 11389 
3 10754 11389 11287 
3 5719 9456 10099 
3 6012 9567 8458 
3 6506 4863 4441 
3 1195 2563 2624 
3 6251 5868 8458 
3 7919 10652 10099 
3 10652 7919 9311 
3 10652 9311 5668 
3 7016 7993 9567 
3 6251 7993 4027 
3 10099 9456 8052 
3 10099 8052 9292 
3 4241 4863 6506 
3 4241 6506 8052 
3 6553 27 1195 
3 8268 1756 4441 
3 27 2543 2563 
3 1195 2624 1756 
3 1943 3825 4441 
3 8268 4441 4863 
3 5289 7346 5303 
3 2563 5303 5330 
3 1513 7016 3732 
3 8458 9567 6251 
3 8458 9311 6012 
3 546 7112 1514 
3 4118 1147 4855 
3 6368 4855 8452 
3 1513 1611 7016 
3 7993 4118 6368 
3 3732 9567 6012 
3 3469 1148 545 
3 2704 1943 1756 
3 1195 1756 8268 
3 10021 10361 10529 
3 11287 11093 11248 
3 10750 10754 11030 
3 11603 11662 11523 
3 9763 8790 8789 
3 10021 8789 7345 
3 9763 8789 10529 
3 10754 10529 10361 
3 11127 10901 9786 
3 10606 9786 8923 
3 6555 4505 8319 
3 4755 8319 4886 
3 11287 11248 11517 
3 11607 11666 11265 
3 10160 8923 8448 
3 8448 8064 6827 
3 10606 8923 10160 
3 2542 31 834 
3 10160 8448 5300 
3 5300 2542 2574 
3 8851 8771 5659 
3 9541 5659 2867 
3 5658 3569 7182 
3 8771 7182 5659 
3 9998 8771 8851 
3 9935 8851 9541 
3 11248 11666 11517 
3 8800 10944 10359 
3 11201 10606 9888 
3 5300 8448 2542 
3 11516 11238 11633 
3 10805 11127 9786 
3 11633 11238 10805 
3 10606 10805 9786 
3 5383 2704 2624 
3 5330 2624 2563 
3 11618 11656 11597 
3 11607 11517 11666 
3 1611 4118 7016 
3 1513 3732 545 
3 6012 7919 5783 
3 6089 9292 6019 
3 7016 9567 3732 
3 545 3732 3469 
3 7919 9292 5783 
3 1148 7252 545 
3 1968 3402 3825 
3 4441 3825 6506 
3 5383 2624 5330 
3 7351 5330 5303 
3 9763 10530 8790 
3 7346 8790 7351 
3 10770 10530 11124 
3 10750 10529 10754 
3 10530 9763 11124 
3 11319 10750 11030 
3 4118 1611 1147 
3 544 7061 1512 
3 6852 1968 1943 
3 1756 1943 4441 
3 6012 5783 3469 
3 6012 3469 3732 
3 4173 6089 3402 
3 1968 6852 2960 
3 8082 6852 2704 
3 2624 2704 1756 
3 10527 10442 9860 
3 8857 9196 9815 
3 11607 11238 11516 
3 11438 10359 11058 
3 10805 10606 11201 
3 11201 10359 11438 
3 11405 11597 11523 
3 11618 11030 11287 
3 11287 11517 11618 
3 11405 11414 11319 
3 2868 1824 3569 
3 5168 1296 128 
3 11552 11324 11671 
3 10823 10413 9935 
3 7369 10160 5300 
3 7369 5378 7421 
3 834 1645 2574 
3 5300 5378 7369 
3 4902 1296 1824 
3 2868 3569 5658 
3 11518 11606 11659 
3 11518 11277 11421 
3 10765 11151 11465 
3 11659 11277 11518 
3 2534 1959 2608 
3 8180 1327 159 
3 3736 4554 1299 
3 3736 1827 3648 
3 7392 9323 10000 
3 11192 10881 11354 
3 9323 5282 7336 
3 10617 8783 10881 
3 10413 10823 11324 
3 10413 11632 11222 
3 11421 11277 11083 
3 10528 10782 9833 
3 9761 11212 11044 
3 11430 11410 11534 
3 11465 11659 11031 
3 10785 11031 11291 
3 11031 10765 11465 
3 11659 11465 11277 
3 11465 11151 10782 
3 11277 10782 11083 
3 11192 11083 10528 
3 11192 10528 10000 
3 9323 10617 10000 
3 8847 10000 10528 
3 5282 2534 5296 
3 7336 5296 7360 
3 5296 2534 2608 
3 5296 2608 5420 
3 1959 3648 1827 
3 2608 1827 2874 
3 8219 3876 4860 
3 3062 160 963 
3 5454 2815 5559 
3 10035 5559 9682 
3 8219 9726 3876 
3 8219 4860 4554 
3 3209 5559 2815 
3 1725 2815 963 
3 2837 2851 1841 
3 1330 3658 3334 
3 3658 5981 3334 
3 9014 10167 10667 
3 162 3334 7267 
3 7872 3334 5981 
3 9114 8994 10683 
3 8323 3153 5916 
3 9162 3302 5771 
3 10293 5771 7794 
3 5653 3020 8323 
3 10172 10683 8994 
3 7794 5771 10740 
3 10284 5672 7618 
3 2837 1841 1330 
3 2837 4744 8049 
3 3334 7872 7267 
3 3334 162 1330 
3 3876 1328 4860 
3 4554 5186 131 
3 5563 10044 8114 
3 7085 160 3062 
3 9122 7476 10603 
3 10591 11483 11356 
3 9590 5571 9038 
3 10591 10603 7476 
3 9114 10683 7873 
3 5704 10667 8182 
3 9162 8754 3302 
3 5771 3302 3127 
3 1343 8754 175 
3 3659 6198 3814 
3 11725 175 978 
3 11725 4042 6097 
3 4042 1344 5237 
3 176 3814 8302 
3 5237 1344 176 
3 4585 9755 7982 
3 11721 4563 3830 
3 1107 467 3994 
3 5237 176 979 
3 6737 4585 7982 
3 1606 3799 7113 
3 7982 6375 6737 
3 4564 4287 10244 
3 7954 6778 9200 
3 8101 7131 4084 
3 6498 4084 4046 
3 5695 10103 10533 
3 7719 10533 7607 
3 4391 120 1288 
3 1818 1288 2924 
3 5578 9458 6219 
3 10103 9001 10533 
3 9280 7208 7874 
3 6712 4629 1337 
3 968 5013 165 
3 968 165 3531 
3 7687 9458 5578 
3 2999 5013 968 
3 2976 4996 967 
3 7886 7205 11707 
3 5276 4212 465 
3 10244 4287 7683 
3 10533 7719 9227 
3 971 168 3893 
3 6618 6900 971 
3 1337 4629 169 
3 7874 7289 6712 
3 971 6712 1337 
3 7874 7208 4391 
3 4779 1818 8502 
3 7208 4145 120 
3 1288 4917 2924 
3 8101 9250 10119 
3 7625 10119 8032 
3 5578 6219 2999 
3 3017 1334 5041 
3 11721 7820 8636 
3 4563 8636 3382 
3 4130 4149 6118 
3 9753 6118 7954 
3 6685 740 455 
3 4387 9753 9200 
3 466 7137 1106 
3 6685 4564 740 
3 4723 7982 9755 
3 7982 7113 3799 
3 8524 3830 1606 
3 1473 1606 7113 
3 5953 8163 7896 
3 175 3743 978 
3 1473 7113 4723 
3 8302 9755 176 
3 1108 1473 468 
3 6133 9755 8302 
3 5771 10293 9162 
3 8754 6265 175 
3 6176 3743 8163 
3 7896 6265 9162 
3 6176 6198 3659 
3 3743 3659 978 
3 8636 4563 11721 
3 8524 1606 1473 
3 4130 6118 9753 
3 4130 4387 1105 
3 4130 9753 4387 
3 7143 7683 4287 
3 6470 3830 8524 
3 6470 8524 1108 
3 11713 7820 11721 
3 6470 11721 3830 
3 8163 6265 7896 
3 5953 7896 5881 
3 6182 6209 6176 
3 6182 6176 8163 
3 5788 5881 7901 
3 10293 7901 9162 
3 3743 6265 8163 
3 6182 8163 5953 
3 6133 8302 9342 
3 6151 9342 8299 
3 1473 4723 468 
3 1108 468 8410 
3 468 4723 6133 
3 6398 6133 6151 
3 9200 9753 7954 
3 4031 7954 7820 
3 746 4212 5276 
3 746 5276 9200 
3 8350 4507 1577 
3 968 1577 2999 
3 5578 2999 3017 
3 5578 3017 6253 
3 7625 6013 9447 
3 7625 7679 10119 
3 9447 6271 8350 
3 3531 8350 968 
3 3468 5152 6286 
3 3002 168 6900 
3 168 4126 3893 
3 3893 7874 6712 
3 5041 3021 6253 
3 5578 6253 7687 
3 3021 3468 5633 
3 7607 9551 7719 
3 4145 4759 923 
3 120 923 4917 
3 7687 6253 5633 
3 7687 5633 7607 
3 8173 1336 3002 
3 6900 168 971 
3 4387 5276 465 
3 1105 465 4287 
3 4287 465 7143 
3 7683 7143 8032 
3 3531 7131 7679 
3 9447 7679 7625 
3 6286 8173 9551 
3 6286 9551 7607 
3 1336 168 3002 
3 9551 3002 7719 
3 4126 9478 3893 
3 971 3893 6712 
3 9478 9280 7874 
3 9478 7874 3893 
3 7911 10634 9894 
3 9381 10697 5453 
3 8843 7910 9987 
3 8843 9987 10390 
3 10070 9340 7359 
3 5335 7845 2622 
3 7359 5335 5307 
3 5406 2566 2859 
3 1882 1819 2566 
3 918 6727 1699 
3 10263 7698 9437 
3 10263 3650 8709 
3 2694 7910 5444 
3 9894 10634 11376 
3 5444 7910 8843 
3 10634 8843 11171 
3 2897 6441 9381 
3 2897 5453 2940 
3 2555 5307 5335 
3 7845 5335 9340 
3 6441 2916 7911 
3 9381 7911 9894 
3 2916 2694 5444 
3 7911 5444 10634 
3 2622 1704 2555 
3 2622 2555 5335 
3 5589 5635 7521 
3 8976 9067 10096 
3 1819 2859 2566 
3 2555 2566 5307 
3 5406 2859 5651 
3 3650 10263 9437 
3 4806 123 918 
3 6727 3650 9437 
3 5635 5974 7811 
3 10182 7668 10707 
3 6446 8423 4123 
3 5855 10182 8585 
3 6446 4123 8585 
3 6446 8585 5974 
3 8423 4589 3772 
3 4123 1071 365 
3 4589 4829 366 
3 3420 681 4458 
3 4634 8656 4012 
3 368 4012 1066 
3 681 3420 366 
3 681 366 4829 
3 6812 4458 682 
3 368 682 4634 
3 5944 8775 6277 
3 6409 4136 4483 
3 1731 1928 3610 
3 1071 3772 1437 
3 366 1437 4589 
3 6172 8775 5944 
3 6172 5944 3228 
3 7521 7811 9067 
3 7521 9067 8976 
3 8585 4123 5855 
3 8585 10182 7811 
3 1436 1071 5924 
3 5924 1071 1437 
3 4458 5801 3420 
3 366 7178 1437 
3 9662 6277 6409 
3 4483 4136 1984 
3 3008 1066 1432 
3 360 3756 8605 
3 1066 3228 1432 
3 360 4509 1065 
3 6277 4136 6409 
3 9662 6409 8605 
3 1928 1984 4136 
3 365 1071 1436 
3 7718 3420 5801 
3 5801 4458 6812 
3 10322 10745 5732 
3 5855 10723 10182 
3 7811 10182 9067 
3 6034 7718 9472 
3 3420 7178 366 
3 1291 123 4806 
3 9982 8892 8034 
3 123 3650 918 
3 8892 8796 7438 
3 2897 9381 5453 
3 2940 8650 4917 
3 7370 5307 5406 
3 7438 5406 5651 
3 923 2940 4917 
3 120 4917 1288 
3 2924 4917 5965 
3 9234 8650 5453 
3 9381 9894 10697 
3 5453 10697 9234 
3 10640 9340 10070 
3 7370 5406 7438 
3 918 3650 6727 
3 2979 6727 8191 
3 10070 7359 8793 
3 9776 10369 10877 
3 4806 6725 5651 
3 4806 5651 2859 
3 10697 9894 11376 
3 10859 8832 10379 
3 9987 10640 10390 
3 11499 11471 10862 
3 8650 9234 5965 
3 8650 5965 4917 
3 10697 11376 9899 
3 10697 9899 9234 
3 10870 10640 10070 
3 10571 10070 8793 
3 4806 918 6725 
3 5651 8034 7438 
3 2605 6725 1699 
3 2979 1699 6727 
3 10723 365 3030 
3 1070 7295 364 
3 5801 6812 8062 
3 5801 10614 7718 
3 7668 10723 3030 
3 2964 3030 1436 
3 5924 7178 7718 
3 10614 5801 8062 
3 10745 9635 5732 
3 5732 3199 3008 
3 3228 3756 1432 
3 1066 3008 3199 
3 9635 3199 5732 
3 3275 4977 1065 
3 1432 3756 360 
3 1432 4977 3008 
3 4509 8605 8393 
3 7133 4567 7290 
3 5732 3008 8158 
3 1065 4977 360 
3 1984 1998 4483 
3 9472 10614 5852 
3 8503 4645 3197 
3 8062 9635 10745 
3 8158 3008 4977 
3 10614 8062 10023 
3 10322 8158 5796 
3 10745 10322 9068 
3 9658 8158 3275 
3 360 8605 4509 
3 1065 4509 3985 
3 4567 4518 2010 
3 1998 4518 4483 
3 8393 4518 7133 
3 3985 7133 7290 
3 4518 1998 2010 
3 4518 4567 7133 
3 361 5153 1431 
3 3985 1431 1065 
3 4622 7290 4567 
3 2022 4567 2010 
3 10023 10745 9068 
3 5753 8600 3216 
3 8158 4977 3275 
3 9658 3275 5153 
3 7718 10614 9472 
3 3546 5852 3197 
3 9068 5753 10023 
3 10745 10023 8062 
3 8600 9068 5796 
3 8158 10322 5732 
3 5642 2964 3520 
3 4374 1435 8565 
3 1436 6034 1070 
3 364 7295 3546 
3 3030 2964 5610 
3 6262 6230 10329 
3 6262 4374 8504 
3 6262 3520 4374 
3 7541 3048 3029 
3 5581 8191 10116 
3 5610 5642 7529 
3 11005 7529 9139 
3 7541 3029 8152 
3 8950 10116 10096 
3 10677 9277 11005 
3 9035 9139 7541 
3 1814 1879 3031 
3 3029 3031 8152 
3 2964 5642 5610 
3 9277 7529 11005 
3 2964 1436 1070 
3 2964 1070 3520 
3 5924 7718 6034 
3 7295 9472 3546 
3 7668 5610 9277 
3 7668 9277 10707 
3 1436 5924 6034 
3 7295 6034 9472 
3 3031 2979 5581 
3 3031 5581 8152 
3 8152 5581 8950 
3 9035 10677 11005 
3 10707 9277 10677 
3 10096 10677 8950 
3 5355 9711 2605 
3 6725 8034 5651 
3 8034 6725 9711 
3 2695 1879 1814 
3 9982 8034 9711 
3 2605 9711 6725 
3 2979 3031 1879 
3 2979 1879 1699 
3 11499 11281 11471 
3 10862 10379 9899 
3 7370 7438 8796 
3 9776 10877 10571 
3 10870 11281 11499 
3 10390 11499 11171 
3 7370 8796 8793 
3 7370 8793 7359 
3 6712 7289 4629 
3 169 4629 6563 
3 7289 4391 4779 
3 7289 4779 4629 
3 972 169 4210 
3 6900 9227 7719 
3 4281 6618 8669 
3 1337 6618 971 
3 2903 4685 965 
3 7886 10103 5695 
3 3311 3535 5695 
3 9227 5695 10533 
3 9227 4281 3311 
3 972 8669 169 
3 5449 5965 7523 
3 5393 9160 8537 
3 10862 11471 10379 
3 9899 10379 8832 
3 2924 5965 5449 
3 2655 5393 2833 
3 9160 5393 7406 
3 8832 7406 7523 
3 5695 9227 3311 
3 1338 1579 7006 
3 9227 6618 4281 
3 1579 3424 7006 
3 10103 9253 10185 
3 7205 3535 170 
3 3311 4281 1579 
3 1579 972 3424 
3 5449 7406 5393 
3 5449 5393 2655 
3 11634 11047 11554 
3 11471 11641 10379 
3 11494 11557 11554 
3 11281 11554 11471 
3 11281 11139 11494 
3 11281 11494 11554 
3 9797 10369 9776 
3 11139 11308 11494 
3 8793 8796 9776 
3 8793 9776 10571 
3 7438 8034 8892 
3 9797 8892 10506 
3 8821 9982 5355 
3 5355 9982 9711 
3 10506 9982 8821 
3 2695 2605 1879 
3 8192 5355 2695 
3 6726 1814 1284 
3 6726 2695 1814 
3 3029 1814 3031 
3 11059 11453 11308 
3 10877 11308 11139 
3 9797 11180 10369 
3 10877 11059 11308 
3 10890 10506 9807 
3 6523 1698 2712 
3 9807 8821 8900 
3 8900 8192 7743 
3 5799 8537 9160 
3 9868 10859 10780 
3 11554 11557 11634 
3 11047 11375 10780 
3 7406 8832 10655 
3 9160 9868 7480 
3 10379 11641 10859 
3 10655 10859 9868 
3 4210 6563 8582 
3 922 1703 2833 
3 5393 8537 2833 
3 1703 922 4680 
3 9253 11707 5772 
3 1039 306 5122 
3 4281 972 1579 
3 3311 1338 3535 
3 7886 3535 7205 
3 11707 7205 966 
3 3311 1579 1338 
3 3535 1338 170 
3 9994 7006 3424 
3 6300 3424 4210 
3 8177 8582 4034 
3 4680 8582 6563 
3 4034 4680 922 
3 1287 3512 3081 
3 2832 5405 2639 
3 8537 4738 2833 
3 9868 10686 7480 
3 8537 5799 4738 
3 163 6661 5122 
3 6734 966 4233 
3 6300 8582 8177 
3 7270 4034 119 
3 7633 10738 9993 
3 8945 9983 9696 
3 9994 6300 9083 
3 7870 5690 8944 
3 922 4738 119 
3 1287 1817 3512 
3 2832 4738 5799 
3 7480 5799 9160 
3 11047 11634 11375 
3 10780 10871 10686 
3 11634 11557 11423 
3 11634 11423 11375 
3 10780 10686 9868 
3 10655 9868 9160 
3 10369 11302 11059 
3 10369 11059 10877 
3 9887 9807 8900 
3 10506 10890 11180 
3 10506 8821 9807 
3 10420 10962 11359 
3 11071 11625 11302 
3 10890 11302 11180 
3 8821 8192 8900 
3 9807 9887 10420 
3 5034 6523 7743 
3 6726 7743 8192 
3 115 917 5034 
3 6726 5034 7743 
3 4256 917 115 
3 3048 115 1284 
3 4256 7107 8264 
3 8264 7107 7690 
3 4436 183 6230 
3 7801 6045 9570 
3 8565 6485 4374 
3 3520 6262 5642 
3 4315 6485 8674 
3 1069 1435 3197 
3 3596 6045 7801 
3 10210 9570 9139 
3 8504 6230 6262 
3 9195 10329 7801 
3 3029 3048 1284 
3 3029 1284 1814 
3 7541 9139 7690 
3 3048 7690 7107 
3 8152 9035 7541 
3 3048 7541 7690 
3 9035 11005 9139 
3 7690 9139 9570 
3 9195 7801 10210 
3 9195 10210 7529 
3 4374 364 1435 
3 8565 1435 1069 
3 9195 5642 6262 
3 9195 6262 10329 
3 3520 364 4374 
3 8504 4374 6485 
3 8674 8565 4571 
3 6748 8453 9622 
3 8503 5753 4645 
3 4571 7083 8674 
3 1433 3293 1067 
3 5796 9068 10322 
3 10023 5753 8503 
3 5852 8503 3197 
3 4640 8600 5796 
3 9658 5796 8158 
3 3275 1431 5153 
3 9658 5153 3293 
3 361 1431 4587 
3 7290 4587 3985 
3 4640 5796 3293 
3 1067 3293 5153 
3 1433 1067 2972 
3 3681 361 6408 
3 4567 2022 4622 
3 7290 6408 4587 
3 7290 4622 6408 
3 4587 6408 361 
3 2022 2034 4622 
3 4645 5753 3216 
3 4645 1434 363 
3 3216 8600 4640 
3 362 1433 3069 
3 1069 4645 363 
3 4617 6748 9622 
3 3216 1068 1434 
3 363 4617 7083 
3 362 4640 1433 
3 3069 1433 2972 
3 1067 361 3681 
3 5854 3681 6373 
3 3753 6373 4369 
3 2034 4369 4622 
3 1068 4640 362 
3 4151 7665 8453 
3 1067 3681 2972 
3 3069 5660 8027 
3 2046 2050 3753 
3 5980 5698 7890 
3 2034 2046 4369 
3 8504 6485 4436 
3 4610 8674 7083 
3 4151 8453 6748 
3 1434 4617 363 
3 6485 8565 8674 
3 4315 4610 1352 
3 1069 363 4571 
3 1069 4571 8565 
3 1351 183 5238 
3 4078 3596 1351 
3 6230 183 3596 
3 10329 3596 7801 
3 10890 9807 10420 
3 10890 10420 11071 
3 9570 6045 8264 
3 7107 4256 115 
3 10962 10420 9887 
3 10962 10704 9869 
3 6523 2712 9170 
3 7743 9170 8900 
3 5034 917 6523 
3 7743 6523 9170 
3 1698 917 4625 
3 8354 1350 6428 
3 5238 183 986 
3 4315 4436 6485 
3 8264 6045 4078 
3 8264 6352 4256 
3 9422 4078 985 
3 4128 1351 5238 
3 9597 9869 7443 
3 9170 10704 9887 
3 4625 4256 6352 
3 1350 182 3180 
3 11625 11485 11090 
3 11181 8874 10735 
3 9869 10704 7443 
3 6491 7443 2712 
3 917 4256 4625 
3 8354 182 1350 
3 985 182 9422 
3 4078 9422 6352 
3 4315 8674 4610 
3 184 3342 3183 
3 1352 4610 184 
3 987 4132 1353 
3 4315 1352 986 
3 4436 986 183 
3 1434 6748 4617 
3 7083 4132 8558 
3 1068 362 4151 
3 1068 4151 6748 
3 362 3069 7294 
3 4151 7294 7665 
3 7665 7294 8027 
3 10045 5660 7890 
3 2972 5854 5660 
3 8027 5660 10045 
3 6373 3753 5980 
3 6373 5980 5854 
3 3753 2050 3279 
3 3753 3279 5980 
3 2050 2040 3279 
3 9622 4533 4132 
3 4617 4132 7083 
3 10589 8027 10045 
3 7594 7890 5698 
3 185 6372 3758 
3 7638 9077 5693 
3 7665 8027 10589 
3 9569 7638 6985 
3 9077 10045 7594 
3 7681 5723 5987 
3 3457 5723 3028 
3 2040 3028 3279 
3 7681 7594 5723 
3 5987 5723 3457 
3 2040 2028 3028 
3 9077 7594 7681 
3 9077 7977 5693 
3 3917 3457 2016 
3 2028 3457 3028 
3 9506 6399 10122 
3 3758 9569 6985 
3 7802 9211 9506 
3 5117 517 186 
3 1353 4533 185 
3 186 585 4781 
3 6372 9569 3758 
3 185 584 5139 
3 9569 10589 7638 
3 6985 7638 5693 
3 3068 4128 5957 
3 5957 9714 8293 
3 8293 3183 5688 
3 9211 3342 987 
3 9714 3183 8293 
3 9045 9095 10090 
3 3183 3342 5688 
3 10649 10090 7615 
3 6619 7742 4566 
3 116 4566 1283 
3 10276 7826 5686 
3 182 8354 9422 
3 4566 6491 1283 
3 181 984 4983 
3 5253 1283 181 
3 984 8334 6428 
3 8293 7615 5957 
3 9714 5957 4128 
3 11181 10386 8874 
3 7425 8874 7742 
3 6491 2712 1813 
3 1283 1813 8334 
3 9529 4625 6428 
3 9529 6428 8334 
3 3068 3180 182 
3 3068 182 985 
3 986 1352 6595 
3 986 6595 5238 
3 3183 1352 184 
3 3342 184 987 
3 8874 9869 9597 
3 7742 9597 6491 
3 6352 9422 8354 
3 4625 8354 6428 
3 4128 3068 985 
3 1351 985 4078 
3 11382 10771 10519 
3 10063 5405 7480 
3 10522 10791 10867 
3 11485 11359 10386 
3 7288 2710 9173 
3 2710 921 1702 
3 11382 10519 10395 
3 8866 5341 8226 
3 9975 10519 10699 
3 9975 9173 5341 
3 10519 9789 8835 
3 7604 8160 6673 
3 8835 9789 8804 
3 10029 10565 10522 
3 9948 10867 11181 
3 10735 8874 7425 
3 10867 9948 10522 
3 10791 10522 10565 
3 9948 11181 10735 
3 9948 9216 8918 
3 8160 8835 8804 
3 10029 8804 10565 
3 6671 8159 7839 
3 9216 10735 7425 
3 7288 118 921 
3 4804 9667 8315 
3 2623 6673 8160 
3 5374 10029 8159 
3 2611 5341 2710 
3 1702 921 4804 
3 7604 4262 9173 
3 2710 7288 921 
3 9975 10699 9173 
3 5341 9173 2710 
3 6793 9306 7800 
3 9389 6780 9428 
3 2611 2710 1702 
3 1881 1702 4354 
3 7720 9306 6793 
3 6793 4077 541 
3 9428 4354 6490 
3 9428 6490 4077 
3 6731 1406 1040 
3 965 5122 6554 
3 10302 9306 9983 
3 3744 308 2984 
3 6417 3744 5848 
3 7753 5848 2984 
3 9306 7720 9983 
3 7633 9994 10738 
3 1406 2937 1040 
3 4003 4984 8362 
3 2984 1406 6731 
3 7753 6731 9344 
3 7720 9696 9983 
3 9083 8177 7870 
3 9428 7800 9389 
3 3512 9389 5690 
3 9389 3512 6780 
3 9428 6780 4354 
3 1702 1881 2611 
3 5405 5799 7480 
3 7746 9499 5134 
3 1040 4003 6731 
3 1040 307 4003 
3 1332 11707 966 
3 5848 7753 8945 
3 7633 3010 9994 
3 7753 9344 9993 
3 8945 10092 9983 
3 8945 9993 10092 
3 9983 8944 10302 
3 8554 6734 4984 
3 307 4984 4003 
3 9344 4003 8362 
3 4233 170 3010 
3 9983 10092 8944 
3 10302 5690 9389 
3 2611 1881 2639 
3 2611 8226 5341 
3 10302 8944 5690 
3 3512 5690 3081 
3 6780 3512 1817 
3 6780 1817 1881 
3 11382 11572 10771 
3 9789 11143 10565 
3 11269 11314 11143 
3 10771 11143 9789 
3 11546 11625 11314 
3 10791 11090 10867 
3 11071 11485 11625 
3 11090 11485 10867 
3 11423 11572 11077 
3 10395 8866 10871 
3 10791 11143 11314 
3 11090 11314 11625 
3 2611 2639 8226 
3 5341 8866 9975 
3 10395 9975 8866 
3 10063 8866 8226 
3 10519 9975 10395 
3 11077 10871 11375 
3 119 4738 1287 
3 1817 2832 2639 
3 8226 2639 5405 
3 8226 5405 10063 
3 10771 11572 11269 
3 11314 11269 11546 
3 11359 11485 11071 
3 11302 11546 11059 
3 11302 11625 11546 
3 11059 11546 11453 
3 10420 11359 11071 
3 10890 11071 11302 
3 10871 8866 10063 
3 10686 10063 7480 
3 11077 10395 10871 
3 11375 10871 10780 
3 11382 10395 11077 
3 11382 11077 11572 
3 6300 8177 9083 
3 9994 9083 10738 
3 8177 7270 7870 
3 9083 7870 8944 
3 7270 119 3081 
3 7270 3081 7870 
3 2832 1817 1287 
3 2832 1287 4738 
3 9344 8362 6152 
3 9344 6152 9993 
3 10092 9993 10738 
3 10092 10738 9083 
3 8362 4984 6734 
3 8362 6734 4233 
3 3010 6152 4233 
3 170 4233 966 
3 6152 3010 7633 
3 6152 7633 9993 
3 965 163 5122 
3 8602 306 4267 
3 966 6734 1332 
3 163 8554 6661 
3 8602 5122 306 
3 4267 653 4215 
3 1039 5122 6661 
3 4984 6661 8554 
3 6388 6343 4103 
3 1101 3726 1467 
3 4215 8777 6388 
3 4267 8325 8602 
3 6353 4937 5187 
3 9289 6099 8316 
3 6343 3726 4103 
3 6388 6217 8325 
3 326 4998 659 
3 6823 738 8676 
3 5187 453 738 
3 5187 5062 6353 
3 6753 4174 1346 
3 3261 5911 4801 
3 6381 8040 4260 
3 4093 6400 8071 
3 9140 8545 5670 
3 3583 6223 9508 
3 8040 7044 4174 
3 1346 178 4445 
3 6063 4093 8071 
3 6400 4260 8040 
3 8761 4998 326 
3 3129 657 325 
3 8676 327 6823 
3 738 8708 454 
3 4093 326 658 
3 8936 7635 5877 
3 6823 327 659 
3 6823 659 4998 
3 4314 178 7044 
3 4174 178 1346 
3 4093 658 4260 
3 4093 4260 6400 
3 4445 178 974 
3 1340 3679 171 
3 178 4174 7044 
3 4637 7044 6381 
3 8936 10951 10661 
3 5221 658 326 
3 453 660 8676 
3 4276 7320 5221 
3 7883 4044 9203 
3 3726 4044 1467 
3 8777 4010 9203 
3 3726 9203 4044 
3 660 327 8676 
3 453 8676 738 
3 1467 4044 452 
3 4937 452 737 
3 9203 3726 6343 
3 8777 6343 6388 
3 653 306 5134 
3 1405 1039 6661 
3 9499 653 5134 
3 5134 306 1039 
3 305 653 9499 
3 4265 2937 5671 
3 4984 307 1405 
3 1039 3453 5134 
3 9449 7883 10338 
3 10338 9203 4010 
3 8563 7746 3453 
3 1405 3453 1039 
3 737 7988 5263 
3 737 5263 453 
3 452 6313 7988 
3 328 5059 660 
3 6313 9449 8687 
3 3918 10338 4010 
3 652 305 3096 
3 7746 5134 3453 
3 3096 9499 10259 
3 9151 7746 8563 
3 1405 307 4265 
3 3453 4265 8563 
3 5599 3866 3096 
3 9499 3096 305 
3 5671 9151 8563 
3 5671 8563 4265 
3 7988 8687 4373 
3 8768 6225 3865 
3 7746 9151 10259 
3 7746 10259 9499 
3 328 661 5059 
3 4000 9703 6297 
3 8768 8194 6138 
3 9449 6313 7883 
3 5263 7988 328 
3 661 4373 3915 
3 7988 6313 8687 
3 4373 8687 6138 
3 6138 8687 9449 
3 6225 9449 10338 
3 10164 5837 9665 
3 4276 5221 659 
3 3360 660 5059 
3 661 328 4373 
3 8936 5877 10732 
3 4160 658 7320 
3 9920 9674 5837 
3 9920 10164 10642 
3 325 4160 3129 
3 657 7318 4988 
3 4160 5877 3129 
3 3129 7635 7318 
3 6223 7044 4637 
3 6552 4637 324 
3 10732 5877 7926 
3 9674 4276 3360 
3 7854 9508 6223 
3 6552 6223 4637 
3 7320 7926 4160 
3 658 325 4260 
3 5059 5837 3360 
3 4276 7926 7320 
3 7988 4373 328 
3 5263 328 660 
3 9674 7926 4276 
3 5221 7320 658 
3 327 3360 4276 
3 327 4276 659 
3 7044 6223 4314 
3 1340 171 3251 
3 974 178 4314 
3 3583 4314 6223 
3 658 4160 325 
3 4260 325 6381 
3 6946 3251 171 
3 9303 6070 173 
3 1339 4395 973 
3 3679 3583 9508 
3 1720 957 3335 
3 4016 8764 6205 
3 5960 9620 5808 
3 975 4365 7152 
3 3335 3594 5960 
3 9620 5960 6205 
3 3318 3748 975 
3 172 975 7152 
3 6402 7996 9562 
3 4632 7291 8476 
3 973 171 3563 
3 5871 3679 9508 
3 9695 8461 6365 
3 172 3318 975 
3 172 7152 1339 
3 172 6402 8476 
3 1339 973 4245 
3 7799 3181 5793 
3 171 3679 3563 
3 4245 6268 7996 
3 7174 957 2773 
3 3006 5488 2758 
3 8677 6147 9663 
3 9620 7894 5808 
3 3295 1720 3335 
3 5808 3335 5960 
3 9663 5808 7894 
3 8050 9620 6205 
3 3748 3318 5951 
3 3748 5951 8050 
3 11076 10964 10961 
3 10169 8355 8899 
3 7619 6167 5496 
3 8072 3400 7174 
3 10487 10961 8899 
3 10613 10475 9936 
3 957 1720 2773 
3 6167 3007 5496 
3 1326 5169 158 
3 2718 961 2699 
3 2764 5473 2813 
3 8236 2819 6575 
3 1724 4412 8318 
3 6525 4761 7097 
3 1133 1960 1499 
3 11501 10779 11570 
3 158 961 2718 
3 6918 7519 9421 
3 9936 10964 10479 
3 7455 10115 5464 
3 9699 7455 5488 
3 2773 8072 7174 
3 2758 5464 2773 
3 2758 2773 1720 
3 10479 10964 11374 
3 10479 10984 10115 
3 10984 8939 10115 
3 10479 10115 7455 
3 6918 2718 7519 
3 9421 10976 10487 
3 9421 7519 10976 
3 10487 11294 10961 
3 11501 11505 11294 
3 10976 11294 10487 
3 2699 961 1724 
3 1839 8318 6424 
3 9821 10779 11501 
3 10976 11501 11294 
3 2718 2699 9319 
3 7519 9821 10976 
3 9319 10570 9821 
3 9319 9821 7519 
3 10961 11294 11076 
3 11061 11288 11066 
3 11076 11288 11061 
3 11374 10984 10479 
3 11061 11374 11076 
3 11505 11076 11294 
3 9811 8939 10984 
3 11061 10984 11374 
3 2729 3400 5447 
3 10115 8072 5464 
3 5960 3594 6205 
3 8050 8764 9303 
3 6946 973 4395 
3 9348 4395 4365 
3 3583 3679 1340 
3 974 1340 2927 
3 4395 7152 4365 
3 5743 9118 7795 
3 171 973 6946 
3 3251 8685 5670 
3 10905 8836 9811 
3 10115 8939 8072 
3 957 7174 155 
3 3594 4016 6205 
3 975 3748 1341 
3 5035 976 3234 
3 8050 6205 8764 
3 8308 10167 5916 
3 3748 8050 9303 
3 1341 9303 173 
3 6946 9348 8685 
3 6946 8685 3251 
3 1340 3251 2927 
3 974 2927 4445 
3 8685 10306 5670 
3 3251 5670 2927 
3 7657 5752 9140 
3 5670 8545 2927 
3 9303 8764 6070 
3 976 1580 3234 
3 4365 1341 5035 
3 4365 6149 9348 
3 4365 5035 6149 
3 9348 6149 7795 
3 1324 3400 2729 
3 1888 3083 7104 
3 155 1324 4016 
3 8764 8308 6070 
3 8939 8836 5447 
3 8939 5447 8072 
3 3880 6177 4016 
3 155 4016 3594 
3 11505 11570 11288 
3 11505 11288 11076 
3 8836 8939 9811 
3 10905 9811 11066 
3 8853 5415 8236 
3 1839 2819 1724 
3 8853 10570 5415 
3 2819 5415 2699 
3 11435 11570 10779 
3 11153 10779 10570 
3 5415 2819 8236 
3 8180 159 962 
3 10044 8853 8236 
3 10044 8236 8114 
3 11288 11435 11548 
3 11066 11548 11636 
3 5447 8836 7792 
3 2729 7792 7105 
3 7792 2609 7105 
3 2729 1836 1324 
3 2729 7105 1836 
3 1324 1836 3880 
3 11435 10792 11259 
3 11548 11261 11636 
3 8836 10905 10059 
3 7792 5385 2609 
3 8236 6575 8114 
3 7992 9122 8877 
3 8853 10044 10504 
3 11153 10504 10792 
3 11259 10792 11140 
3 11462 11140 11356 
3 11259 11462 11261 
3 9957 5385 10059 
3 11636 11261 10441 
3 10441 9957 10059 
3 1888 1721 3083 
3 7104 3083 7680 
3 11261 10973 10441 
3 11636 10441 10905 
3 9522 5385 9957 
3 10059 5385 7792 
3 2609 1721 1888 
3 7105 1888 1836 
3 3613 8308 5916 
3 10683 10172 11020 
3 3613 5916 3153 
3 1580 3020 1342 
3 10667 5704 9075 
3 8182 10167 7680 
3 5916 10167 8323 
3 3153 3020 1580 
3 9140 9118 10201 
3 7657 10201 9120 
3 4043 4801 5911 
3 6097 5911 7657 
3 3613 3153 976 
3 3234 3052 5743 
3 174 6634 1342 
3 1580 3052 3234 
3 7657 5911 5752 
3 8545 5752 4445 
3 4445 5752 3261 
3 1346 980 6753 
3 7655 10201 9118 
3 10147 9118 5743 
3 5670 10306 9140 
3 8545 9140 5752 
3 4016 1324 3880 
3 6177 3880 7680 
3 8764 6177 8308 
3 6070 8308 3613 
3 173 6070 3613 
3 976 3153 1580 
3 173 3613 976 
3 173 976 5035 
3 3052 10147 5743 
3 6149 5743 7795 
3 8040 4174 6753 
3 980 1346 3261 
3 6753 3857 9606 
3 6753 9606 8040 
3 3857 6753 980 
3 3857 980 177 
3 6400 7739 8071 
3 4093 6063 326 
3 8761 326 6063 
3 10191 6063 10272 
3 5187 738 5062 
3 5062 454 739 
3 8708 4998 9289 
3 10191 8761 6063 
3 738 6823 8708 
3 454 8708 8287 
3 1467 4937 3927 
3 5062 738 454 
3 1101 1467 3927 
3 1101 5213 457 
3 4267 6388 8325 
3 8602 4618 6554 
3 1332 8554 163 
3 965 6554 1331 
3 4618 1331 6554 
3 8602 6554 5122 
3 4685 11707 1332 
3 8554 1332 6734 
3 5003 6353 5062 
3 5003 5062 739 
3 4103 457 6217 
3 4103 6217 6388 
3 164 4618 7154 
3 8325 4618 8602 
3 4504 457 741 
3 5053 5213 8742 
3 8385 4500 8364 
3 8325 7154 4618 
3 1332 163 4685 
3 5013 8776 2976 
3 163 965 4685 
3 8776 9458 7652 
3 7154 4500 164 
3 1331 4996 2903 
3 965 1331 2903 
3 4685 5772 11707 
3 457 5213 741 
3 4564 10244 6882 
3 6217 457 4504 
3 4500 8385 4046 
3 6217 4504 8364 
3 6217 8364 8325 
3 7137 739 8287 
3 8287 739 454 
3 6353 5003 8742 
3 741 456 4247 
3 7137 8287 4604 
3 8316 8287 9289 
3 5213 3927 8742 
3 5053 8742 5003 
3 6063 8071 10272 
3 7908 7978 7307 
3 4998 8761 9289 
3 8708 9289 8287 
3 980 4801 177 
3 3857 7250 7739 
3 177 3999 7250 
3 177 7250 3857 
3 8071 7739 9201 
3 10272 9201 7908 
3 7908 9201 7978 
3 6375 7982 3799 
3 6099 10272 7908 
3 6099 4004 3957 
3 7898 7250 3999 
3 7898 6375 7978 
3 3799 3994 6375 
3 7898 7978 9201 
3 6099 7908 4004 
3 1472 4563 3382 
3 4130 1471 5256 
3 739 455 5003 
3 1605 3957 1472 
3 3957 4604 8316 
3 455 739 466 
3 466 1106 5256 
3 4504 741 4247 
3 8719 6882 9250 
3 6498 4046 8385 
3 6498 8385 4247 
3 1331 164 4996 
3 2903 6157 5772 
3 4685 2903 5772 
3 11707 9253 7886 
3 2903 4996 6157 
3 8776 6219 9458 
3 10103 7886 9253 
3 10103 10185 9001 
3 5003 455 740 
3 8719 6498 4247 
3 5053 740 456 
3 5053 456 741 
3 4500 4046 967 
3 4996 2976 6157 
3 10244 9250 6882 
3 456 6882 4247 
3 2976 967 1333 
3 165 1333 4084 
3 8776 6157 2976 
3 5013 2976 1333 
3 5772 6157 7652 
3 5772 7652 9253 
3 7652 6157 8776 
3 6219 8776 5013 
3 7652 9458 10185 
3 7652 10185 9253 
3 1105 6685 1471 
3 740 4564 456 
3 4247 6882 8719 
3 6498 8719 8101 
3 4149 4130 5256 
3 1106 7137 4604 
3 4130 1105 1471 
3 5256 1471 466 
3 739 7137 466 
3 455 466 1471 
3 4287 4564 6685 
3 1471 6685 455 
3 3999 6737 6375 
3 7978 6375 3994 
3 4149 5256 1106 
3 1605 1472 3382 
3 3957 4004 1472 
3 4563 467 1107 
3 4004 467 1472 
3 3957 1605 4604 
3 4149 1106 1605 
3 4149 1605 3382 
3 978 1344 4042 
3 979 4585 6737 
3 4043 5237 979 
3 1345 3999 177 
3 10683 11020 9075 
3 5653 3051 3020 
3 10284 10740 5672 
3 7618 5672 5653 
3 7873 10683 9075 
3 7873 9075 5704 
3 5653 9014 11020 
3 7618 11020 10172 
3 3127 3302 977 
3 6634 977 3193 
3 11725 978 4042 
3 6097 4042 4043 
3 977 6634 174 
3 3127 174 3051 
3 1345 4801 4043 
3 5237 4043 4042 
3 3052 1580 1342 
3 3052 1342 6634 
3 4043 979 1345 
3 4801 1345 177 
3 9075 11020 10667 
3 10167 9014 8323 
3 3153 8323 3020 
3 1342 3020 3051 
3 7267 7873 3055 
3 3055 3223 958 
3 10167 8182 10667 
3 9014 10667 11020 
3 11020 7618 5653 
3 9014 5653 8323 
3 1721 2836 958 
3 1721 3223 3083 
3 1721 958 3223 
3 3083 3223 8182 
3 10973 9131 9957 
3 10973 9957 10441 
3 958 2836 4744 
3 8049 9131 5441 
3 1576 2801 3397 
3 962 3397 8180 
3 8114 3397 5563 
3 10044 5563 8877 
3 4860 1328 1576 
3 3397 2801 5563 
3 7085 9642 7992 
3 5563 7992 8877 
3 9642 5454 9122 
3 9823 10603 11140 
3 7992 9642 9122 
3 9823 9122 10603 
3 9038 7470 11483 
3 10591 7476 10035 
3 4744 9522 8049 
3 2837 8049 5441 
3 2837 1330 4744 
3 9522 4744 2836 
3 4744 1330 162 
3 4744 162 958 
3 162 7267 3055 
3 3223 3055 5704 
3 2801 1328 7085 
3 9642 7085 3062 
3 5454 5559 7476 
3 10603 10591 11356 
3 9038 11483 10591 
3 9038 10591 10035 
3 9904 7360 5420 
3 7336 8783 10617 
3 2608 2874 5420 
3 5296 5420 7360 
3 4835 5895 8628 
3 2874 8628 5420 
3 1299 4554 131 
3 1299 4835 2874 
3 11024 11577 11354 
3 11192 11354 11083 
3 10980 9863 10481 
3 10617 10881 11192 
3 11659 11606 11410 
3 11031 11410 11291 
3 10365 8783 9863 
3 9863 8783 7360 
3 11324 11044 11671 
3 11324 11552 11632 
3 11615 11671 11430 
3 11410 11430 11291 
3 1824 4990 4902 
3 1296 4902 9462 
3 11632 10874 11222 
3 10413 11222 8851 
3 1956 4990 1824 
3 3569 1824 1296 
3 9785 8830 10874 
3 8771 5658 7182 
3 2868 5658 8202 
3 10874 9998 11222 
3 11162 11632 11552 
3 11324 11632 10413 
3 10874 11632 11162 
3 10752 11284 11026 
3 8202 9998 8830 
3 9785 10874 11162 
3 11430 11534 11615 
3 11284 11406 11026 
3 4990 7187 8532 
3 4990 8532 4902 
3 8830 8222 8202 
3 9998 8202 5658 
3 9785 8792 8830 
3 10874 8830 9998 
3 10752 9785 11162 
3 10752 11162 11284 
3 11606 11518 11698 
3 11606 11672 11534 
3 11519 11648 11614 
3 11421 11614 11518 
3 11519 11614 11577 
3 11235 11577 11024 
3 10881 10365 11024 
3 10981 5895 8190 
3 11290 11235 11034 
3 10881 11024 11354 
3 10881 8783 10365 
3 11099 11094 11290 
3 2875 4835 927 
3 131 4835 1299 
3 4554 4860 5186 
3 962 159 927 
3 8628 5895 9904 
3 8628 9904 5420 
3 4835 131 927 
3 4835 2875 5895 
3 4860 1576 5186 
3 131 5186 927 
3 9863 9904 10981 
3 10481 10981 8875 
3 1576 3397 962 
3 5186 962 927 
3 11024 10365 11034 
3 11024 11034 11235 
3 11034 10365 10980 
3 11034 11099 11290 
3 11698 11648 11678 
3 11698 11672 11606 
3 11592 11648 11519 
3 11418 11519 11235 
3 8190 5895 2875 
3 6566 2568 8203 
3 159 8640 1706 
3 927 1706 2875 
3 8190 8203 8875 
3 10481 8875 9798 
3 8114 6575 8180 
3 8114 8180 3397 
3 2875 1706 6566 
3 8190 6566 8203 
3 2568 6566 1919 
3 2568 1954 2554 
3 10757 11237 11094 
3 11290 11587 11418 
3 11099 9798 11094 
3 11587 11094 11237 
3 11544 11398 11590 
3 11678 11705 11511 
3 11648 11592 11692 
3 11648 11692 11678 
3 10481 9798 11099 
3 10980 11099 11034 
3 10752 11026 10769 
3 10525 10611 10007 
3 11511 11658 11396 
3 11026 11289 10769 
3 10525 10769 10611 
3 10007 9321 8143 
3 11026 11396 11289 
3 11369 9849 10611 
3 5215 32 835 
3 1980 5072 7334 
3 1921 1980 2532 
3 8143 5301 10007 
3 5301 2532 2610 
3 6582 2868 8202 
3 8143 2532 5301 
3 8792 5301 8222 
3 8727 1760 1200 
3 5072 7242 9371 
3 2610 7334 1988 
3 1956 1988 5046 
3 5301 2610 8222 
3 8792 8222 8830 
3 11672 11678 11511 
3 11534 11406 11615 
3 11672 11511 11406 
3 11615 11406 11284 
3 11698 11678 11672 
3 11534 11672 11406 
3 7242 7187 5046 
3 9371 5046 1988 
3 1956 2868 6582 
3 1988 6582 2610 
3 11552 11615 11284 
3 11552 11284 11162 
3 9970 10080 9159 
3 8800 9888 7369 
3 9730 3024 8727 
3 1760 7242 1200 
3 11032 11407 11282 
3 11420 11604 11669 
3 10944 11135 11340 
3 11496 11282 11562 
3 11032 11549 11407 
3 11662 11605 11689 
3 11420 11496 11562 
3 9970 11135 10080 
3 9970 9159 7543 
3 7976 5505 9730 
3 6341 7976 9730 
3 6341 9730 8727 
3 3024 1760 8727 
3 6341 5215 3847 
3 5215 8727 1200 
3 5072 1200 7242 
3 5489 9017 7543 
3 7976 7543 9159 
3 8695 7005 443 
3 835 32 7005 
3 11426 11329 11069 
3 10849 11032 10761 
3 10454 9788 10793 
3 11135 10793 11340 
3 10761 11032 11282 
3 10761 11496 10793 
3 11420 11340 11496 
3 11282 11496 10761 
3 10454 11135 9970 
3 9017 9970 7543 
3 11096 11437 11239 
3 10774 11239 11457 
3 11426 11664 11605 
3 11549 11662 11407 
3 11388 10856 10442 
3 9960 8814 7409 
3 10856 11541 11096 
3 10856 10360 8814 
3 7984 3554 8749 
3 7984 11724 3479 
3 7555 5508 5735 
3 9346 5735 7984 
3 5430 5508 9154 
3 9346 7555 5735 
3 10856 9960 10442 
3 8082 2704 5383 
3 7984 8749 11724 
3 6705 8570 4173 
3 11541 10856 11388 
3 9991 8790 10530 
3 11128 11541 11388 
3 11128 10917 10372 
3 11582 11242 11437 
3 11582 11437 11541 
3 11414 11689 11535 
3 11437 11535 11239 
3 11562 11407 11603 
3 11516 11438 11669 
3 2960 9386 5721 
3 3479 5721 7984 
3 5721 9386 10994 
3 9346 10542 7555 
3 10037 10542 10994 
3 10994 10542 9346 
3 3479 11724 1641 
3 3479 1908 2960 
3 9860 10542 10527 
3 10442 10917 11388 
3 6852 9386 2960 
3 3479 2960 5721 
3 10994 9386 10037 
3 10527 8857 9815 
3 9991 10372 9815 
3 10917 11128 11388 
3 10917 9815 10372 
3 11128 10770 11582 
3 10527 9815 10917 
3 10527 10917 10442 
3 11319 11242 11124 
3 10530 10770 10372 
3 11407 11662 11603 
3 11405 11030 11618 
3 11562 11603 11604 
3 11562 11604 11420 
3 7421 10080 8800 
3 11058 10944 11340 
3 9159 7421 5505 
3 9730 5505 3024 
3 10080 10944 8800 
3 7421 8800 7369 
3 1760 3024 1855 
3 8532 1855 7139 
3 11242 11319 11414 
3 11242 11414 11535 
3 11689 11414 11523 
3 11603 11673 11604 
3 11603 11523 11673 
3 11604 11690 11669 
3 11517 11607 11656 
3 11673 11690 11604 
3 9888 8800 10359 
3 11201 11438 11633 
3 3024 5505 2760 
3 2574 5378 5300 
3 1645 1855 2760 
3 2574 2760 5378 
3 11516 11633 11438 
3 11669 11438 11058 
3 10160 7369 9888 
3 10160 9888 10606 
3 11673 11523 11597 
3 11673 11656 11690 
3 11673 11597 11656 
3 11690 11656 11516 
3 11656 11607 11516 
3 11690 11516 11669 
3 5330 7351 9196 
3 5383 8857 8082 
3 9196 7351 9991 
3 9196 9991 9815 
3 9763 10750 11124 
3 10770 11124 11242 
3 11523 11414 11405 
3 11597 11405 11618 
3 4173 3402 1908 
3 1641 1908 3479 
3 5383 9196 8857 
3 10037 8857 10527 
3 3825 1943 1968 
3 1908 1968 2960 
3 8082 9386 6852 
3 2704 6852 1943 
3 10037 9386 8082 
3 10037 8082 8857 
3 6705 1514 3475 
3 5783 3475 3469 
3 9292 6089 8570 
3 5783 8570 3475 
3 10017 9352 5872 
3 1147 7061 544 
3 4064 7061 10342 
3 5872 3157 4081 
3 1611 1513 3157 
3 3818 9352 10342 
3 3475 1514 1148 
3 3475 1148 3469 
3 4173 8550 6705 
3 8570 6705 3475 
3 1908 1641 4173 
3 6089 4173 8570 
3 10660 7995 9241 
3 1514 4119 1148 
3 4173 1641 8550 
3 6705 546 1514 
3 1149 4240 7112 
3 1514 7112 4119 
3 1194 26 829 
3 8550 546 6705 
3 9261 10017 5956 
3 10660 5872 7995 
3 5956 10017 10660 
3 10279 4119 7112 
3 4746 1512 1146 
3 4050 7932 6796 
3 7061 3818 10342 
3 4064 10342 7851 
3 3818 3157 9352 
3 10342 9352 10017 
3 10957 10666 10572 
3 10572 10666 9029 
3 1146 6606 543 
3 1510 6606 3631 
3 8977 10666 10957 
3 8985 5498 10668 
3 4064 6606 1146 
3 3719 543 6796 
3 5731 3319 3042 
3 5836 101 3733 
3 10310 9586 9157 
3 9941 7637 10510 
3 8986 7637 9941 
3 10998 10510 7733 
3 10069 8977 10722 
3 9967 10957 9881 
3 9694 3042 101 
3 3733 101 1269 
3 10510 7637 9694 
3 5836 9694 101 
3 8977 5829 7947 
3 10666 7947 9996 
3 1512 4064 1146 
3 3719 1146 543 
3 7947 5829 6473 
3 3719 6473 4746 
3 6473 7282 4746 
3 3719 4746 1146 
3 10942 9941 10998 
3 10942 8997 9967 
3 7733 5680 8997 
3 10998 8997 10942 
3 7769 10069 10722 
3 9967 10722 10957 
3 6607 8068 3056 
3 1694 3056 903 
3 101 8683 1269 
3 3733 1269 3735 
3 6092 8068 6607 
3 1809 6607 1694 
3 1269 8683 6890 
3 1269 6890 1809 
3 7501 10026 9284 
3 5411 9825 10180 
3 8969 10026 7501 
3 3056 7501 6801 
3 8947 5483 10186 
3 8865 10186 7787 
3 2731 6801 9284 
3 2731 9284 5411 
3 4743 8330 6635 
3 9623 6635 4666 
3 3339 5408 9595 
3 10207 5365 7974 
3 1873 6921 1801 
3 6922 1801 2755 
3 3937 506 8051 
3 9655 8051 8303 
3 2755 7838 7571 
3 6922 7571 9524 
3 1251 4125 3738 
3 8303 6330 9655 
3 6391 900 97 
3 6391 97 6635 
3 5408 3339 2617 
3 2617 3339 900 
3 7383 10207 10869 
3 10374 8947 10186 
3 6635 1265 4666 
3 9623 6207 8051 
3 2693 7122 7905 
3 3339 7122 97 
3 1251 7224 2755 
3 6922 2755 7571 
3 1801 4125 1251 
3 7224 1251 83 
3 2755 7224 7838 
3 10601 5485 7420 
3 4125 6330 3738 
3 6183 8371 3871 
3 9691 3789 6145 
3 8303 6145 6330 
3 9623 4666 6207 
3 8303 6050 6145 
3 7122 3339 9595 
3 7122 2693 1265 
3 5408 5365 7383 
3 5408 7383 9191 
3 11381 9793 10869 
3 8947 10869 10207 
3 2617 5365 5408 
3 9595 5408 9191 
3 8865 10816 10374 
3 8947 10374 10869 
3 9825 10436 11379 
3 9825 11379 10180 
3 3331 10650 6092 
3 6890 6092 6607 
3 11317 11075 11327 
3 11379 11327 10816 
3 1878 3331 1695 
3 8683 4565 6890 
3 1695 4565 904 
3 3042 904 101 
3 11379 10436 11477 
3 11327 11477 11068 
3 10026 8969 10477 
3 10004 8840 10503 
3 10436 10477 10949 
3 10436 10949 11477 
3 10477 8969 10220 
3 10477 9081 10004 
3 11559 11057 11381 
3 11075 10869 10374 
3 11145 11317 11068 
3 10503 11068 10949 
3 10970 9191 9793 
3 9793 9191 7383 
3 11559 11381 11075 
3 11327 11075 10374 
3 9595 7905 7122 
3 1551 2798 899 
3 9595 9191 7905 
3 2693 5437 2798 
3 8941 7838 10601 
3 8941 10601 9953 
3 8387 9691 6050 
3 6207 6050 8303 
3 7224 3793 7838 
3 7420 5394 7405 
3 7224 83 3793 
3 5384 7414 7405 
3 3738 6145 3789 
3 879 2714 3793 
3 6145 6050 9691 
3 3789 6183 3871 
3 3709 6050 3837 
3 1551 3837 4666 
3 96 899 7038 
3 3709 8387 6050 
3 9427 8387 3875 
3 899 3837 1551 
3 1681 2714 879 
3 3793 2714 5485 
3 2618 2714 1681 
3 3789 879 83 
3 5485 2714 5394 
3 5485 5394 7420 
3 9427 8371 6183 
3 3789 3871 879 
3 8387 9427 6183 
3 9691 6183 3789 
3 8387 3709 3875 
3 2798 1551 2693 
3 7038 899 2798 
3 11224 8855 10910 
3 7948 2798 5437 
3 7905 5437 2693 
3 10391 9968 10970 
3 9191 9968 7905 
3 10391 10970 11064 
3 11057 10970 9793 
3 11270 11057 11559 
3 11458 11317 11145 
3 11458 11559 11317 
3 11068 11317 11327 
3 10777 11458 11145 
3 10777 11145 9803 
3 7424 8840 10004 
3 10477 10004 10949 
3 7899 5470 9081 
3 10220 9081 10477 
3 10650 6968 7899 
3 10220 7899 9081 
3 6100 9157 7654 
3 10203 9157 8986 
3 7494 5498 8985 
3 9881 10517 10942 
3 3303 5570 7797 
3 9029 7494 10572 
3 9182 2781 7102 
3 10517 9941 10942 
3 10706 5570 9029 
3 10572 7494 9881 
3 2838 6968 1810 
3 3319 5731 9586 
3 3571 1878 6967 
3 3571 6967 7767 
3 3331 4565 1695 
3 1878 1695 6967 
3 6967 1695 3319 
3 6967 3319 9586 
3 8068 6092 10650 
3 10220 10650 7899 
3 1878 6968 3331 
3 4565 3331 6092 
3 5731 7637 8986 
3 10203 8986 10517 
3 10668 10203 10517 
3 10668 10517 8985 
3 3042 7637 5731 
3 9586 5731 9157 
3 9881 7494 8985 
3 9881 8985 10517 
3 5570 7494 9029 
3 10706 9029 9996 
3 6796 543 4050 
3 7170 6958 4040 
3 7851 10017 9261 
3 5278 11717 1515 
3 7947 6796 9996 
3 10666 9996 9029 
3 3631 7851 9261 
3 3631 6643 1144 
3 5956 10660 9241 
3 1145 1610 3617 
3 1149 546 26 
3 11724 829 1641 
3 7995 10279 9241 
3 6669 1511 1610 
3 3617 9241 6800 
3 5278 4240 1149 
3 26 5278 1149 
3 546 1149 7112 
3 1194 11717 26 
3 829 26 546 
3 8463 11717 4221 
3 8749 1194 11724 
3 5956 9241 3617 
3 5956 3425 9261 
3 9241 4240 6800 
3 11717 5278 26 
3 3303 7797 7009 
3 4040 7797 7170 
3 7932 4050 7170 
3 7932 7170 7797 
3 3631 9261 6643 
3 1144 542 8386 
3 5956 3617 3425 
3 6643 1511 542 
3 547 1145 6800 
3 1515 6800 4240 
3 4921 1144 8386 
3 1374 1593 4040 
3 547 6800 1515 
3 5278 1515 4240 
3 7124 1008 7008 
3 4040 7009 7797 
3 4921 8386 6958 
3 4921 6958 7170 
3 1144 6643 542 
3 8386 6948 223 
3 3425 1610 1511 
3 542 6948 8386 
3 504 8336 1145 
3 6800 1145 3617 
3 8463 7322 4258 
3 11717 4258 1515 
3 4258 7322 547 
3 4258 547 1515 
3 8427 4770 8463 
3 4362 3992 6437 
3 766 7322 4770 
3 1145 8336 1610 
3 504 1145 5210 
3 7322 5210 547 
3 4768 8449 4752 
3 1511 4752 542 
3 1610 8336 6669 
3 1511 6669 4752 
3 1008 7009 1593 
3 1374 6958 223 
3 7008 1593 3890 
3 1009 8449 1375 
3 4752 8449 6948 
3 4752 6948 542 
3 2898 3303 222 
3 7124 9056 7489 
3 3303 7009 1008 
3 222 7124 2857 
3 3914 1007 2739 
3 1373 2898 222 
3 2739 1592 7103 
3 2857 1373 222 
3 1372 3589 3811 
3 3589 7100 6499 
3 3914 221 1007 
3 1592 7102 2781 
3 6100 3811 7879 
3 7767 9555 3571 
3 10668 9182 7654 
3 1007 7102 1592 
3 1810 3571 4099 
3 4428 4099 6499 
3 6499 4099 9555 
3 7879 7767 10310 
3 10310 9157 6100 
3 3811 3144 221 
3 5498 5570 2898 
3 2781 2898 1373 
3 10203 10668 7654 
3 3144 9182 7102 
3 2898 5570 3303 
3 222 3303 1008 
3 7879 9555 7767 
3 10310 7767 9586 
3 3144 3811 6100 
3 7654 9157 10203 
3 3144 6100 7654 
3 3144 7654 9182 
3 7899 6968 2838 
3 7899 2838 5470 
3 6968 1878 1810 
3 2838 1810 1270 
3 10503 8840 9803 
3 10503 9803 11145 
3 8828 8840 7398 
3 5391 5470 2719 
3 10970 11057 11064 
3 11473 11315 10903 
3 11064 11057 11270 
3 11576 11270 11267 
3 11473 10910 10391 
3 9968 8855 5437 
3 8855 9968 10391 
3 8855 10391 10910 
3 3059 96 7038 
3 7948 5437 8855 
3 9528 7038 7948 
3 9895 7948 11224 
3 1796 2713 2618 
3 2714 2618 5394 
3 1796 2618 1681 
3 3871 1681 879 
3 7405 5394 5384 
3 7414 5384 5438 
3 1245 1796 3895 
3 3474 3871 8371 
3 3895 1796 3474 
3 3474 8371 6222 
3 8371 9427 8358 
3 9528 7948 9895 
3 3709 899 96 
3 6855 1877 1808 
3 3875 96 1264 
3 1264 2922 1808 
3 3059 7038 9528 
3 3059 5504 2922 
3 9427 3875 8358 
3 6222 3895 3474 
3 96 3059 1264 
3 3875 3887 8358 
3 9129 7414 5438 
3 9129 9689 7640 
3 2713 1796 1245 
3 6222 8371 8358 
3 3909 3895 8338 
3 3822 6856 8104 
3 3875 1264 3887 
3 8358 6292 6222 
3 10515 9895 11189 
3 9856 9838 7498 
3 11270 11576 11315 
3 11064 11473 10391 
3 7948 8855 11224 
3 9895 11224 11189 
3 10433 10910 11473 
3 11315 11473 11064 
3 11467 11576 11267 
3 10777 11267 11458 
3 7398 7424 5391 
3 905 1696 2636 
3 10516 10830 11136 
3 10516 11136 10777 
3 10516 9803 8828 
3 10516 8828 9861 
3 8840 7424 7398 
3 7389 7398 5366 
3 7398 5391 5366 
3 7389 5404 10541 
3 5391 2719 2645 
3 5366 2636 5404 
3 11472 11325 10830 
3 11194 10830 9861 
3 7389 10541 9861 
3 10516 9861 10830 
3 9528 5504 3059 
3 9369 10515 10979 
3 11472 11588 11325 
3 11467 11133 11576 
3 10501 10903 11133 
3 11325 11133 11467 
3 11136 11325 11467 
3 11136 11467 11267 
3 9369 6855 2922 
3 3059 2922 1264 
3 9895 10515 5504 
3 9895 5504 9528 
3 5438 2947 9689 
3 3909 1245 3895 
3 8358 3887 6292 
3 6222 8338 3895 
3 7068 2947 76 
3 2947 5438 2713 
3 7640 9689 7068 
3 76 2947 1245 
3 6222 6292 8338 
3 3909 6312 3778 
3 6292 3887 3822 
3 6292 8104 8338 
3 3887 1264 1808 
3 3822 1808 1877 
3 7844 3769 6855 
3 2922 6855 1808 
3 5504 10515 9369 
3 5504 9369 2922 
3 9689 2947 7068 
3 3778 76 3909 
3 3909 8338 6312 
3 898 3660 3801 
3 2835 7640 7068 
3 3645 6155 6020 
3 6155 3645 3778 
3 6312 8338 8104 
3 6155 3778 6312 
3 10154 8104 6856 
3 6312 8104 10154 
3 6856 1877 1693 
3 10515 9025 10979 
3 9369 7844 6855 
3 10433 10903 9838 
3 10696 7482 9279 
3 10515 11189 9856 
3 9025 9856 7498 
3 10903 10501 9838 
3 10433 9838 9856 
3 8088 5404 2752 
3 2636 5366 2645 
3 2752 5404 2636 
3 1696 905 4864 
3 11133 11325 10844 
3 9938 9279 8890 
3 10844 11325 11588 
3 10844 11588 11172 
3 10411 11588 11472 
3 11194 11472 10830 
3 4868 1696 4864 
3 4864 8518 6691 
3 2757 7099 1591 
3 4539 220 8518 
3 7880 8139 10731 
3 8139 3914 5513 
3 10731 8139 9922 
3 7790 2857 7489 
3 7099 1006 1591 
3 2757 1372 7261 
3 8139 2757 7261 
3 221 1372 3811 
3 8518 4864 6870 
3 2645 905 2636 
3 1591 1006 7100 
3 6499 9697 4428 
3 1270 4428 102 
3 905 6870 4864 
3 1006 4539 7100 
3 1372 221 7261 
3 4428 6870 102 
3 1270 102 2719 
3 8518 6870 9697 
3 4539 9697 6499 
3 6499 7879 3589 
3 7100 3589 1591 
3 3914 7261 221 
3 1007 221 3144 
3 1591 3589 1372 
3 1591 1372 2757 
3 8139 7261 3914 
3 5513 3914 2739 
3 1007 1592 2739 
3 7790 7489 8886 
3 1592 1373 7103 
3 2739 7790 5513 
3 1593 1374 3890 
3 6493 1009 1375 
3 222 1008 7124 
3 2857 7124 7489 
3 1008 1593 7008 
3 7124 7008 9056 
3 1374 223 5227 
3 3890 5227 6493 
3 8704 8336 1490 
3 6095 8412 7309 
3 4175 1490 4978 
3 8336 8704 6669 
3 8427 505 4770 
3 8463 4770 7322 
3 1121 505 3842 
3 1852 1640 3992 
3 4768 8704 1124 
3 4978 766 7309 
3 4994 7309 766 
3 505 766 4770 
3 6948 8449 1009 
3 5227 1009 6493 
3 503 9614 4768 
3 8704 4768 6669 
3 2739 7103 7790 
3 5513 10024 9922 
3 9056 3890 6493 
3 8123 5630 8887 
3 3075 1375 224 
3 4768 9614 8449 
3 4171 8412 6086 
3 1490 1124 8704 
3 504 766 4978 
3 1490 4175 1124 
3 6059 3280 3842 
3 6059 3842 6437 
3 10251 8972 8967 
3 6170 6059 6437 
3 2981 1640 1852 
3 9156 6993 10257 
3 2676 2573 25 
3 3162 5631 2973 
3 5354 5350 2573 
3 7557 10257 3220 
3 9514 7454 10468 
3 10468 7454 9827 
3 9146 7454 5426 
3 1851 3162 2973 
3 10412 9023 10468 
3 11383 10468 9827 
3 10299 11004 9119 
3 11004 10412 11226 
3 7349 5331 9119 
3 9119 11004 9784 
3 9031 9465 5298 
3 1639 3232 1907 
3 733 8721 445 
3 32 5093 7005 
3 4888 6956 8604 
3 2965 5776 3847 
3 8604 6956 5094 
3 1910 2965 1646 
3 11226 10831 11004 
3 10412 11004 10299 
3 6917 8107 2540 
3 6917 2540 1201 
3 4888 1761 1945 
3 6956 1969 5094 
3 8107 9465 10253 
3 10849 9766 10354 
3 9646 6973 7897 
3 2540 2569 1761 
3 6956 1945 1969 
3 5094 1910 5154 
3 734 5094 5154 
3 734 443 8631 
3 1945 2569 6973 
3 1969 2703 1910 
3 734 5154 443 
3 735 5093 444 
3 11015 10455 10253 
3 9031 10253 9465 
3 7897 2569 5293 
3 8107 5293 2540 
3 10380 10860 9827 
3 11383 11226 10412 
3 11111 10831 11226 
3 10860 11226 11383 
3 10380 9827 9961 
3 9146 9827 7454 
3 9031 7349 9766 
3 10354 10831 11069 
3 3842 8427 6437 
3 6170 3992 3533 
3 5354 7358 5350 
3 2573 2659 1192 
3 1640 3533 3992 
3 1755 1194 8749 
3 1640 2782 828 
3 6993 828 25 
3 5354 2573 2676 
3 2782 2676 828 
3 4221 4362 6396 
3 8463 6396 8427 
3 828 3533 1640 
3 2782 2981 5508 
3 7409 7358 5354 
3 5430 2782 5508 
3 10360 9961 8814 
3 7358 9961 9146 
3 11111 10860 10380 
3 10774 10360 11096 
3 9766 9784 10354 
3 10849 11329 11032 
3 3554 1852 1755 
3 6396 4362 6437 
3 7409 5354 5430 
3 9154 7555 9860 
3 8749 3554 1755 
3 4362 1852 3992 
3 2782 1640 2981 
3 5508 2981 5735 
3 11717 1194 4221 
3 8463 4221 6396 
3 4362 4221 1755 
3 4362 1755 1852 
3 7409 5430 9154 
3 9960 9154 9860 
3 11111 10774 11457 
3 11111 11457 11069 
3 8814 7358 7409 
3 9960 7409 9154 
3 10380 9961 10360 
3 10856 8814 9960 
3 10774 10380 10360 
3 11096 10360 10856 
3 5293 8818 8841 
3 9788 10455 10761 
3 10454 10295 8841 
3 9788 8818 10455 
3 11426 11549 11329 
3 10354 11329 10849 
3 10454 8841 9788 
3 10793 9788 10761 
3 9970 9017 10454 
3 11135 10454 10793 
3 10454 9017 10295 
3 8841 7897 5293 
3 9017 5489 9646 
3 10295 9646 7897 
3 9646 5489 2703 
3 1910 1646 5154 
3 3847 5215 835 
3 1921 1709 444 
3 2965 3847 1646 
3 5154 8695 443 
3 8695 835 7005 
3 735 444 5262 
3 9788 8841 8818 
3 10455 8818 10253 
3 5489 2965 2703 
3 9646 2703 6973 
3 7349 9784 9766 
3 9031 11015 10253 
3 10849 10455 11015 
3 9766 11015 9031 
3 6973 2569 7897 
3 10295 7897 8841 
3 2703 2965 1910 
3 1969 1910 5094 
3 1646 835 8695 
3 1646 8695 5154 
3 2532 2629 1921 
3 444 736 5262 
3 11023 10347 11293 
3 11289 11369 10769 
3 11347 11544 11409 
3 11702 11592 11654 
3 11702 11595 11590 
3 11398 11544 11023 
3 10521 9849 11084 
3 11486 11506 11293 
3 10347 11486 11293 
3 11023 11293 11398 
3 32 6912 5093 
3 7005 5093 735 
3 9849 7526 9321 
3 2629 2915 1709 
3 444 5093 1921 
3 1709 1921 2629 
3 10007 10611 9321 
3 8143 9321 5446 
3 1200 5072 32 
3 1200 32 5215 
3 32 5072 6912 
3 5093 6912 1921 
3 11396 11658 11539 
3 11289 11506 11369 
3 11658 11705 11590 
3 11544 11590 11595 
3 10521 7526 9849 
3 11084 9849 11369 
3 11506 11084 11369 
3 10769 11369 10611 
3 11289 11539 11506 
3 11084 11506 11486 
3 11409 11595 11661 
3 11661 11654 11521 
3 11595 11654 11661 
3 11116 11390 11424 
3 11590 11692 11702 
3 11595 11702 11654 
3 11521 11654 11628 
3 11587 11628 11418 
3 8875 8203 8791 
3 10495 9999 10407 
3 1327 1839 6424 
3 1919 1954 2568 
3 11521 11237 11433 
3 10407 10757 10495 
3 9999 8791 5309 
3 2554 5309 2568 
3 4412 961 4761 
3 6424 1954 1919 
3 9653 4787 8318 
3 1724 8318 1839 
3 11642 11520 11424 
3 10757 11433 11237 
3 10495 8791 9999 
3 10407 9999 9008 
3 11544 11595 11409 
3 11520 11521 11433 
3 11608 11661 11520 
3 11278 10763 11121 
3 10407 10882 11116 
3 10407 11116 10757 
3 2673 7945 8033 
3 2554 8033 5309 
3 4378 4787 9653 
3 8318 4787 6424 
3 4975 1293 4378 
3 4787 1821 1954 
3 1821 4787 4378 
3 4378 6525 4975 
3 1293 1821 4378 
3 4975 6525 8615 
3 1724 961 4412 
3 9653 4412 6525 
3 10763 11642 11424 
3 11424 11520 11433 
3 1293 7255 2673 
3 2554 2673 8033 
3 11661 11608 11409 
3 11544 11347 11023 
3 11278 11642 10763 
3 11116 11424 11433 
3 7335 8781 10089 
3 11486 10521 11084 
3 10952 10089 10347 
3 10952 10347 11023 
3 443 7005 735 
3 443 4583 8631 
3 4892 5959 8682 
3 5446 2915 2629 
3 736 444 930 
3 2914 2630 1823 
3 9269 8682 5959 
3 7526 5959 5446 
3 7384 5445 9269 
3 10521 9269 7526 
3 10089 10952 8786 
3 10347 8781 11486 
3 8786 10952 10353 
3 10353 11347 11042 
3 2915 5959 4892 
3 2914 8682 5445 
3 5304 7384 7335 
3 8781 7384 10521 
3 6539 4583 4813 
3 5262 4583 735 
3 4583 5262 4813 
3 4813 736 445 
3 8631 4583 6539 
3 445 736 127 
3 736 930 127 
3 1295 2914 1823 
3 930 2915 4892 
3 127 1295 5112 
3 5445 7384 5304 
3 7341 10089 8786 
3 8781 10347 10089 
3 7335 7341 5281 
3 7350 8786 10075 
3 10843 10353 11042 
3 11608 11642 11278 
3 11608 11459 11042 
3 11409 11608 11042 
3 11409 11042 11347 
3 10536 10763 9777 
3 11390 10763 11424 
3 11121 10763 10536 
3 10882 11390 11116 
3 10273 9008 7945 
3 5532 7945 4090 
3 9228 9777 7377 
3 10882 9777 11390 
3 9777 10882 7377 
3 5532 10273 7945 
3 7097 8615 6525 
3 4761 6525 4412 
3 10273 5532 7377 
3 9777 9228 10536 
3 5113 926 124 
3 4975 124 1293 
3 7377 5532 5312 
3 7377 5312 9228 
3 772 5113 7321 
3 8615 7321 4975 
3 10353 10843 10075 
3 10353 10075 8786 
3 8250 10100 9228 
3 8250 9228 5312 
3 11121 10927 11459 
3 11278 11459 11608 
3 9862 11121 10536 
3 10100 10536 9228 
3 4892 8682 2914 
3 4892 1295 127 
3 2630 5445 5304 
3 2530 1920 1972 
3 4872 6702 1460 
3 8721 4813 445 
3 6539 4813 8721 
3 5112 445 127 
3 4416 6539 8721 
3 440 733 4192 
3 4892 2914 1295 
3 5112 4437 7311 
3 2914 5445 2630 
3 1823 2630 1955 
3 5304 7335 5281 
3 5304 2525 2630 
3 7335 10089 7341 
3 5328 2716 2560 
3 5304 5281 2525 
3 2630 2525 1955 
3 10075 9150 7350 
3 8786 7350 7341 
3 1460 6702 1094 
3 440 4416 733 
3 7311 4192 733 
3 5112 733 445 
3 6317 4192 7311 
3 4437 1295 1823 
3 6317 7311 4437 
3 6317 3451 5648 
3 1972 2525 2530 
3 2560 2530 5292 
3 7341 7350 5292 
3 5281 5292 2530 
3 9150 10075 10561 
3 9123 5544 8239 
3 10536 10100 9862 
3 11121 9862 10927 
3 11459 10927 10398 
3 10843 10398 10561 
3 5532 4090 2672 
3 2612 1705 1883 
3 4090 124 926 
3 5000 6840 1883 
3 5087 772 522 
3 7097 522 8615 
3 2672 926 1705 
3 2672 1705 2612 
3 5100 926 5113 
3 7321 5113 124 
3 5087 5080 772 
3 522 772 7321 
3 1883 1705 5000 
3 1135 4253 3486 
3 6364 5080 5087 
3 5142 1133 3926 
3 10561 10398 7423 
3 7423 5325 5588 
3 10398 10927 10076 
3 7423 10076 5325 
3 8239 10076 9123 
3 7959 9862 10100 
3 5544 9123 7959 
3 5544 7959 6494 
3 1883 1820 2778 
3 8250 2778 5542 
3 1705 5100 5000 
3 6840 4451 6347 
3 772 5080 521 
3 4451 1501 3486 
3 6344 3695 6364 
3 9498 8691 3926 
3 5000 521 4451 
3 5000 4451 6840 
3 5080 3695 1501 
3 521 1501 4451 
3 2784 1884 2614 
3 5588 10282 7423 
3 5118 6494 3273 
3 5544 2784 8239 
3 8239 2614 5325 
3 8239 5325 10076 
3 2784 5544 3274 
3 3273 2778 1820 
3 3274 6494 5118 
3 5118 3273 1292 
3 2716 1708 2560 
3 2560 1920 2530 
3 3942 1708 929 
3 4286 8030 5588 
3 8207 3942 4352 
3 7292 929 2716 
3 929 126 4352 
3 126 1294 4785 
3 6317 7622 8187 
3 7889 5889 7943 
3 8512 8285 5926 
3 6200 5926 3582 
3 8187 7943 7283 
3 6026 8307 3707 
3 1955 1972 3063 
3 8285 3212 5926 
3 9553 7943 8187 
3 4192 7283 440 
3 7622 9553 8187 
3 6317 8187 4192 
3 8030 2716 5328 
3 5328 2560 5292 
3 8030 10282 5588 
3 4286 5588 2715 
3 7292 2716 8030 
3 9150 5328 7350 
3 4286 7292 8030 
3 10282 8030 9150 
3 3063 5648 3451 
3 1823 3451 4437 
3 3212 8285 3063 
3 1955 3063 3451 
3 3212 1972 1920 
3 3582 1920 1708 
3 4062 7161 6053 
3 7667 9224 10335 
3 1460 1094 6711 
3 10132 6711 9224 
3 5742 3232 3118 
3 7887 10299 9119 
3 5652 5742 3118 
3 2556 5298 2588 
3 3171 3309 1967 
3 7887 9119 5331 
3 8198 3171 3232 
3 3118 3232 1639 
3 6702 1459 1094 
3 6711 1094 3149 
3 1459 6702 1093 
3 3353 1093 440 
3 3707 9610 441 
3 3707 1459 3308 
3 441 1094 1459 
3 441 1459 3707 
3 9224 3149 7570 
3 8109 8434 5913 
3 3353 5889 3308 
3 3353 3308 1093 
3 3232 5742 8198 
3 3171 9282 3309 
3 7632 7667 9247 
3 5649 3004 5641 
3 9334 5742 5652 
3 7632 5652 5750 
3 9247 7667 10335 
3 7588 8109 5827 
3 7667 10132 9224 
3 10335 9224 7570 
3 6648 1638 826 
3 6423 4363 3796 
3 3309 3760 1942 
3 2776 5535 9672 
3 7717 8144 8057 
3 6434 4605 4363 
3 826 3836 6648 
3 6159 3833 9531 
3 10117 7669 10592 
3 10978 7545 9019 
3 6648 8144 3162 
3 9003 10592 10010 
3 10117 10592 9003 
3 9039 10257 10251 
3 8144 10117 5631 
3 8972 9003 10010 
3 8145 9003 8972 
3 9003 5631 10117 
3 3220 6993 25 
3 5631 3162 8144 
3 826 1638 6386 
3 5245 6386 4134 
3 4134 5963 3102 
3 4134 3102 1754 
3 1192 3220 25 
3 3162 1851 1638 
3 1942 3102 2776 
3 1967 6989 1907 
3 5631 9003 8145 
3 10213 6170 9156 
3 2973 5631 8145 
3 6647 7557 3220 
3 1753 2973 6647 
3 1192 25 2573 
3 9039 8967 7985 
3 8972 7557 8145 
3 8972 10251 7557 
3 8145 6647 2973 
3 8145 7557 6647 
3 2973 1753 1851 
3 2825 1851 1753 
3 2659 2573 5350 
3 5963 8258 7671 
3 5535 2776 3102 
3 7671 9023 5535 
3 2776 6989 1967 
3 9514 8258 5550 
3 1851 3154 1638 
3 9023 9672 5535 
3 5963 5535 3102 
3 3016 3118 827 
3 2626 1907 6989 
3 5652 3118 3016 
3 5750 3016 3404 
3 5750 3404 6053 
3 5750 6053 7667 
3 6539 4416 9742 
3 9742 6702 4872 
3 8604 442 4225 
3 7161 4225 10132 
3 4225 442 1460 
3 4225 1460 6711 
3 2776 9672 6989 
3 1907 2626 1639 
3 827 1639 2556 
3 5331 2626 7887 
3 3118 1639 827 
3 3016 827 33 
3 1639 2626 2556 
3 2588 9465 6917 
3 2588 6917 33 
3 3016 33 3404 
3 6053 3404 4062 
3 7161 4062 4888 
3 734 8631 4872 
3 6702 9742 4416 
3 5094 442 8604 
3 6956 4888 1945 
3 1460 442 4872 
3 9742 4872 8631 
3 827 2556 2588 
3 827 2588 33 
3 1761 4062 1201 
3 6917 1201 33 
3 4062 1761 4888 
3 7161 4888 8604 
3 7671 8258 9514 
3 7671 9514 10468 
3 9023 10412 10299 
3 9672 10299 7887 
3 7454 9514 5550 
3 5426 2825 2659 
3 6989 9672 7887 
3 6989 7887 2626 
3 7557 10251 10257 
3 6993 9156 3533 
3 3154 1851 2825 
3 5550 2825 5426 
3 10257 6993 3220 
3 6647 1192 1753 
3 6647 3220 1192 
3 1753 2659 2825 
3 1753 1192 2659 
3 5426 2659 5350 
3 6086 8412 6095 
3 4978 8412 4175 
3 6170 3533 9156 
3 6170 10213 6059 
3 5242 9614 503 
3 1124 503 4768 
3 503 1124 5251 
3 8412 4978 7309 
3 3625 1607 4171 
3 4175 5251 1124 
3 5251 4175 4171 
3 4766 11711 6048 
3 505 1121 4994 
3 505 4994 766 
3 3280 6059 5870 
3 9039 10213 9156 
3 6059 10213 5870 
3 3280 3321 1487 
3 5870 10213 9039 
3 5870 7985 3321 
3 500 4766 1487 
3 3280 1487 1121 
3 7256 3321 7985 
3 5870 3321 3280 
3 4175 8412 4171 
3 4766 1120 11711 
3 1121 1487 3354 
3 4994 6095 7309 
3 4171 1607 1489 
3 5251 1489 503 
3 1489 5251 4171 
3 3625 4171 6086 
3 8100 6086 6048 
3 3354 6095 4994 
3 5630 9979 8887 
3 9972 8886 7489 
3 3654 10712 5630 
3 8123 9972 9056 
3 9972 8887 11131 
3 10422 10437 11009 
3 6974 10712 3654 
3 224 1375 9614 
3 2757 7880 7099 
3 10490 11156 10992 
3 11363 11156 11358 
3 9922 8139 5513 
3 3027 4705 5741 
3 8894 7880 10731 
3 2757 8139 7880 
3 8894 10731 11358 
3 220 1006 4705 
3 5741 4705 7880 
3 4705 7099 7880 
3 5741 7880 8894 
3 11358 10731 9922 
3 10435 9922 10024 
3 5145 3654 601 
3 1489 5242 503 
3 8123 6493 3075 
3 5630 3075 3654 
3 3654 3075 224 
3 3654 224 601 
3 10422 10435 10024 
3 8886 10024 7790 
3 8123 8887 9972 
3 9056 9972 7489 
3 3075 5630 8123 
3 6493 8123 9056 
3 10541 5404 8088 
3 1811 4868 4733 
3 4864 6691 4868 
3 1005 4703 4805 
3 1811 1696 4868 
3 1005 6644 219 
3 8518 220 6691 
3 4868 4805 4733 
3 10501 10844 9938 
3 10696 8868 7482 
3 11472 11194 10853 
3 10411 9931 8868 
3 11194 10541 8961 
3 10853 10136 9931 
3 8961 10541 8088 
3 1271 103 6429 
3 6155 6312 10154 
3 3660 95 5603 
3 9271 3769 7844 
3 10979 7844 9369 
3 7469 7640 2835 
3 6788 3215 1795 
3 76 3778 878 
3 2835 1680 6787 
3 878 3778 3645 
3 878 1680 2835 
3 10154 6856 3801 
3 10154 9264 6155 
3 1877 3769 1693 
3 3504 8737 95 
3 1692 3103 897 
3 9025 5874 10979 
3 10844 11172 9938 
3 10501 9938 8890 
3 1263 6510 1807 
3 5874 9271 7844 
3 9025 7498 5574 
3 5874 3103 3935 
3 878 3645 1680 
3 1869 6788 1795 
3 3769 9271 10245 
3 1693 10245 898 
3 3645 6020 3477 
3 1680 1869 6787 
3 10154 3801 9264 
3 6155 7975 6020 
3 3801 1693 898 
3 3801 3660 9264 
3 10245 9271 6510 
3 10245 6510 898 
3 9271 5874 3935 
3 9271 3935 6510 
3 9574 9931 5495 
3 9727 7793 6429 
3 7730 9931 9574 
3 9727 10136 7793 
3 2870 5574 5480 
3 2634 5480 9279 
3 9938 11172 10696 
3 9938 10696 9279 
3 8961 8088 7793 
3 8961 7793 10136 
3 8088 2752 6535 
3 1271 4651 103 
3 2752 1811 6535 
3 7793 6535 6429 
3 4868 6691 4805 
3 4733 4703 4651 
3 6644 1005 3027 
3 4705 1371 220 
3 5495 10136 9727 
3 3165 6429 896 
3 6535 1811 1271 
3 6535 1271 6429 
3 9931 10136 5495 
3 2951 5495 3165 
3 5495 9727 3165 
3 2951 1550 1262 
3 2634 94 2870 
3 1692 1807 3935 
3 94 1261 7195 
3 93 4341 895 
3 3103 5574 2870 
3 897 2870 94 
3 2872 7730 6466 
3 2951 9574 5495 
3 898 95 3660 
3 9264 3660 7975 
3 2870 897 3103 
3 5574 3103 5874 
3 1680 3477 1869 
3 6787 1869 3618 
3 6155 9264 7975 
3 10982 7975 8991 
3 8169 6788 10598 
3 3477 6788 1869 
3 3215 6788 8169 
3 10982 10598 6020 
3 1807 3545 1263 
3 6510 1263 898 
3 1692 3718 1807 
3 3935 1807 6510 
3 3935 3103 1692 
3 3718 1692 3614 
3 7975 5603 8991 
3 10001 9545 8169 
3 3545 6010 3504 
3 1263 3504 95 
3 8169 5938 3215 
3 1795 3215 1244 
3 9545 5938 8169 
3 10001 8169 10598 
3 10001 8991 10588 
3 2435 3482 3503 
3 8737 9240 9070 
3 8737 9070 5603 
3 897 94 3642 
3 3614 6094 6101 
3 3642 94 7195 
3 3642 7195 8015 
3 1261 6949 1549 
3 1549 895 3859 
3 8454 4341 93 
3 1549 3859 3657 
3 2634 6949 1261 
3 7195 1261 3657 
3 7482 7730 2872 
3 7482 2872 6949 
3 9574 2951 6466 
3 2872 6466 895 
3 9214 4651 6994 
3 3593 6994 219 
3 9391 4248 3802 
3 896 1550 3165 
3 896 103 3802 
3 896 4248 1550 
3 8573 9731 9214 
3 4651 9214 103 
3 7563 10992 9879 
3 11156 8894 11358 
3 10838 10624 9879 
3 10838 11156 11363 
3 10624 8878 7936 
3 5560 8883 10700 
3 9979 7989 10700 
3 5560 7989 3561 
3 8883 10880 10700 
3 5560 10700 7989 
3 7989 10712 6974 
3 1010 5145 225 
3 9879 10992 11156 
3 9879 11156 10838 
3 10437 10880 8883 
3 7973 2848 5492 
3 4733 4805 4703 
3 6994 4703 219 
3 7892 6644 9743 
3 7892 10490 10992 
3 9743 6644 3027 
3 1371 1005 4805 
3 1005 1371 3027 
3 9743 3027 5741 
3 9981 10418 10437 
3 10422 11009 10435 
3 5630 10712 9979 
3 8887 9979 10880 
3 5741 8894 10490 
3 9743 10490 7892 
3 10418 10838 11363 
3 11009 11363 10435 
3 11131 10880 10437 
3 11009 10437 10418 
3 6974 3654 5145 
3 6974 5145 3787 
3 3625 6086 8100 
3 3625 6533 1123 
3 224 5242 601 
3 5145 601 225 
3 6095 3354 6048 
3 8100 6048 11711 
3 500 1120 4766 
3 3354 4766 6048 
3 10010 9012 8967 
3 9039 7985 5870 
3 6739 1120 3019 
3 3321 500 1487 
3 1120 500 3019 
3 3019 7567 6739 
3 9039 10251 8967 
3 7985 7467 7256 
3 500 7256 3019 
3 3019 7467 7567 
3 3019 7256 7467 
3 9012 7467 8967 
3 7989 6974 3787 
3 7989 7221 3561 
3 6817 4920 6687 
3 8100 6533 3625 
3 502 6500 5090 
3 1123 5090 225 
3 4291 1488 4619 
3 6533 502 1123 
3 502 6533 1488 
3 7190 4388 11711 
3 1120 6739 1486 
3 7190 501 1122 
3 9331 6739 7567 
3 9012 7567 7467 
3 6533 4388 1488 
3 502 4291 6500 
3 4388 7190 1122 
3 8739 4748 4520 
3 3787 1376 7221 
3 3787 7221 7989 
3 5090 6500 4076 
3 7078 1011 226 
3 7190 1486 501 
3 1122 6687 4619 
3 1486 6739 3874 
3 501 3874 6817 
3 3867 6600 8028 
3 9494 3065 6659 
3 8028 9331 10158 
3 9019 10158 9012 
3 1488 1122 4619 
3 4291 6611 6500 
3 6600 9331 8028 
3 2934 2504 3065 
3 4920 4748 6687 
3 501 6687 1122 
3 3874 6600 6817 
3 501 6817 6687 
3 4076 6500 6426 
3 4330 4520 2495 
3 6426 6500 6611 
3 6426 4115 4464 
3 7221 1376 226 
3 7221 226 3561 
3 4076 6426 4386 
3 4076 4386 1376 
3 7035 6611 4291 
3 1488 4291 502 
3 5492 2848 2800 
3 1377 1011 4904 
3 2787 1377 7077 
3 227 2848 7077 
3 7077 2848 7973 
3 228 1004 6451 
3 3561 1011 2787 
3 7171 2483 2481 
3 7201 5182 218 
3 6452 218 1003 
3 7936 2800 8693 
3 7549 6451 2986 
3 7563 7549 2986 
3 7333 9432 7201 
3 7936 8693 6451 
3 7333 7201 1370 
3 7563 2986 6452 
3 9513 6452 3023 
3 5492 2800 7936 
3 10624 7936 7549 
3 8883 5560 7973 
3 2848 1012 2800 
3 5560 3561 2787 
3 5560 2787 7973 
3 8878 9981 5492 
3 8878 5492 7936 
3 9981 8883 7973 
3 9981 7973 5492 
3 6294 3593 4201 
3 3023 6644 7892 
3 1003 1369 3023 
3 1003 3023 6452 
3 9879 7549 7563 
3 9513 7563 6452 
3 8211 3897 4079 
3 3802 4248 896 
3 9214 6994 8573 
3 9731 8573 6294 
3 8773 4248 9391 
3 6241 9391 8026 
3 9214 9731 8026 
3 3802 8026 9391 
3 7062 4341 8454 
3 8454 4443 6891 
3 1550 4248 8773 
3 4231 2455 4450 
3 1262 4443 93 
3 6466 93 895 
3 4484 4443 1262 
3 2951 1262 6466 
3 3545 3718 6072 
3 10316 6101 6094 
3 3657 6257 8015 
3 6094 6088 10316 
3 8608 5938 9545 
3 8608 9545 7609 
3 6010 3545 6072 
3 6010 6072 8617 
3 9545 10588 7609 
3 5807 5595 3097 
3 10588 9070 7642 
3 5595 5786 3305 
3 9070 9240 7699 
3 7642 5786 5595 
3 3642 8015 6094 
3 3642 6094 3614 
3 6257 3657 3859 
3 6257 3859 8097 
3 9240 6010 10142 
3 3482 2433 3305 
3 10142 6010 8617 
3 10142 8617 6009 
3 3703 5938 8755 
3 9749 6492 8108 
3 8755 5938 8608 
3 5807 8608 7609 
3 7609 7642 5595 
3 7609 5595 5807 
3 7699 5983 5786 
3 7699 5786 7642 
3 3503 3482 5983 
3 10142 5983 7699 
3 6101 10316 9651 
3 6072 9651 8617 
3 4341 7062 8097 
3 4089 2447 3843 
3 4484 6522 6891 
3 4484 6891 4443 
3 8711 3843 6110 
3 8015 6110 6094 
3 4626 7062 8454 
3 4626 8454 4450 
3 4450 6891 4231 
3 3897 2461 2459 
3 6419 4201 1003 
3 1003 4201 1369 
3 8773 9391 8211 
3 4079 2459 2457 
3 9512 3697 5995 
3 9731 5995 8026 
3 4302 9512 8620 
3 6294 9512 9731 
3 3697 9512 4302 
3 6419 1003 218 
3 4302 8620 8678 
3 5182 6419 218 
3 2463 2461 3716 
3 5995 3716 6241 
3 6419 8678 8620 
3 3697 2463 3716 
3 6522 8211 4079 
3 4231 2457 2455 
3 8211 6241 3897 
3 4079 3897 2459 
3 6257 8097 8711 
3 6257 8711 6110 
3 6522 4079 4231 
3 6522 4231 6891 
3 6031 3544 6009 
3 10142 6009 5983 
3 9651 10316 6060 
3 3559 6060 3605 
3 4122 4631 6492 
3 8755 6492 9749 
3 3473 4122 6218 
3 5807 6218 8608 
3 2427 2425 4122 
3 6218 4122 6492 
3 2427 3473 2429 
3 3097 3473 5807 
3 4122 3473 2427 
3 3305 3097 5595 
3 2435 2433 3482 
3 5983 3482 5786 
3 2441 3605 2443 
3 3843 3635 6110 
3 2445 3635 3843 
3 4089 8097 4371 
3 2437 3503 3544 
3 2437 2435 3503 
3 6009 3503 5983 
3 2429 3473 3097 
3 2431 3097 3305 
3 2433 2431 3305 
3 3544 3559 2439 
3 2451 2449 4371 
3 2471 7201 2473 
3 2449 4089 4371 
3 3843 8711 4089 
3 2447 4089 2449 
3 3697 4302 2465 
3 2469 5182 2471 
3 2473 7201 9432 
3 4302 2467 2465 
3 4302 8678 2467 
3 8678 5182 2469 
3 1378 2800 1012 
3 2481 1012 7171 
3 5132 2485 2483 
3 4904 2485 5132 
3 228 6451 8693 
3 5132 2483 7171 
3 227 1012 2848 
3 2471 5182 7201 
3 9432 7333 1004 
3 2475 2473 9432 
3 2477 2475 228 
3 6451 1004 2986 
3 2475 1004 228 
3 2477 1378 2479 
3 6452 2986 1370 
3 6452 1370 218 
3 2986 1004 7333 
3 2986 7333 1370 
3 2481 2479 1012 
3 7171 1012 227 
3 5132 7171 227 
3 1377 227 7077 
3 2477 228 1378 
3 2479 1378 1012 
3 7299 2485 4904 
3 1377 5132 227 
3 7078 7299 4904 
3 1377 4904 5132 
3 4386 6426 8732 
3 4913 2487 7299 
3 6426 6611 4115 
3 4464 2491 2489 
3 4913 7078 8732 
3 4386 7078 226 
3 6426 4464 8732 
3 4386 8732 7078 
3 4115 6611 4330 
3 4520 7035 8739 
3 6687 4748 8739 
3 4619 8739 7035 
3 6611 7035 4330 
3 4115 2493 2491 
3 2499 4920 2501 
3 2503 4641 3867 
3 3867 8028 6659 
3 3867 2505 2503 
3 3867 6659 2505 
3 2505 6659 2506 
3 8732 4464 4913 
3 7299 2487 2485 
3 2495 4520 2497 
3 4913 2489 2487 
3 4913 4464 2489 
3 4464 4115 2491 
3 4115 4330 2493 
3 4920 4641 2501 
3 3348 6000 3796 
3 24 5245 1193 
3 2506 3065 2504 
3 2496 2498 3796 
3 8210 9531 4105 
3 5972 6159 8757 
3 2488 4105 3833 
3 2486 3580 2484 
3 4421 8210 4105 
3 2488 2490 4105 
3 3833 3580 2486 
3 3101 2480 3221 
3 2478 3004 2476 
3 3950 2470 2472 
3 3678 2474 3272 
3 2466 3685 3480 
3 2464 2466 3480 
3 2488 3833 2486 
3 2478 2480 3101 
3 3379 2482 2484 
3 5641 3004 3101 
3 2480 2482 3221 
3 7762 10292 7871 
3 3004 2478 3101 
3 5641 3101 5725 
3 3678 5913 3950 
3 2470 3948 2468 
3 6132 6233 3948 
3 3950 3948 2470 
3 9610 8307 8434 
3 3950 6132 3948 
3 6233 6026 6062 
3 3480 5906 3307 
3 3101 3221 5725 
3 5641 7707 7605 
3 3950 2472 3678 
3 5913 3678 5827 
3 4605 6434 8372 
3 2492 4421 2490 
3 3833 4105 9531 
3 3833 6159 3580 
3 4605 8372 4421 
3 2490 4421 4105 
3 5835 7762 7871 
3 3580 3379 2484 
3 9019 5583 9494 
3 6659 3065 2506 
3 5602 2934 5583 
3 5583 3065 9494 
3 2500 3073 3348 
3 2498 3348 3796 
3 2492 2494 4605 
3 6434 3836 24 
3 2494 4363 4605 
3 2492 4605 4421 
3 6659 8028 9494 
3 3065 5583 2934 
3 3073 2934 5602 
3 7545 5583 9019 
3 7545 7669 5602 
3 7545 5602 5583 
3 7717 6000 5758 
3 5602 5758 3073 
3 4325 4022 8210 
3 8372 8210 4421 
3 1754 3760 4022 
3 8210 6306 9531 
3 3836 6434 6423 
3 6000 6423 3796 
3 4363 6423 6434 
3 4325 1193 4022 
3 9494 10158 9019 
3 7545 10978 10592 
3 10117 8144 7717 
3 7669 7717 5758 
3 10010 10592 10978 
3 10010 10978 9012 
3 8144 6648 8057 
3 6000 8057 6423 
3 826 5245 24 
3 6434 4325 8372 
3 24 1193 4325 
3 8210 4022 6306 
3 826 24 3836 
3 8057 3836 6423 
3 6434 24 4325 
3 8372 4325 8210 
3 3760 3309 6052 
3 6306 6159 9531 
3 3221 5835 5725 
3 10292 5742 9334 
3 5972 7762 5835 
3 7707 9334 10290 
3 8757 6052 9282 
3 7762 9282 8198 
3 9334 7871 10292 
3 5742 10292 8198 
3 7570 3149 5910 
3 7570 5910 8109 
3 3707 3308 6026 
3 3140 2462 3307 
3 9247 10335 7588 
3 9247 7605 10290 
3 7588 7570 8109 
3 5827 8109 5913 
3 6233 8307 6026 
3 6062 6026 8556 
3 9247 7588 7605 
3 10290 7605 7707 
3 5910 9610 8434 
3 5913 8434 6132 
3 9282 7762 8757 
3 6052 6159 6306 
3 5725 7871 7707 
3 5725 7707 5641 
3 5972 3580 6159 
3 8757 6159 6052 
3 3221 3379 5835 
3 7762 5972 8757 
3 3379 5972 5835 
3 5725 5835 7871 
3 5641 7605 5649 
3 3272 5649 5827 
3 6132 8307 6233 
3 3685 6233 6062 
3 7889 5761 5906 
3 6062 5906 3480 
3 6074 3445 5856 
3 7659 9553 7622 
3 9608 4138 8207 
3 8207 9580 6200 
3 9580 8207 4138 
3 126 7292 4286 
3 4575 9608 7036 
3 4926 2440 2442 
3 1294 4820 4785 
3 4785 4769 7036 
3 7659 7889 9553 
3 7889 5906 8556 
3 3211 5701 5856 
3 5856 7776 8512 
3 6026 5889 8556 
3 6062 8556 5906 
3 5856 5701 7776 
3 8512 9492 8285 
3 7659 5761 7889 
3 9553 7889 7943 
3 5701 5761 7659 
3 7776 7659 9492 
3 7659 7622 9492 
3 7776 9492 8512 
3 929 7292 126 
3 1294 1822 4820 
3 7036 9608 4352 
3 7036 4352 126 
3 7036 126 4785 
3 7036 4769 4575 
3 4286 2715 1294 
3 4286 1294 126 
3 8455 1822 1884 
3 2614 1822 2715 
3 1822 2614 1884 
3 1822 8455 4820 
3 5544 6494 3274 
3 4926 6902 4883 
3 1707 3274 928 
3 1292 3273 1820 
3 125 5118 1292 
3 6199 8380 9460 
3 4329 1292 3752 
3 6347 3752 6840 
3 1501 3695 1135 
3 1501 1135 3486 
3 4199 1500 4981 
3 3695 4981 1135 
3 4329 9568 125 
3 5118 928 3274 
3 125 1292 4329 
3 9568 8380 4698 
3 2784 3274 1707 
3 2784 1707 1884 
3 5118 125 928 
3 1707 6977 4883 
3 6902 6488 8455 
3 4883 8455 1884 
3 4960 4926 6977 
3 928 6977 1707 
3 3752 6347 9460 
3 8380 4037 4698 
3 9460 6347 8397 
3 9460 8397 6199 
3 4981 1500 520 
3 4981 520 1135 
3 8397 9497 6199 
3 6199 4037 8380 
3 2428 4933 5110 
3 520 10301 4253 
3 2436 4698 2434 
3 2430 4933 2428 
3 520 1500 5110 
3 10301 5110 4933 
3 2440 4926 4960 
3 8498 125 9568 
3 2440 4960 2438 
3 2436 6766 4698 
3 6766 4960 8498 
3 6766 8498 9568 
3 4329 9460 8380 
3 4329 8380 9568 
3 4785 4812 4769 
3 4785 4820 4812 
3 4769 2448 2450 
3 2460 2462 3140 
3 5701 3140 5761 
3 9608 4575 4138 
3 9580 3762 6074 
3 2460 3140 3211 
3 3445 3211 5856 
3 2456 3445 3762 
3 2454 3762 4138 
3 4820 8455 6488 
3 4812 2448 4769 
3 8455 4883 6902 
3 6488 2444 2446 
3 4883 6977 4926 
3 6902 4926 2442 
3 2452 2454 4138 
3 2446 2448 4812 
3 4769 2450 4575 
3 2462 2464 3307 
3 2454 2456 3762 
3 2458 3211 3445 
3 2456 2458 3445 
3 4575 2450 2452 
3 4575 2452 4138 
3 4812 6488 2446 
3 2438 4960 6766 
3 2436 2438 6766 
3 6488 6902 2444 
3 4698 4037 2434 
3 9497 4933 4094 
3 4037 2432 2434 
3 1134 7233 5044 
3 5110 2426 2428 
3 4037 4094 2432 
3 2432 4094 2430 
3 5044 2424 2426 
3 5044 2426 5110 
3 2418 2420 4871 
3 4616 4871 7127 
3 6773 2412 2414 
3 4980 2414 2416 
3 8389 3862 9736 
3 2416 2418 4616 
3 3622 2406 3903 
3 1722 959 3665 
3 2424 7233 2422 
3 519 7135 8594 
3 2422 8594 2420 
3 1134 7046 519 
3 7233 519 2422 
3 4980 2416 4616 
3 4980 7194 6773 
3 5044 1500 1134 
3 7233 1134 519 
3 4980 4616 7194 
3 4782 157 1325 
3 9450 7965 4216 
3 2408 3903 2406 
3 2408 4216 3903 
3 2404 4831 2402 
3 2410 2412 4562 
3 4782 6773 7194 
3 6773 4782 4562 
3 6773 4562 2412 
3 8439 4831 10344 
3 6333 3622 6194 
3 2400 8439 6850 
3 5197 1113 2396 
3 5197 1479 1113 
3 4261 6311 4682 
3 4831 3622 6333 
3 3862 8389 3812 
3 4831 6333 10344 
3 8439 10344 483 
3 6850 1479 5197 
3 4682 6311 9424 
3 7204 1114 487 
3 4473 487 1484 
3 2394 482 1480 
3 1114 1480 3832 
3 2388 5158 4846 
3 2386 4846 3934 
3 1480 1114 7204 
3 2388 4846 2386 
3 2390 7204 5158 
3 4846 5158 4473 
3 2406 3622 2404 
3 8439 483 6850 
3 2402 4831 8439 
3 2402 8439 2400 
3 3622 4831 2404 
3 2398 2400 5197 
3 2400 6850 5197 
3 2398 5197 2396 
3 1480 7204 2392 
3 2390 5158 2388 
3 2380 4684 2378 
3 1417 4993 7065 
3 2386 3934 2384 
3 2376 5194 7065 
3 322 7065 5194 
3 2378 5194 2376 
3 321 4060 656 
3 2374 2376 7065 
3 2372 2374 4993 
3 8666 2368 6988 
3 3983 2356 3536 
3 2348 4724 2344 
3 2344 4884 2340 
3 2360 4056 3458 
3 4551 4724 2348 
3 2368 2370 6988 
3 1051 3924 321 
3 2364 2366 7018 
3 320 8666 656 
3 7018 2366 320 
3 8666 2366 2368 
3 2360 2362 4056 
3 3458 6184 5879 
3 3458 5879 3536 
3 2358 3536 2356 
3 6701 3983 8425 
3 8425 3536 5879 
3 8741 3173 10223 
3 4724 4884 2344 
3 4551 3983 6701 
3 9578 10146 5875 
3 2352 3983 4551 
3 1038 302 4018 
3 2362 2364 4811 
3 4056 6560 6184 
3 3458 4056 6184 
3 7791 9741 10146 
3 8666 6988 656 
3 5208 656 4060 
3 2366 8666 320 
3 330 7238 3834 
3 2372 4993 5095 
3 6988 5095 656 
3 4811 2364 7018 
3 8275 3834 6560 
3 3934 5968 3267 
3 3934 3267 2384 
3 6376 6654 4684 
3 3676 4684 2380 
3 6376 3552 6654 
3 4684 6654 5194 
3 1052 1417 322 
3 6654 322 5194 
3 1052 6578 1417 
3 322 1417 7065 
3 3267 5968 5861 
3 3267 5861 3676 
3 8647 3552 6376 
3 5861 6376 3676 
3 10178 7643 9194 
3 5861 8647 6376 
3 1418 4735 1052 
3 6654 1052 322 
3 1052 4735 6578 
3 1417 6578 1051 
3 320 5208 1416 
3 7018 8275 4811 
3 4993 1417 1051 
3 321 3924 7276 
3 5095 1051 321 
3 5095 321 656 
3 4056 4811 6560 
3 6184 9235 7715 
3 4724 4551 7191 
3 1404 2852 1038 
3 4551 6701 7191 
3 4724 4875 4884 
3 302 650 4875 
3 7191 4875 4724 
3 7191 6701 4018 
3 3230 5875 3317 
3 3173 650 7185 
3 7185 650 302 
3 7018 1416 8275 
3 4811 8275 6560 
3 5879 6184 7715 
3 5879 9578 8425 
3 5879 7715 9578 
3 5875 10146 8170 
3 6693 3976 1050 
3 1416 1050 8275 
3 3834 7238 9235 
3 6560 9235 6184 
3 6701 6150 4018 
3 7191 302 4875 
3 2852 4268 1038 
3 4018 302 7191 
3 8170 3317 5875 
3 6150 3230 4018 
3 3173 7185 7952 
3 5591 7185 4268 
3 9741 8170 10146 
3 9235 10146 7715 
3 6150 9578 5875 
3 6150 5875 3230 
3 4060 7514 9169 
3 9169 7514 10135 
3 6693 4060 9169 
3 10721 10135 7490 
3 321 7276 4060 
3 5208 4060 6693 
3 1416 5208 6693 
3 3976 6693 9169 
3 7868 5968 7060 
3 5968 9194 5861 
3 9337 7505 3924 
3 6578 3924 1051 
3 7799 10178 3181 
3 9194 7643 8647 
3 9186 10199 9022 
3 7643 5781 8647 
3 1052 3552 1418 
3 4735 1418 6831 
3 6697 3181 7868 
3 7868 10178 9194 
3 9186 10178 7799 
3 3181 6697 1118 
3 3862 3812 1115 
3 4331 1481 5073 
3 4647 6389 8645 
3 3824 6311 5073 
3 10274 6420 3966 
3 1889 2855 1722 
3 3862 1115 483 
3 4261 4682 1113 
3 4522 8394 6389 
3 8645 6389 9424 
3 3181 10178 7868 
3 1118 6697 1484 
3 1484 487 5065 
3 6389 3832 9424 
3 4473 1484 6697 
3 4473 6697 7060 
3 5065 1114 3832 
3 5065 3832 6389 
3 7868 9194 5968 
3 7060 5968 3934 
3 1479 6850 483 
3 483 1115 4261 
3 482 1113 4682 
3 482 4682 1480 
3 6194 3903 7965 
3 6180 9736 6194 
3 1481 4331 1115 
3 1481 1115 3812 
3 1115 4331 4261 
3 1479 4261 1113 
3 8389 9736 6180 
3 4444 4782 1325 
3 6180 6194 6129 
3 3534 3784 1889 
3 4562 4782 9450 
3 4562 9450 4216 
3 9736 6333 6194 
3 6129 6194 7965 
3 1134 1500 4199 
3 4198 6344 4854 
3 4616 7127 4423 
3 7194 4423 157 
3 3873 1132 4842 
3 4423 7015 960 
3 4423 960 157 
3 7194 157 4782 
3 7965 9450 3784 
3 1837 4444 1325 
3 518 5203 7015 
3 4842 7015 4423 
3 4444 1837 3784 
3 4444 3784 9450 
3 7965 3784 3534 
3 6129 3665 6180 
3 6420 8389 3966 
3 959 1722 3007 
3 157 960 5261 
3 1325 4337 1837 
3 6129 3534 3665 
3 4492 9438 10274 
3 4198 4199 6344 
3 9498 6344 6364 
3 1132 4198 4854 
3 1499 4854 3926 
3 4854 1499 518 
3 1132 518 4842 
3 1925 1723 5203 
3 1499 5203 518 
3 3258 4338 1723 
3 5203 1723 7015 
3 523 1133 5142 
3 9498 3926 4854 
3 960 1723 4338 
3 4337 6126 3088 
3 9021 6126 8618 
3 8618 6126 4338 
3 8340 5496 2855 
3 3088 1889 1837 
3 4338 6126 4337 
3 5261 4337 1325 
3 3088 2855 1889 
3 1837 1889 3784 
3 6180 3665 3966 
3 6180 3966 8389 
3 1481 484 5073 
3 6311 3824 8645 
3 4647 8645 3824 
3 1482 3824 1116 
3 9186 7799 10199 
3 486 3181 1118 
3 3653 3111 1116 
3 484 1116 5073 
3 1117 4522 4647 
3 485 4647 1482 
3 2855 3007 1722 
3 1889 1722 3534 
3 3966 3665 959 
3 3966 156 10274 
3 3812 6420 4528 
3 3812 4528 1481 
3 4492 6390 9438 
3 10274 9438 6420 
3 9562 6668 4632 
3 485 1117 4647 
3 3891 486 1483 
3 1117 1483 4522 
3 10199 5793 9376 
3 486 5793 3181 
3 8480 8677 3653 
3 1116 3111 1482 
3 9376 5793 3891 
3 6668 3891 1483 
3 6390 8677 8480 
3 9438 8480 4528 
3 5880 3111 3653 
3 8480 3653 484 
3 156 959 5009 
3 5488 7455 5464 
3 6147 6390 4052 
3 1323 4492 156 
3 10297 5496 8340 
3 6126 8340 3088 
3 3966 959 156 
3 10274 156 4492 
3 6364 5087 8691 
3 6364 8691 9498 
3 2812 1925 1960 
3 1960 1925 1499 
3 3926 8691 5142 
3 773 522 7097 
3 1133 1838 1960 
3 1925 2812 3258 
3 5590 3258 2812 
3 1925 3258 1723 
3 8618 3258 5590 
3 5473 2764 9421 
3 9021 8618 5590 
3 10169 8899 10475 
3 10297 8340 9021 
3 10613 9021 10169 
3 6167 7619 9699 
3 10613 10297 9021 
3 2812 1960 2813 
3 2812 8355 5590 
3 3006 6167 5488 
3 7619 10613 9936 
3 523 5142 773 
3 5169 4761 158 
3 1133 523 1838 
3 1960 1838 2813 
3 523 773 5169 
3 523 5169 1326 
3 1838 523 1326 
3 6918 1326 158 
3 1326 6918 2764 
3 1326 2764 1838 
3 2812 2813 8355 
3 10487 5473 9421 
3 10961 10475 8899 
3 10487 8899 5473 
3 5488 6167 9699 
3 7455 9699 9936 
3 10169 5590 8355 
3 8899 8355 5473 
3 9021 5590 10169 
3 10613 10169 10475 
3 9936 9699 7619 
3 10297 7619 5496 
3 4052 1323 1835 
3 1720 1835 2758 
3 3111 5880 6044 
3 7894 9620 5951 
3 5009 6167 3006 
3 2758 5488 5464 
3 1835 1720 3295 
3 6147 3295 5808 
3 5880 7894 6044 
3 6044 9695 4114 
3 5951 3318 8461 
3 6044 4114 3111 
3 8476 7291 6365 
3 8461 6044 7894 
3 7291 9695 6365 
3 172 6365 3318 
3 1339 4245 6402 
3 1339 6402 172 
3 3891 6668 7996 
3 6402 9562 8476 
3 6402 4245 7996 
3 9562 7996 6668 
3 156 5009 1323 
3 1835 3006 2758 
3 8461 9695 6044 
3 7894 5880 9663 
3 4052 4492 1323 
3 1835 1323 3006 
3 6390 4492 4052 
3 6147 4052 3295 
3 8677 9663 5880 
3 8677 5880 3653 
3 485 7291 4632 
3 1117 4632 6668 
3 5871 7958 6268 
3 7996 9376 3891 
3 5832 3377 3245 
3 9300 9022 7958 
3 1053 3130 1419 
3 5639 9022 9300 
3 3000 1053 6683 
3 7318 657 3129 
3 6683 10246 9217 
3 9949 10661 10703 
3 3130 3235 1419 
3 3130 1053 3377 
3 9918 10703 10951 
3 9920 10951 10732 
3 5871 9300 7958 
3 5871 6268 3563 
3 3235 3130 5639 
3 3235 7854 6552 
3 4245 3563 6268 
3 7996 6268 9376 
3 4637 657 324 
3 1419 4988 6683 
3 6223 6552 7854 
3 9508 7854 5871 
3 1419 3235 324 
3 4988 324 657 
3 10246 4988 7318 
3 10246 7318 7635 
3 3129 5877 7635 
3 10246 7635 10661 
3 10661 7635 8936 
3 10951 8936 10732 
3 9423 9918 10642 
3 10164 9920 5837 
3 9423 10642 10164 
3 9665 5837 5059 
3 4000 329 3915 
3 6138 3915 4373 
3 9703 4000 8194 
3 8768 6138 6225 
3 7944 10164 9665 
3 7944 9665 661 
3 6229 8194 8768 
3 3865 3918 304 
3 7562 8613 9180 
3 3096 3866 652 
3 7025 3866 8613 
3 9180 10259 9151 
3 6229 8768 3865 
3 1404 3230 3317 
3 3866 5599 8613 
3 10240 9180 7590 
3 4741 651 7025 
3 8613 5599 9180 
3 4741 7025 5702 
3 7562 9180 10240 
3 661 3915 329 
3 7944 3138 9423 
3 304 7025 651 
3 3865 3884 6229 
3 7490 3138 6990 
3 7944 9423 10164 
3 3915 8194 4000 
3 330 1050 3976 
3 8087 6297 9703 
3 6229 9703 8194 
3 3865 651 3884 
3 6229 8087 9703 
3 5702 8613 7562 
3 5591 7562 10331 
3 3884 651 303 
3 2852 5702 5591 
3 7025 8613 5702 
3 2852 5591 4268 
3 651 4741 303 
3 7142 3317 8170 
3 7562 10240 10331 
3 5591 7952 7185 
3 329 4000 662 
3 7490 9918 9423 
3 3884 303 7142 
3 3884 8087 6229 
3 329 662 3138 
3 329 3138 7944 
3 9741 6297 8087 
3 7142 8087 3884 
3 10639 9949 10703 
3 9918 10951 10642 
3 10135 10703 9918 
3 10135 9918 7490 
3 7958 9022 10199 
3 7958 10199 9376 
3 3000 323 1053 
3 6683 1053 1419 
3 5832 9186 5684 
3 3130 5684 5639 
3 1053 323 3377 
3 3130 3377 5684 
3 1418 323 6831 
3 7515 3000 9217 
3 7515 9217 9949 
3 8943 10135 7514 
3 9169 10135 10721 
3 3138 7490 9423 
3 7515 9949 10639 
3 7515 9337 6831 
3 10703 10135 8943 
3 10639 8943 7505 
3 7643 10178 9186 
3 10199 7799 5793 
3 5832 7643 9186 
3 5684 9186 9022 
3 5781 7643 5832 
3 5781 5832 3245 
3 3552 5781 3245 
3 1418 3245 323 
3 323 3000 6831 
3 4735 6831 9337 
3 7515 10639 9337 
3 4735 9337 6578 
3 9337 10639 7505 
3 3924 7505 7276 
3 3976 9169 10721 
3 6990 3138 662 
3 4024 7238 330 
3 662 330 6990 
3 3976 10721 6990 
3 3976 6990 330 
3 330 662 4024 
3 7238 4024 7791 
3 7142 8170 9741 
3 6297 7791 4024 
3 4741 5702 2852 
3 4741 1404 303 
3 6297 9741 7791 
3 7238 7791 9235 
3 4018 3230 1038 
3 2852 1404 4741 
3 4268 302 1038 
3 1404 1038 3230 
3 8741 10223 6439 
3 7627 10223 9183 
3 299 4972 1036 
3 4946 6439 5724 
3 9183 10223 7952 
3 10331 7952 5591 
3 299 1036 7054 
3 3632 7021 1037 
3 8060 4179 4263 
3 1143 6649 1509 
3 1506 5012 3960 
3 4179 4075 1507 
3 3981 7308 1508 
3 1142 4263 4179 
3 5043 537 783 
3 6549 4491 8099 
3 1880 3365 3717 
3 10341 5809 7928 
3 10285 6670 3587 
3 117 5060 1285 
3 10285 3587 9230 
3 9304 3484 7878 
3 117 1285 3484 
3 7027 3484 9304 
3 3484 1285 3286 
3 6270 3301 8349 
3 9401 3286 5896 
3 9401 5896 7935 
3 3717 5809 9668 
3 8099 9668 9515 
3 9354 3365 6670 
3 3587 6670 920 
3 3587 920 117 
3 7027 117 3484 
3 2623 1880 1816 
3 6672 8099 9671 
3 3995 8279 9583 
3 5896 9583 8349 
3 919 8084 8279 
3 9583 6270 8349 
3 6270 8084 180 
3 3301 1347 3179 
3 3365 1880 1701 
3 920 1701 6671 
3 2756 1700 1815 
3 3286 3995 5896 
3 8099 4491 9671 
3 8099 6672 9668 
3 1816 6672 1286 
3 6673 1286 4262 
3 9641 1506 1140 
3 8060 11722 4179 
3 536 782 5012 
3 782 8485 4491 
3 4796 6957 8723 
3 7308 540 1508 
3 5130 3960 8060 
3 4389 8060 4263 
3 9110 7723 9644 
3 5724 8531 3250 
3 8723 299 1403 
3 8531 7054 3250 
3 10240 9110 9183 
3 10331 9183 7952 
3 9183 9110 9644 
3 7627 9644 5724 
3 3632 1037 1403 
3 299 8723 540 
3 7054 8531 3632 
3 1403 4796 8723 
3 7054 3632 1403 
3 7054 1403 299 
3 4796 6649 6957 
3 8723 6957 540 
3 540 6957 1143 
3 4389 1143 1509 
3 1506 3960 1140 
3 541 5130 1509 
3 3960 5130 1140 
3 4077 6793 7800 
3 9558 7021 7723 
3 9644 7723 8531 
3 6417 4796 3744 
3 1037 4796 1403 
3 5671 5584 7590 
3 9151 7590 9180 
3 3046 7021 9558 
3 5584 9558 9110 
3 308 7021 3046 
3 1406 3046 2937 
3 1037 7021 308 
3 1037 308 3744 
3 3566 7720 6793 
3 541 4077 1140 
3 9641 1140 4077 
3 9641 4077 6490 
3 2984 5848 3744 
3 1037 3744 4796 
3 3566 6649 6417 
3 9696 6417 5848 
3 6417 7720 3566 
3 6649 3566 1509 
3 3717 6672 1816 
3 4262 118 7288 
3 1816 6673 2623 
3 1880 2743 1701 
3 6676 8315 9667 
3 6676 4803 8485 
3 9667 921 118 
3 9667 118 6676 
3 8160 8804 5374 
3 2623 2743 1880 
3 8159 8918 7839 
3 2756 6619 1700 
3 5060 6671 7839 
3 6482 9216 2756 
3 7839 9216 6482 
3 6482 2756 1815 
3 116 8084 919 
3 116 919 4566 
3 2623 5374 2743 
3 1701 2743 6671 
3 5060 7839 6482 
3 1815 1700 3995 
3 1506 8315 536 
3 8485 4803 9671 
3 1880 3717 1816 
3 6673 1816 1286 
3 8315 6676 536 
3 1506 536 5012 
3 118 1286 4803 
3 118 4803 6676 
3 920 6671 5060 
3 1285 5060 6482 
3 1285 6482 1815 
3 1285 1815 3286 
3 1700 919 8279 
3 9583 8279 6270 
3 8084 1349 983 
3 4898 3634 1347 
3 4898 983 3011 
3 181 8334 984 
3 10260 6025 9130 
3 6104 6025 3011 
3 9045 10122 9095 
3 586 188 5006 
3 9343 7615 10090 
3 9121 8284 5787 
3 5688 7802 9045 
3 7957 6399 8662 
3 7826 9130 6104 
3 3174 4983 984 
3 5686 7615 9343 
3 10276 7812 9130 
3 8084 5253 1349 
3 983 1349 3011 
3 6104 3011 4983 
3 6104 4983 3174 
3 1283 8334 181 
3 5253 181 1349 
3 7826 6104 3174 
3 7826 3174 3180 
3 9343 10276 5686 
3 5957 5686 3068 
3 3342 9211 7802 
3 5688 9045 10649 
3 8293 5688 10649 
3 8293 10649 7615 
3 7802 10122 9045 
3 10649 9045 10090 
3 9211 5139 9506 
3 7802 9506 10122 
3 9506 5139 4781 
3 585 771 516 
3 517 5117 3564 
3 3115 5693 7977 
3 185 3758 584 
3 5139 584 4781 
3 6985 3564 5117 
3 584 186 4781 
3 3564 5693 3115 
3 8377 7681 5987 
3 2028 2016 3457 
3 3115 7977 7159 
3 1992 4773 4323 
3 8377 5987 6486 
3 2004 3917 2016 
3 7159 8377 4159 
3 513 767 4614 
3 6486 3917 4323 
3 517 3564 768 
3 7159 7977 8377 
3 768 3115 512 
3 512 4159 767 
3 771 585 186 
3 5117 186 584 
3 6438 771 517 
3 768 3564 3115 
3 6438 517 768 
3 4906 768 512 
3 8377 6486 4159 
3 513 8756 4764 
3 3917 2004 4323 
3 6486 8651 4159 
3 6486 4323 8651 
3 4773 4945 7160 
3 4323 2004 1992 
3 4323 4773 8651 
3 4159 8651 4614 
3 4159 512 7159 
3 1992 1976 4773 
3 8651 4773 4614 
3 6803 516 770 
3 4627 6438 8566 
3 4159 4614 767 
3 4906 5146 8566 
3 770 516 8743 
3 517 771 186 
3 3115 7159 512 
3 4906 512 767 
3 10090 9095 9121 
3 9343 7812 10276 
3 9095 10122 7957 
3 9095 6115 8284 
3 10260 3634 6025 
3 9130 6025 6104 
3 5787 7812 9121 
3 9121 7812 9343 
3 3011 6025 4898 
3 1347 3634 981 
3 3222 5748 5787 
3 7812 5748 9130 
3 3067 5748 3222 
3 8284 9121 9095 
3 3123 5787 8284 
3 587 6940 6703 
3 6399 4781 585 
3 6399 585 8662 
3 9095 7957 6115 
3 8284 7305 3123 
3 5006 6115 3146 
3 187 3146 8662 
3 10260 6728 3634 
3 6025 3634 4898 
3 5748 3067 10260 
3 5748 10260 9130 
3 180 4898 1347 
3 180 1347 3301 
3 981 3634 5206 
3 1581 6728 3067 
3 1581 3067 982 
3 189 3222 3123 
3 3222 5787 3123 
3 7329 3123 587 
3 8284 6115 7305 
3 586 187 4555 
3 8743 4627 770 
3 770 3974 6803 
3 8743 6438 4627 
3 1131 4740 1497 
3 5006 3146 586 
3 6803 187 516 
3 771 6438 8743 
3 771 8743 516 
3 6438 4906 8566 
3 4627 8566 4361 
3 4665 8756 4945 
3 4773 7160 4614 
3 4906 767 5146 
3 6866 769 2519 
3 4614 7160 513 
3 767 513 5146 
3 4773 1976 4945 
3 7160 4945 8756 
3 770 4627 515 
3 3974 9744 6803 
3 513 4764 769 
3 5146 6866 4361 
3 8547 4555 9744 
3 187 586 3146 
3 187 6803 4555 
3 4658 8547 8483 
3 7305 5006 188 
3 8483 188 4658 
3 3974 6413 9744 
3 6803 9744 4555 
3 4778 7023 3974 
3 515 3974 770 
3 5146 769 6866 
3 4361 6866 1131 
3 4778 1497 4740 
3 6722 1131 514 
3 1893 1616 4665 
3 8756 8357 4764 
3 8357 4919 6395 
3 4764 6395 769 
3 4577 4919 8357 
3 4665 8357 8756 
3 4731 8483 8547 
3 4205 8547 6413 
3 3974 7023 6413 
3 9744 6413 8547 
3 4555 8547 4658 
3 586 4658 188 
3 3974 515 4778 
3 7225 1996 2008 
3 4778 515 1497 
3 1131 1497 4361 
3 3913 8135 4652 
3 6955 1348 8499 
3 2086 2096 4716 
3 4677 4459 982 
3 4881 6955 8499 
3 4459 8499 1581 
3 4966 6940 8483 
3 8483 6940 188 
3 8281 9496 6087 
3 3361 6087 3913 
3 179 6955 7001 
3 179 4073 981 
3 7878 7935 5941 
3 3330 5792 3361 
3 8135 9496 4073 
3 7001 4073 179 
3 8349 5789 9685 
3 5792 8281 6087 
3 6728 1581 1348 
3 6728 1348 5206 
3 4459 1581 982 
3 4677 189 7329 
3 6703 7329 587 
3 6940 587 188 
3 3123 7329 189 
3 3222 189 982 
3 587 3123 7305 
3 587 7305 188 
3 5896 8349 9685 
3 5896 9685 7935 
3 5789 3301 3179 
3 5789 3179 9496 
3 1348 179 5206 
3 6728 5206 3634 
3 9515 10341 7846 
3 3742 3761 2186 
3 7928 7755 5849 
3 9230 3587 7027 
3 7928 5849 5759 
3 6054 9230 9304 
3 6054 9304 6073 
3 5941 7935 5792 
3 6925 8327 4208 
3 9576 4208 6549 
3 6307 9576 7846 
3 7928 7846 10341 
3 4208 537 6549 
3 9576 9515 7846 
3 9576 6549 9515 
3 10341 9515 9668 
3 3981 1508 1142 
3 4223 6941 8596 
3 11722 5043 8630 
3 4075 1141 1507 
3 301 3173 8741 
3 10223 3173 7952 
3 10223 7627 6439 
3 4946 3250 1402 
3 650 3173 301 
3 649 8741 6439 
3 649 6439 4946 
3 649 7220 7212 
3 4179 1507 539 
3 1142 4223 3981 
3 11722 8630 4075 
3 11722 4075 4179 
3 4208 8327 783 
3 4208 783 537 
3 1142 539 4223 
3 3981 4223 6371 
3 538 1141 5200 
3 783 5200 8630 
3 6915 650 301 
3 8353 301 649 
3 4972 3981 6371 
3 8595 4069 4582 
3 4582 4999 4440 
3 1402 300 4946 
3 7220 300 4440 
3 4582 4440 8595 
3 3539 6371 8595 
3 3539 8595 4440 
3 4910 4693 6941 
3 539 6941 4223 
3 1507 6435 8726 
3 1507 8726 539 
3 4839 8327 6925 
3 4189 6925 6307 
3 3249 5759 5849 
3 5759 6307 7846 
3 7846 7928 5759 
3 6307 3598 4189 
3 5922 5849 7755 
3 2236 3598 2226 
3 7928 9354 7755 
3 5922 6108 3553 
3 9230 6108 7858 
3 9230 7858 10285 
3 9230 6054 6108 
3 7858 5922 7755 
3 9304 7878 6073 
3 6054 3742 6108 
3 6073 7878 5941 
3 6073 5941 3551 
3 7858 6108 5922 
3 5849 5922 3392 
3 6054 6073 3761 
3 2176 3551 2166 
3 2206 3392 3553 
3 2196 3553 3742 
3 6054 3761 3742 
3 6108 3742 3553 
3 6716 538 7002 
3 2272 6435 6716 
3 5922 3553 3392 
3 2256 4839 2246 
3 2246 4189 2236 
3 5759 3598 6307 
3 5849 3392 3249 
3 5759 3249 3598 
3 649 300 7220 
3 7212 7220 4958 
3 783 8327 538 
3 1141 6716 6435 
3 4875 650 6915 
3 4884 5005 2340 
3 649 7212 8353 
3 301 8353 6915 
3 2336 2340 5005 
3 8353 5005 6915 
3 4582 4069 2304 
3 4910 8726 6435 
3 4069 2296 2304 
3 7002 8327 4839 
3 4910 2280 2288 
3 2296 4069 4693 
3 4910 2288 4693 
3 2196 3742 2186 
3 2280 4910 6435 
3 2272 2280 6435 
3 2328 2336 4989 
3 4958 4989 7212 
3 4999 2312 2320 
3 4958 2320 2328 
3 4958 2328 4989 
3 2288 2296 4693 
3 2264 6716 7002 
3 4839 2256 7002 
3 4189 2246 4839 
3 3598 2236 4189 
3 2256 2264 7002 
3 3249 2226 3598 
3 2206 3553 2196 
3 2186 3761 2176 
3 3249 2216 2226 
3 3249 3392 2216 
3 2216 3392 2206 
3 2146 3361 3913 
3 2126 2136 4652 
3 4716 4459 4677 
3 2056 4966 4731 
3 4818 4459 4716 
3 4696 4677 6703 
3 2156 3361 2146 
3 4881 4965 6955 
3 2116 2126 4965 
3 7001 8135 4073 
3 4652 7001 4965 
3 2116 4881 2106 
3 3761 6073 3551 
3 3761 3551 2176 
3 6087 9496 8135 
3 4652 8135 7001 
3 8499 4459 4818 
3 2086 4696 2076 
3 2086 4716 4696 
3 4810 6703 6940 
3 2116 4965 4881 
3 2106 4818 2096 
3 2106 4881 4818 
3 2096 4818 4716 
3 2076 4696 4810 
3 2076 4810 2066 
3 2066 4810 4966 
3 2066 4966 2056 
3 8547 4205 4731 
3 8483 4731 4966 
3 7023 4778 4737 
3 1131 6722 4740 
3 4778 4740 4737 
3 7067 6722 514 
3 2519 514 6866 
3 804 8712 6887 
3 4665 6887 8357 
3 6395 4919 8576 
3 6395 8576 2519 
3 1926 4919 1729 
3 8712 4577 6887 
3 1616 804 6887 
3 8576 4919 7067 
3 1982 1996 6722 
3 7023 4737 4340 
3 7023 4340 6413 
3 4740 6722 7225 
3 4740 7225 4737 
3 4205 2032 2044 
3 4731 2044 2056 
3 4737 2008 2020 
3 4340 2020 2032 
3 6722 1996 7225 
3 7067 1926 1982 
3 7067 1982 6722 
3 4577 1168 1729 
3 4577 1729 4919 
3 1090 6489 1456 
3 1456 4742 1090 

CELL_TYPES 22890
 5
 5
 5
 5
 5
 5
 5
 5
 5
 5
 5
 5
 5
 5
 5
 5
 5
 5
 5
 5
 5
 5
 5
 5
 5
 5
 5
 5
 5
 5
 5
 5
 5
 5
 5
 5
 5
 5
 5
 5
 5
 5
 5
 5
 5
 5
 5
 5
 5
 5
 5
 5
 5
 5
 5
 5
 5
 5
 5
 5
 5
 5
 5
 5
 5
 5
 5
 5
 5
 5
 5
 5
 5
 5
 5
 5
 5
 5
 5
 5
 5
 5
 5
 5
 5
 5
 5
 5
 5
 5
 5
 5
 5
 5
 5
 5
 5
 5
 5
 5
 5
 5
 5
 5
 5
 5
 5
 5
 5
 5
 5
 5
 5
 5
 5
 5
 5
 5
 5
 5
 5
 5
 5
 5
 5
 5
 5
 5
 5
 5
 5
 5
 5
 5
 5
 5
 5
 5
 5
 5
 5
 5
 5
 5
 5
 5
 5
 5
 5
 5
 5
 5
 5
 5
 5
 5
 5
 5
 5
 5
 5
 5
 5
 5
 5
 5
 5
 5
 5
 5
 5
 5
 5
 5
 5
 5
 5
 5
 5
 5
 5
 5
 5
 5
 5
 5
 5
 5
 5
 5
 5
 5
 5
 5
 5
 5
 5
 5
 5
 5
 5
 5
 5
 5
 5
 5
 5
 5
 5
 5
 5
 5
 5
 5
 5
 5
 5
 5
 5
 5
 5
 5
 5
 5
 5
 5
 5
 5
 5
 5
 5
 5
 5
 5
 5
 5
 5
 5
 5
 5
 5
 5
 5
 5
 5
 5
 5
 5
 5
 5
 5
 5
 5
 5
 5
 5
 5
 5
 5
 5
 5
 5
 5
 5
 5
 5
 5
 5
 5
 5
 5
 5
 5
 5
 5
 5
 5
 5
 5
 5
 5
 5
 5
 5
 5
 5
 5
 5
 5
 5
 5
 5
 5
 5
 5
 5
 5
 5
 5
 5
 5
 5
 5
 5
 5
 5
 5
 5
 5
 5
 5
 5
 5
 5
 5
 5
 5
 5
 5
 5
 5
 5
 5
 5
 5
 5
 5
 5
 5
 5
 5
 5
 5
 5
 5
 5
 5
 5
 5
 5
 5
 5
 5
 5
 5
 5
 5
 5
 5
 5
 5
 5
 5
 5
 5
 5
 5
 5
 5
 5
 5
 5
 5
 5
 5
 5
 5
 5
 5
 5
 5
 5
 5
 5
 5
 5
 5
 5
 5
 5
 5
 5
 5
 5
 5
 5
 5
 5
 5
 5
 5
 5
 5
 5
 5
 5
 5
 5
 5
 5
 5
 5
 5
 5
 5
 5
 5
 5
 5
 5
 5
 5
 5
 5
 5
 5
 5
 5
 5
 5
 5
 5
 5
 5
 5
 5
 5
 5
 5
 5
 5
 5
 5
 5
 5
 5
 5
 5
 5
 5
 5
 5
 5
 5
 5
 5
 5
 5
 5
 5
 5
 5
 5
 5
 5
 5
 5
 5
 5
 5
 5
 5
 5
 5
 5
 5
 5
 5
 5
 5
 5
 5
 5
 5
 5
 5
 5
 5
 5
 5
 5
 5
 5
 5
 5
 5
 5
 5
 5
 5
 5
 5
 5
 5
 5
 5
 5
 5
 5
 5
 5
 5
 5
 5
 5
 5
 5
 5
 5
 5
 5
 5
 5
 5
 5
 5
 5
 5
 5
 5
 5
 5
 5
 5
 5
 5
 5
 5
 5
 5
 5
 5
 5
 5
 5
 5
 5
 5
 5
 5
 5
 5
 5
 5
 5
 5
 5
 5
 5
 5
 5
 5
 5
 5
 5
 5
 5
 5
 5
 5
 5
 5
 5
 5
 5
 5
 5
 5
 5
 5
 5
 5
 5
 5
 5
 5
 5
 5
 5
 5
 5
 5
 5
 5
 5
 5
 5
 5
 5
 5
 5
 5
 5
 5
 5
 5
 5
 5
 5
 5
 5
 5
 5
 5
 5
 5
 5
 5
 5
 5
 5
 5
 5
 5
 5
 5
 5
 5
 5
 5
 5
 5
 5
 5
 5
 5
 5
 5
 5
 5
 5
 5
 5
 5
 5
 5
 5
 5
 5
 5
 5
 5
 5
 5
 5
 5
 5
 5
 5
 5
 5
 5
 5
 5
 5
 5
 5
 5
 5
 5
 5
 5
 5
 5
 5
 5
 5
 5
 5
 5
 5
 5
 5
 5
 5
 5
 5
 5
 5
 5
 5
 5
 5
 5
 5
 5
 5
 5
 5
 5
 5
 5
 5
 5
 5
 5
 5
 5
 5
 5
 5
 5
 5
 5
 5
 5
 5
 5
 5
 5
 5
 5
 5
 5
 5
 5
 5
 5
 5
 5
 5
 5
 5
 5
 5
 5
 5
 5
 5
 5
 5
 5
 5
 5
 5
 5
 5
 5
 5
 5
 5
 5
 5
 5
 5
 5
 5
 5
 5
 5
 5
 5
 5
 5
 5
 5
 5
 5
 5
 5
 5
 5
 5
 5
 5
 5
 5
 5
 5
 5
 5
 5
 5
 5
 5
 5
 5
 5
 5
 5
 5
 5
 5
 5
 5
 5
 5
 5
 5
 5
 5
 5
 5
 5
 5
 5
 5
 5
 5
 5
 5
 5
 5
 5
 5
 5
 5
 5
 5
 5
 5
 5
 5
 5
 5
 5
 5
 5
 5
 5
 5
 5
 5
 5
 5
 5
 5
 5
 5
 5
 5
 5
 5
 5
 5
 5
 5
 5
 5
 5
 5
 5
 5
 5
 5
 5
 5
 5
 5
 5
 5
 5
 5
 5
 5
 5
 5
 5
 5
 5
 5
 5
 5
 5
 5
 5
 5
 5
 5
 5
 5
 5
 5
 5
 5
 5
 5
 5
 5
 5
 5
 5
 5
 5
 5
 5
 5
 5
 5
 5
 5
 5
 5
 5
 5
 5
 5
 5
 5
 5
 5
 5
 5
 5
 5
 5
 5
 5
 5
 5
 5
 5
 5
 5
 5
 5
 5
 5
 5
 5
 5
 5
 5
 5
 5
 5
 5
 5
 5
 5
 5
 5
 5
 5
 5
 5
 5
 5
 5
 5
 5
 5
 5
 5
 5
 5
 5
 5
 5
 5
 5
 5
 5
 5
 5
 5
 5
 5
 5
 5
 5
 5
 5
 5
 5
 5
 5
 5
 5
 5
 5
 5
 5
 5
 5
 5
 5
 5
 5
 5
 5
 5
 5
 5
 5
 5
 5
 5
 5
 5
 5
 5
 5
 5
 5
 5
 5
 5
 5
 5
 5
 5
 5
 5
 5
 5
 5
 5
 5
 5
 5
 5
 5
 5
 5
 5
 5
 5
 5
 5
 5
 5
 5
 5
 5
 5
 5
 5
 5
 5
 5
 5
 5
 5
 5
 5
 5
 5
 5
 5
 5
 5
 5
 5
 5
 5
 5
 5
 5
 5
 5
 5
 5
 5
 5
 5
 5
 5
 5
 5
 5
 5
 5
 5
 5
 5
 5
 5
 5
 5
 5
 5
 5
 5
 5
 5
 5
 5
 5
 5
 5
 5
 5
 5
 5
 5
 5
 5
 5
 5
 5
 5
 5
 5
 5
 5
 5
 5
 5
 5
 5
 5
 5
 5
 5
 5
 5
 5
 5
 5
 5
 5
 5
 5
 5
 5
 5
 5
 5
 5
 5
 5
 5
 5
 5
 5
 5
 5
 5
 5
 5
 5
 5
 5
 5
 5
 5
 5
 5
 5
 5
 5
 5
 5
 5
 5
 5
 5
 5
 5
 5
 5
 5
 5
 5
 5
 5
 5
 5
 5
 5
 5
 5
 5
 5
 5
 5
 5
 5
 5
 5
 5
 5
 5
 5
 5
 5
 5
 5
 5
 5
 5
 5
 5
 5
 5
 5
 5
 5
 5
 5
 5
 5
 5
 5
 5
 5
 5
 5
 5
 5
 5
 5
 5
 5
 5
 5
 5
 5
 5
 5
 5
 5
 5
 5
 5
 5
 5
 5
 5
 5
 5
 5
 5
 5
 5
 5
 5
 5
 5
 5
 5
 5
 5
 5
 5
 5
 5
 5
 5
 5
 5
 5
 5
 5
 5
 5
 5
 5
 5
 5
 5
 5
 5
 5
 5
 5
 5
 5
 5
 5
 5
 5
 5
 5
 5
 5
 5
 5
 5
 5
 5
 5
 5
 5
 5
 5
 5
 5
 5
 5
 5
 5
 5
 5
 5
 5
 5
 5
 5
 5
 5
 5
 5
 5
 5
 5
 5
 5
 5
 5
 5
 5
 5
 5
 5
 5
 5
 5
 5
 5
 5
 5
 5
 5
 5
 5
 5
 5
 5
 5
 5
 5
 5
 5
 5
 5
 5
 5
 5
 5
 5
 5
 5
 5
 5
 5
 5
 5
 5
 5
 5
 5
 5
 5
 5
 5
 5
 5
 5
 5
 5
 5
 5
 5
 5
 5
 5
 5
 5
 5
 5
 5
 5
 5
 5
 5
 5
 5
 5
 5
 5
 5
 5
 5
 5
 5
 5
 5
 5
 5
 5
 5
 5
 5
 5
 5
 5
 5
 5
 5
 5
 5
 5
 5
 5
 5
 5
 5
 5
 5
 5
 5
 5
 5
 5
 5
 5
 5
 5
 5
 5
 5
 5
 5
 5
 5
 5
 5
 5
 5
 5
 5
 5
 5
 5
 5
 5
 5
 5
 5
 5
 5
 5
 5
 5
 5
 5
 5
 5
 5
 5
 5
 5
 5
 5
 5
 5
 5
 5
 5
 5
 5
 5
 5
 5
 5
 5
 5
 5
 5
 5
 5
 5
 5
 5
 5
 5
 5
 5
 5
 5
 5
 5
 5
 5
 5
 5
 5
 5
 5
 5
 5
 5
 5
 5
 5
 5
 5
 5
 5
 5
 5
 5
 5
 5
 5
 5
 5
 5
 5
 5
 5
 5
 5
 5
 5
 5
 5
 5
 5
 5
 5
 5
 5
 5
 5
 5
 5
 5
 5
 5
 5
 5
 5
 5
 5
 5
 5
 5
 5
 5
 5
 5
 5
 5
 5
 5
 5
 5
 5
 5
 5
 5
 5
 5
 5
 5
 5
 5
 5
 5
 5
 5
 5
 5
 5
 5
 5
 5
 5
 5
 5
 5
 5
 5
 5
 5
 5
 5
 5
 5
 5
 5
 5
 5
 5
 5
 5
 5
 5
 5
 5
 5
 5
 5
 5
 5
 5
 5
 5
 5
 5
 5
 5
 5
 5
 5
 5
 5
 5
 5
 5
 5
 5
 5
 5
 5
 5
 5
 5
 5
 5
 5
 5
 5
 5
 5
 5
 5
 5
 5
 5
 5
 5
 5
 5
 5
 5
 5
 5
 5
 5
 5
 5
 5
 5
 5
 5
 5
 5
 5
 5
 5
 5
 5
 5
 5
 5
 5
 5
 5
 5
 5
 5
 5
 5
 5
 5
 5
 5
 5
 5
 5
 5
 5
 5
 5
 5
 5
 5
 5
 5
 5
 5
 5
 5
 5
 5
 5
 5
 5
 5
 5
 5
 5
 5
 5
 5
 5
 5
 5
 5
 5
 5
 5
 5
 5
 5
 5
 5
 5
 5
 5
 5
 5
 5
 5
 5
 5
 5
 5
 5
 5
 5
 5
 5
 5
 5
 5
 5
 5
 5
 5
 5
 5
 5
 5
 5
 5
 5
 5
 5
 5
 5
 5
 5
 5
 5
 5
 5
 5
 5
 5
 5
 5
 5
 5
 5
 5
 5
 5
 5
 5
 5
 5
 5
 5
 5
 5
 5
 5
 5
 5
 5
 5
 5
 5
 5
 5
 5
 5
 5
 5
 5
 5
 5
 5
 5
 5
 5
 5
 5
 5
 5
 5
 5
 5
 5
 5
 5
 5
 5
 5
 5
 5
 5
 5
 5
 5
 5
 5
 5
 5
 5
 5
 5
 5
 5
 5
 5
 5
 5
 5
 5
 5
 5
 5
 5
 5
 5
 5
 5
 5
 5
 5
 5
 5
 5
 5
 5
 5
 5
 5
 5
 5
 5
 5
 5
 5
 5
 5
 5
 5
 5
 5
 5
 5
 5
 5
 5
 5
 5
 5
 5
 5
 5
 5
 5
 5
 5
 5
 5
 5
 5
 5
 5
 5
 5
 5
 5
 5
 5
 5
 5
 5
 5
 5
 5
 5
 5
 5
 5
 5
 5
 5
 5
 5
 5
 5
 5
 5
 5
 5
 5
 5
 5
 5
 5
 5
 5
 5
 5
 5
 5
 5
 5
 5
 5
 5
 5
 5
 5
 5
 5
 5
 5
 5
 5
 5
 5
 5
 5
 5
 5
 5
 5
 5
 5
 5
 5
 5
 5
 5
 5
 5
 5
 5
 5
 5
 5
 5
 5
 5
 5
 5
 5
 5
 5
 5
 5
 5
 5
 5
 5
 5
 5
 5
 5
 5
 5
 5
 5
 5
 5
 5
 5
 5
 5
 5
 5
 5
 5
 5
 5
 5
 5
 5
 5
 5
 5
 5
 5
 5
 5
 5
 5
 5
 5
 5
 5
 5
 5
 5
 5
 5
 5
 5
 5
 5
 5
 5
 5
 5
 5
 5
 5
 5
 5
 5
 5
 5
 5
 5
 5
 5
 5
 5
 5
 5
 5
 5
 5
 5
 5
 5
 5
 5
 5
 5
 5
 5
 5
 5
 5
 5
 5
 5
 5
 5
 5
 5
 5
 5
 5
 5
 5
 5
 5
 5
 5
 5
 5
 5
 5
 5
 5
 5
 5
 5
 5
 5
 5
 5
 5
 5
 5
 5
 5
 5
 5
 5
 5
 5
 5
 5
 5
 5
 5
 5
 5
 5
 5
 5
 5
 5
 5
 5
 5
 5
 5
 5
 5
 5
 5
 5
 5
 5
 5
 5
 5
 5
 5
 5
 5
 5
 5
 5
 5
 5
 5
 5
 5
 5
 5
 5
 5
 5
 5
 5
 5
 5
 5
 5
 5
 5
 5
 5
 5
 5
 5
 5
 5
 5
 5
 5
 5
 5
 5
 5
 5
 5
 5
 5
 5
 5
 5
 5
 5
 5
 5
 5
 5
 5
 5
 5
 5
 5
 5
 5
 5
 5
 5
 5
 5
 5
 5
 5
 5
 5
 5
 5
 5
 5
 5
 5
 5
 5
 5
 5
 5
 5
 5
 5
 5
 5
 5
 5
 5
 5
 5
 5
 5
 5
 5
 5
 5
 5
 5
 5
 5
 5
 5
 5
 5
 5
 5
 5
 5
 5
 5
 5
 5
 5
 5
 5
 5
 5
 5
 5
 5
 5
 5
 5
 5
 5
 5
 5
 5
 5
 5
 5
 5
 5
 5
 5
 5
 5
 5
 5
 5
 5
 5
 5
 5
 5
 5
 5
 5
 5
 5
 5
 5
 5
 5
 5
 5
 5
 5
 5
 5
 5
 5
 5
 5
 5
 5
 5
 5
 5
 5
 5
 5
 5
 5
 5
 5
 5
 5
 5
 5
 5
 5
 5
 5
 5
 5
 5
 5
 5
 5
 5
 5
 5
 5
 5
 5
 5
 5
 5
 5
 5
 5
 5
 5
 5
 5
 5
 5
 5
 5
 5
 5
 5
 5
 5
 5
 5
 5
 5
 5
 5
 5
 5
 5
 5
 5
 5
 5
 5
 5
 5
 5
 5
 5
 5
 5
 5
 5
 5
 5
 5
 5
 5
 5
 5
 5
 5
 5
 5
 5
 5
 5
 5
 5
 5
 5
 5
 5
 5
 5
 5
 5
 5
 5
 5
 5
 5
 5
 5
 5
 5
 5
 5
 5
 5
 5
 5
 5
 5
 5
 5
 5
 5
 5
 5
 5
 5
 5
 5
 5
 5
 5
 5
 5
 5
 5
 5
 5
 5
 5
 5
 5
 5
 5
 5
 5
 5
 5
 5
 5
 5
 5
 5
 5
 5
 5
 5
 5
 5
 5
 5
 5
 5
 5
 5
 5
 5
 5
 5
 5
 5
 5
 5
 5
 5
 5
 5
 5
 5
 5
 5
 5
 5
 5
 5
 5
 5
 5
 5
 5
 5
 5
 5
 5
 5
 5
 5
 5
 5
 5
 5
 5
 5
 5
 5
 5
 5
 5
 5
 5
 5
 5
 5
 5
 5
 5
 5
 5
 5
 5
 5
 5
 5
 5
 5
 5
 5
 5
 5
 5
 5
 5
 5
 5
 5
 5
 5
 5
 5
 5
 5
 5
 5
 5
 5
 5
 5
 5
 5
 5
 5
 5
 5
 5
 5
 5
 5
 5
 5
 5
 5
 5
 5
 5
 5
 5
 5
 5
 5
 5
 5
 5
 5
 5
 5
 5
 5
 5
 5
 5
 5
 5
 5
 5
 5
 5
 5
 5
 5
 5
 5
 5
 5
 5
 5
 5
 5
 5
 5
 5
 5
 5
 5
 5
 5
 5
 5
 5
 5
 5
 5
 5
 5
 5
 5
 5
 5
 5
 5
 5
 5
 5
 5
 5
 5
 5
 5
 5
 5
 5
 5
 5
 5
 5
 5
 5
 5
 5
 5
 5
 5
 5
 5
 5
 5
 5
 5
 5
 5
 5
 5
 5
 5
 5
 5
 5
 5
 5
 5
 5
 5
 5
 5
 5
 5
 5
 5
 5
 5
 5
 5
 5
 5
 5
 5
 5
 5
 5
 5
 5
 5
 5
 5
 5
 5
 5
 5
 5
 5
 5
 5
 5
 5
 5
 5
 5
 5
 5
 5
 5
 5
 5
 5
 5
 5
 5
 5
 5
 5
 5
 5
 5
 5
 5
 5
 5
 5
 5
 5
 5
 5
 5
 5
 5
 5
 5
 5
 5
 5
 5
 5
 5
 5
 5
 5
 5
 5
 5
 5
 5
 5
 5
 5
 5
 5
 5
 5
 5
 5
 5
 5
 5
 5
 5
 5
 5
 5
 5
 5
 5
 5
 5
 5
 5
 5
 5
 5
 5
 5
 5
 5
 5
 5
 5
 5
 5
 5
 5
 5
 5
 5
 5
 5
 5
 5
 5
 5
 5
 5
 5
 5
 5
 5
 5
 5
 5
 5
 5
 5
 5
 5
 5
 5
 5
 5
 5
 5
 5
 5
 5
 5
 5
 5
 5
 5
 5
 5
 5
 5
 5
 5
 5
 5
 5
 5
 5
 5
 5
 5
 5
 5
 5
 5
 5
 5
 5
 5
 5
 5
 5
 5
 5
 5
 5
 5
 5
 5
 5
 5
 5
 5
 5
 5
 5
 5
 5
 5
 5
 5
 5
 5
 5
 5
 5
 5
 5
 5
 5
 5
 5
 5
 5
 5
 5
 5
 5
 5
 5
 5
 5
 5
 5
 5
 5
 5
 5
 5
 5
 5
 5
 5
 5
 5
 5
 5
 5
 5
 5
 5
 5
 5
 5
 5
 5
 5
 5
 5
 5
 5
 5
 5
 5
 5
 5
 5
 5
 5
 5
 5
 5
 5
 5
 5
 5
 5
 5
 5
 5
 5
 5
 5
 5
 5
 5
 5
 5
 5
 5
 5
 5
 5
 5
 5
 5
 5
 5
 5
 5
 5
 5
 5
 5
 5
 5
 5
 5
 5
 5
 5
 5
 5
 5
 5
 5
 5
 5
 5
 5
 5
 5
 5
 5
 5
 5
 5
 5
 5
 5
 5
 5
 5
 5
 5
 5
 5
 5
 5
 5
 5
 5
 5
 5
 5
 5
 5
 5
 5
 5
 5
 5
 5
 5
 5
 5
 5
 5
 5
 5
 5
 5
 5
 5
 5
 5
 5
 5
 5
 5
 5
 5
 5
 5
 5
 5
 5
 5
 5
 5
 5
 5
 5
 5
 5
 5
 5
 5
 5
 5
 5
 5
 5
 5
 5
 5
 5
 5
 5
 5
 5
 5
 5
 5
 5
 5
 5
 5
 5
 5
 5
 5
 5
 5
 5
 5
 5
 5
 5
 5
 5
 5
 5
 5
 5
 5
 5
 5
 5
 5
 5
 5
 5
 5
 5
 5
 5
 5
 5
 5
 5
 5
 5
 5
 5
 5
 5
 5
 5
 5
 5
 5
 5
 5
 5
 5
 5
 5
 5
 5
 5
 5
 5
 5
 5
 5
 5
 5
 5
 5
 5
 5
 5
 5
 5
 5
 5
 5
 5
 5
 5
 5
 5
 5
 5
 5
 5
 5
 5
 5
 5
 5
 5
 5
 5
 5
 5
 5
 5
 5
 5
 5
 5
 5
 5
 5
 5
 5
 5
 5
 5
 5
 5
 5
 5
 5
 5
 5
 5
 5
 5
 5
 5
 5
 5
 5
 5
 5
 5
 5
 5
 5
 5
 5
 5
 5
 5
 5
 5
 5
 5
 5
 5
 5
 5
 5
 5
 5
 5
 5
 5
 5
 5
 5
 5
 5
 5
 5
 5
 5
 5
 5
 5
 5
 5
 5
 5
 5
 5
 5
 5
 5
 5
 5
 5
 5
 5
 5
 5
 5
 5
 5
 5
 5
 5
 5
 5
 5
 5
 5
 5
 5
 5
 5
 5
 5
 5
 5
 5
 5
 5
 5
 5
 5
 5
 5
 5
 5
 5
 5
 5
 5
 5
 5
 5
 5
 5
 5
 5
 5
 5
 5
 5
 5
 5
 5
 5
 5
 5
 5
 5
 5
 5
 5
 5
 5
 5
 5
 5
 5
 5
 5
 5
 5
 5
 5
 5
 5
 5
 5
 5
 5
 5
 5
 5
 5
 5
 5
 5
 5
 5
 5
 5
 5
 5
 5
 5
 5
 5
 5
 5
 5
 5
 5
 5
 5
 5
 5
 5
 5
 5
 5
 5
 5
 5
 5
 5
 5
 5
 5
 5
 5
 5
 5
 5
 5
 5
 5
 5
 5
 5
 5
 5
 5
 5
 5
 5
 5
 5
 5
 5
 5
 5
 5
 5
 5
 5
 5
 5
 5
 5
 5
 5
 5
 5
 5
 5
 5
 5
 5
 5
 5
 5
 5
 5
 5
 5
 5
 5
 5
 5
 5
 5
 5
 5
 5
 5
 5
 5
 5
 5
 5
 5
 5
 5
 5
 5
 5
 5
 5
 5
 5
 5
 5
 5
 5
 5
 5
 5
 5
 5
 5
 5
 5
 5
 5
 5
 5
 5
 5
 5
 5
 5
 5
 5
 5
 5
 5
 5
 5
 5
 5
 5
 5
 5
 5
 5
 5
 5
 5
 5
 5
 5
 5
 5
 5
 5
 5
 5
 5
 5
 5
 5
 5
 5
 5
 5
 5
 5
 5
 5
 5
 5
 5
 5
 5
 5
 5
 5
 5
 5
 5
 5
 5
 5
 5
 5
 5
 5
 5
 5
 5
 5
 5
 5
 5
 5
 5
 5
 5
 5
 5
 5
 5
 5
 5
 5
 5
 5
 5
 5
 5
 5
 5
 5
 5
 5
 5
 5
 5
 5
 5
 5
 5
 5
 5
 5
 5
 5
 5
 5
 5
 5
 5
 5
 5
 5
 5
 5
 5
 5
 5
 5
 5
 5
 5
 5
 5
 5
 5
 5
 5
 5
 5
 5
 5
 5
 5
 5
 5
 5
 5
 5
 5
 5
 5
 5
 5
 5
 5
 5
 5
 5
 5
 5
 5
 5
 5
 5
 5
 5
 5
 5
 5
 5
 5
 5
 5
 5
 5
 5
 5
 5
 5
 5
 5
 5
 5
 5
 5
 5
 5
 5
 5
 5
 5
 5
 5
 5
 5
 5
 5
 5
 5
 5
 5
 5
 5
 5
 5
 5
 5
 5
 5
 5
 5
 5
 5
 5
 5
 5
 5
 5
 5
 5
 5
 5
 5
 5
 5
 5
 5
 5
 5
 5
 5
 5
 5
 5
 5
 5
 5
 5
 5
 5
 5
 5
 5
 5
 5
 5
 5
 5
 5
 5
 5
 5
 5
 5
 5
 5
 5
 5
 5
 5
 5
 5
 5
 5
 5
 5
 5
 5
 5
 5
 5
 5
 5
 5
 5
 5
 5
 5
 5
 5
 5
 5
 5
 5
 5
 5
 5
 5
 5
 5
 5
 5
 5
 5
 5
 5
 5
 5
 5
 5
 5
 5
 5
 5
 5
 5
 5
 5
 5
 5
 5
 5
 5
 5
 5
 5
 5
 5
 5
 5
 5
 5
 5
 5
 5
 5
 5
 5
 5
 5
 5
 5
 5
 5
 5
 5
 5
 5
 5
 5
 5
 5
 5
 5
 5
 5
 5
 5
 5
 5
 5
 5
 5
 5
 5
 5
 5
 5
 5
 5
 5
 5
 5
 5
 5
 5
 5
 5
 5
 5
 5
 5
 5
 5
 5
 5
 5
 5
 5
 5
 5
 5
 5
 5
 5
 5
 5
 5
 5
 5
 5
 5
 5
 5
 5
 5
 5
 5
 5
 5
 5
 5
 5
 5
 5
 5
 5
 5
 5
 5
 5
 5
 5
 5
 5
 5
 5
 5
 5
 5
 5
 5
 5
 5
 5
 5
 5
 5
 5
 5
 5
 5
 5
 5
 5
 5
 5
 5
 5
 5
 5
 5
 5
 5
 5
 5
 5
 5
 5
 5
 5
 5
 5
 5
 5
 5
 5
 5
 5
 5
 5
 5
 5
 5
 5
 5
 5
 5
 5
 5
 5
 5
 5
 5
 5
 5
 5
 5
 5
 5
 5
 5
 5
 5
 5
 5
 5
 5
 5
 5
 5
 5
 5
 5
 5
 5
 5
 5
 5
 5
 5
 5
 5
 5
 5
 5
 5
 5
 5
 5
 5
 5
 5
 5
 5
 5
 5
 5
 5
 5
 5
 5
 5
 5
 5
 5
 5
 5
 5
 5
 5
 5
 5
 5
 5
 5
 5
 5
 5
 5
 5
 5
 5
 5
 5
 5
 5
 5
 5
 5
 5
 5
 5
 5
 5
 5
 5
 5
 5
 5
 5
 5
 5
 5
 5
 5
 5
 5
 5
 5
 5
 5
 5
 5
 5
 5
 5
 5
 5
 5
 5
 5
 5
 5
 5
 5
 5
 5
 5
 5
 5
 5
 5
 5
 5
 5
 5
 5
 5
 5
 5
 5
 5
 5
 5
 5
 5
 5
 5
 5
 5
 5
 5
 5
 5
 5
 5
 5
 5
 5
 5
 5
 5
 5
 5
 5
 5
 5
 5
 5
 5
 5
 5
 5
 5
 5
 5
 5
 5
 5
 5
 5
 5
 5
 5
 5
 5
 5
 5
 5
 5
 5
 5
 5
 5
 5
 5
 5
 5
 5
 5
 5
 5
 5
 5
 5
 5
 5
 5
 5
 5
 5
 5
 5
 5
 5
 5
 5
 5
 5
 5
 5
 5
 5
 5
 5
 5
 5
 5
 5
 5
 5
 5
 5
 5
 5
 5
 5
 5
 5
 5
 5
 5
 5
 5
 5
 5
 5
 5
 5
 5
 5
 5
 5
 5
 5
 5
 5
 5
 5
 5
 5
 5
 5
 5
 5
 5
 5
 5
 5
 5
 5
 5
 5
 5
 5
 5
 5
 5
 5
 5
 5
 5
 5
 5
 5
 5
 5
 5
 5
 5
 5
 5
 5
 5
 5
 5
 5
 5
 5
 5
 5
 5
 5
 5
 5
 5
 5
 5
 5
 5
 5
 5
 5
 5
 5
 5
 5
 5
 5
 5
 5
 5
 5
 5
 5
 5
 5
 5
 5
 5
 5
 5
 5
 5
 5
 5
 5
 5
 5
 5
 5
 5
 5
 5
 5
 5
 5
 5
 5
 5
 5
 5
 5
 5
 5
 5
 5
 5
 5
 5
 5
 5
 5
 5
 5
 5
 5
 5
 5
 5
 5
 5
 5
 5
 5
 5
 5
 5
 5
 5
 5
 5
 5
 5
 5
 5
 5
 5
 5
 5
 5
 5
 5
 5
 5
 5
 5
 5
 5
 5
 5
 5
 5
 5
 5
 5
 5
 5
 5
 5
 5
 5
 5
 5
 5
 5
 5
 5
 5
 5
 5
 5
 5
 5
 5
 5
 5
 5
 5
 5
 5
 5
 5
 5
 5
 5
 5
 5
 5
 5
 5
 5
 5
 5
 5
 5
 5
 5
 5
 5
 5
 5
 5
 5
 5
 5
 5
 5
 5
 5
 5
 5
 5
 5
 5
 5
 5
 5
 5
 5
 5
 5
 5
 5
 5
 5
 5
 5
 5
 5
 5
 5
 5
 5
 5
 5
 5
 5
 5
 5
 5
 5
 5
 5
 5
 5
 5
 5
 5
 5
 5
 5
 5
 5
 5
 5
 5
 5
 5
 5
 5
 5
 5
 5
 5
 5
 5
 5
 5
 5
 5
 5
 5
 5
 5
 5
 5
 5
 5
 5
 5
 5
 5
 5
 5
 5
 5
 5
 5
 5
 5
 5
 5
 5
 5
 5
 5
 5
 5
 5
 5
 5
 5
 5
 5
 5
 5
 5
 5
 5
 5
 5
 5
 5
 5
 5
 5
 5
 5
 5
 5
 5
 5
 5
 5
 5
 5
 5
 5
 5
 5
 5
 5
 5
 5
 5
 5
 5
 5
 5
 5
 5
 5
 5
 5
 5
 5
 5
 5
 5
 5
 5
 5
 5
 5
 5
 5
 5
 5
 5
 5
 5
 5
 5
 5
 5
 5
 5
 5
 5
 5
 5
 5
 5
 5
 5
 5
 5
 5
 5
 5
 5
 5
 5
 5
 5
 5
 5
 5
 5
 5
 5
 5
 5
 5
 5
 5
 5
 5
 5
 5
 5
 5
 5
 5
 5
 5
 5
 5
 5
 5
 5
 5
 5
 5
 5
 5
 5
 5
 5
 5
 5
 5
 5
 5
 5
 5
 5
 5
 5
 5
 5
 5
 5
 5
 5
 5
 5
 5
 5
 5
 5
 5
 5
 5
 5
 5
 5
 5
 5
 5
 5
 5
 5
 5
 5
 5
 5
 5
 5
 5
 5
 5
 5
 5
 5
 5
 5
 5
 5
 5
 5
 5
 5
 5
 5
 5
 5
 5
 5
 5
 5
 5
 5
 5
 5
 5
 5
 5
 5
 5
 5
 5
 5
 5
 5
 5
 5
 5
 5
 5
 5
 5
 5
 5
 5
 5
 5
 5
 5
 5
 5
 5
 5
 5
 5
 5
 5
 5
 5
 5
 5
 5
 5
 5
 5
 5
 5
 5
 5
 5
 5
 5
 5
 5
 5
 5
 5
 5
 5
 5
 5
 5
 5
 5
 5
 5
 5
 5
 5
 5
 5
 5
 5
 5
 5
 5
 5
 5
 5
 5
 5
 5
 5
 5
 5
 5
 5
 5
 5
 5
 5
 5
 5
 5
 5
 5
 5
 5
 5
 5
 5
 5
 5
 5
 5
 5
 5
 5
 5
 5
 5
 5
 5
 5
 5
 5
 5
 5
 5
 5
 5
 5
 5
 5
 5
 5
 5
 5
 5
 5
 5
 5
 5
 5
 5
 5
 5
 5
 5
 5
 5
 5
 5
 5
 5
 5
 5
 5
 5
 5
 5
 5
 5
 5
 5
 5
 5
 5
 5
 5
 5
 5
 5
 5
 5
 5
 5
 5
 5
 5
 5
 5
 5
 5
 5
 5
 5
 5
 5
 5
 5
 5
 5
 5
 5
 5
 5
 5
 5
 5
 5
 5
 5
 5
 5
 5
 5
 5
 5
 5
 5
 5
 5
 5
 5
 5
 5
 5
 5
 5
 5
 5
 5
 5
 5
 5
 5
 5
 5
 5
 5
 5
 5
 5
 5
 5
 5
 5
 5
 5
 5
 5
 5
 5
 5
 5
 5
 5
 5
 5
 5
 5
 5
 5
 5
 5
 5
 5
 5
 5
 5
 5
 5
 5
 5
 5
 5
 5
 5
 5
 5
 5
 5
 5
 5
 5
 5
 5
 5
 5
 5
 5
 5
 5
 5
 5
 5
 5
 5
 5
 5
 5
 5
 5
 5
 5
 5
 5
 5
 5
 5
 5
 5
 5
 5
 5
 5
 5
 5
 5
 5
 5
 5
 5
 5
 5
 5
 5
 5
 5
 5
 5
 5
 5
 5
 5
 5
 5
 5
 5
 5
 5
 5
 5
 5
 5
 5
 5
 5
 5
 5
 5
 5
 5
 5
 5
 5
 5
 5
 5
 5
 5
 5
 5
 5
 5
 5
 5
 5
 5
 5
 5
 5
 5
 5
 5
 5
 5
 5
 5
 5
 5
 5
 5
 5
 5
 5
 5
 5
 5
 5
 5
 5
 5
 5
 5
 5
 5
 5
 5
 5
 5
 5
 5
 5
 5
 5
 5
 5
 5
 5
 5
 5
 5
 5
 5
 5
 5
 5
 5
 5
 5
 5
 5
 5
 5
 5
 5
 5
 5
 5
 5
 5
 5
 5
 5
 5
 5
 5
 5
 5
 5
 5
 5
 5
 5
 5
 5
 5
 5
 5
 5
 5
 5
 5
 5
 5
 5
 5
 5
 5
 5
 5
 5
 5
 5
 5
 5
 5
 5
 5
 5
 5
 5
 5
 5
 5
 5
 5
 5
 5
 5
 5
 5
 5
 5
 5
 5
 5
 5
 5
 5
 5
 5
 5
 5
 5
 5
 5
 5
 5
 5
 5
 5
 5
 5
 5
 5
 5
 5
 5
 5
 5
 5
 5
 5
 5
 5
 5
 5
 5
 5
 5
 5
 5
 5
 5
 5
 5
 5
 5
 5
 5
 5
 5
 5
 5
 5
 5
 5
 5
 5
 5
 5
 5
 5
 5
 5
 5
 5
 5
 5
 5
 5
 5
 5
 5
 5
 5
 5
 5
 5
 5
 5
 5
 5
 5
 5
 5
 5
 5
 5
 5
 5
 5
 5
 5
 5
 5
 5
 5
 5
 5
 5
 5
 5
 5
 5
 5
 5
 5
 5
 5
 5
 5
 5
 5
 5
 5
 5
 5
 5
 5
 5
 5
 5
 5
 5
 5
 5
 5
 5
 5
 5
 5
 5
 5
 5
 5
 5
 5
 5
 5
 5
 5
 5
 5
 5
 5
 5
 5
 5
 5
 5
 5
 5
 5
 5
 5
 5
 5
 5
 5
 5
 5
 5
 5
 5
 5
 5
 5
 5
 5
 5
 5
 5
 5
 5
 5
 5
 5
 5
 5
 5
 5
 5
 5
 5
 5
 5
 5
 5
 5
 5
 5
 5
 5
 5
 5
 5
 5
 5
 5
 5
 5
 5
 5
 5
 5
 5
 5
 5
 5
 5
 5
 5
 5
 5
 5
 5
 5
 5
 5
 5
 5
 5
 5
 5
 5
 5
 5
 5
 5
 5
 5
 5
 5
 5
 5
 5
 5
 5
 5
 5
 5
 5
 5
 5
 5
 5
 5
 5
 5
 5
 5
 5
 5
 5
 5
 5
 5
 5
 5
 5
 5
 5
 5
 5
 5
 5
 5
 5
 5
 5
 5
 5
 5
 5
 5
 5
 5
 5
 5
 5
 5
 5
 5
 5
 5
 5
 5
 5
 5
 5
 5
 5
 5
 5
 5
 5
 5
 5
 5
 5
 5
 5
 5
 5
 5
 5
 5
 5
 5
 5
 5
 5
 5
 5
 5
 5
 5
 5
 5
 5
 5
 5
 5
 5
 5
 5
 5
 5
 5
 5
 5
 5
 5
 5
 5
 5
 5
 5
 5
 5
 5
 5
 5
 5
 5
 5
 5
 5
 5
 5
 5
 5
 5
 5
 5
 5
 5
 5
 5
 5
 5
 5
 5
 5
 5
 5
 5
 5
 5
 5
 5
 5
 5
 5
 5
 5
 5
 5
 5
 5
 5
 5
 5
 5
 5
 5
 5
 5
 5
 5
 5
 5
 5
 5
 5
 5
 5
 5
 5
 5
 5
 5
 5
 5
 5
 5
 5
 5
 5
 5
 5
 5
 5
 5
 5
 5
 5
 5
 5
 5
 5
 5
 5
 5
 5
 5
 5
 5
 5
 5
 5
 5
 5
 5
 5
 5
 5
 5
 5
 5
 5
 5
 5
 5
 5
 5
 5
 5
 5
 5
 5
 5
 5
 5
 5
 5
 5
 5
 5
 5
 5
 5
 5
 5
 5
 5
 5
 5
 5
 5
 5
 5
 5
 5
 5
 5
 5
 5
 5
 5
 5
 5
 5
 5
 5
 5
 5
 5
 5
 5
 5
 5
 5
 5
 5
 5
 5
 5
 5
 5
 5
 5
 5
 5
 5
 5
 5
 5
 5
 5
 5
 5
 5
 5
 5
 5
 5
 5
 5
 5
 5
 5
 5
 5
 5
 5
 5
 5
 5
 5
 5
 5
 5
 5
 5
 5
 5
 5
 5
 5
 5
 5
 5
 5
 5
 5
 5
 5
 5
 5
 5
 5
 5
 5
 5
 5
 5
 5
 5
 5
 5
 5
 5
 5
 5
 5
 5
 5
 5
 5
 5
 5
 5
 5
 5
 5
 5
 5
 5
 5
 5
 5
 5
 5
 5
 5
 5
 5
 5
 5
 5
 5
 5
 5
 5
 5
 5
 5
 5
 5
 5
 5
 5
 5
 5
 5
 5
 5
 5
 5
 5
 5
 5
 5
 5
 5
 5
 5
 5
 5
 5
 5
 5
 5
 5
 5
 5
 5
 5
 5
 5
 5
 5
 5
 5
 5
 5
 5
 5
 5
 5
 5
 5
 5
 5
 5
 5
 5
 5
 5
 5
 5
 5
 5
 5
 5
 5
 5
 5
 5
 5
 5
 5
 5
 5
 5
 5
 5
 5
 5
 5
 5
 5
 5
 5
 5
 5
 5
 5
 5
 5
 5
 5
 5
 5
 5
 5
 5
 5
 5
 5
 5
 5
 5
 5
 5
 5
 5
 5
 5
 5
 5
 5
 5
 5
 5
 5
 5
 5
 5
 5
 5
 5
 5
 5
 5
 5
 5
 5
 5
 5
 5
 5
 5
 5
 5
 5
 5
 5
 5
 5
 5
 5
 5
 5
 5
 5
 5
 5
 5
 5
 5
 5
 5
 5
 5
 5
 5
 5
 5
 5
 5
 5
 5
 5
 5
 5
 5
 5
 5
 5
 5
 5
 5
 5
 5
 5
 5
 5
 5
 5
 5
 5
 5
 5
 5
 5
 5
 5
 5
 5
 5
 5
 5
 5
 5
 5
 5
 5
 5
 5
 5
 5
 5
 5
 5
 5
 5
 5
 5
 5
 5
 5
 5
 5
 5
 5
 5
 5
 5
 5
 5
 5
 5
 5
 5
 5
 5
 5
 5
 5
 5
 5
 5
 5
 5
 5
 5
 5
 5
 5
 5
 5
 5
 5
 5
 5
 5
 5
 5
 5
 5
 5
 5
 5
 5
 5
 5
 5
 5
 5
 5
 5
 5
 5
 5
 5
 5
 5
 5
 5
 5
 5
 5
 5
 5
 5
 5
 5
 5
 5
 5
 5
 5
 5
 5
 5
 5
 5
 5
 5
 5
 5
 5
 5
 5
 5
 5
 5
 5
 5
 5
 5
 5
 5
 5
 5
 5
 5
 5
 5
 5
 5
 5
 5
 5
 5
 5
 5
 5
 5
 5
 5
 5
 5
 5
 5
 5
 5
 5
 5
 5
 5
 5
 5
 5
 5
 5
 5
 5
 5
 5
 5
 5
 5
 5
 5
 5
 5
 5
 5
 5
 5
 5
 5
 5
 5
 5
 5
 5
 5
 5
 5
 5
 5
 5
 5
 5
 5
 5
 5
 5
 5
 5
 5
 5
 5
 5
 5
 5
 5
 5
 5
 5
 5
 5
 5
 5
 5
 5
 5
 5
 5
 5
 5
 5
 5
 5
 5
 5
 5
 5
 5
 5
 5
 5
 5
 5
 5
 5
 5
 5
 5
 5
 5
 5
 5
 5
 5
 5
 5
 5
 5
 5
 5
 5
 5
 5
 5
 5
 5
 5
 5
 5
 5
 5
 5
 5
 5
 5
 5
 5
 5
 5
 5
 5
 5
 5
 5
 5
 5
 5
 5
 5
 5
 5
 5
 5
 5
 5
 5
 5
 5
 5
 5
 5
 5
 5
 5
 5
 5
 5
 5
 5
 5
 5
 5
 5
 5
 5
 5
 5
 5
 5
 5
 5
 5
 5
 5
 5
 5
 5
 5
 5
 5
 5
 5
 5
 5
 5
 5
 5
 5
 5
 5
 5
 5
 5
 5
 5
 5
 5
 5
 5
 5
 5
 5
 5
 5
 5
 5
 5
 5
 5
 5
 5
 5
 5
 5
 5
 5
 5
 5
 5
 5
 5
 5
 5
 5
 5
 5
 5
 5
 5
 5
 5
 5
 5
 5
 5
 5
 5
 5
 5
 5
 5
 5
 5
 5
 5
 5
 5
 5
 5
 5
 5
 5
 5
 5
 5
 5
 5
 5
 5
 5
 5
 5
 5
 5
 5
 5
 5
 5
 5
 5
 5
 5
 5
 5
 5
 5
 5
 5
 5
 5
 5
 5
 5
 5
 5
 5
 5
 5
 5
 5
 5
 5
 5
 5
 5
 5
 5
 5
 5
 5
 5
 5
 5
 5
 5
 5
 5
 5
 5
 5
 5
 5
 5
 5
 5
 5
 5
 5
 5
 5
 5
 5
 5
 5
 5
 5
 5
 5
 5
 5
 5
 5
 5
 5
 5
 5
 5
 5
 5
 5
 5
 5
 5
 5
 5
 5
 5
 5
 5
 5
 5
 5
 5
 5
 5
 5
 5
 5
 5
 5
 5
 5
 5
 5
 5
 5
 5
 5
 5
 5
 5
 5
 5
 5
 5
 5
 5
 5
 5
 5
 5
 5
 5
 5
 5
 5
 5
 5
 5
 5
 5
 5
 5
 5
 5
 5
 5
 5
 5
 5
 5
 5
 5
 5
 5
 5
 5
 5
 5
 5
 5
 5
 5
 5
 5
 5
 5
 5
 5
 5
 5
 5
 5
 5
 5
 5
 5
 5
 5
 5
 5
 5
 5
 5
 5
 5
 5
 5
 5
 5
 5
 5
 5
 5
 5
 5
 5
 5
 5
 5
 5
 5
 5
 5
 5
 5
 5
 5
 5
 5
 5
 5
 5
 5
 5
 5
 5
 5
 5
 5
 5
 5
 5
 5
 5
 5
 5
 5
 5
 5
 5
 5
 5
 5
 5
 5
 5
 5
 5
 5
 5
 5
 5
 5
 5
 5
 5
 5
 5
 5
 5
 5
 5
 5
 5
 5
 5
 5
 5
 5
 5
 5
 5
 5
 5
 5
 5
 5
 5
 5
 5
 5
 5
 5
 5
 5
 5
 5
 5
 5
 5
 5
 5
 5
 5
 5
 5
 5
 5
 5
 5
 5
 5
 5
 5
 5
 5
 5
 5
 5
 5
 5
 5
 5
 5
 5
 5
 5
 5
 5
 5
 5
 5
 5
 5
 5
 5
 5
 5
 5
 5
 5
 5
 5
 5
 5
 5
 5
 5
 5
 5
 5
 5
 5
 5
 5
 5
 5
 5
 5
 5
 5
 5
 5
 5
 5
 5
 5
 5
 5
 5
 5
 5
 5
 5
 5
 5
 5
 5
 5
 5
 5
 5
 5
 5
 5
 5
 5
 5
 5
 5
 5
 5
 5
 5
 5
 5
 5
 5
 5
 5
 5
 5
 5
 5
 5
 5
 5
 5
 5
 5
 5
 5
 5
 5
 5
 5
 5
 5
 5
 5
 5
 5
 5
 5
 5
 5
 5
 5
 5
 5
 5
 5
 5
 5
 5
 5
 5
 5
 5
 5
 5
 5
 5
 5
 5
 5
 5
 5
 5
 5
 5
 5
 5
 5
 5
 5
 5
 5
 5
 5
 5
 5
 5
 5
 5
 5
 5
 5
 5
 5
 5
 5
 5
 5
 5
 5
 5
 5
 5
 5
 5
 5
 5
 5
 5
 5
 5
 5
 5
 5
 5
 5
 5
 5
 5
 5
 5
 5
 5
 5
 5
 5
 5
 5
 5
 5
 5
 5
 5
 5
 5
 5
 5
 5
 5
 5
 5
 5
 5
 5
 5
 5
 5
 5
 5
 5
 5
 5
 5
 5
 5
 5
 5
 5
 5
 5
 5
 5
 5
 5
 5
 5
 5
 5
 5
 5
 5
 5
 5
 5
 5
 5
 5
 5
 5
 5
 5
 5
 5
 5
 5
 5
 5
 5
 5
 5
 5
 5
 5
 5
 5
 5
 5
 5
 5
 5
 5
 5
 5
 5
 5
 5
 5
 5
 5
 5
 5
 5
 5
 5
 5
 5
 5
 5
 5
 5
 5
 5
 5
 5
 5
 5
 5
 5
 5
 5
 5
 5
 5
 5
 5
 5
 5
 5
 5
 5
 5
 5
 5
 5
 5
 5
 5
 5
 5
 5
 5
 5
 5
 5
 5
 5
 5
 5
 5
 5
 5
 5
 5
 5
 5
 5
 5
 5
 5
 5
 5
 5
 5
 5
 5
 5
 5
 5
 5
 5
 5
 5
 5
 5
 5
 5
 5
 5
 5
 5
 5
 5
 5
 5
 5
 5
 5
 5
 5
 5
 5
 5
 5
 5
 5
 5
 5
 5
 5
 5
 5
 5
 5
 5
 5
 5
 5
 5
 5
 5
 5
 5
 5
 5
 5
 5
 5
 5
 5
 5
 5
 5
 5
 5
 5
 5
 5
 5
 5
 5
 5
 5
 5
 5
 5
 5
 5
 5
 5
 5
 5
 5
 5
 5
 5
 5
 5
 5
 5
 5
 5
 5
 5
 5
 5
 5
 5
 5
 5
 5
 5
 5
 5
 5
 5
 5
 5
 5
 5
 5
 5
 5
 5
 5
 5
 5
 5
 5
 5
 5
 5
 5
 5
 5
 5
 5
 5
 5
 5
 5
 5
 5
 5
 5
 5
 5
 5
 5
 5
 5
 5
 5
 5
 5
 5
 5
 5
 5
 5
 5
 5
 5
 5
 5
 5
 5
 5
 5
 5
 5
 5
 5
 5
 5
 5
 5
 5
 5
 5
 5
 5
 5
 5
 5
 5
 5
 5
 5
 5
 5
 5
 5
 5
 5
 5
 5
 5
 5
 5
 5
 5
 5
 5
 5
 5
 5
 5
 5
 5
 5
 5
 5
 5
 5
 5
 5
 5
 5
 5
 5
 5
 5
 5
 5
 5
 5
 5
 5
 5
 5
 5
 5
 5
 5
 5
 5
 5
 5
 5
 5
 5
 5
 5
 5
 5
 5
 5
 5
 5
 5
 5
 5
 5
 5
 5
 5
 5
 5
 5
 5
 5
 5
 5
 5
 5
 5
 5
 5
 5
 5
 5
 5
 5
 5
 5
 5
 5
 5
 5
 5
 5
 5
 5
 5
 5
 5
 5
 5
 5
 5
 5
 5
 5
 5
 5
 5
 5
 5
 5
 5
 5
 5
 5
 5
 5
 5
 5
 5
 5
 5
 5
 5
 5
 5
 5
 5
 5
 5
 5
 5
 5
 5
 5
 5
 5
 5
 5
 5
 5
 5
 5
 5
 5
 5
 5
 5
 5
 5
 5
 5
 5
 5
 5
 5
 5
 5
 5
 5
 5
 5
 5
 5
 5
 5
 5
 5
 5
 5
 5
 5
 5
 5
 5
 5
 5
 5
 5
 5
 5
 5
 5
 5
 5
 5
 5
 5
 5
 5
 5
 5
 5
 5
 5
 5
 5
 5
 5
 5
 5
 5
 5
 5
 5
 5
 5
 5
 5
 5
 5
 5
 5
 5
 5
 5
 5
 5
 5
 5
 5
 5
 5
 5
 5
 5
 5
 5
 5
 5
 5
 5
 5
 5
 5
 5
 5
 5
 5
 5
 5
 5
 5
 5
 5
 5
 5
 5
 5
 5
 5
 5
 5
 5
 5
 5
 5
 5
 5
 5
 5
 5
 5
 5
 5
 5
 5
 5
 5
 5
 5
 5
 5
 5
 5
 5
 5
 5
 5
 5
 5
 5
 5
 5
 5
 5
 5
 5
 5
 5
 5
 5
 5
 5
 5
 5
 5
 5
 5
 5
 5
 5
 5
 5
 5
 5
 5
 5
 5
 5
 5
 5
 5
 5
 5
 5
 5
 5
 5
 5
 5
 5
 5
 5
 5
 5
 5
 5
 5
 5
 5
 5
 5
 5
 5
 5
 5
 5
 5
 5
 5
 5
 5
 5
 5
 5
 5
 5
 5
 5
 5
 5
 5
 5
 5
 5
 5
 5
 5
 5
 5
 5
 5
 5
 5
 5
 5
 5
 5
 5
 5
 5
 5
 5
 5
 5
 5
 5
 5
 5
 5
 5
 5
 5
 5
 5
 5
 5
 5
 5
 5
 5
 5
 5
 5
 5
 5
 5
 5
 5
 5
 5
 5
 5
 5
 5
 5
 5
 5
 5
 5
 5
 5
 5
 5
 5
 5
 5
 5
 5
 5
 5
 5
 5
 5
 5
 5
 5
 5
 5
 5
 5
 5
 5
 5
 5
 5
 5
 5
 5
 5
 5
 5
 5
 5
 5
 5
 5
 5
 5
 5
 5
 5
 5
 5
 5
 5
 5
 5
 5
 5
 5
 5
 5
 5
 5
 5
 5
 5
 5
 5
 5
 5
 5
 5
 5
 5
 5
 5
 5
 5
 5
 5
 5
 5
 5
 5
 5
 5
 5
 5
 5
 5
 5
 5
 5
 5
 5
 5
 5
 5
 5
 5
 5
 5
 5
 5
 5
 5
 5
 5
 5
 5
 5
 5
 5
 5
 5
 5
 5
 5
 5
 5
 5
 5
 5
 5
 5
 5
 5
 5
 5
 5
 5
 5
 5
 5
 5
 5
 5
 5
 5
 5
 5
 5
 5
 5
 5
 5
 5
 5
 5
 5
 5
 5
 5
 5
 5
 5
 5
 5
 5
 5
 5
 5
 5
 5
 5
 5
 5
 5
 5
 5
 5
 5
 5
 5
 5
 5
 5
 5
 5
 5
 5
 5
 5
 5
 5
 5
 5
 5
 5
 5
 5
 5
 5
 5
 5
 5
 5
 5
 5
 5
 5
 5
 5
 5
 5
 5
 5
 5
 5
 5
 5
 5
 5
 5
 5
 5
 5
 5
 5
 5
 5
 5
 5
 5
 5
 5
 5
 5
 5
 5
 5
 5
 5
 5
 5
 5
 5
 5
 5
 5
 5
 5
 5
 5
 5
 5
 5
 5
 5
 5
 5
 5
 5
 5
 5
 5
 5
 5
 5
 5
 5
 5
 5
 5
 5
 5
 5
 5
 5
 5
 5
 5
 5
 5
 5
 5
 5
 5
 5
 5
 5
 5
 5
 5
 5
 5
 5
 5
 5
 5
 5
 5
 5
 5
 5
 5
 5
 5
 5
 5
 5
 5
 5
 5
 5
 5
 5
 5
 5
 5
 5
 5
 5
 5
 5
 5
 5
 5
 5
 5
 5
 5
 5
 5
 5
 5
 5
 5
 5
 5
 5
 5
 5
 5
 5
 5
 5
 5
 5
 5
 5
 5
 5
 5
 5
 5
 5
 5
 5
 5
 5
 5
 5
 5
 5
 5
 5
 5
 5
 5
 5
 5
 5
 5
 5
 5
 5
 5
 5
 5
 5
 5
 5
 5
 5
 5
 5
 5
 5
 5
 5
 5
 5
 5
 5
 5
 5
 5
 5
 5
 5
 5
 5
 5
 5
 5
 5
 5
 5
 5
 5
 5
 5
 5
 5
 5
 5
 5
 5
 5
 5
 5
 5
 5
 5
 5
 5
 5
 5
 5
 5
 5
 5
 5
 5
 5
 5
 5
 5
 5
 5
 5
 5
 5
 5
 5
 5
 5
 5
 5
 5
 5
 5
 5
 5
 5
 5
 5
 5
 5
 5
 5
 5
 5
 5
 5
 5
 5
 5
 5
 5
 5
 5
 5
 5
 5
 5
 5
 5
 5
 5
 5
 5
 5
 5
 5
 5
 5
 5
 5
 5
 5
 5
 5
 5
 5
 5
 5
 5
 5
 5
 5
 5
 5
 5
 5
 5
 5
 5
 5
 5
 5
 5
 5
 5
 5
 5
 5
 5
 5
 5
 5
 5
 5
 5
 5
 5
 5
 5
 5
 5
 5
 5
 5
 5
 5
 5
 5
 5
 5
 5
 5
 5
 5
 5
 5
 5
 5
 5
 5
 5
 5
 5
 5
 5
 5
 5
 5
 5
 5
 5
 5
 5
 5
 5
 5
 5
 5
 5
 5
 5
 5
 5
 5
 5
 5
 5
 5
 5
 5
 5
 5
 5
 5
 5
 5
 5
 5
 5
 5
 5
 5
 5
 5
 5
 5
 5
 5
 5
 5
 5
 5
 5
 5
 5
 5
 5
 5
 5
 5
 5
 5
 5
 5
 5
 5
 5
 5
 5
 5
 5
 5
 5
 5
 5
 5
 5
 5
 5
 5
 5
 5
 5
 5
 5
 5
 5
 5
 5
 5
 5
 5
 5
 5
 5
 5
 5
 5
 5
 5
 5
 5
 5
 5
 5
 5
 5
 5
 5
 5
 5
 5
 5
 5
 5
 5
 5
 5
 5
 5
 5
 5
 5
 5
 5
 5
 5
 5
 5
 5
 5
 5
 5
 5
 5
 5
 5
 5
 5
 5
 5
 5
 5
 5
 5
 5
 5
 5
 5
 5
 5
 5
 5
 5
 5
 5
 5
 5
 5
 5
 5
 5
 5
 5
 5
 5
 5
 5
 5
 5
 5
 5
 5
 5
 5
 5
 5
 5
 5
 5
 5
 5
 5
 5
 5
 5
 5
 5
 5
 5
 5
 5
 5
 5
 5
 5
 5
 5
 5
 5
 5
 5
 5
 5
 5
 5
 5
 5
 5
 5
 5
 5
 5
 5
 5
 5
 5
 5
 5
 5
 5
 5
 5
 5
 5
 5
 5
 5
 5
 5
 5
 5
 5
 5
 5
 5
 5
 5
 5
 5
 5
 5
 5
 5
 5
 5
 5
 5
 5
 5
 5
 5
 5
 5
 5
 5
 5
 5
 5
 5
 5
 5
 5
 5
 5
 5
 5
 5
 5
 5
 5
 5
 5
 5
 5
 5
 5
 5
 5
 5
 5
 5
 5
 5
 5
 5
 5
 5
 5
 5
 5
 5
 5
 5
 5
 5
 5
 5
 5
 5
 5
 5
 5
 5
 5
 5
 5
 5
 5
 5
 5
 5
 5
 5
 5
 5
 5
 5
 5
 5
 5
 5
 5
 5
 5
 5
 5
 5
 5
 5
 5
 5
 5
 5
 5
 5
 5
 5
 5
 5
 5
 5
 5
 5
 5
 5
 5
 5
 5
 5
 5
 5
 5
 5
 5
 5
 5
 5
 5
 5
 5
 5
 5
 5
 5
 5
 5
 5
 5
 5
 5
 5
 5
 5
 5
 5
 5
 5
 5
 5
 5
 5
 5
 5
 5
 5
 5
 5
 5
 5
 5
 5
 5
 5
 5
 5
 5
 5
 5
 5
 5
 5
 5
 5
 5
 5
 5
 5
 5
 5
 5
 5
 5
 5
 5
 5
 5
 5
 5
 5
 5
 5
 5
 5
 5
 5
 5
 5
 5
 5
 5
 5
 5
 5
 5
 5
 5
 5
 5
 5
 5
 5
 5
 5
 5
 5
 5
 5
 5
 5
 5
 5
 5
 5
 5
 5
 5
 5
 5
 5
 5
 5
 5
 5
 5
 5
 5
 5
 5
 5
 5
 5
 5
 5
 5
 5
 5
 5
 5
 5
 5
 5
 5
 5
 5
 5
 5
 5
 5
 5
 5
 5
 5
 5
 5
 5
 5
 5
 5
 5
 5
 5
 5
 5
 5
 5
 5
 5
 5
 5
 5
 5
 5
 5
 5
 5
 5
 5
 5
 5
 5
 5
 5
 5
 5
 5
 5
 5
 5
 5
 5
 5
 5
 5
 5
 5
 5
 5
 5
 5
 5
 5
 5
 5
 5
 5
 5
 5
 5
 5
 5
 5
 5
 5
 5
 5
 5
 5
 5
 5
 5
 5
 5
 5
 5
 5
 5
 5
 5
 5
 5
 5
 5
 5
 5
 5
 5
 5
 5
 5
 5
 5
 5
 5
 5
 5
 5
 5
 5
 5
 5
 5
 5
 5
 5
 5
 5
 5
 5
 5
 5
 5
 5
 5
 5
 5
 5
 5
 5
 5
 5
 5
 5
 5
 5
 5
 5
 5
 5
 5
 5
 5
 5
 5
 5
 5
 5
 5
 5
 5
 5
 5
 5
 5
 5
 5
 5
 5
 5
 5
 5
 5
 5
 5
 5
 5
 5
 5
 5
 5
 5
 5
 5
 5
 5
 5
 5
 5
 5
 5
 5
 5
 5
 5
 5
 5
 5
 5
 5
 5
 5
 5
 5
 5
 5
 5
 5
 5
 5
 5
 5
 5
 5
 5
 5
 5
 5
 5
 5
 5
 5
 5
 5
 5
 5
 5
 5
 5
 5
 5
 5
 5
 5
 5
 5
 5
 5
 5
 5
 5
 5
 5
 5
 5
 5
 5
 5
 5
 5
 5
 5
 5
 5
 5
 5
 5
 5
 5
 5
 5
 5
 5
 5
 5
 5
 5
 5
 5
 5
 5
 5
 5
 5
 5
 5
 5
 5
 5
 5
 5
 5
 5
 5
 5
 5
 5
 5
 5
 5
 5
 5
 5
 5
 5
 5
 5
 5
 5
 5
 5
 5
 5
 5
 5
 5
 5
 5
 5
 5
 5
 5
 5
 5
 5
 5
 5
 5
 5
 5
 5
 5
 5
 5
 5
 5
 5
 5
 5
 5
 5
 5
 5
 5
 5
 5
 5
 5
 5
 5
 5
 5
 5
 5
 5
 5
 5
 5
 5
 5
 5
 5
 5
 5
 5
 5
 5
 5
 5
 5
 5
 5
 5
 5
 5
 5
 5
 5
 5
 5
 5
 5
 5
 5
 5
 5
 5
 5
 5
 5
 5
 5
 5
 5
 5
 5
 5
 5
 5
 5
 5
 5
 5
 5
 5
 5
 5
 5
 5
 5
 5
 5
 5
 5
 5
 5
 5
 5
 5
 5
 5
 5
 5
 5
 5
 5
 5
 5
 5
 5
 5
 5
 5
 5
 5
 5
 5
 5
 5
 5
 5
 5
 5
 5
 5
 5
 5
 5
 5
 5
 5
 5
 5
 5
 5
 5
 5
 5
 5
 5
 5
 5
 5
 5
 5
 5
 5
 5
 5
 5
 5
 5
 5
 5
 5
 5
 5
 5
 5
 5
 5
 5
 5
 5
 5
 5
 5
 5
 5
 5
 5
 5
 5
 5
 5
 5
 5
 5
 5
 5
 5
 5
 5
 5
 5
 5
 5
 5
 5
 5
 5
 5
 5
 5
 5
 5
 5
 5
 5
 5
 5
 5
 5
 5
 5
 5
 5
 5
 5
 5
 5
 5
 5
 5
 5
 5
 5
 5
 5
 5
 5
 5
 5
 5
 5
 5
 5
 5
 5
 5
 5
 5
 5
 5
 5
 5
 5
 5
 5
 5
 5
 5
 5
 5
 5
 5
 5
 5
 5
 5
 5
 5
 5
 5
 5
 5
 5
 5
 5
 5
 5
 5
 5
 5
 5
 5
 5
 5
 5
 5
 5
 5
 5
 5
 5
 5
 5
 5
 5
 5
 5
 5
 5
 5
 5
 5
 5
 5
 5
 5
 5
 5
 5
 5
 5
 5
 5
 5
 5
 5
 5
 5
 5
 5
 5
 5
 5
 5
 5
 5
 5
 5
 5
 5
 5
 5
 5
 5
 5
 5
 5
 5
 5
 5
 5
 5
 5
 5
 5
 5
 5
 5
 5
 5
 5
 5
 5
 5
 5
 5
 5
 5
 5
 5
 5
 5
 5
 5
 5
 5
 5
 5
 5
 5
 5
 5
 5
 5
 5
 5
 5
 5
 5
 5
 5
 5
 5
 5
 5
 5
 5
 5
 5
 5
 5
 5
 5
 5
 5
 5
 5
 5
 5
 5
 5
 5
 5
 5
 5
 5
 5
 5
 5
 5
 5
 5
 5
 5
 5
 5
 5
 5
 5
 5
 5
 5
 5
 5
 5
 5
 5
 5
 5
 5
 5
 5
 5
 5
 5
 5
 5
 5
 5
 5
 5
 5
 5
 5
 5
 5
 5
 5
 5
 5
 5
 5
 5
 5
 5
 5
 5
 5
 5
 5
 5
 5
 5
 5
 5
 5
 5
 5
 5
 5
 5
 5
 5
 5
 5
 5
 5
 5
 5
 5
 5
 5
 5
 5
 5
 5
 5
 5
 5
 5
 5
 5
 5
 5
 5
 5
 5
 5
 5
 5
 5
 5
 5
 5
 5
 5
 5
 5
 5
 5
 5
 5
 5
 5
 5
 5
 5
 5
 5
 5
 5
 5
 5
 5
 5
 5
 5
 5
 5
 5
 5
 5
 5
 5
 5
 5
 5
 5
 5
 5
 5
 5
 5
 5
 5
 5
 5
 5
 5
 5
 5
 5
 5
 5
 5
 5
 5
 5
 5
 5
 5
 5
 5
 5
 5
 5
 5
 5
 5
 5
 5
 5
 5
 5
 5
 5
 5
 5
 5
 5
 5
 5
 5
 5
 5
 5
 5
 5
 5
 5
 5
 5
 5
 5
 5
 5
 5
 5
 5
 5
 5
 5
 5
 5
 5
 5
 5
 5
 5
 5
 5
 5
 5
 5
 5
 5
 5
 5
 5
 5
 5
 5
 5
 5
 5
 5
 5
 5
 5
 5
 5
 5
 5
 5
 5
 5
 5
 5
 5
 5
 5
 5
 5
 5
 5
 5
 5
 5
 5
 5
 5
 5
 5
 5
 5
 5
 5
 5
 5
 5
 5
 5
 5
 5
 5
 5
 5
 5
 5
 5
 5
 5
 5
 5
 5
 5
 5
 5
 5
 5
 5
 5
 5
 5
 5
 5
 5
 5
 5
 5
 5
 5
 5
 5
 5
 5
 5
 5
 5
 5
 5
 5
 5
 5
 5
 5
 5
 5
 5
 5
 5
 5
 5
 5
 5
 5
 5
 5
 5
 5
 5
 5
 5
 5
 5
 5
 5
 5
 5
 5
 5
 5
 5
 5
 5
 5
 5
 5
 5
 5
 5
 5
 5
 5
 5
 5
 5
 5
 5
 5
 5
 5
 5
 5
 5
 5
 5
 5
 5
 5
 5
 5
 5
 5
 5
 5
 5
 5
 5
 5
 5
 5
 5
 5
 5
 5
 5
 5
 5
 5
 5
 5
 5
 5
 5
 5
 5
 5
 5
 5
 5
 5
 5
 5
 5
 5
 5
 5
 5
 5
 5
 5
 5
 5
 5
 5
 5
 5
 5
 5
 5
 5
 5
 5
 5
 5
 5
 5
 5
 5
 5
 5
 5
 5
 5
 5
 5
 5
 5
 5
 5
 5
 5
 5
 5
 5
 5
 5
 5
 5
 5
 5
 5
 5
 5
 5
 5
 5
 5
 5
 5
 5
 5
 5
 5
 5
 5
 5
 5
 5
 5
 5
 5
 5
 5
 5
 5
 5
 5
 5
 5
 5
 5
 5
 5
 5
 5
 5
 5
 5
 5
 5
 5
 5
 5
 5
 5
 5
 5
 5
 5
 5
 5
 5
 5
 5
 5
 5
 5
 5
 5
 5
 5
 5
 5
 5
 5
 5
 5
 5
 5
 5
 5
 5
 5
 5
 5
 5
 5
 5
 5
 5
 5
 5
 5
 5
 5
 5
 5
 5
 5
 5
 5
 5
 5
 5
 5
 5
 5
 5
 5
 5
 5
 5
 5
 5
 5
 5
 5
 5
 5
 5
 5
 5
 5
 5
 5
 5
 5
 5
 5
 5
 5
 5
 5
 5
 5
 5
 5
 5
 5
 5
 5
 5
 5
 5
 5
 5
 5
 5
 5
 5
 5
 5
 5
 5
 5
 5
 5
 5
 5
 5
 5
 5
 5
 5
 5
 5
 5
 5
 5
 5
 5
 5
 5
 5
 5
 5
 5
 5
 5
 5
 5
 5
 5
 5
 5
 5
 5
 5
 5
 5
 5
 5
 5
 5
 5
 5
 5
 5
 5
 5
 5
 5
 5
 5
 5
 5
 5
 5
 5
 5
 5
 5
 5
 5
 5
 5
 5
 5
 5
 5
 5
 5
 5
 5
 5
 5
 5
 5
 5
 5
 5
 5
 5
 5
 5
 5
 5
 5
 5
 5
 5
 5
 5
 5
 5
 5
 5
 5
 5
 5
 5
 5
 5
 5
 5
 5
 5
 5
 5
 5
 5
 5
 5
 5
 5
 5
 5
 5
 5
 5
 5
 5
 5
 5
 5
 5
 5
 5
 5
 5
 5
 5
 5
 5
 5
 5
 5
 5
 5
 5
 5
 5
 5
 5
 5
 5
 5
 5
 5
 5
 5
 5
 5
 5
 5
 5
 5
 5
 5
 5
 5
 5
 5
 5
 5
 5
 5
 5
 5
 5
 5
 5
 5
 5
 5
 5
 5
 5
 5
 5
 5
 5
 5
 5
 5
 5
 5
 5
 5
 5
 5
 5
 5
 5
 5
 5
 5
 5
 5
 5
 5
 5
 5
 5
 5
 5
 5
 5
 5
 5
 5
 5
 5
 5
 5
 5
 5
 5
 5
 5
 5
 5
 5
 5
 5
 5
 5
 5
 5
 5
 5
 5
 5
 5
 5
 5
 5
 5
 5
 5
 5
 5
 5
 5
 5
 5
 5
 5
 5
 5
 5
 5
 5
 5
 5
 5
 5
 5
 5
 5
 5
 5
 5
 5
 5
 5
 5
 5
 5
 5
 5
 5
 5
 5
 5
 5
 5
 5
 5
 5
 5
 5
 5
 5
 5
 5
 5
 5
 5
 5
 5
 5
 5
 5
 5
 5
 5
 5
 5
 5
 5
 5
 5
 5
 5
 5
 5
 5
 5
 5
 5
 5
 5
 5
 5
 5
 5
 5
 5
 5
 5
 5
 5
 5
 5
 5
 5
 5
 5
 5
 5
 5
 5
 5
 5
 5
 5
 5
 5
 5
 5
 5
 5
 5
 5
 5
 5
 5
 5
 5
 5
 5
 5
 5
 5
 5
 5
 5
 5
 5
 5
 5
 5
 5
 5
 5
 5
 5
 5
 5
 5
 5
 5
 5
 5
 5
 5
 5
 5
 5
 5
 5
 5
 5
 5
 5
 5
 5
 5
 5
 5
 5
 5
 5
 5
 5
 5
 5
 5
 5
 5
 5
 5
 5
 5
 5
 5
 5
 5
 5
 5
 5
 5
 5
 5
 5
 5
 5
 5
 5
 5
 5
 5
 5
 5
 5
 5
 5
 5
 5
 5
 5
 5
 5
 5
 5
 5
 5
 5
 5
 5
 5
 5
 5
 5
 5
 5
 5
 5
 5
 5
 5
 5
 5
 5
 5
 5
 5
 5
 5
 5
 5
 5
 5
 5
 5
 5
 5
 5
 5
 5
 5
 5
 5
 5
 5
 5
 5
 5
 5
 5
 5
 5
 5
 5
 5
 5
 5
 5
 5
 5
 5
 5
 5
 5
 5
 5
 5
 5
 5
 5
 5
 5
 5
 5
 5
 5
 5
 5
 5
 5
 5
 5
 5
 5
 5
 5
 5
 5
 5
 5
 5
 5
 5
 5
 5
 5
 5
 5
 5
 5
 5
 5
 5
 5
 5
 5
 5
 5
 5
 5
 5
 5
 5
 5
 5
 5
 5
 5
 5
 5
 5
 5
 5
 5
 5
 5
 5
 5
 5
 5
 5
 5
 5
 5
 5
 5
 5
 5
 5
 5
 5
 5
 5
 5
 5
 5
 5
 5
 5
 5
 5
 5
 5
 5
 5
 5
 5
 5
 5
 5
 5
 5
 5
 5
 5
 5
 5
 5
 5
 5
 5
 5
 5
 5
 5
 5
 5
 5
 5
 5
 5
 5
 5
 5
 5
 5
 5
 5
 5
 5
 5
 5
 5
 5
 5
 5
 5
 5
 5
 5
 5
 5
 5
 5
 5
 5
 5
 5
 5
 5
 5
 5
 5
 5
 5
 5
 5
 5
 5
 5
 5
 5
 5
 5
 5
 5
 5
 5
 5
 5
 5
 5
 5
 5
 5
 5
 5
 5
 5
 5
 5
 5
 5
 5
 5
 5
 5
 5
 5
 5
 5
 5
 5
 5
 5
 5
 5
 5
 5
 5
 5
 5
 5
 5
 5
 5
 5
 5
 5
 5
 5
 5
 5
 5
 5
 5
 5
 5
 5
 5
 5
 5
 5
 5
 5
 5
 5
 5
 5
 5
 5
 5
 5
 5
 5
 5
 5
 5
 5
 5
 5
 5
 5
 5
 5
 5
 5
 5
 5
 5
 5
 5
 5
 5
 5
 5
 5
 5
 5
 5
 5
 5
 5
 5
 5
 5
 5
 5
 5
 5
 5
 5
 5
 5
 5
 5
 5
 5
 5
 5
 5
 5
 5
 5
 5
 5
 5
 5
 5
 5
 5
 5
 5
 5
 5
 5
 5
 5
 5
 5
 5
 5
 5
 5
 5
 5
 5
 5
 5
 5
 5
 5
 5
 5
 5
 5
 5
 5
 5
 5
 5
 5
 5
 5
 5
 5
 5
 5
 5
 5
 5
 5
 5
 5
 5
 5
 5
 5
 5
 5
 5
 5
 5
 5
 5
 5
 5
 5
 5
 5
 5
 5
 5
 5
 5
 5
 5
 5
 5
 5
 5
 5
 5
 5
 5
 5
 5
 5
 5
 5
 5
 5
 5
 5
 5
 5
 5
 5
 5
 5
 5
 5
 5
 5
 5
 5
 5
 5
 5
 5
 5
 5
 5
 5
 5
 5
 5
 5
 5
 5
 5
 5
 5
 5
 5
 5
 5
 5
 5
 5
 5
 5
 5
 5
 5
 5
 5
 5
 5
 5
 5
 5
 5
 5
 5
 5
 5
 5
 5
 5
 5
 5
 5
 5
 5
 5
 5
 5
 5
 5
 5
 5
 5
 5
 5
 5
 5
 5
 5
 5
 5
 5
 5
 5
 5
 5
 5
 5
 5
 5
 5
 5
 5
 5
 5
 5
 5
 5
 5
 5
 5
 5
 5
 5
 5
 5
 5
 5
 5
 5
 5
 5
 5
 5
 5
 5
 5
 5
 5
 5
 5
 5
 5
 5
 5
 5
 5
 5
 5
 5
 5
 5
 5
 5
 5
 5
 5
 5
 5
 5
 5
 5
 5
 5
 5
 5
 5
 5
 5
 5
 5
 5
 5
 5
 5
 5
 5
 5
 5
 5
 5
 5
 5
 5
 5
 5
 5
 5
 5
 5
 5
 5
 5
 5
 5
 5
 5
 5
 5
 5
 5
 5
 5
 5
 5
 5
 5
 5
 5
 5
 5
 5
 5
 5
 5
 5
 5
 5
 5
 5
 5
 5
 5
 5
 5
 5
 5
 5
 5
 5
 5
 5
 5
 5
 5
 5
 5
 5
 5
 5
 5
 5
 5
 5
 5
 5
 5
 5
 5
 5
 5
 5
 5
 5
 5
 5
 5
 5
 5
 5
 5
 5
 5
 5
 5
 5
 5
 5
 5
 5
 5
 5
 5
 5
 5
 5
 5
 5
 5
 5
 5
 5
 5
 5
 5
 5
 5
 5
 5
 5
 5
 5
 5
 5
 5
 5
 5
 5
 5
 5
 5
 5
 5
 5
 5
 5
 5
 5
 5
 5
 5
 5
 5
 5
 5
 5
 5
 5
 5
 5
 5
 5
 5
 5
 5
 5
 5
 5
 5
 5
 5
 5
 5
 5
 5
 5
 5
 5
 5
 5
 5
 5
 5
 5
 5
 5
 5
 5
 5
 5
 5
 5
 5
 5
 5
 5
 5
 5
 5
 5
 5
 5
 5
 5
 5
 5
 5
 5
 5
 5
 5
 5
 5
 5
 5
 5
 5
 5
 5
 5
 5
 5
 5
 5
 5
 5
 5
 5
 5
 5
 5
 5
 5
 5
 5
 5
 5
 5
 5
 5
 5
 5
 5
 5
 5
 5
 5
 5
 5
 5
 5
 5
 5
 5
 5
 5
 5
 5
 5
 5
 5
 5
 5
 5
 5
 5
 5
 5
 5
 5
 5
 5
 5
 5
 5
 5
 5
 5
 5
 5
 5
 5
 5
 5
 5
 5
 5
 5
 5
 5
 5
 5
 5
 5
 5
 5
 5
 5
 5
 5
 5
 5
 5
 5
 5
 5
 5
 5
 5
 5
 5
 5
 5
 5
 5
 5
 5
 5
 5
 5
 5
 5
 5
 5
 5
 5
 5
 5
 5
 5
 5
 5
 5
 5
 5
 5
 5
 5
 5
 5
 5
 5
 5
 5
 5
 5
 5
 5
 5
 5
 5
 5
 5
 5
 5
 5
 5
 5
 5
 5
 5
 5
 5
 5
 5
 5
 5
 5
 5
 5
 5
 5
 5
 5
 5
 5
 5
 5
 5
 5
 5
 5
 5
 5
 5
 5
 5
 5
 5
 5
 5
 5
 5
 5
 5
 5
 5
 5
 5
 5
 5
 5
 5
 5
 5
 5
 5
 5
 5
 5
 5
 5
 5
 5
 5
 5
 5
 5
 5
 5
 5
 5
 5
 5
 5
 5
 5
 5
 5
 5
 5
 5
 5
 5
 5
 5
 5
 5
 5
 5
 5
 5
 5
 5
 5
 5
 5
 5
 5
 5
 5
 5
 5
 5
 5
 5
 5
 5
 5
 5
 5
 5
 5
 5
 5
 5
 5
 5
 5
 5
 5
 5
 5
 5
 5
 5
 5
 5
 5
 5
 5
 5
 5
 5
 5
 5
 5
 5
 5
 5
 5
 5
 5
 5
 5
 5
 5
 5
 5
 5
 5
 5
 5
 5
 5
 5
 5
 5
 5
 5
 5
 5
 5
 5
 5
 5
 5
 5
 5
 5
 5
 5
 5
 5
 5
 5
 5
 5
 5
 5
 5
 5
 5
 5
 5
 5
 5
 5
 5
 5
 5
 5
 5
 5
 5
 5
 5
 5
 5
 5
 5
 5
 5
 5
 5
 5
 5
 5
 5
 5
 5
 5
 5
 5
 5
 5
 5
 5
 5
 5
 5
 5
 5
 5
 5
 5
 5
 5
 5
 5
 5
 5
 5
 5
 5
 5
 5
 5
 5
 5
 5
 5
 5
 5
 5
 5
 5
 5
 5
 5
 5
 5
 5
 5
 5
 5
 5
 5
 5
 5
 5
 5
 5
 5
 5
 5
 5
 5
 5
 5
 5
 5
 5
 5
 5
 5
 5
 5
 5
 5
 5
 5
 5
 5
 5
 5
 5
 5
 5
 5
 5
 5
 5
 5
 5
 5
 5
 5
 5
 5
 5
 5
 5
 5
 5
 5
 5
 5
 5
 5
 5
 5
 5
 5
 5
 5
 5
 5
 5
 5
 5
 5
 5
 5
 5
 5
 5
 5
 5
 5
 5
 5
 5
 5
 5
 5
 5
 5
 5
 5
 5
 5
 5
 5
 5
 5
 5
 5
 5
 5
 5
 5
 5
 5
 5
 5
 5
 5
 5
 5
 5
 5
 5
 5
 5
 5
 5
 5
 5
 5
 5
 5
 5
 5
 5
 5
 5
 5
 5
 5
 5
 5
 5
 5
 5
 5
 5
 5
 5
 5
 5
 5
 5
 5
 5
 5
 5
 5
 5
 5
 5
 5
 5
 5
 5
 5
 5
 5
 5
 5
 5
 5
 5
 5
 5
 5
 5
 5
 5
 5
 5
 5
 5
 5
 5
 5
 5
 5
 5
 5
 5
 5
 5
 5
 5
 5
 5
 5
 5
 5
 5
 5
 5
 5
 5
 5
 5
 5
 5
 5
 5
 5
 5
 5
 5
 5
 5
 5
 5
 5
 5
 5
 5
 5
 5
 5
 5
 5
 5
 5
 5
 5
 5
 5
 5
 5
 5
 5
 5
 5
 5
 5
 5
 5
 5
 5
 5
 5
 5
 5
 5
 5
 5
 5
 5
 5
 5
 5
 5
 5
 5
 5
 5
 5
 5
 5
 5
 5
 5
 5
 5
 5
 5
 5
 5
 5
 5
 5
 5
 5
 5
 5
 5
 5
 5
 5
 5
 5
 5
 5
 5
 5
 5
 5
 5
 5
 5
 5
 5
 5
 5
 5
 5
 5
 5
 5
 5
 5
 5
 5
 5
 5
 5
 5
 5
 5
 5
 5
 5
 5
 5
 5
 5
 5
 5
 5
 5
 5
 5
 5
 5
 5
 5
 5
 5
 5
 5
 5
 5
 5
 5
 5
 5
 5
 5
 5
 5
 5
 5
 5
 5
 5
 5
 5
 5
 5
 5
 5
 5
 5
 5
 5
 5
 5
 5
 5
 5
 5
 5
 5
 5
 5
 5
 5
 5
 5
 5
 5
 5
 5
 5
 5
 5
 5
 5
 5
 5
 5
 5
 5
 5
 5
 5
 5
 5
 5
 5
 5
 5
 5
 5
 5
 5
 5
 5
 5
 5
 5
 5
 5
 5
 5
 5
 5
 5
 5
 5
 5
 5
 5
 5
 5
 5
 5
 5
 5
 5
 5
 5
 5
 5
 5
 5
 5
 5
 5
 5
 5
 5
 5
 5
 5
 5
 5
 5
 5
 5
 5
 5
 5
 5
 5
 5
 5
 5
 5
 5
 5
 5
 5
 5
 5
 5
 5
 5
 5
 5
 5
 5
 5
 5
 5
 5
 5
 5
 5
 5
 5
 5
 5
 5
 5
 5
 5
 5
 5
 5
 5
 5
 5
 5
 5
 5
 5
 5
 5
 5
 5
 5
 5
 5
 5
 5
 5
 5
 5
 5
 5
 5
 5
 5
 5
 5
 5
 5
 5
 5
 5
 5
 5
 5
 5
 5
 5
 5
 5
 5
 5
 5
 5
 5
 5
 5
 5
 5
 5
 5
 5
 5
 5
 5
 5
 5
 5
 5
 5
 5
 5
 5
 5
 5
 5
 5
 5
 5
 5
 5
 5
 5
 5
 5
 5
 5
 5
 5
 5
 5
 5
 5
 5
 5
 5
 5
 5
 5
 5
 5
 5
 5
 5
 5
 5
 5
 5
 5
 5
 5
 5
 5
 5
 5
 5
 5
 5
 5
 5
 5
 5
 5
 5
 5
 5
 5
 5
 5
 5
 5
 5
 5
 5
 5
 5
 5
 5
 5
 5
 5
 5
 5
 5
 5
 5
 5
 5
 5
 5
 5
 5
 5
 5
 5
 5
 5
 5
 5
 5
 5
 5
 5
 5
 5
 5
 5
 5
 5
 5
 5
 5
 5
 5
 5
 5
 5
 5
 5
 5
 5
 5
 5
 5
 5
 5
 5
 5
 5
 5
 5
 5
 5
 5
 5
 5
 5
 5
 5
 5
 5
 5
 5
 5
 5
 5
 5
 5
 5
 5
 5
 5
 5
 5
 5
 5
 5
 5
 5
 5
 5
 5
 5
 5
 5
 5
 5
 5
 5
 5
 5
 5
 5
 5
 5
 5
 5
 5
 5
 5
 5
 5
 5
 5
 5
 5
 5
 5
 5
 5
 5
 5
 5
 5
 5
 5
 5
 5
 5
 5
 5
 5
 5
 5
 5
 5
 5
 5
 5
 5
 5
 5
 5
 5
 5
 5
 5
 5
 5
 5
 5
 5
 5
 5
 5
 5
 5
 5
 5
 5
 5
 5
 5
 5
 5
 5
 5
 5
 5
 5
 5
 5
 5
 5
 5
 5
 5
 5
 5
 5
 5
 5
 5
 5
 5
 5
 5
 5
 5
 5
 5
 5
 5
 5
 5
 5
 5
 5
 5
 5
 5
 5
 5
 5
 5
 5
 5
 5
 5
 5
 5
 5
 5
 5
 5
 5
 5
 5
 5
 5
 5
 5
 5
 5
 5
 5
 5
 5
 5
 5
 5
 5
 5
 5
 5
 5
 5
 5
 5
 5
 5
 5
 5
 5
 5
 5
 5
 5
 5
 5
 5
 5
 5
 5
 5
 5
 5
 5
 5
 5
 5
 5
 5
 5
 5
 5
 5
 5
 5
 5
 5
 5
 5
 5
 5
 5
 5
 5
 5
 5
 5
 5
 5
 5
 5
 5
 5
 5
 5
 5
 5
 5
 5
 5
 5
 5
 5
 5
 5
 5
 5
 5
 5
 5
 5
 5
 5
 5
 5
 5
 5
 5
 5
 5
 5
 5
 5
 5
 5
 5
 5
 5
 5
 5
 5
 5
 5
 5
 5
 5
 5
 5
 5
 5
 5
 5
 5
 5
 5
 5
 5
 5
 5
 5
 5
 5
 5
 5
 5
 5
 5
 5
 5
 5
 5
 5
 5
 5
 5
 5
 5
 5
 5
 5
 5
 5
 5
 5
 5
 5
 5
 5
 5
 5
 5
 5
 5
 5
 5
 5
 5
 5
 5
 5
 5
 5
 5
 5
 5
 5
 5
 5
 5
 5
 5
 5
 5
 5
 5
 5
 5
 5
 5
 5
 5
 5
 5
 5
 5
 5
 5
 5
 5
 5
 5
 5
 5
 5
 5
 5
 5
 5
 5
 5
 5
 5
 5
 5
 5
 5
 5
 5
 5
 5
 5
 5
 5
 5
 5
 5
 5
 5
 5
 5
 5
 5
 5
 5
 5
 5
 5
 5
 5
 5
 5
 5
 5
 5
 5
 5
 5
 5
 5
 5
 5
 5
 5
 5
 5
 5
 5
 5
 5
 5
 5
 5
 5
 5
 5
 5
 5
 5
 5
 5
 5
 5
 5
 5
 5
 5
 5
 5
 5
 5
 5
 5
 5
 5
 5
 5
 5
 5
 5
 5
 5
 5
 5
 5
 5
 5
 5
 5
 5
 5
 5
 5
 5
 5
 5
 5
 5
 5
 5
 5
 5
 5
 5
 5
 5
 5
 5
 5
 5
 5
 5
 5
 5
 5
 5
 5
 5
 5
 5
 5
 5
 5
 5
 5
 5
 5
 5
 5
 5
 5
 5
 5
 5
 5
 5
 5
 5
 5
 5
 5
 5
 5
 5
 5
 5
 5
 5
 5
 5
 5
 5
 5
 5
 5
 5
 5
 5
 5
 5
 5
 5
 5
 5
 5
 5
 5
 5
 5
 5
 5
 5
 5
 5
 5
 5
 5
 5
 5
 5
 5
 5
 5
 5
 5
 5
 5
 5
 5
 5
 5
 5
 5
 5
 5
 5
 5
 5
 5
 5
 5
 5
 5
 5
 5
 5
 5
 5
 5
 5
 5
 5
 5
 5
 5
 5
 5
 5
 5
 5
 5
 5
 5
 5
 5
 5
 5
 5
 5
 5
 5
 5
 5
 5
 5
 5
 5
 5
 5
 5
 5
 5
 5
 5
 5
 5
 5
 5
 5
 5
 5
 5
 5
 5
 5
 5
 5
 5
 5
 5
 5
 5
 5
 5
 5
 5
 5
 5
 5
 5
 5
 5
 5
 5
 5
 5
 5
 5
 5
 5
 5
 5
 5
 5
 5
 5
 5
 5
 5
 5
 5
 5
 5
 5
 5
 5
 5
 5
 5
 5
 5
 5
 5
 5
 5
 5
 5
 5
 5
 5
 5
 5
 5
 5
 5
 5
 5
 5
 5
 5
 5
 5
 5
 5
 5
 5
 5
 5
 5
 5
 5
 5
 5
 5
 5
 5
 5
 5
 5
 5
 5
 5
 5
 5
 5
 5
 5
 5
 5
 5
 5
 5
 5
 5
 5
 5
 5
 5
 5
 5
 5
 5
 5
 5
 5
 5
 5
 5
 5
 5
 5
 5
 5
 5
 5
 5
 5
 5
 5
 5
 5
 5
 5
 5
 5
 5
 5
 5
 5
 5
 5
 5
 5
 5
 5
 5
 5
 5
 5
 5
 5
 5
 5
 5
 5
 5
 5
 5
 5
 5
 5
 5
 5
 5
 5
 5
 5
 5
 5
 5
 5
 5
 5
 5
 5
 5
 5
 5
 5
 5
 5
 5
 5
 5
 5
 5
 5
 5
 5
 5
 5
 5
 5
 5
 5
 5
 5
 5
 5
 5
 5
 5
 5
 5
 5
 5
 5
 5
 5
 5
 5
 5
 5
 5
 5
 5
 5
 5
 5
 5
 5
 5
 5
 5
 5
 5
 5
 5
 5
 5
 5
 5
 5
 5
 5
 5
 5
 5
 5
 5
 5
 5
 5
 5
 5
 5
 5
 5
 5
 5
 5
 5
 5
 5
 5
 5
 5
 5
 5
 5
 5
 5
 5
 5
 5
 5
 5
 5
 5
 5
 5
 5
 5
 5
 5
 5
 5
 5
 5
 5
 5
 5
 5
 5
 5
 5
 5
 5
 5
 5
 5
 5
 5
 5
 5
 5
 5
 5
 5
 5
 5
 5
 5
 5
 5
 5
 5
 5
 5
 5
 5
 5
 5
 5
 5
 5
 5
 5
 5
 5
 5
 5
 5
 5
 5
 5
 5
 5
 5
 5
 5
 5
 5
 5
 5
 5
 5
 5
 5
 5
 5
 5
 5
 5
 5
 5
 5
 5
 5
 5
 5
 5
 5
 5
 5
 5
 5
 5
 5
 5
 5
 5
 5
 5
 5
 5
 5
 5
 5
 5
 5
 5
 5
 5
 5
 5
 5
 5
 5
 5
 5
 5
 5
 5
 5
 5
 5
 5
 5
 5
 5
 5
 5
 5
 5
 5
 5
 5
 5
 5
 5
 5
 5
 5
 5
 5
 5
 5
 5
 5
 5
 5
 5
 5
 5
 5
 5
 5
 5
 5
 5
 5
 5
 5
 5
 5
 5
 5
 5
 5
 5
 5
 5
 5
 5
 5
 5
 5
 5
 5
 5
 5
 5
 5
 5
 5
 5
 5
 5
 5
 5
 5
 5
 5
 5
 5
 5
 5
 5
 5
 5
 5
 5
 5
 5
 5
 5
 5
 5
 5
 5
 5
 5
 5
 5
 5
 5
 5
 5
 5
 5
 5
 5
 5
 5
 5
 5
 5
 5
 5
 5
 5
 5
 5
 5
 5
 5
 5
 5
 5
 5
 5
 5
 5
 5
 5
 5
 5
 5
 5
 5
 5
 5
 5
 5
 5
 5
 5
 5
 5
 5
 5
 5
 5
 5
 5
 5
 5
 5
 5
 5
 5
 5
 5
 5
 5
 5
 5
 5
 5
 5
 5
 5
 5
 5
 5
 5
 5
 5
 5
 5
 5
 5
 5
 5
 5
 5
 5
 5
 5
 5
 5
 5
 5
 5
 5
 5
 5
 5
 5
 5
 5
 5
 5
 5
 5
 5
 5
 5
 5
 5
 5
 5
 5
 5
 5
 5
 5
 5
 5
 5
 5
 5
 5
 5
 5
 5
 5
 5
 5
 5
 5
 5
 5
 5
 5
 5
 5
 5
 5
 5
 5
 5
 5
 5
 5
 5
 5
 5
 5
 5
 5
 5
 5
 5
 5
 5
 5
 5
 5
 5
 5
 5
 5
 5
 5
 5
 5
 5
 5
 5
 5
 5
 5
 5
 5
 5
 5
 5
 5
 5
 5
 5
 5
 5
 5
 5
 5
 5
 5
 5
 5
 5
 5
 5
 5
 5
 5
 5
 5
 5
 5
 5
 5
 5
 5
 5
 5
 5
 5
 5
 5
 5
 5
 5
 5
 5
 5
 5
 5
 5
 5
 5
 5
 5
 5
 5
 5
 5
 5
 5
 5
 5
 5
 5
 5
 5
 5
 5
 5
 5
 5
 5
 5
 5
 5
 5
 5
 5
 5
 5
 5
 5
 5
 5
 5
 5
 5
 5
 5
 5
 5
 5
 5
 5
 5
 5
 5
 5
 5
 5
 5
 5
 5
 5
 5
 5
 5
 5
 5
 5
 5
 5
 5
 5
 5
 5
 5
 5
 5
 5
 5
 5
 5
 5
 5
 5
 5
 5
 5
 5
 5
 5
 5
 5
 5
 5
 5
 5
 5
 5
 5
 5
 5
 5
 5
 5
 5
 5
 5
 5
 5
 5
 5
 5
 5
 5
 5
 5
 5
 5
 5
 5
 5
 5
 5
 5
 5
 5
 5
 5
 5
 5
 5
 5
 5
 5
 5
 5
 5
 5
 5
 5
 5
 5
 5
 5
 5
 5
 5
 5
 5
 5
 5
 5
 5
 5
 5
 5
 5
 5
 5
 5
 5
 5
 5
 5
 5
 5
 5
 5
 5
 5
 5
 5
 5
 5
 5
 5
 5
 5
 5
 5
 5
 5
 5
 5
 5
 5
 5
 5
 5
 5
 5
 5
 5
 5
 5
 5
 5
 5
 5
 5
 5
 5
 5
 5
 5
 5
 5
 5
 5
 5
 5
 5
 5
 5
 5
 5
 5
 5
 5
 5
 5
 5
 5
 5
 5
 5
 5
 5
 5
 5
 5
 5
 5
 5
 5
 5
 5
 5
 5
 5
 5
 5
 5
 5
 5
 5
 5
 5
 5
 5
 5
 5
 5
 5
 5
 5
 5
 5
 5
 5
 5
 5
 5
 5
 5
 5
 5
 5
 5
 5
 5
 5
 5
 5
 5
 5
 5
 5
 5
 5
 5
 5
 5
 5
 5
 5
 5
 5
 5
 5
 5
 5
 5
 5
 5
 5
 5
 5
 5
 5
 5
 5
 5
 5
 5
 5
 5
 5
 5
 5
 5
 5
 5
 5
 5
 5
 5
 5
 5
 5
 5
 5
 5
 5
 5
 5
 5
 5
 5
 5
 5
 5
 5
 5
 5
 5
 5
 5
 5
 5
 5
 5
 5
 5
 5
 5
 5
 5
 5
 5
 5
 5
 5
 5
 5
 5
 5
 5
 5
 5
 5
 5
 5
 5
 5
 5
 5
 5
 5
 5
 5
 5
 5
 5
 5
 5
 5
 5
 5
 5
 5
 5
 5
 5
 5
 5
 5
 5
 5
 5
 5
 5
 5
 5
 5
 5
 5
 5
 5
 5
 5
 5
 5
 5
 5
 5
 5
 5
 5
 5
 5
 5
 5
 5
 5
 5
 5
 5
 5
 5
 5
 5
 5
 5
 5
 5
 5
 5
 5
 5
 5
 5
 5
 5
 5
 5
 5
 5
 5
 5
 5
 5
 5
 5
 5
 5
 5
 5
 5
 5
 5
 5
 5
 5
 5
 5
 5
 5
 5
 5
 5
 5
 5
 5
 5
 5
 5
 5
 5
 5
 5
 5
 5
 5
 5
 5
 5
 5
 5
 5
 5
 5
 5
 5
 5
 5
 5
 5
 5
 5
 5
 5
 5
 5
 5
 5
 5
 5
 5
 5
 5
 5
 5
 5
 5
 5
 5
 5
 5
 5
 5
 5
 5
 5
 5
 5
 5
 5
 5
 5
 5
 5
 5
 5
 5
 5
 5
 5
 5
 5
 5
 5
 5
 5
 5
 5
 5
 5
 5
 5
 5
 5
 5
 5
 5
 5
 5
 5
 5
 5
 5
 5
 5
 5
 5
 5
 5
 5
 5
 5
 5
 5
 5
 5
 5
 5
 5
 5
 5
 5
 5
 5
 5
 5
 5
 5
 5
 5
 5
 5
 5
 5
 5
 5
 5
 5
 5
 5
 5
 5
 5
 5
 5
 5
 5
 5
 5
 5
 5
 5
 5
 5
 5
 5
 5
 5
 5
 5
 5
 5
 5
 5
 5
 5
 5
 5
 5
 5
 5
 5
 5
 5
 5
 5
 5
 5
 5
 5
 5
 5
 5
 5
 5
 5
 5
 5
 5
 5
 5
 5
 5
 5
 5
 5
 5
 5
 5
 5
 5
 5
 5
 5
 5
 5
 5
 5
 5
 5
 5
 5
 5
 5
 5
 5
 5
 5
 5
 5
 5
 5
 5
 5
 5
 5
 5
 5
 5
 5
 5
 5
 5
 5
 5
 5
 5
 5
 5
 5
 5
 5
 5
 5
 5
 5
 5
 5
 5
 5
 5
 5
 5
 5
 5
 5
 5
 5
 5
 5
 5
 5
 5
 5
 5
 5
 5
 5
 5
 5
 5
 5
 5
 5
 5
 5
 5
 5
 5
 5
 5
 5
 5
 5
 5
 5
 5
 5
 5
 5
 5
 5
 5
 5
 5
 5
 5
 5
 5
 5
 5
 5
 5
 5
 5
 5
 5
 5
 5
 5
 5
 5
 5
 5
 5
 5
 5
 5
 5
 5
 5
 5
 5
 5
 5
 5
 5
 5
 5
 5
 5
 5
 5
 5
 5
 5
 5
 5
 5
 5
 5
 5
 5
 5
 5
 5
 5
 5
 5
 5
 5
 5
 5
 5
 5
 5
 5
 5
 5
 5
 5
 5
 5
 5
 5
 5
 5
 5
 5
 5
 5
 5
 5
 5
 5
 5
 5
 5
 5
 5
 5
 5
 5
 5
 5
 5
 5
 5
 5
 5
 5
 5
 5
 5
 5
 5
 5
 5
 5
 5
 5
 5
 5
 5
 5
 5
 5
 5
 5
 5
 5
 5
 5
 5
 5
 5
 5
 5
 5
 5
 5
 5
 5
 5
 5
 5
 5
 5
 5
 5
 5
 5
 5
 5
 5
 5
 5
 5
 5
 5
 5
 5
 5
 5
 5
 5
 5
 5
 5
 5
 5
 5
 5
 5
 5
 5
 5
 5
 5
 5
 5
 5
 5
 5
 5
 5
 5
 5
 5
 5
 5
 5
 5
 5
 5
 5
 5
 5
 5
 5
 5
 5
 5
 5
 5
 5
 5
 5
 5
 5
 5
 5
 5
 5
 5
 5
 5
 5
 5
 5
 5
 5
 5
 5
 5
 5
 5
 5
 5
 5
 5
 5
 5
 5
 5
 5
 5
 5
 5
 5
 5
 5
 5
 5
 5
 5
 5
 5
 5
 5
 5
 5
 5
 5
 5
 5
 5
 5
 5
 5
 5
 5
 5
 5
 5
 5
 5
 5
 5
 5
 5
 5
 5
 5
 5
 5
 5
 5
 5
 5
 5
 5
 5
 5
 5
 5
 5
 5
 5
 5
 5
 5
 5
 5
 5
 5
 5
 5
 5
 5
 5
 5
 5
 5
 5
 5
 5
 5
 5
 5
 5
 5
 5
 5
 5
 5
 5
 5
 5
 5
 5
 5
 5
 5
 5
 5
 5
 5
 5
 5
 5
 5
 5
 5
 5
 5
 5
 5
 5
 5
 5
 5
 5
 5
 5
 5
 5
 5
 5
 5
 5
 5
 5
 5
 5
 5
 5
 5
 5
 5
 5
 5
 5
 5
 5
 5
 5
 5
 5
 5
 5
 5
 5
 5
 5
 5
 5
 5
 5
 5
 5
 5
 5
 5
 5
 5
 5
 5
 5
 5
 5
 5
 5
 5
 5
 5
 5
 5
 5
 5
 5
 5
 5
 5
 5
 5
 5
 5
 5
 5
 5
 5
 5
 5
 5
 5
 5
 5
 5
 5
 5
 5
 5
 5
 5
 5
 5
 5
 5
 5
 5
 5
 5
 5
 5
 5
 5
 5
 5
 5
 5
 5
 5
 5
 5
 5
 5
 5
 5
 5
 5
 5
 5
 5
 5
 5
 5
 5
 5
 5
 5
 5
 5
 5
 5
 5
 5
 5
 5
 5
 5
 5
 5
 5
 5
 5
 5
 5
 5
 5
 5
 5
 5
 5
 5
 5
 5
 5
 5
 5
 5
 5
 5
 5
 5
 5
 5
 5
 5
 5
 5
 5
 5
 5
 5
 5
 5
 5
 5
 5
 5
 5
 5
 5
 5
 5
 5
 5
 5
 5
 5
 5
 5
 5
 5
 5
 5
 5
 5
 5
 5
 5
 5
 5
 5
 5
 5
 5
 5
 5
 5
 5
 5
 5
 5
 5
 5
 5
 5
 5
 5
 5
 5
 5
 5
 5
 5
 5
 5
 5
 5
 5
 5
 5
 5
 5
 5
 5
 5
 5
 5
 5
 5
 5
 5
 5
 5
 5
 5
 5
 5
 5
 5
 5
 5
 5
 5
 5
 5
 5
 5
 5
 5
 5
 5
 5
 5
 5
 5
 5
 5
 5
 5
 5
 5
 5
 5
 5
 5
 5
 5
 5
 5
 5
 5
 5
 5
 5
 5
 5
 5
 5
 5
 5
 5
 5
 5
 5
 5
 5
 5
 5
 5
 5
 5
 5
 5
 5
 5
 5
 5
 5
 5
 5
 5
 5
 5
 5
 5
 5
 5
 5
 5
 5
 5
 5
 5
 5
 5
 5
 5
 5
 5
 5
 5
 5
 5
 5
 5
 5
 5
 5
 5
 5
 5
 5
 5
 5
 5
 5
 5
 5
 5
 5
 5
 5
 5
 5
 5
 5
 5
 5
 5
 5
 5
 5
 5
 5
 5
 5
 5
 5
 5
 5
 5
 5
 5
 5
 5
 5
 5
 5
 5
 5
 5
 5
 5
 5
 5
 5
 5
 5
 5
 5
 5
 5
 5
 5
 5
 5
 5
 5
 5
 5
 5
 5
 5
 5
 5
 5
 5
 5
 5
 5
 5
 5
 5
 5
 5
 5
 5
 5
 5
 5
 5
 5
 5
 5
 5
 5
 5
 5
 5
 5
 5
 5
 5
 5
 5
 5
 5
 5
 5
 5
 5
 5
 5
 5
 5
 5
 5
 5
 5
 5
 5
 5
 5
 5
 5
 5
 5
 5
 5
 5
 5
 5
 5
 5
 5
 5
 5
 5
 5
 5
 5
 5
 5
 5
 5
 5
 5
 5
 5
 5
 5
 5
 5
 5
 5
 5
 5
 5
 5
 5
 5
 5
 5
 5
 5
 5
 5
 5
 5
 5
 5
 5
 5
 5
 5
 5
 5
 5
 5
 5
 5
 5
 5
 5
 5
 5
 5
 5
 5
 5
 5
 5
 5
 5
 5
 5
 5
 5
 5
 5
 5
 5
 5
 5
 5
 5
 5
 5
 5
 5
 5
 5
 5
 5
 5
 5
 5
 5
 5
 5
 5
 5
 5
 5
 5
 5
 5
 5
 5
 5
 5
 5
 5
 5
 5
 5
 5
 5
 5
 5
 5
 5
 5
 5
 5
 5
 5
 5
 5
 5
 5
 5
 5
 5
 5
 5
 5
 5
 5
 5
 5
 5
 5
 5
 5
 5
 5
 5
 5
 5
 5
 5
 5
 5
 5
 5
 5
 5
 5
 5
 5
 5
 5
 5
 5
 5
 5
 5
 5
 5
 5
 5
 5
 5
 5
 5
 5
 5
 5
 5
 5
 5
 5
 5
 5
 5
 5
 5
 5
 5
 5
 5
 5
 5
 5
 5
 5
 5
 5
 5
 5
 5
 5
 5
 5
 5
 5
 5
 5
 5
 5
 5
 5
 5
 5
 5
 5
 5
 5
 5
 5
 5
 5
 5
 5
 5
 5
 5
 5
 5
 5
 5
 5
 5
 5
 5
 5
 5
 5
 5
 5
 5
 5
 5
 5
 5
 5
 5
 5
 5
 5
 5
 5
 5
 5
 5
 5
 5
 5
 5
 5
 5
 5
 5
 5
 5
 5
 5
 5
 5
 5
 5
 5
 5
 5
 5
 5
 5
 5
 5
 5
 5
 5
 5
 5
 5
 5
 5
 5
 5
 5
 5
 5
 5
 5
 5
 5
 5
 5
 5
 5
 5
 5
 5
 5
 5
 5
 5
 5
 5
 5
 5
 5
 5
 5
 5
 5
 5
 5
 5
 5
 5
 5
 5
 5
 5
 5
 5
 5
 5
 5
 5
 5
 5
 5
 5
 5
 5
 5
 5
 5
 5
 5
 5
 5
 5
 5
 5
 5
 5
 5
 5
 5
 5
 5
 5
 5
 5
 5
 5
 5
 5
 5
 5
 5
 5
 5
 5
 5
 5
 5
 5
 5
 5
 5
 5
 5
 5
 5
 5
 5
 5
 5
 5
 5
 5
 5
 5
 5
 5
 5
 5
 5
 5
 5
 5
 5
 5
 5
 5
 5
 5
 5
 5
 5
 5
 5
 5
 5
 5
 5
 5
 5
 5
 5
 5
 5
 5
 5
 5
 5
 5
 5
 5
 5
 5
 5
 5
 5
 5
 5
 5
 5
 5
 5
 5
 5
 5
 5
 5
 5
 5
 5
 5
 5
 5
 5
 5
 5
 5
 5
 5
 5
 5
 5
 5
 5
 5
 5
 5
 5
 5
 5
 5
 5
 5
 5
 5
 5
 5
 5
 5
 5
 5
 5
 5
 5
 5
 5
 5
 5
 5
 5
 5
 5
 5
 5
 5
 5
 5
 5
 5
 5
 5
 5
 5
 5
 5
 5
 5
 5
 5
 5
 5
 5
 5
 5
 5
 5
 5
 5
 5
 5
 5
 5
 5
 5
 5
 5
 5
 5
 5
 5
 5
 5
 5
 5
 5
 5
 5
 5
 5
 5
 5
 5
 5
 5
 5
 5
 5
 5
 5
 5
 5
 5
 5
 5
 5
 5
 5
 5
 5
 5
 5
 5
 5
 5
 5
 5
 5
 5
 5
 5
 5
 5
 5
 5
 5
 5
 5
 5
 5
 5
 5
 5
 5
 5
 5
 5
 5
 5
 5
 5
 5
 5
 5
 5
 5
 5
 5
 5
 5
 5
 5
 5
 5
 5
 5
 5
 5
 5
 5
 5
 5
 5
 5
 5
 5
 5
 5
 5
 5
 5
 5
 5
 5
 5
 5
 5
 5
 5
 5
 5
 5
 5
 5
 5
 5
 5
 5
 5
 5
 5
 5
 5
 5
 5
 5
 5
 5
 5
 5
 5
 5
 5
 5
 5
 5
 5
 5
 5
 5
 5
 5
 5
 5
 5
 5
 5
 5
 5
 5
 5
 5
 5
 5
 5
 5
 5
 5
 5
 5
 5
 5
 5
 5
 5
 5
 5
 5
 5
 5
 5
 5
 5
 5
 5
 5
 5
 5
 5
 5
 5
 5
 5
 5
 5
 5
 5
 5
 5
 5
 5
 5
 5
 5
 5
 5
 5
 5
 5
 5
 5
 5
 5
 5
 5
 5
 5
 5
 5
 5
 5
 5
 5
 5
 5
 5
 5
 5
 5
 5
 5
 5
 5
 5
 5
 5
 5
 5
 5
 5
 5
 5
 5
 5
 5
 5
 5
 5
 5
 5
 5
 5
 5
 5
 5
 5
 5
 5
 5
 5
 5
 5
 5
 5
 5
 5
 5
 5
 5
 5
 5
 5
 5
 5
 5
 5
 5
 5
 5
 5
 5
 5
 5
 5
 5
 5
 5
 5
 5
 5
 5
 5
 5
 5
 5
 5
 5
 5
 5
 5
 5
 5
 5
 5
 5
 5
 5
 5
 5
 5
 5
 5
 5
 5
 5
 5
 5
 5
 5
 5
 5
 5
 5
 5
 5
 5
 5
 5
 5
 5
 5
 5
 5
 5
 5
 5
 5
 5
 5
 5
 5
 5
 5
 5
 5
 5
 5
 5
 5
 5
 5
 5
 5
 5
 5
 5
 5
 5
 5
 5
 5
 5
 5
 5
 5
 5
 5
 5
 5
 5
 5
 5
 5
 5
 5
 5
 5
 5
 5
 5
 5
 5
 5
 5
 5
 5
 5
 5
 5
 5
 5
 5
 5
 5
 5
 5
 5
 5
 5
 5
 5
 5
 5
 5
 5
 5
 5
 5
 5
 5
 5
 5
 5
 5
 5
 5
 5
 5
 5
 5
 5
 5
 5
 5
 5
 5
 5
 5
 5
 5
 5
 5
 5
 5
 5
 5
 5
 5
 5
 5
 5
 5
 5
 5
 5
 5
 5
 5
 5
 5
 5
 5
 5
 5
 5
 5
 5
 5
 5
 5
 5
 5
 5
 5
 5
 5
 5
 5
 5
 5
 5
 5
 5
 5
 5
 5
 5
 5
 5
 5
 5
 5
 5
 5
 5
 5
 5
 5
 5
 5
 5
 5
 5
 5
 5
 5
 5
 5
 5
 5
 5
 5
 5
 5
 5
 5
 5
 5
 5
 5
 5
 5
 5
 5
 5
 5
 5
 5
 5
 5
 5
 5
 5
 5
 5
 5
 5
 5
 5
 5
 5
 5
 5
 5
 5
 5
 5
 5
 5
 5
 5
 5
 5
 5
 5
 5
 5
 5
 5
 5
 5
 5
 5
 5
 5
 5
 5
 5
 5
 5
 5
 5
 5
 5
 5
 5
 5
 5
 5
 5
 5
 5
 5
 5
 5
 5
 5
 5
 5
 5
 5
 5
 5
 5
 5
 5
 5
 5
 5
 5
 5
 5
 5
 5
 5
 5
 5
 5
 5
 5
 5
 5
 5
 5
 5
 5
 5
 5
 5
 5
 5
 5
 5
 5
 5
 5
 5
 5
 5
 5
 5
 5
 5
 5
 5
 5
 5
 5
 5
 5
 5
 5
 5
 5
 5
 5
 5
 5
 5
 5
 5
 5
 5
 5
 5
 5
 5
 5
 5
 5
 5
 5
 5
 5
 5
 5
 5
 5
 5
 5
 5
 5
 5
 5
 5
 5
 5
 5
 5
 5
 5
 5
 5
 5
 5
 5
 5
 5
 5
 5
 5
 5
 5
 5
 5
 5
 5
 5
 5
 5
 5
 5
 5
 5
 5
 5
 5
 5
 5
 5
 5
 5
 5
 5
 5
 5
 5
 5
 5
 5
 5
 5
 5
 5
 5
 5
 5
 5
 5
 5
 5
 5
 5
 5
 5
 5
 5
 5
 5
 5
 5
 5
 5
 5
 5
 5
 5
 5
 5
 5
 5
 5
 5
 5
 5
 5
 5
 5
 5
 5
 5
 5
 5
 5
 5
 5
 5
 5
 5
 5
 5
 5
 5
 5
 5
 5
 5
 5
 5
 5
 5
 5
 5
 5
 5
 5
 5
 5
 5
 5
 5
 5
 5
 5
 5
 5
 5
 5
 5
 5
 5
 5
 5
 5
 5
 5
 5
 5
 5
 5
 5
 5
 5
 5
 5
 5
 5
 5
 5
 5
 5
 5
 5
 5
 5
 5
 5
 5
 5
 5
 5
 5
 5
 5
 5
 5
 5
 5
 5
 5
 5
 5
 5
 5
 5
 5
 5
 5
 5
 5
 5
 5
 5
 5
 5
 5
 5
 5
 5
 5
 5
 5
 5
 5
 5
 5
 5
 5
 5
 5
 5
 5
 5
 5
 5
 5
 5
 5
 5
 5
 5
 5
 5
 5
 5
 5
 5
 5
 5
 5
 5
 5
 5
 5
 5
 5
 5
 5
 5
 5
 5
 5
 5
 5
 5
 5
 5
 5
 5
 5
 5
 5
 5
 5
 5
 5
 5
 5
 5
 5
 5
 5
 5
 5
 5
 5
 5
 5
 5
 5
 5
 5
 5
 5
 5
 5
 5
 5
 5
 5
 5
 5
 5
 5
 5
 5
 5
 5
 5
 5
 5
 5
 5
 5
 5
 5
 5
 5
 5
 5
 5
 5
 5
 5
 5
 5
 5
 5
 5
 5
 5
 5
 5
 5
 5
 5
 5
 5
 5
 5
 5
 5
 5
 5
 5
 5
 5
 5
 5
 5
 5
 5
 5
 5
 5
 5
 5
 5
 5
 5
 5
 5
 5
 5
 5
 5
 5
 5
 5
 5
 5
 5
 5
 5
 5
 5
 5
 5
 5
 5
 5
 5
 5
 5
 5
 5
 5
 5
 5
 5
 5
 5
 5
 5
 5
 5
 5
 5
 5
 5
 5
 5
 5
 5
 5
 5
 5
 5
 5
 5
 5
 5
 5
 5
 5
 5
 5
 5
 5
 5
 5
 5
 5
 5
 5
 5
 5
 5
 5
 5
 5
 5
 5
 5
 5
 5
 5
 5
 5
 5
 5
 5
 5
 5
 5
 5
 5
 5
 5
 5
 5
 5
 5
 5
 5
 5
 5
 5
 5
 5
 5
 5
 5
 5
 5
 5
 5
 5
 5
 5
 5
 5
 5
 5
 5
 5
 5
 5
 5
 5
 5
 5
 5
 5
 5
 5
 5
 5
 5
 5
 5
 5
 5
 5
 5
 5
 5
 5
 5
 5
 5
 5
 5
 5
 5
 5
 5
 5
 5
 5
 5
 5
 5
 5
 5
 5
 5
 5
 5
 5
 5
 5
 5
 5
 5
 5
 5
 5
 5
 5
 5
 5
 5
 5
 5
 5
 5
 5
 5
 5
 5
 5
 5
 5
 5
 5
 5
 5
 5
 5
 5
 5
 5
 5
 5
 5
 5
 5
 5
 5
 5
 5
 5
 5
 5
 5
 5
 5
 5
 5
 5
 5
 5
 5
 5
 5
 5
 5
 5
 5
 5
 5
 5
 5
 5
 5
 5
 5
 5
 5
 5
 5
 5
 5
 5
 5
 5
 5
 5
 5
 5
 5
 5
 5
 5
 5
 5
 5
 5
 5
 5
 5
 5
 5
 5
 5
 5
 5
 5
 5
 5
 5
 5
 5
 5
 5
 5
 5
 5
 5
 5
 5
 5
 5
 5
 5
 5
 5
 5
 5
 5
 5
 5
 5
 5
 5
 5
 5
 5
 5
 5
 5
 5
 5
 5
 5
 5
 5
 5
 5
 5
 5
 5
 5
 5
 5
 5
 5
 5
 5
 5
 5
 5
 5
 5
 5
 5
 5
 5
 5
 5
 5
 5
 5
 5
 5
 5
 5
 5
 5
 5
 5
 5
 5
 5
 5
 5
 5
 5
 5
 5
 5
 5
 5
 5
 5
 5
 5
 5
 5
 5
 5
 5
 5
 5
 5
 5
 5
 5
 5
 5
 5
 5
 5
 5
 5
 5
 5
 5
 5
 5
 5
 5
 5
 5
 5
 5
 5
 5
 5
 5
 5
 5
 5
 5
 5
 5
 5
 5
 5
 5
 5
 5
 5
 5
 5
 5
 5
 5
 5
 5
 5
 5
 5
 5
 5
 5
 5
 5
 5
 5
 5
 5
 5
 5
 5
 5
 5
 5
 5
 5
 5
 5
 5
 5
 5
 5
 5
 5
 5
 5
 5
 5
 5
 5
 5
 5
 5
 5
 5
 5
 5
 5
 5
 5
 5
 5
 5
 5
 5
 5
 5
 5
 5
 5
 5
 5
 5
 5
 5
 5
 5
 5
 5
 5
 5
 5
 5
 5
 5
 5
 5
 5
 5
 5
 5
 5
 5
 5
 5
 5
 5
 5
 5
 5
 5
 5
 5
 5
 5
 5
 5
 5
 5
 5
 5
 5
 5
 5
 5
 5
 5
 5
 5
 5
 5
 5
 5
 5
 5
 5
 5
 5
 5
 5
 5
 5
 5
 5
 5
 5
 5
 5
 5
 5
 5
 5
 5
 5
 5
 5
 5
 5
 5
 5
 5
 5
 5
 5
 5
 5
 5
 5
 5
 5
 5
 5
 5
 5
 5
 5
 5
 5
 5
 5
 5
 5
 5
 5
 5
 5
 5
 5
 5
 5
 5
 5
 5
 5
 5
 5
 5
 5
 5
 5
 5
 5
 5
 5
 5
 5
 5
 5
 5
 5
 5
 5
 5
 5
 5
 5
 5
 5
 5
 5
 5
 5
 5
 5
 5
 5
 5
 5
 5
 5
 5
 5
 5
 5
 5
 5
 5
 5
 5
 5
 5
 5
 5
 5
 5
 5
 5
 5
 5
 5
 5
 5
 5
 5
 5
 5
 5
 5
 5
 5
 5
 5
 5
 5
 5
 5
 5
 5
 5
 5
 5
 5
 5
 5
 5
 5
 5
 5
 5
 5
 5
 5
 5
 5
 5
 5
 5
 5
 5
 5
 5
 5
 5
 5
 5
 5
 5
 5
 5
 5
 5
 5
 5
 5
 5
 5
 5
 5
 5
 5
 5
 5
 5
 5
 5
 5
 5
 5
 5
 5
 5
 5
 5
 5
 5
 5
 5
 5
 5
 5
 5
 5
 5
 5
 5
 5
 5
 5
 5
 5
 5
 5
 5
 5
 5
 5
 5
 5
 5
 5
 5
 5
 5
 5
 5
 5
 5
 5
 5
 5
 5
 5
 5
 5
 5
 5
 5
 5
 5
 5
 5
 5
 5
 5
 5
 5
 5
 5
 5
 5
 5
 5
 5
 5
 5
 5
 5
 5
 5
 5
 5
 5
 5
 5
 5
 5
 5
 5
 5
 5
 5
 5
 5
 5
 5
 5
 5
 5
 5
 5
 5
 5
 5
 5
 5
 5
 5
 5
 5
 5
 5
 5
 5
 5
 5
 5
 5
 5
 5
 5
 5
 5
 5
 5
 5
 5
 5
 5
 5
 5
 5
 5
 5
 5
 5
 5
 5
 5
 5
 5
 5
 5
 5
 5
 5
 5
 5
 5
 5
 5
 5
 5
 5
 5
 5
 5
 5
 5
 5
 5
 5
 5
 5
 5
 5
 5
 5
 5
 5
 5
 5
 5
 5
 5
 5
 5
 5
 5
 5
 5
 5
 5
 5
 5
 5
 5
 5
 5
 5
 5
 5
 5
 5
 5
 5
 5
 5
 5
 5
 5
 5
 5
 5
 5
 5
 5
 5
 5
 5
 5
 5
 5
 5
 5
 5
 5
 5
 5
 5
 5
 5
 5
 5
 5
 5
 5
 5
 5
 5
 5
 5
 5
 5
 5
 5
 5
 5
 5
 5
 5
 5
 5
 5
 5
 5
 5
 5
 5
 5
 5
 5
 5
 5
 5
 5
 5
 5
 5
 5
 5
 5
 5
 5
 5
 5
 5
 5
 5
 5
 5
 5
 5
 5
 5
 5
 5
 5
 5
 5
 5
 5
 5
 5
 5
 5
 5
 5
 5
 5
 5
 5
 5
 5
 5
 5
 5
 5
 5
 5
 5
 5
 5
 5
 5
 5
 5
 5
 5
 5
 5
 5
 5
 5
 5
 5
 5
 5
 5
 5
 5
 5
 5
 5
 5
 5
 5
 5
 5
 5
 5
 5
 5
 5
 5
 5
 5
 5
 5
 5
 5
 5
 5
 5
 5
 5
 5
 5
 5
 5
 5
 5
 5
 5
 5
 5
 5
 5
 5
 5
 5
 5
 5
 5
 5
 5
 5
 5
 5
 5
 5
 5
 5
 5
 5
 5
 5
 5
 5
 5
 5
 5
 5
 5
 5
 5
 5
 5
 5
 5
 5
 5
 5
 5
 5
 5
 5
 5
 5
 5
 5
 5
 5
 5
 5
 5
 5
 5
 5
 5
 5
 5
 5
 5
 5
 5
 5
 5
 5
 5
 5
 5
 5
 5
 5
 5
 5
 5
 5
 5
 5
 5
 5
 5
 5
 5
 5
 5
 5
 5
 5
 5
 5
 5
 5
 5
 5
 5
 5
 5
 5
 5
 5
 5
 5
 5
 5
 5
 5
 5
 5
 5
 5
 5
 5
 5
 5
 5
 5
 5
 5
 5
 5
 5
 5
 5
 5
 5
 5
 5
 5
 5
 5
 5
 5
 5
 5
 5
 5
 5
 5
 5
 5
 5
 5
 5
 5
 5
 5
 5
 5
 5
 5
 5
 5
 5
 5
 5
 5
 5
 5
 5
 5
 5
 5
 5
 5
 5
 5
 5
 5
 5
 5
 5
 5
 5
 5
 5
 5
 5
 5
 5
 5
 5
 5
 5
 5
 5
 5
 5
 5
 5
 5
 5
 5
 5
 5
 5
 5
 5
 5
 5
 5
 5
 5
 5
 5
 5
 5
 5
 5
 5
 5
 5
 5
 5
 5
 5
 5
 5
 5
 5
 5
 5
 5
 5
 5
 5
 5
 5
 5
 5
 5
 5
 5
 5
 5
 5
 5
 5
 5
 5
 5
 5
 5
 5
 5
 5
 5
 5
 5
 5
 5
 5
 5
 5
 5
 5
 5
 5
 5
 5
 5
 5
 5
 5
 5
 5
 5
 5
 5
 5
 5
 5
 5
 5
 5
 5
 5
 5
 5
 5
 5
 5
 5
 5
 5
 5
 5
 5
 5
 5
 5
 5
 5
 5
 5
 5
 5
 5
 5
 5
 5
 5
 5
 5
 5
 5
 5
 5
 5
 5
 5
 5
 5
 5
 5
 5
 5
 5
 5
 5
 5
 5
 5
 5
 5
 5
 5
 5
 5
 5
 5
 5
 5
 5
 5
 5
 5
 5
 5
 5
 5
 5
 5
 5
 5
 5
 5
 5
 5
 5
 5
 5
 5
 5
 5
 5
 5
 5
 5
 5
 5
 5
 5
 5
 5
 5
 5
 5
 5
 5
 5
 5
 5
 5
 5
 5
 5
 5
 5
 5
 5
 5
 5
 5
 5
 5
 5
 5
 5
 5
 5
 5
 5
 5
 5
 5
 5
 5
 5
 5
 5
 5
 5
 5
 5
 5
 5
 5
 5
 5
 5
 5
 5
 5
 5
 5
 5
 5
 5
 5
 5
 5
 5
 5
 5
 5
 5
 5
 5
 5
 5
 5
 5
 5
 5
 5
 5
 5
 5
 5
 5
 5
 5
 5
 5
 5
 5
 5
 5
 5
 5
 5
 5
 5
 5
 5
 5
 5
 5
 5
 5
 5
 5
 5
 5
 5
 5
 5
 5
 5
 5
 5
 5
 5
 5
 5
 5
 5
 5
 5
 5
 5
 5
 5
 5
 5
 5
 5
 5
 5
 5
 5
 5
 5
 5
 5
 5
 5
 5
 5
 5
 5
 5
 5
 5
 5
 5
 5
 5
 5
 5
 5
 5
 5
 5
 5
 5
 5
 5
 5
 5
 5
 5
 5
 5
 5
 5
 5
 5
 5
 5
 5
 5
 5
 5
 5
 5
 5
 5
 5
 5
 5
 5
 5
 5
 5
 5
 5
 5
 5
 5
 5
 5
 5
 5
 5
 5
 5
 5
 5
 5
 5
 5
 5
 5
 5
 5
 5
 5
 5
 5
 5
 5
 5
 5
 5
 5
 5
 5
 5
 5
 5
 5
 5
 5
 5
 5
 5
 5
 5
 5
 5
 5
 5
 5
 5
 5
 5
 5
 5
 5
 5
 5
 5
 5
 5
 5
 5
 5
 5
 5
 5
 5
 5
 5
 5
 5
 5
 5
 5
 5
 5
 5
 5
 5
 5
 5
 5
 5
 5
 5
 5
 5
 5
 5
 5
 5
 5
 5
 5
 5
 5
 5
 5
 5
 5
 5
 5
 5
 5
 5
 5
 5
 5
 5
 5
 5
 5
 5
 5
 5
 5
 5
 5
 5
 5
 5
 5
 5
 5
 5
 5
 5
 5
 5
 5
 5
 5
 5
 5
 5
 5
 5
 5
 5
 5
 5
 5
 5
 5
 5
 5
 5
 5
 5
 5
 5
 5
 5
 5
 5
 5
 5
 5
 5
 5
 5
 5
 5
 5
 5
 5
 5
 5
 5
 5
 5
 5
 5
 5
 5
 5
 5
 5
 5
 5
 5
 5
 5
 5
 5
 5
 5
 5
 5
 5
 5
 5
 5
 5
 5
 5
 5
 5
 5
 5
 5
 5
 5
 5
 5
 5
 5
 5
 5
 5
 5
 5
 5
 5
 5
 5
 5
 5
 5
 5
 5
 5
 5
 5
 5
 5
 5
 5
 5
 5
 5
 5
 5
 5
 5
 5
 5
 5
 5
 5
 5
 5
 5
 5
 5
 5
 5
 5
 5
 5
 5
 5
 5
 5
 5
 5
 5
 5
 5
 5
 5
 5
 5
 5
 5
 5
 5
 5
 5
 5
 5
 5
 5
 5
 5
 5
 5
 5
 5
 5
 5
 5
 5
 5
 5
 5
 5
 5
 5
 5
 5
 5
 5
 5
 5
 5
 5
 5
 5
 5
 5
 5
 5
 5
 5
 5
 5
 5
 5
 5
 5
 5
 5
 5
 5
 5
 5
 5
 5
 5
 5
 5
 5
 5
 5
 5
 5
 5
 5
 5
 5
 5
 5
 5
 5
 5
 5
 5
 5
 5
 5
 5
 5
 5
 5
 5
 5
 5
 5
 5
 5
 5
 5
 5
 5
 5
 5
 5
 5
 5
 5
 5
 5
 5
 5
 5
 5
 5
 5
 5
 5
 5
 5
 5
 5
 5
 5
 5
 5
 5
 5
 5
 5
 5
 5
 5
 5
 5
 5
 5
 5
 5
 5
 5
 5
 5
 5
 5
 5
 5
 5
 5
 5
 5
 5
 5
 5
 5
 5
 5
 5
 5
 5
 5
 5
 5
 5
 5
 5
 5
 5
 5
 5
 5
 5
 5
 5
 5
 5
 5
 5
 5
 5
 5
 5
 5
 5
 5
 5
 5
 5
 5
 5
 5
 5
 5
 5
 5
 5
 5
 5
 5
 5
 5
 5
 5
 5
 5
 5
 5
 5
 5
 5
 5
 5
 5
 5
 5
 5
 5
 5
 5
 5
 5
 5
 5
 5
 5
 5
 5
 5
 5
 5
 5
 5
 5
 5
 5
 5
 5
 5
 5
 5
 5
 5
 5
 5
 5
 5
 5
 5
 5
 5
 5
 5
 5
 5
 5
 5
 5
 5
 5
 5
 5
 5
 5
 5
 5
 5
 5
 5
 5
 5
 5
 5
 5
 5
 5
 5
 5
 5
 5
 5
 5
 5
 5
 5
 5
 5
 5
 5
 5
 5
 5
 5
 5
 5
 5
 5
 5
 5
 5
 5
 5
 5
 5
 5
 5
 5
 5
 5
 5
 5
 5
 5
 5
 5
 5
 5
 5
 5
 5
 5
 5
 5
 5
 5
 5
 5
 5
 5
 5
 5
 5
 5
 5
 5
 5
 5
 5
 5
 5
 5
 5
 5
 5
 5
 5
 5
 5
 5
 5
 5
 5
 5
 5
 5
 5
 5
 5
 5
 5
 5
 5
 5
 5
 5
 5
 5
 5
 5
 5
 5
 5
 5
 5
 5
 5
 5
 5
 5
 5
 5
 5
 5
 5
 5
 5
 5
 5
 5
 5
 5
 5
 5
 5
 5
 5
 5
 5
 5
 5
 5
 5
 5
 5
 5
 5
 5
 5
 5
 5
 5
 5
 5
 5
 5
 5
 5
 5
 5
 5
 5
 5
 5
 5
 5
 5
 5
 5
 5
 5
 5
 5
 5
 5
 5
 5
 5
 5
 5
 5
 5
 5
 5
 5
 5
 5
 5
 5
 5
 5
 5
 5
 5
 5
 5
 5
 5
 5
 5
 5
 5
 5
 5
 5
 5
 5
 5
 5
 5
 5
 5
 5
 5
 5
 5
 5
 5
 5
 5
 5
 5
 5
 5
 5
 5
 5
 5
 5
 5
 5
 5
 5
 5
 5
 5
 5
 5
 5
 5
 5
 5
 5
 5
 5
 5
 5
 5
 5
 5
 5
 5
 5
 5
 5
 5
 5
 5
 5
 5
 5
 5
 5
 5
 5
 5
 5
 5
 5
 5
 5
 5
 5
 5
 5
 5
 5
 5
 5
 5
 5
 5
 5
 5
 5
 5
 5
 5
 5
 5
 5
 5
 5
 5
 5
 5
 5
 5
 5
 5
 5
 5
 5
 5
 5
 5
 5
 5
 5
 5
 5
 5
 5
 5
 5
 5
 5
 5
 5
 5
 5
 5
 5
 5
 5
 5
 5
 5
 5
 5
 5
 5
 5
 5
 5
 5
 5
 5
 5
 5
 5
 5
 5
 5
 5
 5
 5
 5
 5
 5
 5
 5
 5
 5
 5
 5
 5
 5
 5
 5
 5
 5
 5
 5
 5
 5
 5
 5
 5
 5
 5
 5
 5
 5
 5
 5
 5
 5
 5
 5
 5
 5
 5
 5
 5
 5
 5
 5
 5
 5
 5
 5
 5
 5
 5
 5
 5
 5
 5
 5
 5
 5
 5
 5
 5
 5
 5
 5
 5
 5
 5
 5
 5
 5
 5
 5
 5
 5
 5
 5
 5
 5
 5
 5
 5
 5
 5
 5
 5
 5
 5
 5
 5
 5
 5
 5
 5
 5
 5
 5
 5
 5
 5
 5
 5
 5
 5
 5
 5
 5
 5
 5
 5
 5
 5
 5
 5
 5
 5
 5
 5
 5
 5
 5
 5
 5
 5
 5
 5
 5
 5
 5
 5
 5
 5
 5
 5
 5
 5
 5
 5
 5
 5
 5
 5
 5
 5
 5
 5
 5
 5
 5
 5
 5
 5
 5
 5
 5
 5
 5
 5
 5
 5
 5
 5
 5
 5
 5
 5
 5
 5
 5
 5
 5
 5
 5
 5
 5
 5
 5
 5
 5
 5
 5
 5
 5
 5
 5
 5
 5
 5
 5
 5
 5
 5
 5
 5
 5
 5
 5
 5
 5
 5
 5
 5
 5
 5
 5
 5
 5
 5
 5
 5
 5
 5
 5
 5
 5
 5
 5
 5
 5
 5
 5
 5
 5
 5
 5
 5
 5
 5
 5
 5
 5
 5
 5
 5
 5
 5
 5
 5
 5
 5
 5
 5
 5
 5
 5
 5
 5
 5
 5
 5
 5
 5
 5
 5
 5
 5
 5
 5
 5
 5
 5
 5
 5
 5
 5
 5
 5
 5
 5
 5
 5
 5
 5
 5
 5
 5
 5
 5
 5
 5
 5
 5
 5
 5
 5
 5
 5
 5
 5
 5
 5
 5
 5
 5
 5
 5
 5
 5
 5
 5
 5
 5
 5
 5
 5
 5
 5
 5
 5
 5
 5
 5
 5
 5
 5
 5
 5
 5
 5
 5
 5
 5
 5
 5
 5
 5
 5
 5
 5
 5
 5
 5
 5
 5
 5
 5
 5
 5
 5
 5
 5
 5
 5
 5
 5
 5
 5
 5
 5
 5
 5
 5
 5
 5
 5
 5
 5
 5
 5
 5
 5
 5
 5
 5
 5
 5
 5
 5
 5
 5
 5
 5
 5
 5
 5
 5
 5
 5
 5
 5
 5
 5
 5
 5
 5
 5
 5
 5
 5
 5
 5
 5
 5
 5
 5
 5
 5
 5
 5
 5
 5
 5
 5
 5
 5
 5
 5
 5
 5
 5
 5
 5
 5
 5
 5
 5
 5
 5
 5
 5
 5
 5
 5
 5
 5
 5
 5
 5
 5
 5
 5
 5
 5
 5
 5
 5
 5
 5
 5
 5
 5
 5
 5
 5
 5
 5
 5
 5
 5
 5
 5
 5
 5
 5
 5
 5
 5
 5
 5
 5
 5
 5
 5
 5
 5
 5
 5
 5
 5
 5
 5
 5
 5
 5
 5
 5
 5
 5
 5
 5
 5
 5
 5
 5
 5
 5
 5
 5
 5
 5
 5
 5
 5
 5
 5
 5
 5
 5
 5
 5
 5
 5
 5
 5
 5
 5
 5
 5
 5
 5
 5
 5
 5
 5
 5
 5
 5
 5
 5
 5
 5
 5
 5
 5
 5
 5
 5
 5
 5
 5
 5
 5
 5
 5
 5
 5
 5
 5
 5
 5
 5
 5
 5
 5
 5
 5
 5
 5
 5
 5
 5
 5
 5
 5
 5
 5
 5
 5
 5
 5
 5
 5
 5
 5
 5
 5
 5
 5
 5
 5
 5
 5
 5
 5
 5
 5
 5
 5
 5
 5
 5
 5
 5
 5
 5
 5
 5
 5
 5
 5
 5
 5
 5
 5
 5
 5
 5
 5
 5
 5
 5
 5
 5
 5
 5
 5
 5
 5
 5
 5
 5
 5
 5
 5
 5
 5
 5
 5
 5
 5
 5
 5
 5
 5
 5
 5
 5
 5
 5
 5
 5
 5
 5
 5
 5
 5
 5
 5
 5
 5
 5
 5
 5
 5
 5
 5
 5
 5
 5
 5
 5
 5
 5
 5
 5
 5
 5
 5
 5
 5
 5
 5
 5
 5
 5
 5
 5
 5
 5
 5
 5
 5
 5
 5
 5
 5
 5
 5
 5
 5
 5
 5
 5
 5
 5
 5
 5
 5
 5
 5
 5
 5
 5
 5
 5
 5
 5
 5
 5
 5
 5
 5
 5
 5
 5
 5
 5
 5
 5
 5
 5
 5
 5
 5
 5
 5
 5
 5
 5
 5
 5
 5
 5
 5
 5
 5
 5
 5
 5
 5
 5
 5
 5
 5
 5
 5
 5
 5
 5
 5
 5
 5
 5
 5
 5
 5
 5
 5
 5
 5
 5
 5
 5
 5
 5
 5
 5
 5
 5
 5
 5
 5
 5
 5
 5
 5
 5
 5
 5
 5
 5
 5
 5
 5
 5
 5
 5
 5
 5
 5
 5
 5
 5
 5
 5
 5
 5
 5
 5
 5
 5
 5
 5
 5
 5
 5
 5
 5
 5
 5
 5
 5
 5
 5
 5
 5
 5
 5
 5
 5
 5
 5
 5
 5
 5
 5
 5
 5
 5
 5
 5
 5
 5
 5
 5
 5
 5
 5
 5
 5
 5
 5
 5
 5
 5
 5
 5
 5
 5
 5
 5
 5
 5
 5
 5
 5
 5
 5
 5
 5
 5
 5
 5
 5
 5
 5
 5
 5
 5
 5
 5
 5
 5
 5
 5
 5
 5
 5
 5
 5
 5
 5
 5
 5
 5
 5
 5
 5
 5
 5
 5
 5
 5
 5
 5
 5
 5
 5
 5
 5
 5
 5
 5
 5
 5
 5
 5
 5
 5
 5
 5
 5
 5
 5
 5
 5
 5
 5
 5
 5
 5
 5
 5
 5
 5
 5
 5
 5
 5
 5
 5
 5
 5
 5
 5
 5
 5
 5
 5
 5
 5
 5
 5
 5
 5
 5
 5
 5
 5
 5
 5
 5
 5
 5
 5
 5
 5
 5
 5
 5
 5
 5
 5
 5
 5
 5
 5
 5
 5
 5
 5
 5
 5
 5
 5
 5
 5
 5
 5
 5
 5
 5
 5
 5
 5
 5
 5
 5
 5
 5
 5
 5
 5
 5
 5
 5
 5
 5
 5
 5
 5
 5
 5
 5
 5
 5
 5
 5
 5
 5
 5
 5
 5
 5
 5
 5
 5
 5
 5
 5
 5
 5
 5
 5
 5
 5
 5
 5
 5
 5
 5
 5
 5
 5
 5
 5
 5
 5
 5
 5
 5
 5
 5
 5
 5
 5
 5
 5
 5
 5
 5
 5
 5
 5
 5
 5
 5
 5
 5
 5
 5
 5
 5
 5
 5
 5
 5
 5
 5
 5
 5
 5
 5
 5
 5
 5
 5
 5
 5
 5
 5
 5
 5
 5
 5
 5
 5
 5
 5
 5
 5
 5
 5
 5
 5
 5
 5
 5
 5
 5
 5
 5
 5
 5
 5
 5
 5
 5
 5
 5
 5
 5
 5
 5
 5
 5
 5
 5
 5
 5
 5
 5
 5
 5
 5
 5
 5
 5
 5
 5
 5
 5
 5
 5
 5
 5
 5
 5
 5
 5
 5
 5
 5
 5
 5
 5
 5
 5
 5
 5
 5
 5
 5
 5
 5
 5
 5
 5
 5
 5
 5
 5
 5
 5
 5
 5
 5
 5
 5
 5
 5
 5
 5
 5
 5
 5
 5
 5
 5
 5
 5
 5
 5
 5
 5
 5
 5
 5
 5
 5
 5
 5
 5
 5
 5
 5
 5
 5
 5
 5
 5
 5
 5
 5
 5
 5
 5
 5
 5
 5
 5
 5
 5
 5
 5
 5
 5
 5
 5
 5
 5
 5
 5
 5
 5
 5
 5
 5
 5
 5
 5
 5
 5
 5
 5
 5
 5
 5
 5
 5
 5
 5
 5
 5
 5
 5
 5
 5
 5
 5
 5
 5
 5
 5
 5
 5
 5
 5
 5
 5
 5
 5
 5
 5
 5
 5
 5
 5
 5
 5
 5
 5
 5
 5
 5
 5
 5
 5
 5
 5
 5
 5
 5
 5
 5
 5
 5
 5
 5
 5
 5
 5
 5
 5
 5
 5
 5
 5
 5
 5
 5
 5
 5
 5
 5
 5
 5
 5
 5
 5
 5
 5
 5
 5
 5
 5
 5
 5
 5
 5
 5
 5
 5
 5
 5
 5
 5
 5
 5
 5
 5
 5
 5
 5
 5
 5
 5
 5
 5
 5
 5
 5
 5
 5
 5
 5
 5
 5
 5
 5
 5
 5
 5
 5
 5
 5
 5
 5
 5
 5
 5
 5
 5
 5
 5
 5
 5
 5
 5
 5
 5
 5
 5
 5
 5
 5
 5
 5
 5
 5
 5
 5
 5
 5
 5
 5
 5
 5
 5
 5
 5
 5
 5
 5
 5
 5
 5
 5
 5
 5
 5
 5
 5
 5
 5
 5
 5
 5
 5
 5
 5
 5
 5
 5
 5
 5
 5
 5
 5
 5
 5
 5
 5
 5
 5
 5
 5
 5
 5
 5
 5
 5
 5
 5
 5
 5
 5
 5
 5
 5
 5
 5
 5
 5
 5
 5
 5
 5
 5
 5
 5
 5
 5
 5
 5
 5
 5
 5
 5
 5
 5
 5
 5
 5
 5
 5
 5
 5
 5
 5
 5
 5
 5
 5
 5
 5
 5
 5
 5
 5
 5
 5
 5
 5
 5
 5
 5
 5
 5
 5
 5
 5
 5
 5
 5
 5
 5
 5
 5
 5
 5
 5
 5
 5
 5
 5
 5
 5
 5
 5
 5
 5
 5
 5
 5
 5
 5
 5
 5
 5
 5
 5
 5
 5
 5
 5
 5
 5
 5
 5
 5
 5
 5
 5
 5
 5
 5
 5
 5
 5
 5
 5
 5
 5
 5
 5
 5
 5
 5
 5
 5
 5
 5
 5
 5
 5
 5
 5
 5
 5
 5
 5
 5
 5
 5
 5
 5
 5
 5
 5
 5
 5
 5
 5
 5
 5
 5
 5
 5
 5
 5
 5
 5
 5
 5
 5
 5
 5
 5
 5
 5
 5
 5
 5
 5
 5
 5
 5
 5
 5
 5
 5
 5
 5
 5
 5
 5
 5
 5
 5
 5
 5
 5
 5
 5
 5
 5
 5
 5
 5
 5
 5
 5
 5
 5
 5
 5
 5
 5
 5
 5
 5
 5
 5
 5
 5
 5
 5
 5
 5
 5
 5
 5
 5
 5
 5
 5
 5
 5
 5
 5
 5
 5
 5
 5
 5
 5
 5
 5
 5
 5
 5
 5
 5
 5
 5
 5
 5
 5
 5
 5
 5
 5
 5
 5
 5
 5
 5
 5
 5
 5
 5
 5
 5
 5
 5
 5
 5
 5
 5
 5
 5
 5
 5
 5
 5
 5
 5
 5
 5
 5
 5
 5
 5
 5
 5
 5
 5
 5
 5
 5
 5
 5
 5
 5
 5
 5
 5
 5
 5
 5
 5
 5
 5
 5
 5
 5
 5
 5
 5
 5
 5
 5
 5
 5
 5
 5
 5
 5
 5
 5
 5
 5
 5
 5
 5
 5
 5
 5
 5
 5
 5
 5
 5
 5
 5
 5
 5
 5
 5
 5
 5
 5
 5
 5
 5
 5
 5
 5
 5
 5
 5
 5
 5
 5
 5
 5
 5
 5
 5
 5
 5
 5
 5
 5
 5
 5
 5
 5
 5
 5
 5
 5
 5
 5
 5
 5
 5
 5
 5
 5
 5
 5
 5
 5
 5
 5
 5
 5
 5
 5
 5
 5
 5
 5
 5
 5
 5
 5
 5
 5
 5
 5
 5
 5
 5
 5
 5
 5
 5
 5
 5
 5
 5
 5
 5
 5
 5
 5
 5
 5
 5
 5
 5
 5
 5
 5
 5
 5
 5
 5
 5
 5
 5
 5
 5
 5
 5
 5
 5
 5
 5
 5
 5
 5
 5
 5
 5
 5
 5
 5
 5
 5
 5
 5
 5
 5
 5
 5
 5
 5
 5
 5
 5
 5
 5
 5
 5
 5
 5
 5
 5
 5
 5
 5
 5
 5
 5
 5
 5
 5
 5
 5
 5
 5
 5
 5
 5
 5
 5
 5
 5
 5
 5
 5
 5
 5
 5
 5
 5
 5
 5
 5
 5
 5
 5
 5
 5
 5
 5
 5
 5
 5
 5
 5
 5
 5
 5
 5
 5
 5
 5
 5
 5
 5
 5
 5
 5
 5
 5
 5
 5
 5
 5
 5
 5
 5
 5
 5
 5
 5
 5
 5
 5
 5
 5
 5
 5
 5
 5
 5
 5
 5
 5
 5
 5
 5
 5
 5
 5
 5
 5
 5
 5
 5
 5
 5
 5
 5
 5
 5
 5
 5
 5
 5
 5
 5
 5
 5
 5
 5
 5
 5
 5
 5
 5
 5
 5
 5
 5
 5
 5
 5
 5
 5
 5
 5
 5
 5
 5
 5
 5
 5
 5
 5
 5
 5
 5
 5
 5
 5
 5
 5
 5
 5
 5
 5
 5
 5
 5
 5
 5
 5
 5
 5
 5
 5
 5
 5
 5
 5
 5
 5
 5
 5
 5
 5
 5
 5
 5
 5
 5
 5
 5
 5
 5
 5
 5
 5
 5
 5
 5
 5
 5
 5
 5
 5
 5
 5
 5
 5
 5
 5
 5
 5
 5
 5
 5
 5
 5
 5
 5
 5
 5
 5
 5
 5
 5
 5
 5
 5
 5
 5
 5
 5
 5
 5
 5
 5
 5
 5
 5
 5
 5
 5
 5
 5
 5
 5
 5
 5
 5
 5
 5
 5
 5
 5
 5
 5
 5
 5
 5
 5
 5
 5
 5
 5
 5
 5
 5
 5
 5
 5
 5
 5
 5
 5
 5
 5
 5
 5
 5
 5
 5
 5
 5
 5
 5
 5
 5
 5
 5
 5
 5
 5
 5
 5
 5
 5
 5
 5
 5
 5
 5
 5
 5
 5
 5
 5
 5
 5
 5
 5
 5
 5
 5
 5
 5
 5
 5
 5
 5
 5
 5
 5
 5
 5
 5
 5
 5
 5
 5
 5
 5
 5
 5
 5
 5
 5
 5
 5
 5
 5
 5
 5
 5
 5
 5
 5
 5
 5
 5
 5
 5
 5
 5
 5
 5
 5
 5
 5
 5
 5
 5
 5
 5
 5
 5
 5
 5
 5
 5
 5
 5
 5
 5
 5
 5
 5
 5
 5
 5
 5
 5
 5
 5
 5
 5
 5
 5
 5
 5
 5
 5
 5
 5
 5
 5
 5
 5
 5
 5
 5
 5
 5
 5
 5
 5
 5
 5
 5
 5
 5
 5
 5
 5
 5
 5
 5
 5
 5
 5
 5
 5
 5
 5
 5
 5
 5
 5
 5
 5
 5
 5
 5
 5
 5
 5
 5
 5
 5
 5
 5
 5
 5
 5
 5
 5
 5
 5
 5
 5
 5
 5
 5
 5
 5
 5
 5
 5
 5
 5
 5
 5
 5
 5
 5
 5
 5
 5
 5
 5
 5
 5
 5
 5
 5
 5
 5
 5
 5
 5
 5
 5
 5
 5
 5
 5
 5
 5
 5
 5
 5
 5
 5
 5
 5
 5
 5
 5
 5
 5
 5
 5
 5
 5
 5
 5
 5
 5
 5
 5
 5
 5
 5
 5
 5
 5
 5
 5
 5
 5
 5
 5
 5
 5
 5
 5
 5
 5
 5
 5
 5
 5
 5
 5
 5
 5
 5
 5
 5
 5
 5
 5
 5
 5
 5
 5
 5
 5
 5
 5
 5
 5
 5
 5
 5
 5
 5
 5
 5
 5
 5
 5
 5
 5
 5
 5
 5
 5
 5
 5
 5
 5
 5
 5
 5
 5
 5
 5
 5
 5
 5
 5
 5
 5
 5
 5
 5
 5
 5
 5
 5
 5
 5
 5
 5
 5
 5
 5
 5
 5
 5
 5
 5
 5
 5
 5
 5
 5
 5
 5
 5
 5
 5
 5
 5
 5
 5
 5
 5
 5
 5
 5
 5
 5
 5
 5
 5
 5
 5
 5
 5
 5
 5
 5
 5
 5
 5
 5
 5
 5
 5
 5
 5
 5
 5
 5
 5
 5
 5
 5
 5
 5
 5
 5
 5
 5
 5
 5
 5
 5
 5
 5
 5
 5
 5
 5
 5
 5
 5
 5
 5
 5
 5
 5
 5
 5
 5
 5
 5
 5
 5
 5
 5
 5
 5
 5
 5
 5
 5
 5
 5
 5
 5
 5
 5
 5
 5
 5
 5
 5
 5
 5
 5
 5
 5
 5
 5
 5
 5
 5
 5
 5
 5
 5
 5
 5
 5
 5
 5
 5
 5
 5
 5
 5
 5
 5
 5
 5
 5
 5
 5
 5
 5
 5
 5
 5
 5
 5
 5
 5
 5
 5
 5
 5
 5
 5
 5
 5
 5
 5
 5
 5
 5
 5
 5
 5
 5
 5
 5
 5
 5
 5
 5
 5
 5
 5
 5
 5
 5
 5
 5
 5
 5
 5
 5
 5
 5
 5
 5
 5
 5
 5
 5
 5
 5
 5
 5
 5
 5
 5
 5
 5
 5
 5
 5
 5
 5
 5
 5
 5
 5
 5
 5
 5
 5
 5
 5
 5
 5
 5
 5
 5
 5
 5
 5
 5
 5
 5
 5
 5
 5
 5
 5
 5
 5
 5
 5
 5
 5
 5
 5
 5
 5
 5
 5
 5
 5
 5
 5
 5
 5
 5
 5
 5
 5
 5
 5
 5
 5
 5
 5
 5
 5
 5
 5
 5
 5
 5
 5
 5
 5
 5
 5
 5
 5
 5
 5
 5
 5
 5
 5
 5
 5
 5
 5
 5
 5
 5
 5
 5
 5
 5
 5
 5
 5
 5
 5
 5
 5
 5
 5
 5
 5
 5
 5
 5
 5
 5
 5
 5
 5
 5
 5
 5
 5
 5
 5
 5
 5
 5
 5
 5
 5
 5
 5
 5
 5
 5
 5
 5
 5
 5
 5
 5
 5
 5
 5
 5
 5
 5
 5
 5
 5
 5
 5
 5
 5
 5
 5
 5
 5
 5
 5
 5
 5
 5
 5
 5
 5
 5
 5
 5
 5
 5
 5
 5
 5
 5
 5
 5
 5
 5
 5
 5
 5
 5
 5
 5
 5
 5
 5
 5
 5
 5
 5
 5
 5
 5
 5
 5
 5
 5
 5
 5
 5
 5
 5
 5
 5
 5
 5
 5
 5
 5
 5
 5
 5
 5
 5
 5
 5
 5
 5
 5
 5
 5
 5
 5
 5
 5
 5
 5
 5
 5
 5
 5
 5
 5
 5
 5
 5
 5
 5
 5
 5
 5
 5
 5
 5
 5
 5
 5
 5
 5
 5
 5
 5
 5
 5
 5
 5
 5
 5
 5
 5
 5
 5
 5
 5
 5
 5
 5
 5
 5
 5
 5
 5
 5
 5
 5
 5
 5
 5
 5
 5
 5
 5
 5
 5
 5
 5
 5
 5
 5
 5
 5
 5
 5
 5
 5
 5
 5
 5
 5
 5
 5
 5
 5
 5
 5
 5
 5
 5
 5
 5
 5
 5
 5
 5
 5
 5
 5
 5
 5
 5
 5
 5
 5
 5
 5
 5
 5
 5
 5
 5
 5
 5
 5
 5
 5
 5
 5
 5
 5
 5
 5
 5
 5
 5
 5
 5
 5
 5
 5
 5
 5
 5
 5
 5
 5
 5
 5
 5
 5
 5
 5
 5
 5
 5
 5
 5
 5
 5
 5
 5
 5
 5
 5
 5
 5
 5
 5
 5
 5
 5
 5
 5
 5
 5
 5
 5
 5
 5
 5
 5
 5
 5
 5
 5
 5
 5
 5
 5
 5
 5
 5
 5
 5
 5
 5
 5
 5
 5
 5
 5
 5
 5
 5
 5
 5
 5
 5
 5
 5
 5
 5
 5
 5
 5
 5
 5
 5
 5
 5
 5
 5
 5
 5
 5
 5
 5
 5
 5
 5
 5
 5
 5
 5
 5
 5
 5
 5
 5
 5
 5
 5
 5
 5
 5
 5
 5
 5
 5
 5
 5
 5
 5
 5
 5
 5
 5
 5
 5
 5
 5
 5
 5
 5
 5
 5
 5
 5
 5
 5
 5
 5
 5
 5
 5
 5
 5
 5
 5
 5
 5
 5
 5
 5
 5
 5
 5
 5
 5
 5
 5
 5
 5
 5
 5
 5
 5
 5
 5
 5
 5
 5
 5
 5
 5
 5
 5
 5
 5
 5
 5
 5
 5
 5
 5
 5
 5
 5
 5
 5
 5
 5
 5
 5
 5
 5
 5
 5
 5
 5
 5
 5
 5
 5
 5
 5
 5
 5
 5
 5
 5
 5
 5
 5
 5
 5
 5
 5
 5
 5
 5
 5
 5
 5
 5
 5
 5
 5
 5
 5
 5
 5
 5
 5
 5
 5
 5
 5
 5
 5
 5
 5
 5
 5
 5
 5
 5
 5
 5
 5
 5
 5
 5
 5
 5
 5
 5
 5
 5
 5
 5
 5
 5
 5
 5
 5
 5
 5
 5
 5
 5
 5
 5
 5
 5
 5
 5
 5
 5
 5
 5
 5
 5
 5
 5
 5
 5
 5
 5
 5
 5
 5
 5
 5
 5
 5
 5
 5
 5
 5
 5
 5
 5
 5
 5
 5
 5
 5
 5
 5
 5
 5
 5
 5
 5
 5
 5
 5
 5
 5
 5
 5
 5
 5
 5
 5
 5
 5
 5
 5
 5
 5
 5
 5
 5
 5
 5
 5
 5
 5
 5
 5
 5
 5
 5
 5
 5
 5
 5
 5
 5
 5
 5
 5
 5
 5
 5
 5
 5
 5
 5
 5
 5
 5
 5
 5
 5
 5
 5
 5
 5
 5
 5
 5
 5
 5
 5
 5
 5
 5
 5
 5
 5
 5
 5
 5
 5
 5
 5
 5
 5
 5
 5
 5
 5
 5
 5
 5
 5
 5
 5
 5
 5
 5
 5
 5
 5
 5
 5
 5
 5
 5
 5
 5
 5
 5
 5
 5
 5
 5
 5
 5
 5
 5
 5
 5
 5
 5
 5
 5
 5
 5
 5
 5
 5
 5
 5
 5
 5
 5
 5
 5
 5
 5
 5
 5
 5
 5
 5
 5
 5
 5
 5
 5
 5
 5
 5
 5
 5
 5
 5
 5
 5
 5
 5
 5
 5
 5
 5
 5
 5
 5
 5
 5
 5
 5
 5
 5
 5
 5
 5
 5
 5
 5
 5
 5
 5
 5
 5
 5
 5
 5
 5
 5
 5
 5
 5
 5
 5
 5
 5
 5
 5
 5
 5
 5
 5
 5
 5
 5
 5
 5
 5
 5
 5
 5
 5
 5
 5
 5
 5
 5
 5
 5
 5
 5
 5
 5
 5
 5
 5
 5
 5
 5
 5
 5
 5
 5
 5
 5
 5
 5
 5
 5
 5
 5
 5
 5
 5
 5
 5
 5
 5
 5
 5
 5
 5
 5
 5
 5
 5
 5
 5
 5
 5
 5
 5
 5
 5
 5
 5
 5
 5
 5
 5
 5
 5
 5
 5
 5
 5
 5
 5
 5
 5
 5
 5
 5
 5
 5
 5
 5
 5
 5
 5
 5
 5
 5
 5
 5
 5
 5
 5
 5
 5
 5
 5
 5
 5
 5
 5
 5
 5
 5
 5
 5
 5
 5
 5
 5
 5
 5
 5
 5
 5
 5
 5
 5
 5
 5
 5
 5
 5
 5
 5
 5
 5
 5
 5
 5
 5
 5
 5
 5
 5
 5
 5
 5
 5
 5
 5
 5
 5
 5
 5
 5
 5
 5
 5
 5
 5
 5
 5
 5
 5
 5
 5
 5
 5
 5
 5
 5
 5
 5
 5
 5
 5
 5
 5
 5
 5
 5
 5
 5
 5
 5
 5
 5
 5
 5
 5
 5
 5
 5
 5
 5
 5
 5
 5
 5
 5
 5
 5
 5
 5
 5
 5
 5
 5
 5
 5
 5
 5
 5
 5
 5
 5
 5
 5
 5
 5
 5
 5
 5
 5
 5
 5
 5
 5
 5
 5
 5
 5
 5
 5
 5
 5
 5
 5
 5
 5
 5
 5
 5
 5
 5
 5
 5
 5
 5
 5
 5
 5
 5
 5
 5
 5
 5
 5
 5
 5
 5
 5
 5
 5
 5
 5
 5
 5
 5
 5
 5
 5
 5
 5
 5
 5
 5
 5
 5
 5
 5
 5
 5
 5
 5
 5
 5
 5
 5
 5
 5
 5
 5
 5
 5
 5
 5
 5
 5
 5
 5
 5
 5
 5
 5
 5
 5
 5
 5
 5
 5
 5
 5
 5
 5
 5
 5
 5
 5
 5
 5
 5
 5
 5
 5
 5
 5
 5
 5
 5
 5
 5
 5
 5
 5
 5
 5
 5
 5
 5
 5
 5
 5
 5
 5
 5
 5
 5
 5
 5
 5
 5
 5
 5
 5
 5
 5
 5
 5
 5
 5
 5
 5
 5
 5
 5
 5
 5
 5
 5
 5
 5
 5
 5
 5
 5
 5
 5
 5
 5
 5
 5
 5
 5
 5
 5
 5
 5
 5
 5
 5
 5
 5
 5
 5
 5
 5
 5
 5
 5
 5
 5
 5
 5
 5
 5
 5
 5
 5
 5
 5
 5
 5
 5
 5
 5
 5
 5
 5
 5
 5
 5
 5
 5
 5
 5
 5
 5
 5
 5
 5
 5
 5
 5
 5
 5
 5
 5
 5
 5
 5
 5
 5
 5
 5
 5
 5
 5
 5
 5
 5
 5
 5
 5
 5
 5
 5
 5
 5
 5
 5
 5
 5
 5
 5
 5
 5
 5
 5
 5
 5
 5
 5
 5
 5
 5
 5
 5
 5
 5
 5
 5
 5
 5
 5
 5
 5
 5
 5
 5
 5
 5
 5
 5
 5
 5
 5
 5
 5
 5
 5
 5
 5
 5
 5
 5
 5
 5
 5
 5
 5
 5
 5
 5
 5
 5
 5
 5
 5
 5
 5
 5
 5
 5
 5
 5
 5
 5
 5
 5
 5
 5
 5
 5
 5
 5
 5
 5
 5
 5
 5
 5
 5
 5
 5
 5
 5
 5
 5
 5
 5
 5
 5
 5
 5
 5
 5
 5
 5
 5
 5
 5
 5
 5
 5
 5
 5
 5
 5
 5
 5
 5
 5
 5
 5
 5
 5
 5
 5
 5
 5
 5
 5
 5
 5
 5
 5
 5
 5
 5
 5
 5
 5
 5
 5
 5
 5
 5
 5
 5
 5
 5
 5
 5
 5
 5
 5
 5
 5
 5
 5
 5
 5
 5
 5
 5
 5
 5
 5
 5
 5
 5
 5
 5
 5
 5
 5
 5
 5
 5
 5
 5
 5
 5
 5
 5
 5
 5
 5
 5
 5
 5
 5
 5
 5
 5
 5
 5
 5
 5
 5
 5
 5
 5
 5
 5
 5
 5
 5
 5
 5
 5
 5
 5
 5
 5
 5
 5
 5
 5
 5
 5
 5
 5
 5
 5
 5
 5
 5
 5
 5
 5
 5
 5
 5
 5
 5
 5
 5
 5
 5
 5
 5
 5
 5
 5
 5
 5
 5
 5
 5
 5
 5
 5
 5
 5
 5
 5
 5
 5
 5
 5
 5
 5
 5
 5
 5
 5
 5
 5
 5
 5
 5
 5
 5
 5
 5
 5
 5
 5
 5
 5

POINT_DATA 11732
VECTORS disp float
0.000000 -0.001803 0.000000
0.000000 -0.000478 0.000000
0.000000 -0.001306 0.000000
0.001823 -0.000795 0.000000
0.000935 -0.010103 0.000000
0.000000 -0.010531 0.000000
0.000507 -0.008093 0.000000
0.000520 -0.007659 0.000000
0.000628 -0.006984 0.000000
0.000527 -0.007038 0.000000
0.000192 -0.007176 0.000000
0.000228 -0.007533 0.000000
0.000315 -0.007476 0.000000
0.000283 -0.007919 0.000000
0.000352 -0.007981 0.000000
0.000385 -0.008133 0.000000
0.003176 -0.007037 0.000000
0.003384 -0.006522 0.000000
0.003620 -0.006415 0.000000
0.003129 -0.006692 0.000000
0.002904 -0.007404 0.000000
0.002817 -0.008172 0.000000
0.002665 -0.008112 0.000000
0.002817 -0.007467 0.000000
0.000845 -0.001457 0.000000
0.002009 -0.002535 0.000000
0.002621 -0.003003 0.000000
0.002724 -0.003022 0.000000
0.002838 -0.002964 0.000000
0.002988 -0.002855 0.000000
0.002811 -0.002639 0.000000
0.002694 -0.002477 0.000000
0.002493 -0.002142 0.000000
0.002455 -0.002389 0.000000
0.001236 -0.004139 0.000000
0.000647 -0.004600 0.000000
0.000374 -0.003965 0.000000
0.000263 -0.005720 0.000000
0.000215 -0.006936 0.000000
0.000631 -0.007428 0.000000
0.001309 -0.008006 0.000000
0.001907 -0.006982 0.000000
0.002301 -0.006909 0.000000
0.001964 -0.005783 0.000000
0.001459 -0.004763 0.000000
0.001383 -0.010472 0.000000
0.001426 -0.010277 0.000000
0.001155 -0.009835 0.000000
0.000790 -0.009718 0.000000
0.000580 -0.009775 0.000000
0.000680 -0.009904 0.000000
0.000750 -0.010111 0.000000
0.000882 -0.010383 0.000000
0.001165 -0.010490 0.000000
0.001277 -0.010570 0.000000
0.000462 -0.005816 0.000000
0.000376 -0.005318 0.000000
-0.000136 -0.005073 0.000000
-0.000340 -0.005635 0.000000
-0.000303 -0.006230 0.000000
-0.000205 -0.006764 0.000000
0.000048 -0.006986 0.000000
0.000323 -0.007023 0.000000
0.000443 -0.006487 0.000000
0.003339 -0.004883 0.000000
0.003350 -0.005061 0.000000
0.003359 -0.005324 0.000000
0.003201 -0.005234 0.000000
0.003075 -0.005302 0.000000
0.003173 -0.005130 0.000000
0.003173 -0.004769 0.000000
0.003269 -0.004525 0.000000
0.003266 -0.004522 0.000000
0.003351 -0.004404 0.000000
0.003423 -0.004539 0.000000
0.003342 -0.004590 0.000000
0.001729 -0.003394 0.000000
0.001099 -0.002338 0.000000
0.001024 -0.002878 0.000000
0.001174 -0.003908 0.000000
0.001531 -0.004103 0.000000
0.001723 -0.004227 0.000000
0.002098 -0.004747 0.000000
0.001776 -0.003908 0.000000
0.000399 -0.008773 0.000000
0.000380 -0.008777 0.000000
0.000381 -0.009085 0.000000
0.000393 -0.009351 0.000000
0.000532 -0.009617 0.000000
0.000745 -0.009496 0.000000
0.000699 -0.009538 0.000000
0.000609 -0.009315 0.000000
0.000617 -0.008902 0.000000
0.000994 -0.002058 0.000000
0.001019 -0.002319 0.000000
0.000946 -0.002086 0.000000
0.001186 -0.002703 0.000000
0.001697 -0.003297 0.000000
0.002147 -0.003522 0.000000
0.002468 -0.003641 0.000000
0.002530 -0.003465 0.000000
0.002461 -0.003605 0.000000
0.001734 -0.003005 0.000000
0.001229 -0.002367 0.000000
0.000711 -0.005772 0.000000
0.000782 -0.005254 0.000000
0.000427 -0.005783 0.000000
0.000067 -0.005528 0.000000
0.000161 -0.006397 0.000000
0.000071 -0.006765 0.000000
-0.000056 -0.007160 0.000000
0.000049 -0.007157 0.000000
0.000291 -0.006988 0.000000
0.000447 -0.006443 0.000000
0.000540 -0.006116 0.000000
0.000125 -0.000957 0.000000
0.000108 -0.000904 0.000000
0.000111 -0.000862 0.000000
0.000137 -0.000891 0.000000
0.000164 -0.000952 0.000000
0.000174 -0.000980 0.000000
0.000165 -0.000974 0.000000
0.000164 -0.000972 0.000000
0.000158 -0.000988 0.000000
0.001768 -0.001103 0.000000
0.001324 -0.000902 0.000000
0.001166 -0.000939 0.000000
0.001927 -0.001579 0.000000
0.002164 -0.001846 0.000000
0.002378 -0.001486 0.000000
0.002292 -0.001147 0.000000
0.001823 -0.001023 0.000000
0.000256 -0.009844 0.000000
0.000222 -0.009938 0.000000
0.000164 -0.010003 0.000000
0.000214 -0.010004 0.000000
0.000271 -0.009949 0.000000
0.000322 -0.009948 0.000000
0.000382 -0.009930 0.000000
0.000367 -0.009850 0.000000
0.000368 -0.009769 0.000000
0.000364 -0.009745 0.000000
0.000303 -0.009726 0.000000
0.000304 -0.009798 0.000000
0.002189 -0.009410 0.000000
0.002610 -0.008937 0.000000
0.002541 -0.008905 0.000000
0.002461 -0.009098 0.000000
0.002333 -0.009298 0.000000
0.002018 -0.009688 0.000000
0.001344 -0.010059 0.000000
0.001388 -0.010361 0.000000
0.001364 -0.010474 0.000000
0.001487 -0.010290 0.000000
0.001893 -0.009785 0.000000
0.001261 -0.000923 0.000000
0.001099 -0.000852 0.000000
0.000806 -0.000587 0.000000
0.001315 -0.000743 0.000000
0.001566 -0.000918 0.000000
0.001511 -0.000767 0.000000
0.001536 -0.000819 0.000000
0.001412 -0.000920 0.000000
0.000309 -0.000980 0.000000
0.000327 -0.000975 0.000000
0.000354 -0.000991 0.000000
0.000367 -0.001008 0.000000
0.000355 -0.001035 0.000000
0.000334 -0.001046 0.000000
0.000304 -0.001049 0.000000
0.000306 -0.001018 0.000000
0.000787 -0.000894 0.000000
0.000799 -0.000846 0.000000
0.000851 -0.000878 0.000000
0.000857 -0.000901 0.000000
0.000840 -0.000919 0.000000
0.000814 -0.000933 0.000000
0.000796 -0.000926 0.000000
0.000779 -0.000909 0.000000
0.000003 -0.000544 0.000000
0.000047 -0.000637 0.000000
0.000063 -0.000694 0.000000
0.000066 -0.000690 0.000000
0.000070 -0.000742 0.000000
0.000067 -0.000726 0.000000
0.000079 -0.000758 0.000000
0.000056 -0.000691 0.000000
0.000060 -0.000654 0.000000
0.000053 -0.000588 0.000000
0.000043 -0.000614 0.000000
0.000526 -0.003008 0.000000
0.000258 -0.003254 0.000000
0.000129 -0.003352 0.000000
0.000176 -0.003656 0.000000
0.000243 -0.003860 0.000000
0.000530 -0.004270 0.000000
0.000531 -0.004005 0.000000
0.000496 -0.003555 0.000000
0.000273 -0.002210 0.000000
0.000241 -0.001870 0.000000
0.000287 -0.001470 0.000000
0.000009 -0.002060 0.000000
-0.000068 -0.002104 0.000000
-0.000112 -0.002394 0.000000
-0.000185 -0.002583 0.000000
-0.000115 -0.002631 0.000000
0.000043 -0.002662 0.000000
0.000310 -0.002809 0.000000
0.000326 -0.002485 0.000000
0.000301 -0.008391 0.000000
0.000379 -0.008166 0.000000
0.000352 -0.007949 0.000000
0.000106 -0.007953 0.000000
-0.000137 -0.008051 0.000000
-0.000118 -0.008354 0.000000
-0.000103 -0.008586 0.000000
0.000102 -0.008542 0.000000
0.000234 -0.008603 0.000000
0.000413 -0.000796 0.000000
0.000777 -0.001229 0.000000
0.001142 -0.001496 0.000000
0.001451 -0.001547 0.000000
0.001715 -0.001634 0.000000
0.002133 -0.002149 0.000000
0.001650 -0.001723 0.000000
0.001355 -0.001569 0.000000
0.001068 -0.001268 0.000000
0.000759 -0.000904 0.000000
0.000446 -0.000551 0.000000
0.000247 -0.008678 0.000000
0.000309 -0.008742 0.000000
0.000369 -0.008775 0.000000
0.000416 -0.008824 0.000000
0.000434 -0.008874 0.000000
0.000503 -0.008992 0.000000
0.000604 -0.009130 0.000000
0.000461 -0.008987 0.000000
0.000408 -0.008968 0.000000
0.000361 -0.008878 0.000000
0.000336 -0.008811 0.000000
0.000514 -0.004269 0.000000
0.000503 -0.004081 0.000000
0.000441 -0.003978 0.000000
0.000372 -0.003829 0.000000
0.000074 -0.003435 0.000000
0.000058 -0.004014 0.000000
0.000096 -0.004388 0.000000
0.000141 -0.004751 0.000000
0.000489 -0.004447 0.000000
0.000865 -0.010317 0.000000
0.000831 -0.010259 0.000000
0.000797 -0.010200 0.000000
0.000815 -0.010144 0.000000
0.000845 -0.010068 0.000000
0.000869 -0.010140 0.000000
0.000873 -0.010234 0.000000
0.000941 -0.010249 0.000000
0.000989 -0.010278 0.000000
0.000935 -0.010309 0.000000
0.003118 -0.003936 0.000000
0.003199 -0.003944 0.000000
0.003212 -0.003892 0.000000
0.003213 -0.004148 0.000000
0.003187 -0.004326 0.000000
0.003159 -0.004499 0.000000
0.003157 -0.004655 0.000000
0.003096 -0.004598 0.000000
0.003042 -0.004588 0.000000
0.002964 -0.004484 0.000000
0.003012 -0.004254 0.000000
0.003064 -0.004109 0.000000
0.000122 -0.008015 0.000000
0.000152 -0.008297 0.000000
0.000242 -0.008377 0.000000
0.000327 -0.008497 0.000000
0.000391 -0.008572 0.000000
0.000425 -0.008640 0.000000
0.000428 -0.008589 0.000000
0.000437 -0.008503 0.000000
0.000478 -0.008342 0.000000
0.000473 -0.008083 0.000000
0.000184 -0.009595 0.000000
-0.000036 -0.009298 0.000000
-0.000063 -0.009517 0.000000
-0.000029 -0.009784 0.000000
0.000025 -0.010100 0.000000
0.000187 -0.009972 0.000000
0.000282 -0.009888 0.000000
0.000285 -0.009763 0.000000
0.003241 -0.005319 0.000000
0.003188 -0.005405 0.000000
0.003095 -0.005549 0.000000
0.003013 -0.005888 0.000000
0.002932 -0.006245 0.000000
0.002829 -0.006251 0.000000
0.002839 -0.005897 0.000000
0.002938 -0.005586 0.000000
0.003083 -0.005421 0.000000
0.003238 -0.005352 0.000000
0.000203 -0.000567 0.000000
0.000190 -0.000517 0.000000
0.000167 -0.000533 0.000000
0.000142 -0.000558 0.000000
0.000165 -0.000609 0.000000
0.000195 -0.000650 0.000000
0.000217 -0.000679 0.000000
0.000239 -0.000725 0.000000
0.000241 -0.000725 0.000000
0.000227 -0.000649 0.000000
0.003041 -0.007507 0.000000
0.003139 -0.007726 0.000000
0.003015 -0.007976 0.000000
0.002869 -0.008207 0.000000
0.002589 -0.008328 0.000000
0.002270 -0.008410 0.000000
0.002201 -0.008098 0.000000
0.002100 -0.007891 0.000000
0.002330 -0.007720 0.000000
0.002445 -0.007448 0.000000
0.002770 -0.007412 0.000000
0.000250 -0.000401 0.000000
0.000206 -0.000483 0.000000
0.000060 -0.000309 0.000000
0.000253 -0.000486 0.000000
0.000396 -0.000580 0.000000
0.000457 -0.000621 0.000000
0.000520 -0.000696 0.000000
0.000472 -0.000725 0.000000
0.000457 -0.000780 0.000000
0.000412 -0.000694 0.000000
0.000361 -0.000571 0.000000
0.000507 -0.001719 0.000000
0.000323 -0.001762 0.000000
0.000115 -0.001897 0.000000
-0.000023 -0.002115 0.000000
-0.000179 -0.002339 0.000000
-0.000367 -0.002933 0.000000
-0.000096 -0.003394 0.000000
0.000435 -0.003529 0.000000
0.000809 -0.003297 0.000000
0.000608 -0.002454 0.000000
0.001851 -0.008860 0.000000
0.002243 -0.008775 0.000000
0.002638 -0.008907 0.000000
0.002463 -0.009351 0.000000
0.002143 -0.009656 0.000000
0.001877 -0.009886 0.000000
0.001480 -0.009950 0.000000
0.001660 -0.009308 0.000000
0.000396 -0.008585 0.000000
0.000338 -0.008606 0.000000
0.000292 -0.008745 0.000000
0.000293 -0.008736 0.000000
0.000338 -0.008782 0.000000
0.000365 -0.008857 0.000000
0.000423 -0.008952 0.000000
0.000577 -0.009155 0.000000
0.000739 -0.009321 0.000000
0.000527 -0.008951 0.000000
0.000476 -0.008665 0.000000
0.000090 -0.001199 0.000000
0.000064 -0.001186 0.000000
0.000058 -0.001144 0.000000
0.000065 -0.001105 0.000000
0.000086 -0.001099 0.000000
0.000106 -0.001118 0.000000
0.000118 -0.001132 0.000000
0.000121 -0.001153 0.000000
0.000111 -0.001175 0.000000
0.002590 -0.002366 0.000000
0.002620 -0.002444 0.000000
0.002678 -0.002501 0.000000
0.002632 -0.002159 0.000000
0.002599 -0.001854 0.000000
0.002665 -0.001747 0.000000
0.002563 -0.001679 0.000000
0.002563 -0.001991 0.000000
0.000167 -0.008953 0.000000
0.000266 -0.009247 0.000000
0.000265 -0.009317 0.000000
0.000285 -0.009421 0.000000
0.000331 -0.009521 0.000000
0.000380 -0.009481 0.000000
0.000432 -0.009384 0.000000
0.000460 -0.009324 0.000000
0.000506 -0.009277 0.000000
0.000529 -0.009151 0.000000
0.000444 -0.009161 0.000000
0.000352 -0.009124 0.000000
0.000658 -0.010324 0.000000
0.000690 -0.010197 0.000000
0.000648 -0.009965 0.000000
0.000412 -0.010010 0.000000
0.000345 -0.010000 0.000000
0.000387 -0.009997 0.000000
0.000426 -0.010048 0.000000
0.000519 -0.010140 0.000000
0.000614 -0.010273 0.000000
0.000769 -0.001766 0.000000
0.000553 -0.001532 0.000000
0.000430 -0.001294 0.000000
0.000290 -0.001023 0.000000
0.000171 -0.001098 0.000000
0.000064 -0.001456 0.000000
-0.000015 -0.001996 0.000000
0.000186 -0.001825 0.000000
0.000576 -0.002013 0.000000
0.003019 -0.003610 0.000000
0.003059 -0.003782 0.000000
0.003005 -0.003788 0.000000
0.002991 -0.003814 0.000000
0.003014 -0.003829 0.000000
0.002996 -0.003582 0.000000
0.003013 -0.003450 0.000000
0.003031 -0.003373 0.000000
0.003007 -0.003301 0.000000
0.002995 -0.003353 0.000000
0.000396 -0.003231 0.000000
0.000392 -0.003040 0.000000
0.000344 -0.002463 0.000000
0.000026 -0.002839 0.000000
-0.000009 -0.002823 0.000000
0.000108 -0.003261 0.000000
0.000179 -0.003766 0.000000
0.000393 -0.003855 0.000000
0.000390 -0.003533 0.000000
0.000423 -0.003638 0.000000
0.000407 -0.003434 0.000000
0.000293 -0.005817 0.000000
0.000237 -0.005716 0.000000
0.000284 -0.005774 0.000000
0.000328 -0.005934 0.000000
0.000331 -0.005975 0.000000
0.000345 -0.006150 0.000000
0.003059 -0.003032 0.000000
0.002934 -0.003129 0.000000
0.002966 -0.003380 0.000000
0.003066 -0.003454 0.000000
0.003094 -0.003257 0.000000
0.003095 -0.003122 0.000000
0.002062 -0.001697 0.000000
0.001677 -0.001484 0.000000
0.002109 -0.001813 0.000000
0.002175 -0.001840 0.000000
0.002133 -0.001767 0.000000
0.002113 -0.001736 0.000000
0.000104 -0.001529 0.000000
0.000169 -0.000652 0.000000
-0.000296 -0.000643 0.000000
-0.000572 -0.001635 0.000000
-0.000565 -0.002287 0.000000
-0.000212 -0.002075 0.000000
0.000433 -0.000926 0.000000
0.000440 -0.000873 0.000000
0.000482 -0.000878 0.000000
0.000520 -0.000927 0.000000
0.000501 -0.000956 0.000000
0.000457 -0.000961 0.000000
0.001249 -0.010756 0.000000
0.001280 -0.010753 0.000000
0.001287 -0.010772 0.000000
0.001265 -0.010804 0.000000
0.001234 -0.010813 0.000000
0.001234 -0.010784 0.000000
0.000623 -0.000986 0.000000
0.000597 -0.000996 0.000000
0.000560 -0.000972 0.000000
0.000603 -0.000949 0.000000
0.000643 -0.000943 0.000000
0.000637 -0.000956 0.000000
0.002059 -0.006129 0.000000
0.002064 -0.006239 0.000000
0.002050 -0.006281 0.000000
0.002289 -0.006469 0.000000
0.002336 -0.006335 0.000000
0.002145 -0.005957 0.000000
0.000409 -0.002576 0.000000
0.000378 -0.001972 0.000000
0.000181 -0.001567 0.000000
-0.000128 -0.001504 0.000000
-0.000039 -0.001866 0.000000
0.000053 -0.002155 0.000000
0.000266 -0.000246 0.000000
0.000380 -0.000272 0.000000
0.000591 -0.000374 0.000000
0.000615 -0.000447 0.000000
0.000577 -0.000516 0.000000
0.000456 -0.000409 0.000000
0.001050 -0.010672 0.000000
0.001000 -0.010568 0.000000
0.001094 -0.010591 0.000000
0.001184 -0.010646 0.000000
0.001178 -0.010710 0.000000
0.001138 -0.010756 0.000000
0.001253 -0.010697 0.000000
0.001185 -0.010640 0.000000
0.001133 -0.010679 0.000000
0.001165 -0.010767 0.000000
0.001208 -0.010820 0.000000
0.001240 -0.010791 0.000000
0.001751 -0.001759 0.000000
0.001129 -0.001303 0.000000
0.001065 -0.001399 0.000000
0.001558 -0.001932 0.000000
0.002188 -0.002324 0.000000
0.002297 -0.002174 0.000000
0.001699 -0.004796 0.000000
0.001849 -0.004855 0.000000
0.001981 -0.004991 0.000000
0.002315 -0.005428 0.000000
0.002362 -0.005271 0.000000
0.002048 -0.004658 0.000000
0.000052 -0.000537 0.000000
0.000070 -0.000483 0.000000
0.000084 -0.000395 0.000000
0.000052 -0.000500 0.000000
0.000037 -0.000564 0.000000
0.000027 -0.000550 0.000000
0.001212 -0.000631 0.000000
0.000633 -0.000426 0.000000
0.000792 -0.000511 0.000000
0.001303 -0.000710 0.000000
0.001389 -0.000676 0.000000
0.001338 -0.000676 0.000000
0.002990 -0.004917 0.000000
0.003140 -0.004870 0.000000
0.003187 -0.005046 0.000000
0.003070 -0.005214 0.000000
0.002914 -0.005203 0.000000
0.002859 -0.005040 0.000000
0.000630 -0.009607 0.000000
0.000510 -0.009617 0.000000
0.000433 -0.009490 0.000000
0.000446 -0.009373 0.000000
0.000540 -0.009362 0.000000
0.000610 -0.009452 0.000000
0.000120 -0.000550 0.000000
0.000106 -0.000494 0.000000
0.000098 -0.000399 0.000000
0.000087 -0.000453 0.000000
0.000107 -0.000499 0.000000
0.000107 -0.000521 0.000000
0.002362 -0.002875 0.000000
0.002626 -0.003248 0.000000
0.002979 -0.003625 0.000000
0.003001 -0.003426 0.000000
0.002838 -0.003201 0.000000
0.002734 -0.003100 0.000000
0.002167 -0.005342 0.000000
0.002128 -0.005216 0.000000
0.001975 -0.005009 0.000000
0.002042 -0.005435 0.000000
0.002168 -0.005527 0.000000
0.002303 -0.005589 0.000000
0.000034 -0.007855 0.000000
0.000088 -0.007893 0.000000
0.000097 -0.007957 0.000000
0.000192 -0.008103 0.000000
0.000140 -0.008008 0.000000
0.000047 -0.007876 0.000000
0.001281 -0.010726 0.000000
0.001300 -0.010696 0.000000
0.001328 -0.010681 0.000000
0.001291 -0.010684 0.000000
0.001283 -0.010725 0.000000
0.001265 -0.010757 0.000000
0.000003 -0.010184 0.000000
-0.000005 -0.010288 0.000000
0.000016 -0.010364 0.000000
0.000053 -0.010342 0.000000
0.000096 -0.010282 0.000000
0.000160 -0.010210 0.000000
0.002792 -0.008360 0.000000
0.002504 -0.007994 0.000000
0.002459 -0.008470 0.000000
0.002425 -0.008913 0.000000
0.002541 -0.008703 0.000000
0.002712 -0.008430 0.000000
0.000517 -0.001143 0.000000
0.000168 -0.000562 0.000000
-0.000033 -0.000755 0.000000
0.000139 -0.001215 0.000000
0.000478 -0.001648 0.000000
0.000706 -0.001668 0.000000
0.000068 -0.000719 0.000000
0.000057 -0.000676 0.000000
0.000057 -0.000625 0.000000
0.000044 -0.000607 0.000000
0.000368 -0.003221 0.000000
0.000178 -0.003333 0.000000
0.000163 -0.003538 0.000000
0.000182 -0.003733 0.000000
0.000242 -0.002044 0.000000
0.000306 -0.002330 0.000000
0.000264 -0.001650 0.000000
-0.000016 -0.002118 0.000000
-0.000160 -0.002474 0.000000
-0.000168 -0.002586 0.000000
-0.000040 -0.002627 0.000000
0.000161 -0.002703 0.000000
0.000317 -0.002650 0.000000
0.001520 -0.001623 0.000000
0.000277 -0.008723 0.000000
0.000322 -0.008766 0.000000
0.000342 -0.008761 0.000000
0.000394 -0.008800 0.000000
0.000422 -0.008842 0.000000
0.000430 -0.008975 0.000000
0.000346 -0.008843 0.000000
0.000514 -0.004183 0.000000
0.000481 -0.004051 0.000000
0.000405 -0.003933 0.000000
0.000091 -0.004202 0.000000
0.000849 -0.010291 0.000000
0.000814 -0.010230 0.000000
0.000806 -0.010175 0.000000
0.000868 -0.010188 0.000000
0.000908 -0.010239 0.000000
0.003167 -0.003942 0.000000
0.003091 -0.004018 0.000000
0.003210 -0.003920 0.000000
0.003218 -0.004029 0.000000
0.003203 -0.004243 0.000000
0.003162 -0.004416 0.000000
0.003165 -0.004591 0.000000
0.003126 -0.004628 0.000000
0.003071 -0.004594 0.000000
0.003001 -0.004537 0.000000
0.002985 -0.004368 0.000000
0.003038 -0.004183 0.000000
0.000128 -0.008168 0.000000
0.000280 -0.008089 0.000000
0.000197 -0.008351 0.000000
0.000287 -0.008437 0.000000
0.000359 -0.008530 0.000000
0.000407 -0.008593 0.000000
0.000427 -0.008607 0.000000
0.000442 -0.008543 0.000000
0.000435 -0.008447 0.000000
0.000243 -0.009910 0.000000
0.003220 -0.005365 0.000000
0.003257 -0.005351 0.000000
0.003147 -0.005474 0.000000
0.002968 -0.006065 0.000000
0.002901 -0.006255 0.000000
0.002834 -0.006048 0.000000
0.002888 -0.005730 0.000000
0.003016 -0.005483 0.000000
0.003168 -0.005395 0.000000
0.000182 -0.000527 0.000000
0.000155 -0.000551 0.000000
0.000177 -0.000629 0.000000
0.000205 -0.000663 0.000000
0.000227 -0.000698 0.000000
0.002236 -0.008244 0.000000
0.002147 -0.007991 0.000000
0.000226 -0.000442 0.000000
0.000427 -0.000589 0.000000
0.000489 -0.000656 0.000000
0.000496 -0.000707 0.000000
0.000458 -0.000751 0.000000
0.000432 -0.000741 0.000000
0.000391 -0.000633 0.000000
0.000415 -0.001810 0.000000
0.000233 -0.001827 0.000000
0.000034 -0.002043 0.000000
-0.000071 -0.002221 0.000000
-0.000281 -0.002599 0.000000
-0.000279 -0.003118 0.000000
0.000182 -0.003460 0.000000
0.000368 -0.008610 0.000000
0.000421 -0.008619 0.000000
0.000308 -0.008693 0.000000
0.000288 -0.008755 0.000000
0.000312 -0.008763 0.000000
0.000349 -0.008817 0.000000
0.000386 -0.008895 0.000000
0.000496 -0.009051 0.000000
0.000636 -0.009220 0.000000
0.000611 -0.009146 0.000000
0.000507 -0.008806 0.000000
0.000120 -0.001142 0.000000
0.000116 -0.001163 0.000000
0.002653 -0.002469 0.000000
0.000202 -0.009102 0.000000
0.000280 -0.009110 0.000000
0.000258 -0.009298 0.000000
0.000270 -0.009360 0.000000
0.000309 -0.009468 0.000000
0.000359 -0.009507 0.000000
0.000409 -0.009430 0.000000
0.000447 -0.009348 0.000000
0.000485 -0.009311 0.000000
0.000523 -0.009219 0.000000
0.000487 -0.009160 0.000000
0.000398 -0.009150 0.000000
0.000658 -0.010281 0.000000
0.000630 -0.010300 0.000000
0.000677 -0.010091 0.000000
0.000465 -0.010081 0.000000
0.000654 -0.001610 0.000000
0.000696 -0.001863 0.000000
0.000508 -0.001442 0.000000
0.000363 -0.001163 0.000000
0.000244 -0.001044 0.000000
0.000114 -0.001295 0.000000
0.000026 -0.001674 0.000000
0.003040 -0.003721 0.000000
0.003010 -0.003476 0.000000
0.002995 -0.003799 0.000000
0.002990 -0.003821 0.000000
0.003005 -0.003722 0.000000
0.002998 -0.003488 0.000000
0.003029 -0.003412 0.000000
0.003022 -0.003338 0.000000
0.002994 -0.003326 0.000000
0.000399 -0.003153 0.000000
0.000397 -0.003335 0.000000
0.000374 -0.002797 0.000000
0.000032 -0.003020 0.000000
0.000138 -0.003517 0.000000
0.000272 -0.003811 0.000000
0.000388 -0.003580 0.000000
0.000436 -0.003505 0.000000
0.000277 -0.005788 0.000000
0.000254 -0.005767 0.000000
0.000313 -0.005853 0.000000
0.000327 -0.005939 0.000000
0.000338 -0.005993 0.000000
0.003003 -0.003097 0.000000
0.002946 -0.003249 0.000000
0.003083 -0.003337 0.000000
0.003096 -0.003184 0.000000
0.002113 -0.001726 0.000000
0.002158 -0.001843 0.000000
0.002156 -0.001787 0.000000
0.002132 -0.001752 0.000000
0.000439 -0.000907 0.000000
0.000457 -0.000878 0.000000
0.000499 -0.000906 0.000000
0.000510 -0.000940 0.000000
0.000481 -0.000959 0.000000
0.001264 -0.010755 0.000000
0.001283 -0.010765 0.000000
0.001250 -0.010809 0.000000
0.001234 -0.010797 0.000000
0.000612 -0.000991 0.000000
0.002053 -0.006199 0.000000
0.002078 -0.006092 0.000000
0.002045 -0.006250 0.000000
0.002075 -0.006285 0.000000
0.002311 -0.006425 0.000000
0.002233 -0.006114 0.000000
0.000402 -0.002261 0.000000
0.000276 -0.001772 0.000000
0.001024 -0.010629 0.000000
0.001048 -0.010583 0.000000
0.001145 -0.010624 0.000000
0.001182 -0.010676 0.000000
0.001156 -0.010735 0.000000
0.001224 -0.010677 0.000000
0.001252 -0.010753 0.000000
0.001156 -0.010663 0.000000
0.001147 -0.010730 0.000000
0.001190 -0.010794 0.000000
0.001220 -0.010805 0.000000
0.002267 -0.002206 0.000000
0.000065 -0.000503 0.000000
0.000036 -0.000533 0.000000
0.000077 -0.000448 0.000000
0.000046 -0.000530 0.000000
0.000026 -0.000548 0.000000
0.001357 -0.000679 0.000000
0.001364 -0.000655 0.000000
0.003068 -0.004896 0.000000
0.002926 -0.004978 0.000000
0.002992 -0.005208 0.000000
0.002885 -0.005119 0.000000
0.000470 -0.009558 0.000000
0.000440 -0.009441 0.000000
0.000488 -0.009372 0.000000
0.000575 -0.009408 0.000000
0.000116 -0.000520 0.000000
0.000098 -0.000450 0.000000
0.002154 -0.005301 0.000000
0.002078 -0.005121 0.000000
0.002118 -0.005487 0.000000
0.002213 -0.005476 0.000000
0.000057 -0.007887 0.000000
0.000085 -0.007919 0.000000
0.001290 -0.010711 0.000000
0.001312 -0.010692 0.000000
0.001286 -0.010708 0.000000
0.001277 -0.010743 0.000000
0.000005 -0.010325 0.000000
0.002491 -0.008802 0.000000
0.000371 -0.000892 0.000000
0.000628 -0.001398 0.000000
0.000046 -0.000717 0.000000
0.000022 -0.000991 0.000000
0.000246 -0.001348 0.000000
0.000594 -0.001590 0.000000
0.000000 0.000000 0.000000
0.000000 -0.010528 0.000000
0.000000 -0.000355 0.000000
0.000035 -0.001300 0.000000
0.001950 -0.000841 0.000000
0.000950 -0.010231 0.000000
0.000485 -0.008032 0.000000
0.000413 -0.008112 0.000000
0.000533 -0.007543 0.000000
0.000627 -0.007087 0.000000
0.000508 -0.007056 0.000000
0.000189 -0.007274 0.000000
0.000235 -0.007551 0.000000
0.000328 -0.007570 0.000000
0.000326 -0.007895 0.000000
0.000342 -0.007996 0.000000
0.003200 -0.006955 0.000000
0.002855 -0.007390 0.000000
0.003431 -0.006534 0.000000
0.003588 -0.006518 0.000000
0.003099 -0.006776 0.000000
0.002889 -0.007538 0.000000
0.002798 -0.008144 0.000000
0.002683 -0.008019 0.000000
0.001016 -0.001646 0.000000
0.002412 -0.002367 0.000000
0.002141 -0.002653 0.000000
0.002595 -0.002907 0.000000
0.002830 -0.003056 0.000000
0.002823 -0.002937 0.000000
0.002955 -0.002815 0.000000
0.002810 -0.002606 0.000000
0.002631 -0.002448 0.000000
0.002512 -0.002223 0.000000
0.001147 -0.004212 0.000000
0.001391 -0.004699 0.000000
0.000600 -0.004617 0.000000
0.000441 -0.004203 0.000000
0.000208 -0.005985 0.000000
0.000229 -0.006949 0.000000
0.000728 -0.007488 0.000000
0.001374 -0.007860 0.000000
0.001984 -0.006910 0.000000
0.002229 -0.006771 0.000000
0.001867 -0.005587 0.000000
0.001405 -0.010435 0.000000
0.001276 -0.010566 0.000000
0.001405 -0.010200 0.000000
0.001036 -0.009808 0.000000
0.000800 -0.009691 0.000000
0.000575 -0.009859 0.000000
0.000696 -0.009949 0.000000
0.000775 -0.010160 0.000000
0.000940 -0.010365 0.000000
0.001213 -0.010529 0.000000
0.000474 -0.005801 0.000000
0.000476 -0.006375 0.000000
0.000309 -0.005203 0.000000
-0.000191 -0.005240 0.000000
-0.000364 -0.005732 0.000000
-0.000296 -0.006286 0.000000
-0.000175 -0.006739 0.000000
0.000095 -0.006988 0.000000
0.000318 -0.006941 0.000000
0.003338 -0.004952 0.000000
0.003348 -0.004665 0.000000
0.003353 -0.005112 0.000000
0.003319 -0.005281 0.000000
0.003175 -0.005245 0.000000
0.003088 -0.005274 0.000000
0.003173 -0.005035 0.000000
0.003201 -0.004718 0.000000
0.003294 -0.004540 0.000000
0.003276 -0.004493 0.000000
0.003377 -0.004458 0.000000
0.003414 -0.004544 0.000000
0.001687 -0.003282 0.000000
0.001766 -0.003823 0.000000
0.001038 -0.002575 0.000000
0.001006 -0.003042 0.000000
0.001201 -0.003889 0.000000
0.001579 -0.004103 0.000000
0.001751 -0.004230 0.000000
0.002041 -0.004553 0.000000
0.000387 -0.008787 0.000000
0.000559 -0.008949 0.000000
0.000386 -0.008841 0.000000
0.000385 -0.009149 0.000000
0.000412 -0.009389 0.000000
0.000612 -0.009542 0.000000
0.000749 -0.009490 0.000000
0.000668 -0.009492 0.000000
0.000602 -0.009252 0.000000
0.001010 -0.002107 0.000000
0.001177 -0.002330 0.000000
0.001003 -0.002329 0.000000
0.001037 -0.002205 0.000000
0.001243 -0.002791 0.000000
0.001856 -0.003363 0.000000
0.002223 -0.003529 0.000000
0.002481 -0.003590 0.000000
0.002542 -0.003430 0.000000
0.002326 -0.003494 0.000000
0.001608 -0.002883 0.000000
0.000739 -0.005653 0.000000
0.000586 -0.006065 0.000000
0.000590 -0.005464 0.000000
0.000380 -0.005780 0.000000
0.000093 -0.005721 0.000000
0.000193 -0.006483 0.000000
0.000005 -0.006843 0.000000
-0.000008 -0.007142 0.000000
0.000089 -0.007095 0.000000
0.000337 -0.006844 0.000000
0.000480 -0.006329 0.000000
0.000123 -0.000949 0.000000
0.000152 -0.000986 0.000000
0.000110 -0.000901 0.000000
0.000115 -0.000870 0.000000
0.000140 -0.000903 0.000000
0.000166 -0.000959 0.000000
0.000171 -0.000978 0.000000
0.000164 -0.000972 0.000000
0.000164 -0.000974 0.000000
0.001746 -0.001100 0.000000
0.001822 -0.001068 0.000000
0.001309 -0.000888 0.000000
0.001273 -0.001041 0.000000
0.001943 -0.001594 0.000000
0.002162 -0.001789 0.000000
0.002357 -0.001401 0.000000
0.002252 -0.001144 0.000000
0.000253 -0.009871 0.000000
0.000298 -0.009817 0.000000
0.000203 -0.009955 0.000000
0.000180 -0.009997 0.000000
0.000237 -0.009978 0.000000
0.000284 -0.009944 0.000000
0.000338 -0.009939 0.000000
0.000378 -0.009900 0.000000
0.000361 -0.009822 0.000000
0.000372 -0.009781 0.000000
0.000332 -0.009705 0.000000
0.000298 -0.009758 0.000000
0.002262 -0.009333 0.000000
0.001977 -0.009679 0.000000
0.002607 -0.008946 0.000000
0.002528 -0.008961 0.000000
0.002395 -0.009109 0.000000
0.002270 -0.009397 0.000000
0.001909 -0.009769 0.000000
0.001374 -0.010166 0.000000
0.001380 -0.010381 0.000000
0.001380 -0.010438 0.000000
0.001551 -0.010197 0.000000
0.001234 -0.000911 0.000000
0.001389 -0.000923 0.000000
0.001090 -0.000828 0.000000
0.000939 -0.000635 0.000000
0.001355 -0.000776 0.000000
0.001522 -0.000815 0.000000
0.001513 -0.000774 0.000000
0.001521 -0.000833 0.000000
0.000315 -0.000978 0.000000
0.000308 -0.001006 0.000000
0.000337 -0.000983 0.000000
0.000357 -0.000995 0.000000
0.000364 -0.001014 0.000000
0.000348 -0.001040 0.000000
0.000324 -0.001048 0.000000
0.000307 -0.001044 0.000000
0.000794 -0.000886 0.000000
0.000782 -0.000905 0.000000
0.000814 -0.000862 0.000000
0.000851 -0.000884 0.000000
0.000851 -0.000907 0.000000
0.000832 -0.000924 0.000000
0.000813 -0.000932 0.000000
0.000793 -0.000921 0.000000
0.000024 -0.000587 0.000000
0.000041 -0.000605 0.000000
0.000052 -0.000660 0.000000
0.000066 -0.000681 0.000000
0.000068 -0.000704 0.000000
0.000070 -0.000734 0.000000
0.000069 -0.000731 0.000000
0.000504 -0.003394 0.000000
0.000325 -0.003974 0.000000
0.000536 -0.004139 0.000000
0.000512 -0.003869 0.000000
0.000120 -0.001721 0.000000
-0.000092 -0.002229 0.000000
0.000324 -0.008319 0.000000
0.000245 -0.008545 0.000000
0.000399 -0.008162 0.000000
0.000292 -0.007939 0.000000
0.000039 -0.007993 0.000000
-0.000133 -0.008140 0.000000
-0.000118 -0.008400 0.000000
-0.000055 -0.008551 0.000000
0.000141 -0.008549 0.000000
0.000521 -0.000940 0.000000
0.000444 -0.000642 0.000000
0.000884 -0.001302 0.000000
0.001242 -0.001470 0.000000
0.001511 -0.001550 0.000000
0.001811 -0.001682 0.000000
0.001942 -0.001970 0.000000
0.001277 -0.001487 0.000000
0.000970 -0.001148 0.000000
0.000662 -0.000784 0.000000
0.000449 -0.008907 0.000000
0.000524 -0.009006 0.000000
0.000549 -0.009071 0.000000
0.000401 -0.008944 0.000000
0.000520 -0.004356 0.000000
0.000330 -0.003742 0.000000
0.000037 -0.003683 0.000000
0.000108 -0.004502 0.000000
0.000268 -0.004623 0.000000
0.000911 -0.010313 0.000000
0.000828 -0.010126 0.000000
0.000862 -0.010083 0.000000
0.000964 -0.010251 0.000000
0.000974 -0.010287 0.000000
0.000494 -0.008277 0.000000
0.000120 -0.009506 0.000000
0.000266 -0.009722 0.000000
-0.000056 -0.009370 0.000000
-0.000047 -0.009617 0.000000
-0.000007 -0.009884 0.000000
0.000091 -0.010051 0.000000
0.000298 -0.009848 0.000000
0.003047 -0.005673 0.000000
0.000206 -0.000560 0.000000
0.000220 -0.000618 0.000000
0.000147 -0.000588 0.000000
0.000235 -0.000725 0.000000
0.000238 -0.000698 0.000000
0.003081 -0.007593 0.000000
0.002858 -0.007445 0.000000
0.003096 -0.007818 0.000000
0.002963 -0.008065 0.000000
0.002789 -0.008247 0.000000
0.002485 -0.008357 0.000000
0.002182 -0.007827 0.000000
0.002371 -0.007623 0.000000
0.002547 -0.007439 0.000000
0.000335 -0.000530 0.000000
0.000163 -0.000437 0.000000
0.000135 -0.000378 0.000000
0.000308 -0.000525 0.000000
0.000574 -0.002176 0.000000
0.000629 -0.003366 0.000000
0.000783 -0.003030 0.000000
0.001964 -0.008837 0.000000
0.001708 -0.009197 0.000000
0.002347 -0.008817 0.000000
0.002607 -0.009036 0.000000
0.002381 -0.009436 0.000000
0.002055 -0.009734 0.000000
0.001788 -0.009920 0.000000
0.001521 -0.009808 0.000000
0.000081 -0.001194 0.000000
0.000103 -0.001183 0.000000
0.000062 -0.001172 0.000000
0.000060 -0.001132 0.000000
0.000073 -0.001103 0.000000
0.000094 -0.001105 0.000000
0.000111 -0.001118 0.000000
0.002586 -0.002391 0.000000
0.002567 -0.002096 0.000000
0.002666 -0.002401 0.000000
0.002619 -0.002050 0.000000
0.002633 -0.001821 0.000000
0.002647 -0.001728 0.000000
0.002562 -0.001781 0.000000
0.000549 -0.009953 0.000000
0.000379 -0.010027 0.000000
0.000357 -0.010006 0.000000
0.000402 -0.010012 0.000000
0.000559 -0.010193 0.000000
0.000009 -0.001814 0.000000
0.000306 -0.001867 0.000000
0.003028 -0.003786 0.000000
0.000155 -0.002710 0.000000
-0.000010 -0.002879 0.000000
0.000422 -0.003636 0.000000
0.000338 -0.006042 0.000000
0.003102 -0.003100 0.000000
0.003003 -0.003411 0.000000
0.002017 -0.001671 0.000000
0.001919 -0.001647 0.000000
0.000176 -0.001300 0.000000
-0.000111 -0.001851 0.000000
0.000053 -0.000721 0.000000
-0.000481 -0.001004 0.000000
-0.000567 -0.001859 0.000000
-0.000476 -0.002090 0.000000
0.000451 -0.000952 0.000000
0.001239 -0.010774 0.000000
0.001280 -0.010785 0.000000
0.000633 -0.000964 0.000000
0.000589 -0.000989 0.000000
0.000575 -0.000966 0.000000
0.000615 -0.000947 0.000000
0.000638 -0.000945 0.000000
0.000124 -0.002227 0.000000
0.000071 -0.001601 0.000000
-0.000114 -0.001673 0.000000
-0.000031 -0.001916 0.000000
0.000282 -0.000278 0.000000
0.000426 -0.000373 0.000000
0.000484 -0.000315 0.000000
0.000597 -0.000396 0.000000
0.000601 -0.000464 0.000000
0.000540 -0.000480 0.000000
0.001113 -0.010731 0.000000
0.001561 -0.001626 0.000000
0.002097 -0.002005 0.000000
0.001114 -0.001360 0.000000
0.001195 -0.001545 0.000000
0.001680 -0.001999 0.000000
0.001730 -0.004861 0.000000
0.001949 -0.004733 0.000000
0.001897 -0.004908 0.000000
0.001998 -0.005031 0.000000
0.002309 -0.005437 0.000000
0.002243 -0.005071 0.000000
0.000062 -0.000450 0.000000
0.001088 -0.000594 0.000000
0.001314 -0.000669 0.000000
0.000692 -0.000439 0.000000
0.001021 -0.000594 0.000000
0.003161 -0.004942 0.000000
0.003149 -0.005104 0.000000
0.000586 -0.009610 0.000000
0.000616 -0.009503 0.000000
0.000108 -0.000517 0.000000
0.000083 -0.000435 0.000000
0.000095 -0.000471 0.000000
0.000099 -0.000497 0.000000
0.002480 -0.002959 0.000000
0.002651 -0.003120 0.000000
0.002749 -0.003391 0.000000
0.003011 -0.003485 0.000000
0.002949 -0.003362 0.000000
0.002843 -0.003228 0.000000
0.002219 -0.005443 0.000000
0.001989 -0.005171 0.000000
0.000039 -0.007884 0.000000
0.000102 -0.007989 0.000000
0.000185 -0.008042 0.000000
0.000100 -0.007952 0.000000
0.001272 -0.010739 0.000000
0.001316 -0.010700 0.000000
-0.000004 -0.010237 0.000000
0.000123 -0.010201 0.000000
0.000038 -0.010359 0.000000
0.000065 -0.010320 0.000000
0.000122 -0.010268 0.000000
0.002750 -0.008346 0.000000
0.002760 -0.008439 0.000000
0.002494 -0.008194 0.000000
0.002460 -0.008646 0.000000
0.002630 -0.008573 0.000000
0.000000 0.000000 0.000000
0.000000 -0.001194 0.000000
0.000000 -0.001314 0.000000
0.001734 -0.000765 0.000000
0.000979 -0.009980 0.000000
-0.000006 -0.010527 0.000000
0.000511 -0.007775 0.000000
0.000524 -0.008037 0.000000
0.000593 -0.007103 0.000000
0.000537 -0.007078 0.000000
0.000243 -0.007173 0.000000
0.000219 -0.007504 0.000000
0.000276 -0.007525 0.000000
0.000288 -0.007853 0.000000
0.000359 -0.007960 0.000000
0.000355 -0.008109 0.000000
0.003339 -0.006584 0.000000
0.003127 -0.007065 0.000000
0.003586 -0.006457 0.000000
0.003235 -0.006757 0.000000
0.002945 -0.007294 0.000000
0.002831 -0.008088 0.000000
0.002692 -0.008118 0.000000
0.002790 -0.007538 0.000000
0.001817 -0.002381 0.000000
0.001188 -0.001650 0.000000
0.002580 -0.002888 0.000000
0.002639 -0.002986 0.000000
0.002860 -0.002976 0.000000
0.002957 -0.002850 0.000000
0.002826 -0.002673 0.000000
0.002758 -0.002512 0.000000
0.002500 -0.002213 0.000000
0.002482 -0.002407 0.000000
0.000721 -0.004537 0.000000
0.001252 -0.004292 0.000000
0.000453 -0.004170 0.000000
0.000302 -0.005484 0.000000
0.000207 -0.006833 0.000000
0.000556 -0.007327 0.000000
0.001229 -0.007926 0.000000
0.001821 -0.007104 0.000000
0.002261 -0.006859 0.000000
0.002063 -0.005990 0.000000
0.001540 -0.004908 0.000000
0.001430 -0.010342 0.000000
0.001350 -0.010500 0.000000
0.001260 -0.009969 0.000000
0.000826 -0.009759 0.000000
0.000658 -0.009717 0.000000
0.000643 -0.009921 0.000000
0.000734 -0.010062 0.000000
0.000851 -0.010316 0.000000
0.001113 -0.010438 0.000000
0.001274 -0.010559 0.000000
0.000418 -0.005488 0.000000
0.000480 -0.005872 0.000000
-0.000049 -0.005028 0.000000
-0.000324 -0.005628 0.000000
-0.000323 -0.006173 0.000000
-0.000226 -0.006661 0.000000
-0.000010 -0.006907 0.000000
0.000292 -0.006964 0.000000
0.000408 -0.006562 0.000000
0.003348 -0.005035 0.000000
0.003347 -0.004817 0.000000
0.003364 -0.005252 0.000000
0.003226 -0.005240 0.000000
0.003095 -0.005286 0.000000
0.003165 -0.005193 0.000000
0.003170 -0.004816 0.000000
0.003258 -0.004574 0.000000
0.003271 -0.004534 0.000000
0.003324 -0.004436 0.000000
0.003421 -0.004528 0.000000
0.003350 -0.004565 0.000000
0.001279 -0.002586 0.000000
0.001749 -0.003523 0.000000
0.001035 -0.002888 0.000000
0.001163 -0.003733 0.000000
0.001486 -0.004070 0.000000
0.001673 -0.004169 0.000000
0.001945 -0.004562 0.000000
0.001820 -0.003994 0.000000
0.000377 -0.008795 0.000000
0.000430 -0.008823 0.000000
0.000385 -0.009001 0.000000
0.000394 -0.009283 0.000000
0.000514 -0.009579 0.000000
0.000728 -0.009480 0.000000
0.000731 -0.009510 0.000000
0.000615 -0.009365 0.000000
0.000605 -0.008996 0.000000
0.001017 -0.002249 0.000000
0.001042 -0.002131 0.000000
0.000964 -0.002214 0.000000
0.001152 -0.002591 0.000000
0.001531 -0.003139 0.000000
0.002079 -0.003473 0.000000
0.002352 -0.003584 0.000000
0.002507 -0.003518 0.000000
0.002521 -0.003485 0.000000
0.001860 -0.003121 0.000000
0.001317 -0.002495 0.000000
0.000783 -0.005458 0.000000
0.000663 -0.005914 0.000000
0.000476 -0.005687 0.000000
0.000217 -0.005667 0.000000
0.000124 -0.006249 0.000000
0.000121 -0.006672 0.000000
-0.000056 -0.007042 0.000000
0.000034 -0.007138 0.000000
0.000204 -0.007034 0.000000
0.000410 -0.006570 0.000000
0.000524 -0.006170 0.000000
0.000110 -0.000915 0.000000
0.000131 -0.000963 0.000000
0.000112 -0.000874 0.000000
0.000132 -0.000891 0.000000
0.000159 -0.000944 0.000000
0.000173 -0.000976 0.000000
0.000167 -0.000975 0.000000
0.000164 -0.000971 0.000000
0.000159 -0.000983 0.000000
0.001510 -0.000989 0.000000
0.001798 -0.001120 0.000000
0.001208 -0.000914 0.000000
0.001871 -0.001544 0.000000
0.002124 -0.001807 0.000000
0.002347 -0.001594 0.000000
0.002303 -0.001158 0.000000
0.001880 -0.001044 0.000000
0.000239 -0.009911 0.000000
0.000269 -0.009846 0.000000
0.000177 -0.009979 0.000000
0.000205 -0.010002 0.000000
0.000259 -0.009954 0.000000
0.000304 -0.009944 0.000000
0.000363 -0.009928 0.000000
0.000373 -0.009876 0.000000
0.000360 -0.009791 0.000000
0.000373 -0.009773 0.000000
0.000318 -0.009703 0.000000
0.000301 -0.009791 0.000000
0.002558 -0.009018 0.000000
0.002115 -0.009503 0.000000
0.002545 -0.008909 0.000000
0.002516 -0.009097 0.000000
0.002332 -0.009231 0.000000
0.002114 -0.009591 0.000000
0.001451 -0.010020 0.000000
0.001400 -0.010325 0.000000
0.001376 -0.010455 0.000000
0.001454 -0.010330 0.000000
0.001798 -0.009888 0.000000
0.001139 -0.000871 0.000000
0.001294 -0.000926 0.000000
0.000946 -0.000686 0.000000
0.001278 -0.000719 0.000000
0.001501 -0.000898 0.000000
0.001505 -0.000763 0.000000
0.001528 -0.000806 0.000000
0.001435 -0.000904 0.000000
0.000319 -0.000978 0.000000
0.000309 -0.000995 0.000000
0.000345 -0.000987 0.000000
0.000362 -0.001004 0.000000
0.000358 -0.001028 0.000000
0.000342 -0.001043 0.000000
0.000316 -0.001049 0.000000
0.000307 -0.001030 0.000000
0.000800 -0.000871 0.000000
0.000784 -0.000901 0.000000
0.000835 -0.000872 0.000000
0.000854 -0.000895 0.000000
0.000845 -0.000913 0.000000
0.000824 -0.000928 0.000000
0.000806 -0.000930 0.000000
0.000787 -0.000916 0.000000
0.000036 -0.000607 0.000000
0.000031 -0.000583 0.000000
0.000058 -0.000675 0.000000
0.000066 -0.000682 0.000000
0.000069 -0.000722 0.000000
0.000068 -0.000730 0.000000
0.000072 -0.000736 0.000000
0.000513 -0.003214 0.000000
0.000410 -0.004096 0.000000
0.000534 -0.004064 0.000000
0.000495 -0.003731 0.000000
0.000058 -0.001887 0.000000
-0.000103 -0.002313 0.000000
0.000362 -0.008213 0.000000
0.000282 -0.008432 0.000000
0.000386 -0.008057 0.000000
0.000172 -0.007933 0.000000
-0.000094 -0.008067 0.000000
-0.000122 -0.008299 0.000000
-0.000110 -0.008503 0.000000
0.000048 -0.008537 0.000000
0.000192 -0.008566 0.000000
0.000662 -0.001090 0.000000
0.000435 -0.000733 0.000000
0.001007 -0.001397 0.000000
0.001365 -0.001497 0.000000
0.001617 -0.001583 0.000000
0.001991 -0.001911 0.000000
0.001775 -0.001846 0.000000
0.001192 -0.001400 0.000000
0.000893 -0.001053 0.000000
0.000565 -0.000659 0.000000
0.000473 -0.008949 0.000000
0.000547 -0.009045 0.000000
0.000512 -0.009032 0.000000
0.000376 -0.008907 0.000000
0.000523 -0.004310 0.000000
0.000203 -0.003578 0.000000
0.000036 -0.003863 0.000000
0.000122 -0.004607 0.000000
0.000403 -0.004509 0.000000
0.000890 -0.010315 0.000000
0.000839 -0.010102 0.000000
0.000876 -0.010101 0.000000
0.000982 -0.010255 0.000000
0.000955 -0.010298 0.000000
0.000493 -0.008210 0.000000
0.000049 -0.009397 0.000000
0.000239 -0.009676 0.000000
-0.000059 -0.009450 0.000000
-0.000043 -0.009685 0.000000
0.000014 -0.010014 0.000000
0.000136 -0.010013 0.000000
0.000300 -0.009800 0.000000
0.003028 -0.005770 0.000000
0.000203 -0.000549 0.000000
0.000210 -0.000585 0.000000
0.000153 -0.000601 0.000000
0.000235 -0.000725 0.000000
0.000233 -0.000674 0.000000
0.003109 -0.007653 0.000000
0.002956 -0.007480 0.000000
0.003063 -0.007886 0.000000
0.002924 -0.008129 0.000000
0.002686 -0.008293 0.000000
0.002375 -0.008385 0.000000
0.002243 -0.007782 0.000000
0.002405 -0.007542 0.000000
0.002674 -0.007424 0.000000
0.000303 -0.000480 0.000000
0.000135 -0.000398 0.000000
0.000192 -0.000439 0.000000
0.000346 -0.000550 0.000000
0.000513 -0.001969 0.000000
0.000723 -0.003305 0.000000
0.000728 -0.002772 0.000000
0.002133 -0.008801 0.000000
0.001805 -0.008967 0.000000
0.002538 -0.008884 0.000000
0.002516 -0.009288 0.000000
0.002234 -0.009581 0.000000
0.001969 -0.009816 0.000000
0.001594 -0.009948 0.000000
0.001629 -0.009427 0.000000
0.000075 -0.001191 0.000000
0.000099 -0.001189 0.000000
0.000060 -0.001162 0.000000
0.000063 -0.001119 0.000000
0.000079 -0.001101 0.000000
0.000101 -0.001109 0.000000
0.000114 -0.001122 0.000000
0.002594 -0.002412 0.000000
0.002580 -0.002282 0.000000
0.002651 -0.002274 0.000000
0.002607 -0.001934 0.000000
0.002646 -0.001796 0.000000
0.002616 -0.001711 0.000000
0.002563 -0.001899 0.000000
0.000481 -0.009977 0.000000
0.000356 -0.010021 0.000000
0.000374 -0.010004 0.000000
0.000412 -0.010025 0.000000
0.000581 -0.010223 0.000000
0.000082 -0.001790 0.000000
0.000383 -0.001902 0.000000
0.003016 -0.003787 0.000000
0.000084 -0.002790 0.000000
-0.000019 -0.002878 0.000000
0.000417 -0.003557 0.000000
0.000318 -0.005907 0.000000
0.003094 -0.003073 0.000000
0.003029 -0.003433 0.000000
0.001921 -0.001609 0.000000
0.002030 -0.001731 0.000000
0.000216 -0.000970 0.000000
-0.000001 -0.001638 0.000000
-0.000136 -0.000685 0.000000
-0.000568 -0.001404 0.000000
-0.000545 -0.002061 0.000000
-0.000354 -0.002010 0.000000
0.000444 -0.000942 0.000000
0.001244 -0.010764 0.000000
0.001274 -0.010794 0.000000
0.000628 -0.000976 0.000000
0.000580 -0.000982 0.000000
0.000593 -0.000956 0.000000
0.000631 -0.000945 0.000000
0.000636 -0.000951 0.000000
0.000273 -0.002393 0.000000
-0.000030 -0.001590 0.000000
-0.000093 -0.001777 0.000000
-0.000006 -0.001995 0.000000
0.000311 -0.000304 0.000000
0.000383 -0.000325 0.000000
0.000537 -0.000341 0.000000
0.000603 -0.000414 0.000000
0.000590 -0.000480 0.000000
0.000508 -0.000452 0.000000
0.001089 -0.010707 0.000000
0.001380 -0.001490 0.000000
0.001933 -0.001885 0.000000
0.001086 -0.001397 0.000000
0.001440 -0.001814 0.000000
0.001911 -0.002162 0.000000
0.001790 -0.004874 0.000000
0.001793 -0.004833 0.000000
0.001931 -0.004945 0.000000
0.002133 -0.005202 0.000000
0.002330 -0.005383 0.000000
0.002109 -0.004849 0.000000
0.000056 -0.000475 0.000000
0.000957 -0.000548 0.000000
0.001281 -0.000657 0.000000
0.000726 -0.000455 0.000000
0.001170 -0.000650 0.000000
0.003173 -0.004984 0.000000
0.003113 -0.005156 0.000000
0.000557 -0.009614 0.000000
0.000619 -0.009539 0.000000
0.000111 -0.000523 0.000000
0.000083 -0.000447 0.000000
0.000099 -0.000483 0.000000
0.000100 -0.000503 0.000000
0.002563 -0.003125 0.000000
0.002458 -0.003045 0.000000
0.002865 -0.003533 0.000000
0.003016 -0.003418 0.000000
0.002896 -0.003269 0.000000
0.002829 -0.003190 0.000000
0.002207 -0.005396 0.000000
0.002018 -0.005293 0.000000
0.000037 -0.007882 0.000000
0.000130 -0.008040 0.000000
0.000167 -0.008004 0.000000
0.000067 -0.007911 0.000000
0.001276 -0.010729 0.000000
0.001308 -0.010701 0.000000
-0.000003 -0.010263 0.000000
0.000043 -0.010186 0.000000
0.000050 -0.010354 0.000000
0.000082 -0.010296 0.000000
0.000150 -0.010244 0.000000
0.002688 -0.008271 0.000000
0.002812 -0.008431 0.000000
0.002521 -0.008314 0.000000
0.002465 -0.008787 0.000000
0.002682 -0.008493 0.000000
0.002803 -0.002559 0.000000
0.001421 -0.010392 0.000000
0.001362 -0.010101 0.000000
0.000601 -0.009909 0.000000
0.000715 -0.010005 0.000000
0.003343 -0.005000 0.000000
0.003350 -0.004742 0.000000
0.003233 -0.004644 0.000000
0.003298 -0.004466 0.000000
0.003392 -0.004546 0.000000
0.001626 -0.004126 0.000000
0.000381 -0.008796 0.000000
0.000388 -0.008917 0.000000
0.000392 -0.009217 0.000000
0.000747 -0.009494 0.000000
0.001015 -0.002175 0.000000
0.001107 -0.002237 0.000000
0.001363 -0.002950 0.000000
0.001983 -0.003421 0.000000
0.002284 -0.003558 0.000000
0.000765 -0.005568 0.000000
0.000620 -0.006002 0.000000
0.000513 -0.005604 0.000000
0.000325 -0.005756 0.000000
0.000166 -0.006571 0.000000
-0.000030 -0.006939 0.000000
0.000017 -0.007136 0.000000
0.000142 -0.007064 0.000000
0.000375 -0.006704 0.000000
0.000504 -0.006242 0.000000
0.000169 -0.000976 0.000000
0.000164 -0.000971 0.000000
0.000249 -0.009891 0.000000
0.000285 -0.009835 0.000000
0.000194 -0.009998 0.000000
0.000248 -0.009964 0.000000
0.000374 -0.009783 0.000000
0.000297 -0.009779 0.000000
0.002048 -0.009588 0.000000
0.002362 -0.009173 0.000000
0.002195 -0.009496 0.000000
0.001399 -0.010263 0.000000
0.001503 -0.000763 0.000000
0.000359 -0.001000 0.000000
0.000361 -0.001021 0.000000
0.000307 -0.001037 0.000000
0.000852 -0.000890 0.000000
0.000039 -0.000598 0.000000
0.000340 -0.008266 0.000000
0.000263 -0.008484 0.000000
0.000401 -0.008126 0.000000
0.000233 -0.007931 0.000000
-0.000035 -0.008042 0.000000
-0.000126 -0.008224 0.000000
-0.000113 -0.008448 0.000000
-0.000002 -0.008536 0.000000
0.000169 -0.008556 0.000000
0.001306 -0.001480 0.000000
0.001562 -0.001561 0.000000
0.001892 -0.001767 0.000000
0.000338 -0.004562 0.000000
0.002049 -0.008819 0.000000
0.001757 -0.009081 0.000000
0.002443 -0.008854 0.000000
0.002311 -0.009507 0.000000
0.001695 -0.009939 0.000000
0.002571 -0.002182 0.000000
0.000364 -0.010029 0.000000
-0.000053 -0.001731 0.000000
-0.000026 -0.000736 0.000000
-0.000520 -0.001206 0.000000
0.000585 -0.000961 0.000000
0.000623 -0.000946 0.000000
0.001299 -0.001700 0.000000
0.001866 -0.004789 0.000000
0.002044 -0.005096 0.000000
0.002547 -0.003121 0.000000
0.003026 -0.003422 0.000000
0.000084 -0.010195 0.000000
0.002792 -0.008438 0.000000
0.000000 0.000000 0.000000
0.000000 -0.010515 0.000000
0.000000 -0.000406 0.000000
0.000066 -0.001286 0.000000
0.002058 -0.000927 0.000000
0.000972 -0.010349 0.000000
0.000484 -0.007969 0.000000
0.000448 -0.008078 0.000000
0.000540 -0.007440 0.000000
0.000616 -0.007135 0.000000
0.000481 -0.007080 0.000000
0.000191 -0.007350 0.000000
0.000242 -0.007560 0.000000
0.000334 -0.007640 0.000000
0.000352 -0.007890 0.000000
0.000334 -0.008015 0.000000
0.003224 -0.006869 0.000000
0.002897 -0.007317 0.000000
0.003471 -0.006535 0.000000
0.003543 -0.006621 0.000000
0.003058 -0.006913 0.000000
0.002880 -0.007664 0.000000
0.002769 -0.008121 0.000000
0.002701 -0.007921 0.000000
0.001198 -0.001826 0.000000
0.002320 -0.002319 0.000000
0.002271 -0.002739 0.000000
0.002587 -0.002911 0.000000
0.002889 -0.003057 0.000000
0.002814 -0.002917 0.000000
0.002919 -0.002776 0.000000
0.002578 -0.002409 0.000000
0.002500 -0.002285 0.000000
0.001042 -0.004284 0.000000
0.001330 -0.004628 0.000000
0.000573 -0.004599 0.000000
0.000520 -0.004432 0.000000
0.000190 -0.006213 0.000000
0.000270 -0.006996 0.000000
0.000825 -0.007559 0.000000
0.001453 -0.007706 0.000000
0.002047 -0.006870 0.000000
0.002190 -0.006656 0.000000
0.001781 -0.005407 0.000000
0.001291 -0.010551 0.000000
0.000945 -0.009798 0.000000
0.000790 -0.009663 0.000000
0.000803 -0.010215 0.000000
0.000991 -0.010361 0.000000
0.001246 -0.010545 0.000000
0.000473 -0.005755 0.000000
0.000495 -0.006256 0.000000
0.000199 -0.005099 0.000000
-0.000232 -0.005378 0.000000
-0.000370 -0.005842 0.000000
-0.000280 -0.006365 0.000000
-0.000132 -0.006764 0.000000
0.000145 -0.006985 0.000000
0.000321 -0.006861 0.000000
0.003362 -0.005161 0.000000
0.003291 -0.005263 0.000000
0.003149 -0.005257 0.000000
0.003113 -0.005253 0.000000
0.003170 -0.004957 0.000000
0.003300 -0.004547 0.000000
0.003397 -0.004491 0.000000
0.001619 -0.003138 0.000000
0.001759 -0.003723 0.000000
0.001009 -0.002731 0.000000
0.001012 -0.003215 0.000000
0.001273 -0.003922 0.000000
0.001785 -0.004288 0.000000
0.001976 -0.004359 0.000000
0.000516 -0.008940 0.000000
0.000435 -0.009440 0.000000
0.000668 -0.009500 0.000000
0.000643 -0.009450 0.000000
0.000594 -0.009186 0.000000
0.000990 -0.002314 0.000000
0.001082 -0.002308 0.000000
0.002547 -0.003420 0.000000
0.002195 -0.003391 0.000000
0.001500 -0.002760 0.000000
0.000107 -0.005917 0.000000
0.000120 -0.000938 0.000000
0.000147 -0.000982 0.000000
0.000112 -0.000894 0.000000
0.000119 -0.000877 0.000000
0.000145 -0.000913 0.000000
0.000169 -0.000965 0.000000
0.000163 -0.000975 0.000000
0.001720 -0.001093 0.000000
0.001820 -0.001115 0.000000
0.001291 -0.000884 0.000000
0.001382 -0.001155 0.000000
0.001964 -0.001616 0.000000
0.002171 -0.001755 0.000000
0.002342 -0.001328 0.000000
0.002201 -0.001139 0.000000
0.002336 -0.009259 0.000000
0.002590 -0.008940 0.000000
0.002534 -0.009022 0.000000
0.001781 -0.009850 0.000000
0.001379 -0.010410 0.000000
0.001395 -0.010407 0.000000
0.001626 -0.010098 0.000000
0.001203 -0.000898 0.000000
0.001363 -0.000925 0.000000
0.001080 -0.000802 0.000000
0.001050 -0.000667 0.000000
0.001395 -0.000815 0.000000
0.001515 -0.000782 0.000000
0.001506 -0.000847 0.000000
0.002578 -0.009148 0.000000
0.001559 -0.009673 0.000000
0.000000 0.000000 0.000000
0.000000 -0.001344 0.000000
0.000000 -0.001314 0.000000
0.001679 -0.000761 0.000000
0.001026 -0.009851 0.000000
-0.000010 -0.010519 0.000000
0.000495 -0.007866 0.000000
0.000518 -0.008024 0.000000
0.000568 -0.007203 0.000000
0.000553 -0.007116 0.000000
0.000298 -0.007156 0.000000
0.000211 -0.007467 0.000000
0.000263 -0.007547 0.000000
0.000303 -0.007795 0.000000
0.000364 -0.007940 0.000000
0.000336 -0.008070 0.000000
0.003294 -0.006665 0.000000
0.003072 -0.007112 0.000000
0.003555 -0.006492 0.000000
0.003316 -0.006784 0.000000
0.002985 -0.007180 0.000000
0.002845 -0.008000 0.000000
0.002710 -0.008116 0.000000
0.002768 -0.007614 0.000000
0.001624 -0.002218 0.000000
0.001522 -0.001860 0.000000
0.002508 -0.002854 0.000000
0.002613 -0.002962 0.000000
0.002881 -0.002993 0.000000
0.002918 -0.002873 0.000000
0.002849 -0.002706 0.000000
0.002515 -0.002275 0.000000
0.002491 -0.002411 0.000000
0.000829 -0.004448 0.000000
0.001240 -0.004388 0.000000
0.000530 -0.004380 0.000000
0.000366 -0.005267 0.000000
0.000197 -0.006691 0.000000
0.000487 -0.007239 0.000000
0.001142 -0.007843 0.000000
0.001721 -0.007255 0.000000
0.002193 -0.006847 0.000000
0.002120 -0.006171 0.000000
0.001615 -0.005053 0.000000
0.001315 -0.010531 0.000000
0.000880 -0.009785 0.000000
0.000744 -0.009668 0.000000
0.000819 -0.010250 0.000000
0.001067 -0.010399 0.000000
0.001263 -0.010550 0.000000
0.000450 -0.005629 0.000000
0.000499 -0.005950 0.000000
0.000069 -0.005020 0.000000
-0.000301 -0.005583 0.000000
-0.000347 -0.006097 0.000000
-0.000246 -0.006555 0.000000
-0.000066 -0.006833 0.000000
0.000245 -0.006961 0.000000
0.000374 -0.006644 0.000000
0.003365 -0.005194 0.000000
0.003249 -0.005246 0.000000
0.003117 -0.005272 0.000000
0.003151 -0.005226 0.000000
0.003168 -0.004872 0.000000
0.003290 -0.004543 0.000000
0.003410 -0.004510 0.000000
0.001421 -0.002793 0.000000
0.001756 -0.003646 0.000000
0.001018 -0.002871 0.000000
0.001119 -0.003566 0.000000
0.001416 -0.004019 0.000000
0.001819 -0.004373 0.000000
0.001872 -0.004106 0.000000
0.000465 -0.008877 0.000000
0.000488 -0.009526 0.000000
0.000704 -0.009479 0.000000
0.000624 -0.009405 0.000000
0.000593 -0.009076 0.000000
0.000975 -0.002274 0.000000
0.001132 -0.002489 0.000000
0.002544 -0.003426 0.000000
0.001990 -0.003230 0.000000
0.001399 -0.002622 0.000000
0.000109 -0.006061 0.000000
0.000115 -0.000926 0.000000
0.000136 -0.000970 0.000000
0.000112 -0.000884 0.000000
0.000128 -0.000888 0.000000
0.000154 -0.000935 0.000000
0.000172 -0.000971 0.000000
0.000161 -0.000979 0.000000
0.001625 -0.001045 0.000000
0.001813 -0.001131 0.000000
0.001244 -0.000903 0.000000
0.001789 -0.001476 0.000000
0.002086 -0.001771 0.000000
0.002296 -0.001646 0.000000
0.002310 -0.001175 0.000000
0.001939 -0.001074 0.000000
0.002498 -0.009097 0.000000
0.002562 -0.008923 0.000000
0.002535 -0.009065 0.000000
0.001588 -0.009966 0.000000
0.001381 -0.010431 0.000000
0.001426 -0.010362 0.000000
0.001705 -0.009999 0.000000
0.001175 -0.000886 0.000000
0.001325 -0.000926 0.000000
0.001045 -0.000755 0.000000
0.001234 -0.000711 0.000000
0.001444 -0.000861 0.000000
0.001521 -0.000794 0.000000
0.001457 -0.000887 0.000000
0.002557 -0.009222 0.000000
0.001593 -0.009554 0.000000
0.000491 -0.008039 0.000000
0.000551 -0.007322 0.000000
0.000200 -0.007418 0.000000
0.000331 -0.008038 0.000000
0.003254 -0.006767 0.000000
0.003514 -0.006521 0.000000
0.003021 -0.007048 0.000000
0.001405 -0.002023 0.000000
0.002402 -0.002805 0.000000
0.002902 -0.003039 0.000000
0.002883 -0.002740 0.000000
0.002537 -0.002347 0.000000
0.000936 -0.004359 0.000000
0.000552 -0.004531 0.000000
0.000192 -0.006462 0.000000
0.002114 -0.006852 0.000000
0.001698 -0.005228 0.000000
0.001029 -0.010376 0.000000
0.000464 -0.005704 0.000000
-0.000270 -0.005499 0.000000
-0.000364 -0.005975 0.000000
-0.000263 -0.006456 0.000000
0.000190 -0.006981 0.000000
0.003270 -0.005253 0.000000
0.003134 -0.005242 0.000000
0.001534 -0.002976 0.000000
0.001002 -0.002826 0.000000
0.001060 -0.003389 0.000000
0.001344 -0.003967 0.000000
0.001921 -0.004222 0.000000
0.000491 -0.008911 0.000000
0.000461 -0.009483 0.000000
0.000590 -0.009132 0.000000
0.001113 -0.002399 0.000000
0.002093 -0.003311 0.000000
0.000142 -0.000977 0.000000
0.000123 -0.000883 0.000000
0.000149 -0.000924 0.000000
0.000162 -0.000977 0.000000
0.001681 -0.001075 0.000000
0.001270 -0.000889 0.000000
0.002418 -0.009177 0.000000
0.001685 -0.009915 0.000000
0.001409 -0.010385 0.000000
0.001345 -0.000926 0.000000
0.001070 -0.000782 0.000000
0.001483 -0.000867 0.000000
0.000000 0.000000 0.000000
0.000000 -0.010492 0.000000
0.000000 -0.000488 0.000000
0.000092 -0.001266 0.000000
0.002143 -0.001018 0.000000
0.001000 -0.010455 0.000000
0.000601 -0.007153 0.000000
0.000444 -0.007100 0.000000
0.000248 -0.007563 0.000000
0.000327 -0.007702 0.000000
0.000366 -0.007899 0.000000
0.002943 -0.007249 0.000000
0.003490 -0.006704 0.000000
0.002869 -0.007784 0.000000
0.002742 -0.008111 0.000000
0.002719 -0.007822 0.000000
0.002151 -0.002229 0.000000
0.002584 -0.002918 0.000000
0.002824 -0.002909 0.000000
0.002493 -0.002349 0.000000
0.001282 -0.004555 0.000000
0.000531 -0.004621 0.000000
0.000336 -0.007068 0.000000
0.000923 -0.007641 0.000000
0.001549 -0.007533 0.000000
0.002174 -0.006552 0.000000
0.000506 -0.006127 0.000000
0.000334 -0.006781 0.000000
0.001832 -0.001137 0.000000
0.001495 -0.001262 0.000000
0.002006 -0.001643 0.000000
0.002192 -0.001727 0.000000
0.002331 -0.001263 0.000000
0.002141 -0.001134 0.000000
0.001131 -0.000692 0.000000
0.000000 0.000000 0.000000
0.000000 -0.001571 0.000000
0.000000 -0.001308 0.000000
0.001639 -0.000762 0.000000
0.001079 -0.009718 0.000000
-0.000011 -0.010506 0.000000
0.000572 -0.007141 0.000000
0.000356 -0.007134 0.000000
0.000255 -0.007558 0.000000
0.000318 -0.007740 0.000000
0.000368 -0.007920 0.000000
0.003011 -0.007174 0.000000
0.003386 -0.006781 0.000000
0.002857 -0.007892 0.000000
0.002725 -0.008110 0.000000
0.002746 -0.007696 0.000000
0.001806 -0.002026 0.000000
0.002599 -0.002944 0.000000
0.002873 -0.002884 0.000000
0.002495 -0.002404 0.000000
0.001253 -0.004479 0.000000
0.000430 -0.005066 0.000000
0.000413 -0.007152 0.000000
0.001047 -0.007752 0.000000
0.001616 -0.007423 0.000000
0.002150 -0.006328 0.000000
0.000508 -0.006050 0.000000
0.000349 -0.006727 0.000000
0.001825 -0.001138 0.000000
0.001690 -0.001404 0.000000
0.002060 -0.001737 0.000000
0.002245 -0.001691 0.000000
0.002320 -0.001209 0.000000
0.001998 -0.001096 0.000000
0.001178 -0.000704 0.000000
0.000588 -0.007152 0.000000
0.000405 -0.007116 0.000000
0.000369 -0.007908 0.000000
0.002976 -0.007211 0.000000
0.003441 -0.006754 0.000000
0.002734 -0.007756 0.000000
0.001988 -0.002133 0.000000
0.002589 -0.002929 0.000000
0.002495 -0.002387 0.000000
0.000493 -0.004839 0.000000
0.002167 -0.006451 0.000000
0.001595 -0.001337 0.000000
0.002213 -0.001711 0.000000
0.000000 0.000000 0.000000
0.000000 -0.010462 0.000000
0.000000 -0.000578 0.000000
0.000111 -0.001243 0.000000
0.002213 -0.001085 0.000000
0.001032 -0.010547 0.000000
0.002028 -0.001667 0.000000
0.002083 -0.001124 0.000000
0.000000 0.000000 0.000000
0.000000 -0.001836 0.000000
0.000000 -0.001296 0.000000
0.001607 -0.000775 0.000000
0.001136 -0.009586 0.000000
-0.000010 -0.010489 0.000000
0.002044 -0.001707 0.000000
0.002051 -0.001114 0.000000
0.000000 0.000000 0.000000
0.000000 -0.010425 0.000000
0.000000 -0.000670 0.000000
0.000124 -0.001219 0.000000
0.002267 -0.001124 0.000000
0.001067 -0.010624 0.000000
0.000000 0.000000 0.000000
0.000000 -0.002123 0.000000
0.000000 -0.001279 0.000000
0.001578 -0.000796 0.000000
0.001195 -0.009458 0.000000
-0.000007 -0.010472 0.000000
0.000000 0.000000 0.000000
0.000000 -0.010382 0.000000
0.000000 -0.000759 0.000000
0.000130 -0.001199 0.000000
0.002314 -0.001142 0.000000
0.001102 -0.010684 0.000000
0.000000 0.000000 0.000000
0.000000 -0.002425 0.000000
0.000000 -0.001253 0.000000
0.001548 -0.000812 0.000000
0.001254 -0.009335 0.000000
-0.000003 -0.010454 0.000000
0.000000 0.000000 0.000000
0.000000 -0.010334 0.000000
0.000000 -0.000843 0.000000
0.000131 -0.001182 0.000000
0.002359 -0.001155 0.000000
0.001137 -0.010727 0.000000
0.000000 0.000000 0.000000
0.000000 -0.002729 0.000000
0.000000 -0.001218 0.000000
0.001517 -0.000832 0.000000
0.001312 -0.009216 0.000000
0.000001 -0.010434 0.000000
0.000000 0.000000 0.000000
0.000000 -0.010281 0.000000
0.000000 -0.000922 0.000000
0.000130 -0.001173 0.000000
0.002394 -0.001174 0.000000
0.001168 -0.010754 0.000000
0.000000 0.000000 0.000000
0.000000 -0.003041 0.000000
0.000000 -0.001174 0.000000
0.001486 -0.000845 0.000000
0.001367 -0.009102 0.000000
0.000004 -0.010412 0.000000
0.000000 0.000000 0.000000
0.000000 -0.010221 0.000000
0.000000 -0.000996 0.000000
0.000130 -0.001170 0.000000
0.002423 -0.001205 0.000000
0.001193 -0.010767 0.000000
0.000000 0.000000 0.000000
0.000000 -0.003373 0.000000
0.000000 -0.001123 0.000000
0.001447 -0.000860 0.000000
0.001418 -0.008989 0.000000
0.000009 -0.010387 0.000000
0.000000 -0.001063 0.000000
0.000000 0.000000 0.000000
0.000000 -0.010151 0.000000
0.000130 -0.001171 0.000000
0.002445 -0.001252 0.000000
0.001208 -0.010775 0.000000
0.000000 0.000000 0.000000
0.000000 -0.003722 0.000000
0.001403 -0.000873 0.000000
0.001465 -0.008876 0.000000
0.000016 -0.010358 0.000000
0.000000 0.000000 0.000000
0.000000 -0.010071 0.000000
0.000134 -0.001172 0.000000
0.002465 -0.001309 0.000000
0.001215 -0.010782 0.000000
0.000000 0.000000 0.000000
0.000000 -0.004073 0.000000
0.001354 -0.000885 0.000000
0.001508 -0.008759 0.000000
0.000026 -0.010327 0.000000
0.000000 0.000000 0.000000
0.000000 -0.009980 0.000000
0.000141 -0.001173 0.000000
0.002480 -0.001379 0.000000
0.001217 -0.010791 0.000000
0.000000 0.000000 0.000000
0.000000 -0.004414 0.000000
0.001302 -0.000894 0.000000
0.001549 -0.008635 0.000000
0.000041 -0.010294 0.000000
0.000000 0.000000 0.000000
0.000000 -0.009880 0.000000
0.000152 -0.001172 0.000000
0.002491 -0.001459 0.000000
0.001217 -0.010802 0.000000
0.000000 0.000000 0.000000
0.000000 -0.004734 0.000000
0.001249 -0.000901 0.000000
0.001592 -0.008504 0.000000
0.000059 -0.010262 0.000000
0.000000 0.000000 0.000000
0.000000 -0.009772 0.000000
0.000165 -0.001164 0.000000
0.002501 -0.001550 0.000000
0.001215 -0.010818 0.000000
0.000000 0.000000 0.000000
0.000000 -0.005023 0.000000
0.001196 -0.000908 0.000000
0.001639 -0.008365 0.000000
0.000081 -0.010233 0.000000
0.000000 0.000000 0.000000
0.000000 -0.009656 0.000000
0.000179 -0.001151 0.000000
0.002510 -0.001645 0.000000
0.001215 -0.010839 0.000000
0.000000 0.000000 0.000000
0.000000 -0.005289 0.000000
0.001144 -0.000915 0.000000
0.001693 -0.008223 0.000000
0.000113 -0.010213 0.000000
0.000000 0.000000 0.000000
0.000000 -0.009534 0.000000
0.000192 -0.001132 0.000000
0.002524 -0.001744 0.000000
0.001218 -0.010857 0.000000
0.000000 0.000000 0.000000
0.000000 -0.005532 0.000000
0.001093 -0.000922 0.000000
0.001754 -0.008085 0.000000
0.000161 -0.010196 0.000000
0.000000 0.000000 0.000000
0.000000 -0.009406 0.000000
0.000202 -0.001106 0.000000
0.002538 -0.001834 0.000000
0.001220 -0.010869 0.000000
0.000000 0.000000 0.000000
0.000000 -0.005737 0.000000
0.001043 -0.000929 0.000000
0.001819 -0.007956 0.000000
0.000221 -0.010178 0.000000
0.000000 0.000000 0.000000
0.000000 -0.009273 0.000000
0.000207 -0.001077 0.000000
0.002559 -0.001919 0.000000
0.001223 -0.010878 0.000000
0.000000 0.000000 0.000000
0.000000 -0.005903 0.000000
0.000995 -0.000936 0.000000
0.001882 -0.007843 0.000000
0.000279 -0.010167 0.000000
0.000000 0.000000 0.000000
0.000000 -0.009136 0.000000
0.000205 -0.001048 0.000000
0.002581 -0.002008 0.000000
0.001226 -0.010882 0.000000
0.000000 0.000000 0.000000
0.000000 -0.006039 0.000000
0.000947 -0.000942 0.000000
0.001938 -0.007743 0.000000
0.000325 -0.010162 0.000000
0.000000 0.000000 0.000000
0.000000 -0.009001 0.000000
0.000199 -0.001024 0.000000
0.002607 -0.002095 0.000000
0.001229 -0.010882 0.000000
0.000000 0.000000 0.000000
0.000000 -0.006150 0.000000
0.000899 -0.000946 0.000000
0.001982 -0.007649 0.000000
0.000360 -0.010160 0.000000
0.000000 0.000000 0.000000
0.000000 -0.008867 0.000000
0.000191 -0.001007 0.000000
0.002642 -0.002201 0.000000
0.001230 -0.010877 0.000000
0.000000 0.000000 0.000000
0.000000 -0.006240 0.000000
0.000853 -0.000947 0.000000
0.002020 -0.007551 0.000000
0.000387 -0.010166 0.000000
0.000000 0.000000 0.000000
0.000000 -0.008734 0.000000
0.000183 -0.000994 0.000000
0.002683 -0.002314 0.000000
0.001229 -0.010870 0.000000
0.000000 0.000000 0.000000
0.000000 -0.006324 0.000000
0.000808 -0.000944 0.000000
0.002052 -0.007448 0.000000
0.000410 -0.010176 0.000000
0.000000 0.000000 0.000000
0.000000 -0.008603 0.000000
0.000176 -0.000985 0.000000
0.002734 -0.002453 0.000000
0.001227 -0.010860 0.000000
0.000000 0.000000 0.000000
0.000000 -0.006422 0.000000
0.000767 -0.000937 0.000000
0.002081 -0.007339 0.000000
0.000432 -0.010187 0.000000
0.000000 0.000000 0.000000
0.000000 -0.008476 0.000000
0.000171 -0.000978 0.000000
0.002787 -0.002587 0.000000
0.001225 -0.010848 0.000000
0.000000 0.000000 0.000000
0.000000 -0.006537 0.000000
0.000733 -0.000933 0.000000
0.002105 -0.007223 0.000000
0.000455 -0.010198 0.000000
0.000000 0.000000 0.000000
0.000000 -0.008354 0.000000
0.000167 -0.000975 0.000000
0.002837 -0.002712 0.000000
0.001226 -0.010831 0.000000
0.000000 0.000000 0.000000
0.000000 -0.006671 0.000000
0.000704 -0.000934 0.000000
0.002126 -0.007099 0.000000
0.000479 -0.010211 0.000000
0.000000 0.000000 0.000000
0.000000 -0.008221 0.000000
0.000165 -0.000975 0.000000
0.002874 -0.002799 0.000000
0.001229 -0.010805 0.000000
0.000000 0.000000 0.000000
0.000000 -0.006824 0.000000
0.000680 -0.000941 0.000000
0.002144 -0.006965 0.000000
0.000514 -0.010235 0.000000
0.000000 0.000000 0.000000
0.000000 -0.008069 0.000000
0.000164 -0.000975 0.000000
0.002899 -0.002865 0.000000
0.001231 -0.010767 0.000000
0.000000 0.000000 0.000000
0.000000 -0.006999 0.000000
0.000661 -0.000950 0.000000
0.002162 -0.006819 0.000000
0.000556 -0.010271 0.000000
0.000000 0.000000 0.000000
0.000000 -0.007901 0.000000
0.000165 -0.000975 0.000000
0.002918 -0.002925 0.000000
0.001228 -0.010723 0.000000
0.000000 0.000000 0.000000
0.000000 -0.007173 0.000000
0.000647 -0.000960 0.000000
0.002182 -0.006659 0.000000
0.000596 -0.010301 0.000000
0.000000 0.000000 0.000000
0.000000 -0.007723 0.000000
0.000167 -0.000976 0.000000
0.002930 -0.002986 0.000000
0.001219 -0.010683 0.000000
0.000000 0.000000 0.000000
0.000000 -0.007356 0.000000
0.000639 -0.000969 0.000000
0.002207 -0.006483 0.000000
0.000639 -0.010326 0.000000
0.000000 -0.007541 0.000000
0.000000 0.000000 0.000000
0.000173 -0.000984 0.000000
0.002936 -0.003052 0.000000
0.001207 -0.010654 0.000000
0.000000 0.000000 0.000000
0.000631 -0.000978 0.000000
0.002243 -0.006288 0.000000
0.000683 -0.010348 0.000000
0.000000 0.000000 0.000000
0.000184 -0.000995 0.000000
0.002936 -0.003123 0.000000
0.001199 -0.010630 0.000000
0.000000 0.000000 0.000000
0.000616 -0.000981 0.000000
0.002298 -0.006098 0.000000
0.000709 -0.010378 0.000000
0.000000 0.000000 0.000000
0.000201 -0.001009 0.000000
0.002928 -0.003201 0.000000
0.001191 -0.010594 0.000000
0.000000 0.000000 0.000000
0.000589 -0.000989 0.000000
0.002362 -0.005920 0.000000
0.000727 -0.010411 0.000000
0.000000 0.000000 0.000000
0.000225 -0.001024 0.000000
0.002913 -0.003289 0.000000
0.001179 -0.010552 0.000000
0.000000 0.000000 0.000000
0.000556 -0.001001 0.000000
0.002428 -0.005759 0.000000
0.000739 -0.010440 0.000000
0.000000 0.000000 0.000000
0.000254 -0.001035 0.000000
0.002893 -0.003389 0.000000
0.001159 -0.010509 0.000000
0.000000 0.000000 0.000000
0.000519 -0.001008 0.000000
0.002491 -0.005615 0.000000
0.000746 -0.010461 0.000000
0.000000 0.000000 0.000000
0.000287 -0.001040 0.000000
0.002871 -0.003501 0.000000
0.001133 -0.010473 0.000000
0.000000 0.000000 0.000000
0.000482 -0.001011 0.000000
0.002550 -0.005486 0.000000
0.000753 -0.010469 0.000000
0.000000 0.000000 0.000000
0.000317 -0.001038 0.000000
0.002851 -0.003623 0.000000
0.001090 -0.010458 0.000000
0.000000 0.000000 0.000000
0.000448 -0.001010 0.000000
0.002602 -0.005370 0.000000
0.000761 -0.010467 0.000000
0.000000 0.000000 0.000000
0.000342 -0.001033 0.000000
0.002835 -0.003749 0.000000
0.001024 -0.010445 0.000000
0.000000 0.000000 0.000000
0.000420 -0.001007 0.000000
0.002646 -0.005265 0.000000
0.000774 -0.010457 0.000000
0.000000 0.000000 0.000000
0.000358 -0.001033 0.000000
0.002823 -0.003875 0.000000
0.000956 -0.010435 0.000000
0.000000 0.000000 0.000000
0.000399 -0.001006 0.000000
0.002685 -0.005169 0.000000
0.000793 -0.010444 0.000000
0.000000 0.000000 0.000000
0.000367 -0.001025 0.000000
0.002817 -0.003996 0.000000
0.000896 -0.010433 0.000000
0.000000 0.000000 0.000000
0.000384 -0.001011 0.000000
0.002718 -0.005083 0.000000
0.000816 -0.010433 0.000000
0.000375 -0.001018 0.000000
0.000848 -0.010431 0.000000
0.000000 0.000000 0.000000
0.002812 -0.004110 0.000000
0.000000 0.000000 0.000000
0.002743 -0.005006 0.000000
0.000000 0.000000 0.000000
0.002808 -0.004218 0.000000
0.000000 0.000000 0.000000
0.002760 -0.004933 0.000000
0.000000 0.000000 0.000000
0.002806 -0.004320 0.000000
0.000000 0.000000 0.000000
0.002768 -0.004851 0.000000
0.000000 0.000000 0.000000
0.002802 -0.004419 0.000000
0.000000 0.000000 0.000000
0.002777 -0.004760 0.000000
0.000000 0.000000 0.000000
0.002796 -0.004518 0.000000
0.000000 0.000000 0.000000
0.002786 -0.004662 0.000000
0.002791 -0.004591 0.000000
0.000000 0.000000 0.000000
0.000000 0.000000 0.000000
0.000000 0.000000 0.000000
0.000000 0.000000 0.000000
0.000000 0.000000 0.000000
0.000000 0.000000 0.000000
0.000000 0.000000 0.000000
0.000000 0.000000 0.000000
0.000000 0.000000 0.000000
0.000000 0.000000 0.000000
0.000000 0.000000 0.000000
0.000000 0.000000 0.000000
0.000000 0.000000 0.000000
0.000000 0.000000 0.000000
0.000000 0.000000 0.000000
0.000000 0.000000 0.000000
0.000000 0.000000 0.000000
0.000000 0.000000 0.000000
0.000000 0.000000 0.000000
0.000000 0.000000 0.000000
0.000000 0.000000 0.000000
0.000000 0.000000 0.000000
0.000000 0.000000 0.000000
0.000000 0.000000 0.000000
0.000000 0.000000 0.000000
0.000000 0.000000 0.000000
0.000000 0.000000 0.000000
0.000000 0.000000 0.000000
0.000000 0.000000 0.000000
0.000000 0.000000 0.000000
0.000000 0.000000 0.000000
0.000000 0.000000 0.000000
0.000000 0.000000 0.000000
0.000000 0.000000 0.000000
0.000000 0.000000 0.000000
0.000000 0.000000 0.000000
0.000000 0.000000 0.000000
0.000000 0.000000 0.000000
0.000000 0.000000 0.000000
0.000000 0.000000 0.000000
0.000000 0.000000 0.000000
0.000000 0.000000 0.000000
0.000000 0.000000 0.000000
0.000000 0.000000 0.000000
0.000000 0.000000 0.000000
0.000000 0.000000 0.000000
0.000000 0.000000 0.000000
0.000000 0.000000 0.000000
0.000000 0.000000 0.000000
0.000000 0.000000 0.000000
0.000000 0.000000 0.000000
0.000000 0.000000 0.000000
0.000000 0.000000 0.000000
0.000000 0.000000 0.000000
0.000000 0.000000 0.000000
0.000000 0.000000 0.000000
0.000000 0.000000 0.000000
0.000000 0.000000 0.000000
0.000000 0.000000 0.000000
0.000000 0.000000 0.000000
0.000000 0.000000 0.000000
0.000000 0.000000 0.000000
0.000000 0.000000 0.000000
0.000000 0.000000 0.000000
0.000000 0.000000 0.000000
0.000000 0.000000 0.000000
0.000000 0.000000 0.000000
0.000000 0.000000 0.000000
0.000000 0.000000 0.000000
0.000000 0.000000 0.000000
0.000000 0.000000 0.000000
0.000000 0.000000 0.000000
0.000000 0.000000 0.000000
0.000000 0.000000 0.000000
0.000000 0.000000 0.000000
0.000000 0.000000 0.000000
0.000000 0.000000 0.000000
0.000000 0.000000 0.000000
0.000000 0.000000 0.000000
0.000000 0.000000 0.000000
0.000000 0.000000 0.000000
0.000000 0.000000 0.000000
0.000000 0.000000 0.000000
0.000000 0.000000 0.000000
0.000000 0.000000 0.000000
0.000000 0.000000 0.000000
0.000000 0.000000 0.000000
0.000000 0.000000 0.000000
0.000000 0.000000 0.000000
0.000000 0.000000 0.000000
0.000000 0.000000 0.000000
0.000000 0.000000 0.000000
0.000000 0.000000 0.000000
0.000000 0.000000 0.000000
0.000000 0.000000 0.000000
0.000000 0.000000 0.000000
0.000000 0.000000 0.000000
0.000000 0.000000 0.000000
0.000000 0.000000 0.000000
0.000000 0.000000 0.000000
0.000000 0.000000 0.000000
0.000000 0.000000 0.000000
0.000000 0.000000 0.000000
0.000000 0.000000 0.000000
0.000000 0.000000 0.000000
0.000000 0.000000 0.000000
0.000000 0.000000 0.000000
0.000000 0.000000 0.000000
0.000000 0.000000 0.000000
0.000000 0.000000 0.000000
0.000000 0.000000 0.000000
0.000000 0.000000 0.000000
0.000000 0.000000 0.000000
0.000000 0.000000 0.000000
0.000000 0.000000 0.000000
0.000000 0.000000 0.000000
0.000000 0.000000 0.000000
0.000000 0.000000 0.000000
0.000000 0.000000 0.000000
0.000000 0.000000 0.000000
0.000000 0.000000 0.000000
0.000000 0.000000 0.000000
0.000000 0.000000 0.000000
0.000000 0.000000 0.000000
0.000000 0.000000 0.000000
0.000000 0.000000 0.000000
0.000000 0.000000 0.000000
0.000000 0.000000 0.000000
0.000000 0.000000 0.000000
0.000000 0.000000 0.000000
0.000000 0.000000 0.000000
0.000000 0.000000 0.000000
0.000000 0.000000 0.000000
0.000000 0.000000 0.000000
0.000000 0.000000 0.000000
0.000000 0.000000 0.000000
0.000000 0.000000 0.000000
0.000000 0.000000 0.000000
0.000000 0.000000 0.000000
0.000000 0.000000 0.000000
0.000000 0.000000 0.000000
0.000000 0.000000 0.000000
0.000000 0.000000 0.000000
0.000000 0.000000 0.000000
0.000000 0.000000 0.000000
0.000000 0.000000 0.000000
0.000000 0.000000 0.000000
0.000000 0.000000 0.000000
0.000000 0.000000 0.000000
0.000000 0.000000 0.000000
0.000000 0.000000 0.000000
0.000000 0.000000 0.000000
0.000400 -0.008581 0.000000
0.000458 -0.001817 0.000000
0.000657 -0.009223 0.000000
0.001257 -0.010756 0.000000
0.002052 -0.006243 0.000000
0.000491 -0.009589 0.000000
0.002121 -0.007940 0.000000
-0.000028 -0.001840 0.000000
0.003001 -0.003827 0.000000
0.000392 -0.002652 0.000000
0.002057 -0.006219 0.000000
0.001167 -0.010637 0.000000
0.000086 -0.000426 0.000000
0.003106 -0.004883 0.000000
0.002240 -0.005515 0.000000
0.002517 -0.008752 0.000000
0.000300 -0.009824 0.000000
0.000317 -0.008017 0.000000
0.001755 -0.001363 0.000000
0.000370 -0.007203 0.000000
0.001893 -0.005891 0.000000
0.000318 -0.007997 0.000000
0.002065 -0.001151 0.000000
0.001675 -0.001293 0.000000
0.000339 -0.006055 0.000000
0.002014 -0.001637 0.000000
0.000294 -0.006707 0.000000
0.002019 -0.001144 0.000000
0.001715 -0.005527 0.000000
0.000488 -0.007131 0.000000
0.000410 -0.007044 0.000000
0.000389 -0.005800 0.000000
0.000410 -0.007179 0.000000
0.002502 -0.002438 0.000000
0.003153 -0.005189 0.000000
0.002649 -0.002507 0.000000
0.002730 -0.003005 0.000000
0.002826 -0.003012 0.000000
0.002983 -0.007198 0.000000
0.002296 -0.001295 0.000000
0.001636 -0.005358 0.000000
0.000306 -0.006294 0.000000
0.000328 -0.008043 0.000000
0.002229 -0.001624 0.000000
0.001496 -0.005044 0.000000
0.001558 -0.005190 0.000000
0.000215 -0.007470 0.000000
0.001833 -0.001136 0.000000
0.000160 -0.000973 0.000000
0.002435 -0.002393 0.000000
0.001323 -0.004737 0.000000
0.000325 -0.007981 0.000000
0.000444 -0.005537 0.000000
0.001588 -0.001202 0.000000
0.000566 -0.007216 0.000000
0.001859 -0.006999 0.000000
0.002640 -0.002978 0.000000
0.002877 -0.002997 0.000000
0.001943 -0.006888 0.000000
0.000158 -0.000975 0.000000
0.000145 -0.006904 0.000000
0.001845 -0.001144 0.000000
0.002505 -0.002438 0.000000
0.000352 -0.007894 0.000000
0.000348 -0.006555 0.000000
0.003177 -0.005216 0.000000
0.002159 -0.002513 0.000000
0.002586 -0.002475 0.000000
0.000224 -0.007541 0.000000
0.000473 -0.007605 0.000000
0.000704 -0.004672 0.000000
0.003406 -0.004578 0.000000
0.000422 -0.006277 0.000000
0.000321 -0.006637 0.000000
0.002202 -0.003459 0.000000
-0.000310 -0.006139 0.000000
0.003418 -0.006841 0.000000
0.003405 -0.004591 0.000000
0.000447 -0.007156 0.000000
0.000800 -0.007444 0.000000
0.000130 -0.005206 0.000000
0.002470 -0.002416 0.000000
0.002796 -0.007707 0.000000
0.003376 -0.006864 0.000000
-0.000263 -0.006328 0.000000
0.000326 -0.007228 0.000000
0.003200 -0.005207 0.000000
0.002911 -0.007330 0.000000
0.002885 -0.002961 0.000000
0.002947 -0.007259 0.000000
-0.000249 -0.005473 0.000000
0.001272 -0.004657 0.000000
0.000344 -0.007931 0.000000
0.000488 -0.005314 0.000000
0.000218 -0.007417 0.000000
0.001240 -0.010521 0.000000
0.001450 -0.010334 0.000000
0.003172 -0.005167 0.000000
0.000142 -0.000974 0.000000
0.002774 -0.002579 0.000000
0.003132 -0.005202 0.000000
0.001969 -0.001135 0.000000
0.001358 -0.000905 0.000000
0.002032 -0.001663 0.000000
0.000148 -0.000924 0.000000
0.001740 -0.001083 0.000000
-0.000315 -0.006039 0.000000
0.001440 -0.000953 0.000000
0.003337 -0.004798 0.000000
0.001411 -0.010390 0.000000
0.001903 -0.003301 0.000000
0.001716 -0.003687 0.000000
0.001698 -0.010014 0.000000
0.002829 -0.007552 0.000000
0.000777 -0.004613 0.000000
0.000161 -0.000972 0.000000
0.000127 -0.000895 0.000000
0.002607 -0.002956 0.000000
0.000231 -0.007567 0.000000
0.002360 -0.002348 0.000000
0.000349 -0.007912 0.000000
0.001762 -0.007140 0.000000
0.001987 -0.001612 0.000000
0.001822 -0.001427 0.000000
0.003046 -0.007281 0.000000
0.000552 -0.007181 0.000000
0.003121 -0.007050 0.000000
0.001045 -0.002338 0.000000
0.001431 -0.010365 0.000000
0.001566 -0.002769 0.000000
0.000451 -0.006063 0.000000
0.003395 -0.004599 0.000000
0.000152 -0.000933 0.000000
0.002018 -0.003373 0.000000
0.000438 -0.006168 0.000000
0.002015 -0.009658 0.000000
0.000492 -0.007504 0.000000
0.001212 -0.010502 0.000000
0.001693 -0.002875 0.000000
0.002830 -0.002906 0.000000
0.001362 -0.010245 0.000000
0.002007 -0.006818 0.000000
0.002811 -0.007630 0.000000
0.003267 -0.004555 0.000000
0.003203 -0.004981 0.000000
0.002102 -0.001155 0.000000
0.002081 -0.009545 0.000000
0.003084 -0.007163 0.000000
0.000168 -0.000965 0.000000
0.002808 -0.002618 0.000000
0.002304 -0.001364 0.000000
0.002268 -0.001578 0.000000
0.001995 -0.002376 0.000000
0.000421 -0.005554 0.000000
0.003451 -0.006797 0.000000
0.002010 -0.009632 0.000000
0.000423 -0.008041 0.000000
0.000240 -0.007586 0.000000
0.003269 -0.004538 0.000000
0.001165 -0.010459 0.000000
0.001783 -0.009909 0.000000
0.000659 -0.004697 0.000000
0.002286 -0.001237 0.000000
0.000902 -0.007525 0.000000
0.000540 -0.005116 0.000000
0.001765 -0.001101 0.000000
0.001819 -0.001127 0.000000
-0.000288 -0.005578 0.000000
0.002390 -0.009187 0.000000
0.002286 -0.002635 0.000000
0.003152 -0.005227 0.000000
0.003463 -0.006596 0.000000
0.001914 -0.009774 0.000000
0.003238 -0.006780 0.000000
0.003222 -0.005204 0.000000
0.000460 -0.007714 0.000000
0.002954 -0.007617 0.000000
0.002322 -0.009215 0.000000
0.000518 -0.009393 0.000000
-0.000046 -0.006807 0.000000
0.000100 -0.006912 0.000000
0.000809 -0.009728 0.000000
0.003335 -0.004985 0.000000
0.000261 -0.009947 0.000000
0.000298 -0.006505 0.000000
-0.000320 -0.005923 0.000000
0.001483 -0.002973 0.000000
0.000163 -0.000970 0.000000
0.000137 -0.000969 0.000000
0.003399 -0.004560 0.000000
0.000196 -0.006887 0.000000
0.000249 -0.007600 0.000000
0.001374 -0.000751 0.000000
0.001112 -0.010407 0.000000
0.000589 -0.006016 0.000000
0.001468 -0.003956 0.000000
0.002502 -0.002416 0.000000
0.002590 -0.002938 0.000000
0.001615 -0.010119 0.000000
0.001474 -0.010304 0.000000
0.002849 -0.007477 0.000000
0.002160 -0.009454 0.000000
0.003280 -0.004568 0.000000
0.000143 -0.000915 0.000000
0.000643 -0.009919 0.000000
0.000121 -0.000935 0.000000
0.001701 -0.003592 0.000000
0.001733 -0.003774 0.000000
0.001416 -0.000972 0.000000
0.001498 -0.001104 0.000000
0.000447 -0.009138 0.000000
0.001339 -0.000738 0.000000
0.001832 -0.002986 0.000000
0.000355 -0.007865 0.000000
0.000575 -0.009213 0.000000
0.002934 -0.007728 0.000000
0.000386 -0.008066 0.000000
0.000332 -0.007762 0.000000
0.000507 -0.006284 0.000000
0.000455 -0.009199 0.000000
0.000278 -0.006780 0.000000
0.000588 -0.009270 0.000000
0.001313 -0.000905 0.000000
0.000284 -0.009767 0.000000
0.002414 -0.003411 0.000000
0.000666 -0.009955 0.000000
0.000284 -0.009787 0.000000
0.000340 -0.007951 0.000000
0.000463 -0.008900 0.000000
0.001235 -0.004580 0.000000
0.002819 -0.002885 0.000000
0.001655 -0.007301 0.000000
0.001488 -0.001467 0.000000
0.000466 -0.006387 0.000000
0.002765 -0.007852 0.000000
0.002756 -0.008050 0.000000
0.000123 -0.000890 0.000000
0.003002 -0.007394 0.000000
0.001160 -0.003358 0.000000
0.000211 -0.009959 0.000000
0.000295 -0.009746 0.000000
0.001304 -0.010526 0.000000
0.001408 -0.010367 0.000000
0.000368 -0.006628 0.000000
0.000491 -0.009349 0.000000
0.001450 -0.002661 0.000000
0.000607 -0.009325 0.000000
0.000206 -0.006450 0.000000
0.001779 -0.003985 0.000000
0.000116 -0.000898 0.000000
0.001307 -0.001409 0.000000
0.001205 -0.000873 0.000000
0.002452 -0.009166 0.000000
0.002543 -0.002432 0.000000
0.003246 -0.005209 0.000000
0.000572 -0.007214 0.000000
0.002824 -0.002704 0.000000
0.001269 -0.000730 0.000000
0.001809 -0.009870 0.000000
0.000751 -0.010003 0.000000
0.000636 -0.004687 0.000000
0.000479 -0.007133 0.000000
0.000535 -0.007146 0.000000
0.000226 -0.009967 0.000000
0.000214 -0.006333 0.000000
0.003341 -0.005028 0.000000
0.001234 -0.000887 0.000000
0.000945 -0.009844 0.000000
0.000707 -0.009445 0.000000
0.002047 -0.002159 0.000000
0.000060 -0.007056 0.000000
0.001697 -0.001058 0.000000
0.001066 -0.010368 0.000000
0.001315 -0.010154 0.000000
0.001765 -0.001931 0.000000
0.002380 -0.002730 0.000000
0.000252 -0.009958 0.000000
0.001458 -0.000941 0.000000
0.001113 -0.010595 0.000000
0.001506 -0.010084 0.000000
0.001054 -0.001131 0.000000
0.000278 -0.009934 0.000000
0.001600 -0.004054 0.000000
0.000625 -0.009368 0.000000
0.003059 -0.005831 0.000000
0.001501 -0.010338 0.000000
0.002122 -0.006495 0.000000
0.000138 -0.006999 0.000000
0.000211 -0.009934 0.000000
0.003202 -0.004907 0.000000
0.000288 -0.009801 0.000000
0.001353 -0.002815 0.000000
0.000349 -0.009756 0.000000
0.000788 -0.000800 0.000000
0.001489 -0.000763 0.000000
0.000464 -0.007814 0.000000
0.000411 -0.008843 0.000000
0.000187 -0.006962 0.000000
0.001278 -0.010547 0.000000
0.001258 -0.010537 0.000000
0.002391 -0.003475 0.000000
0.002484 -0.009082 0.000000
0.002063 -0.006779 0.000000
0.002117 -0.008912 0.000000
0.000434 -0.008960 0.000000
0.001190 -0.000727 0.000000
0.001232 -0.000730 0.000000
0.000315 -0.009730 0.000000
0.001501 -0.000783 0.000000
0.000587 -0.004931 0.000000
0.000288 -0.009927 0.000000
0.002479 -0.009130 0.000000
0.001412 -0.000769 0.000000
0.003341 -0.004722 0.000000
0.000150 -0.008512 0.000000
0.000508 -0.007408 0.000000
0.002157 -0.001157 0.000000
-0.000208 -0.006497 0.000000
0.001808 -0.002218 0.000000
0.003175 -0.006880 0.000000
0.000546 -0.009443 0.000000
0.000892 -0.009807 0.000000
0.000312 -0.006762 0.000000
0.000435 -0.005825 0.000000
0.003320 -0.006858 0.000000
0.000157 -0.000943 0.000000
0.000165 -0.000960 0.000000
0.000247 -0.008431 0.000000
0.001591 -0.003250 0.000000
0.001381 -0.000905 0.000000
0.001435 -0.000881 0.000000
0.001964 -0.003091 0.000000
0.001573 -0.010250 0.000000
0.000625 -0.005844 0.000000
0.000590 -0.005170 0.000000
0.003167 -0.006996 0.000000
0.002311 -0.009485 0.000000
0.003378 -0.004619 0.000000
0.000282 -0.007250 0.000000
0.000139 -0.008027 0.000000
0.003286 -0.004520 0.000000
0.000868 -0.000912 0.000000
0.000767 -0.010054 0.000000
0.003481 -0.006733 0.000000
0.001460 -0.000864 0.000000
0.000159 -0.000610 0.000000
0.003057 -0.007098 0.000000
0.000259 -0.007607 0.000000
0.001112 -0.000793 0.000000
0.000462 -0.008007 0.000000
0.001605 -0.001521 0.000000
0.000117 -0.008500 0.000000
0.000156 -0.000977 0.000000
0.003192 -0.006766 0.000000
0.002243 -0.009356 0.000000
0.000046 -0.006829 0.000000
0.001114 -0.002976 0.000000
0.002989 -0.006292 0.000000
0.000498 -0.008017 0.000000
0.001735 -0.004239 0.000000
0.002158 -0.001709 0.000000
0.002072 -0.001717 0.000000
0.001011 -0.007627 0.000000
0.001038 -0.002383 0.000000
0.002935 -0.007993 0.000000
0.001072 -0.002194 0.000000
-0.000097 -0.006739 0.000000
0.001914 -0.001122 0.000000
0.001863 -0.001136 0.000000
0.001134 -0.010663 0.000000
0.000967 -0.010233 0.000000
0.003199 -0.006856 0.000000
0.003055 -0.005612 0.000000
0.000416 -0.005857 0.000000
0.002309 -0.006646 0.000000
0.002473 -0.009275 0.000000
0.000205 -0.008012 0.000000
0.000361 -0.003919 0.000000
0.002425 -0.007715 0.000000
0.002453 -0.003956 0.000000
0.001778 -0.009280 0.000000
0.000353 -0.009866 0.000000
0.001092 -0.010510 0.000000
0.000143 -0.010099 0.000000
0.003043 -0.004518 0.000000
0.002697 -0.007295 0.000000
0.000073 -0.008485 0.000000
0.001822 -0.009168 0.000000
0.003495 -0.006582 0.000000
0.000540 -0.010187 0.000000
0.000167 -0.000973 0.000000
0.001853 -0.001988 0.000000
0.000316 -0.008292 0.000000
0.000404 -0.006387 0.000000
0.000140 -0.006618 0.000000
0.000974 -0.004453 0.000000
0.000323 -0.000987 0.000000
0.001709 -0.004182 0.000000
0.002767 -0.007900 0.000000
0.000819 -0.010171 0.000000
0.001428 -0.004903 0.000000
0.000353 -0.009843 0.000000
0.000521 -0.007030 0.000000
0.000283 -0.009837 0.000000
0.003355 -0.005131 0.000000
0.002233 -0.009565 0.000000
0.000025 -0.006920 0.000000
0.001876 -0.001490 0.000000
0.001946 -0.001584 0.000000
0.000164 -0.000971 0.000000
0.001643 -0.004101 0.000000
0.000465 -0.005966 0.000000
0.000030 -0.000515 0.000000
0.000505 -0.008979 0.000000
0.001263 -0.010741 0.000000
0.001176 -0.002521 0.000000
0.000652 -0.006761 0.000000
0.000170 -0.000970 0.000000
0.000946 -0.010274 0.000000
0.001329 -0.003841 0.000000
0.000794 -0.000905 0.000000
0.000251 -0.009898 0.000000
0.002842 -0.002725 0.000000
0.002650 -0.008210 0.000000
0.000447 -0.008158 0.000000
0.000384 -0.004453 0.000000
0.003115 -0.005218 0.000000
0.000326 -0.000350 0.000000
0.003403 -0.005028 0.000000
0.003214 -0.006647 0.000000
0.000219 -0.000678 0.000000
0.000224 -0.006185 0.000000
0.002061 -0.009719 0.000000
0.000169 -0.000974 0.000000
0.002963 -0.002861 0.000000
0.001162 -0.000929 0.000000
0.000280 -0.009568 0.000000
0.002488 -0.009025 0.000000
0.000841 -0.010153 0.000000
0.000160 -0.010087 0.000000
0.001684 -0.003485 0.000000
0.001768 -0.007875 0.000000
0.001829 -0.004189 0.000000
0.000281 -0.006886 0.000000
0.001130 -0.002230 0.000000
0.000560 -0.009110 0.000000
0.003334 -0.004867 0.000000
0.000017 -0.002541 0.000000
0.002318 -0.009275 0.000000
0.000334 -0.009904 0.000000
0.000458 -0.009260 0.000000
0.000186 -0.003832 0.000000
0.000007 -0.008095 0.000000
0.002572 -0.002906 0.000000
0.000343 -0.001738 0.000000
0.003081 -0.005603 0.000000
0.002830 -0.002853 0.000000
0.000100 -0.001071 0.000000
0.002502 -0.002382 0.000000
0.000006 -0.000533 0.000000
0.000614 -0.009265 0.000000
0.002783 -0.007816 0.000000
0.002281 -0.006805 0.000000
0.000101 -0.000504 0.000000
0.002988 -0.007339 0.000000
0.000057 -0.001118 0.000000
0.001387 -0.001873 0.000000
0.000325 -0.003121 0.000000
0.001180 -0.003485 0.000000
0.000339 -0.000990 0.000000
0.000574 -0.006084 0.000000
0.002344 -0.006466 0.000000
0.000138 -0.001023 0.000000
0.000360 -0.003231 0.000000
0.002464 -0.002797 0.000000
0.000566 -0.004798 0.000000
0.000888 -0.010125 0.000000
0.000222 -0.000730 0.000000
0.000044 -0.010335 0.000000
0.000591 -0.000773 0.000000
0.001411 -0.010411 0.000000
0.001417 -0.010395 0.000000
0.000627 -0.004642 0.000000
0.000347 -0.003637 0.000000
-0.000122 -0.003903 0.000000
0.002881 -0.002804 0.000000
0.003114 -0.003807 0.000000
-0.000030 -0.005040 0.000000
0.002796 -0.006310 0.000000
0.000649 -0.006740 0.000000
0.000666 -0.003300 0.000000
0.002908 -0.004087 0.000000
0.000353 -0.001000 0.000000
0.000301 -0.000529 0.000000
0.002183 -0.009444 0.000000
0.000337 -0.001038 0.000000
0.000852 -0.010135 0.000000
0.000427 -0.000342 0.000000
0.003488 -0.005288 0.000000
0.001170 -0.000858 0.000000
0.001122 -0.000817 0.000000
0.000094 -0.001177 0.000000
0.003368 -0.006414 0.000000
0.000289 -0.000980 0.000000
0.000061 -0.000653 0.000000
0.002806 -0.007297 0.000000
-0.000083 -0.008386 0.000000
0.001522 -0.004000 0.000000
0.000731 -0.009457 0.000000
0.002293 -0.002111 0.000000
0.000356 -0.001006 0.000000
-0.000240 -0.003136 0.000000
0.001501 -0.001459 0.000000
0.000935 -0.000910 0.000000
0.000356 -0.001017 0.000000
0.002348 -0.008930 0.000000
0.000713 -0.001002 0.000000
0.002520 -0.002375 0.000000
0.000621 -0.004757 0.000000
0.002295 -0.009268 0.000000
0.000992 -0.001254 0.000000
0.000018 -0.000960 0.000000
0.000117 -0.000996 0.000000
0.000109 -0.001099 0.000000
0.000128 -0.001012 0.000000
0.000473 -0.002701 0.000000
0.000368 -0.008792 0.000000
0.002912 -0.002864 0.000000
-0.000390 -0.005021 0.000000
0.000390 -0.003897 0.000000
0.001073 -0.010410 0.000000
0.003233 -0.004714 0.000000
0.000360 -0.008114 0.000000
0.000257 -0.007255 0.000000
0.000535 -0.006203 0.000000
0.002246 -0.003395 0.000000
0.000260 -0.008377 0.000000
0.001715 -0.009511 0.000000
0.000243 -0.009715 0.000000
0.000216 -0.000654 0.000000
0.001110 -0.000935 0.000000
0.000104 -0.000974 0.000000
0.002681 -0.008742 0.000000
0.000379 -0.010048 0.000000
0.000928 -0.000914 0.000000
0.000845 -0.000896 0.000000
0.002900 -0.007323 0.000000
0.002142 -0.006582 0.000000
0.001321 -0.000930 0.000000
0.002441 -0.003336 0.000000
0.000195 -0.004365 0.000000
0.002873 -0.007526 0.000000
0.001211 -0.002605 0.000000
0.002793 -0.002604 0.000000
-0.000240 -0.003205 0.000000
0.001499 -0.000775 0.000000
0.001585 -0.001231 0.000000
0.001435 -0.010280 0.000000
0.000354 -0.000346 0.000000
0.000986 -0.010322 0.000000
0.000048 -0.000618 0.000000
0.000063 -0.000694 0.000000
0.000065 -0.001095 0.000000
0.003290 -0.005222 0.000000
0.001215 -0.000922 0.000000
0.000171 -0.001142 0.000000
0.000294 -0.000354 0.000000
0.000692 -0.010346 0.000000
0.001587 -0.001638 0.000000
0.000054 -0.000499 0.000000
-0.000006 -0.000552 0.000000
-0.000452 -0.002646 0.000000
0.000367 -0.010023 0.000000
0.003024 -0.007661 0.000000
0.000184 -0.000924 0.000000
0.003452 -0.006347 0.000000
0.001270 -0.000932 0.000000
0.000770 -0.010454 0.000000
0.000644 -0.009403 0.000000
0.003037 -0.005950 0.000000
0.000579 -0.007212 0.000000
0.001101 -0.000769 0.000000
0.002629 -0.004000 0.000000
0.000350 -0.007850 0.000000
0.000331 -0.007806 0.000000
0.000412 -0.004173 0.000000
0.000161 -0.001159 0.000000
0.001966 -0.008726 0.000000
0.003272 -0.006417 0.000000
0.000203 -0.000674 0.000000
0.000380 -0.000446 0.000000
0.000749 -0.008007 0.000000
-0.000007 -0.002097 0.000000
0.002924 -0.006472 0.000000
0.000407 -0.000345 0.000000
0.001838 -0.002033 0.000000
0.001037 -0.002382 0.000000
0.003080 -0.004376 0.000000
0.002733 -0.002538 0.000000
0.000235 -0.006887 0.000000
0.000265 -0.006851 0.000000
0.003446 -0.005148 0.000000
0.003576 -0.006160 0.000000
0.000268 -0.008014 0.000000
0.000732 -0.000518 0.000000
-0.000087 -0.008279 0.000000
-0.000406 -0.004900 0.000000
0.000058 -0.010301 0.000000
0.000049 -0.000659 0.000000
0.000034 -0.010367 0.000000
0.000740 -0.009534 0.000000
0.002190 -0.002060 0.000000
0.001723 -0.010035 0.000000
0.000333 -0.007686 0.000000
0.000433 -0.010181 0.000000
0.002122 -0.006751 0.000000
0.000044 -0.000626 0.000000
0.001461 -0.007600 0.000000
0.000507 -0.004288 0.000000
0.003527 -0.006254 0.000000
0.000928 -0.000922 0.000000
0.000521 -0.006866 0.000000
0.000422 -0.000615 0.000000
0.000396 -0.000587 0.000000
0.002871 -0.006485 0.000000
0.000297 -0.009650 0.000000
0.000394 -0.010053 0.000000
0.000324 -0.004604 0.000000
0.002743 -0.008049 0.000000
0.002747 -0.007947 0.000000
0.003198 -0.005063 0.000000
0.000378 -0.000650 0.000000
0.000083 -0.006990 0.000000
0.000455 -0.000295 0.000000
0.002936 -0.002923 0.000000
0.002923 -0.002816 0.000000
0.002924 -0.004029 0.000000
0.001673 -0.001921 0.000000
0.002514 -0.008982 0.000000
0.000056 -0.000647 0.000000
0.001931 -0.007553 0.000000
0.002393 -0.006266 0.000000
0.001813 -0.001449 0.000000
-0.000129 -0.002997 0.000000
0.000489 -0.005418 0.000000
0.001964 -0.005041 0.000000
0.000933 -0.000903 0.000000
0.001635 -0.002060 0.000000
-0.000026 -0.002528 0.000000
0.003347 -0.004293 0.000000
0.002965 -0.003385 0.000000
0.000360 -0.003493 0.000000
0.000635 -0.005008 0.000000
0.001058 -0.000941 0.000000
0.000412 -0.010170 0.000000
0.001166 -0.001656 0.000000
0.000364 -0.003309 0.000000
0.002287 -0.009120 0.000000
0.001187 -0.002332 0.000000
0.002882 -0.007932 0.000000
0.002786 -0.008060 0.000000
0.000124 -0.000503 0.000000
0.002849 -0.008280 0.000000
0.000526 -0.007314 0.000000
0.001822 -0.001857 0.000000
0.000409 -0.008333 0.000000
0.000168 -0.000566 0.000000
0.000063 -0.000671 0.000000
0.000454 -0.002610 0.000000
0.001576 -0.009703 0.000000
0.002268 -0.005219 0.000000
0.000797 -0.009555 0.000000
0.000045 -0.000507 0.000000
0.000062 -0.000680 0.000000
0.000478 -0.000466 0.000000
0.001840 -0.007696 0.000000
0.000066 -0.000716 0.000000
0.000771 -0.010079 0.000000
0.000364 -0.008859 0.000000
0.000043 -0.002769 0.000000
0.000754 -0.010028 0.000000
0.000029 -0.004860 0.000000
0.002255 -0.006950 0.000000
-0.000078 -0.008207 0.000000
-0.000005 -0.000550 0.000000
0.000328 -0.008852 0.000000
0.000840 -0.000911 0.000000
0.000408 -0.009227 0.000000
0.000062 -0.000502 0.000000
0.002802 -0.006116 0.000000
0.000080 -0.001114 0.000000
-0.000135 -0.003213 0.000000
0.000101 -0.001170 0.000000
0.002648 -0.002082 0.000000
0.002132 -0.009297 0.000000
0.000474 -0.005740 0.000000
0.000430 -0.008891 0.000000
0.002014 -0.008928 0.000000
0.000170 -0.010081 0.000000
0.000407 -0.003523 0.000000
0.000397 -0.004726 0.000000
0.000436 -0.010064 0.000000
0.001506 -0.000794 0.000000
0.000366 -0.008875 0.000000
0.000429 -0.000286 0.000000
0.001450 -0.001147 0.000000
0.000406 -0.010029 0.000000
0.002581 -0.001973 0.000000
0.001366 -0.002071 0.000000
0.000069 -0.001133 0.000000
0.000646 -0.007309 0.000000
0.000527 -0.008928 0.000000
0.002807 -0.007738 0.000000
0.001790 -0.002228 0.000000
0.000389 -0.000356 0.000000
0.000047 -0.000625 0.000000
0.001299 -0.000933 0.000000
0.000642 -0.006779 0.000000
0.000026 -0.010395 0.000000
0.001679 -0.008006 0.000000
0.000755 -0.010462 0.000000
0.000089 -0.001224 0.000000
0.000229 -0.005235 0.000000
0.000146 -0.000479 0.000000
0.000714 -0.010280 0.000000
0.002019 -0.001969 0.000000
0.000058 -0.002970 0.000000
0.000842 -0.000889 0.000000
0.000446 -0.000649 0.000000
0.000417 -0.005519 0.000000
0.001285 -0.010716 0.000000
-0.000041 -0.008125 0.000000
0.003118 -0.005558 0.000000
0.003129 -0.003363 0.000000
0.001020 -0.009877 0.000000
0.001226 -0.010032 0.000000
0.000603 -0.004552 0.000000
-0.000118 -0.004259 0.000000
0.000279 -0.000457 0.000000
-0.000290 -0.006254 0.000000
0.000287 -0.009687 0.000000
0.003095 -0.007429 0.000000
0.000006 -0.000158 0.000000
0.000206 -0.000567 0.000000
0.000798 -0.000899 0.000000
0.000390 -0.010159 0.000000
0.000293 -0.005845 0.000000
-0.000025 -0.002713 0.000000
0.002589 -0.007333 0.000000
0.000016 -0.009648 0.000000
0.001058 -0.010298 0.000000
0.001144 -0.000717 0.000000
0.000980 -0.008185 0.000000
0.000678 -0.004734 0.000000
0.000799 -0.000917 0.000000
0.000082 -0.010326 0.000000
0.000416 -0.008144 0.000000
0.000839 -0.010234 0.000000
0.000489 -0.007982 0.000000
0.000652 -0.006606 0.000000
0.000151 -0.000141 0.000000
0.002048 -0.009382 0.000000
0.001606 -0.008182 0.000000
0.001482 -0.000846 0.000000
0.000338 -0.010014 0.000000
0.000429 -0.000341 0.000000
0.001624 -0.001017 0.000000
0.001474 -0.000940 0.000000
0.000079 -0.001182 0.000000
0.000873 -0.010030 0.000000
0.001380 -0.010427 0.000000
0.000062 -0.009815 0.000000
0.000016 -0.001031 0.000000
0.001982 -0.002037 0.000000
0.000463 -0.007899 0.000000
0.002676 -0.008714 0.000000
0.000386 -0.006299 0.000000
0.000418 -0.003782 0.000000
0.003298 -0.004592 0.000000
0.000119 -0.000737 0.000000
0.001268 -0.000915 0.000000
-0.000396 -0.001285 0.000000
0.000519 -0.007193 0.000000
0.002871 -0.003876 0.000000
0.002656 -0.001841 0.000000
0.003086 -0.004202 0.000000
0.000069 -0.001164 0.000000
0.002480 -0.008507 0.000000
0.001091 -0.000809 0.000000
0.002395 -0.009197 0.000000
0.000074 -0.010267 0.000000
0.001873 -0.009828 0.000000
0.000800 -0.010122 0.000000
0.001335 -0.010499 0.000000
0.000073 -0.000584 0.000000
0.000907 -0.000931 0.000000
0.001977 -0.002036 0.000000
0.000070 -0.002218 0.000000
0.000338 -0.000438 0.000000
0.000415 -0.008857 0.000000
0.000465 -0.000301 0.000000
0.001665 -0.001343 0.000000
0.001610 -0.001723 0.000000
0.000030 -0.010405 0.000000
0.000315 -0.001031 0.000000
0.000494 -0.001021 0.000000
0.000645 -0.006715 0.000000
0.000340 -0.008493 0.000000
0.000021 -0.010419 0.000000
0.001137 -0.003045 0.000000
0.000179 -0.000528 0.000000
0.000855 -0.000789 0.000000
0.002144 -0.003216 0.000000
0.002744 -0.002474 0.000000
0.001782 -0.001848 0.000000
0.001009 -0.000947 0.000000
0.002870 -0.002764 0.000000
0.003352 -0.004924 0.000000
0.003061 -0.004277 0.000000
0.000369 -0.010149 0.000000
0.002957 -0.003495 0.000000
0.000398 -0.008161 0.000000
-0.000065 -0.008439 0.000000
0.000028 -0.000166 0.000000
0.002208 -0.003273 0.000000
0.000872 -0.008072 0.000000
0.000047 -0.002637 0.000000
0.001363 -0.000918 0.000000
0.001131 -0.000853 0.000000
0.000251 -0.009455 0.000000
0.000284 -0.009196 0.000000
-0.000044 -0.002055 0.000000
0.001771 -0.003224 0.000000
0.000175 -0.008524 0.000000
0.000009 -0.000539 0.000000
0.000065 -0.000714 0.000000
0.000166 -0.005280 0.000000
-0.000003 -0.000501 0.000000
0.002937 -0.003934 0.000000
0.000057 -0.006698 0.000000
0.000175 -0.003187 0.000000
0.000265 -0.000363 0.000000
0.000849 -0.010251 0.000000
0.000729 -0.009948 0.000000
-0.000135 -0.003544 0.000000
0.001080 -0.008247 0.000000
0.001829 -0.001444 0.000000
0.001840 -0.001864 0.000000
0.000273 -0.009810 0.000000
0.000237 -0.001701 0.000000
0.000220 -0.008488 0.000000
0.000648 -0.006656 0.000000
0.000957 -0.009541 0.000000
0.000444 -0.000713 0.000000
0.000017 -0.000156 0.000000
0.000150 -0.002439 0.000000
0.000366 -0.005300 0.000000
0.001773 -0.008363 0.000000
0.000077 -0.000741 0.000000
0.000250 -0.009999 0.000000
0.002968 -0.003385 0.000000
0.000454 -0.010192 0.000000
0.000505 -0.008909 0.000000
0.003030 -0.005882 0.000000
0.001866 -0.009055 0.000000
0.002749 -0.008187 0.000000
0.000621 -0.004986 0.000000
0.000790 -0.010439 0.000000
0.000424 -0.008896 0.000000
0.000234 -0.010014 0.000000
0.000343 -0.000525 0.000000
0.000353 -0.008827 0.000000
0.000362 -0.000363 0.000000
0.000040 -0.002184 0.000000
0.000644 -0.009588 0.000000
0.000598 -0.000961 0.000000
0.002991 -0.003760 0.000000
0.000423 -0.008473 0.000000
0.000441 -0.007058 0.000000
0.000172 -0.004379 0.000000
0.001550 -0.008348 0.000000
0.000131 -0.010103 0.000000
0.000146 -0.006838 0.000000
0.000347 -0.008780 0.000000
0.000124 -0.000496 0.000000
0.000002 -0.000158 0.000000
0.000542 -0.003113 0.000000
0.001441 -0.010403 0.000000
0.000405 -0.008846 0.000000
0.003260 -0.004649 0.000000
0.001484 -0.000759 0.000000
-0.000120 -0.002192 0.000000
-0.000083 -0.002293 0.000000
0.001285 -0.000903 0.000000
0.000328 -0.006008 0.000000
0.002683 -0.003155 0.000000
0.001156 -0.010714 0.000000
0.002360 -0.002153 0.000000
0.000380 -0.008893 0.000000
0.002715 -0.002424 0.000000
0.000343 -0.010142 0.000000
0.000039 -0.007144 0.000000
0.002268 -0.001168 0.000000
0.002213 -0.001157 0.000000
0.001889 -0.004898 0.000000
0.003201 -0.005507 0.000000
0.000634 -0.009497 0.000000
0.000016 -0.010439 0.000000
0.002955 -0.002985 0.000000
-0.000104 -0.001557 0.000000
0.003094 -0.004536 0.000000
0.000271 -0.002209 0.000000
0.000370 -0.003313 0.000000
0.000111 -0.001137 0.000000
-0.000011 -0.008480 0.000000
0.000005 -0.000451 0.000000
0.001409 -0.010343 0.000000
0.000277 -0.001016 0.000000
0.002660 -0.003190 0.000000
0.000874 -0.010094 0.000000
0.003280 -0.006438 0.000000
0.000514 -0.006712 0.000000
-0.000184 -0.006586 0.000000
0.000456 -0.008777 0.000000
0.003044 -0.004569 0.000000
0.001138 -0.010521 0.000000
0.000753 -0.009626 0.000000
0.001740 -0.010054 0.000000
0.001814 -0.009577 0.000000
-0.000091 -0.002405 0.000000
0.000435 -0.009400 0.000000
0.000489 -0.008960 0.000000
0.000317 -0.008699 0.000000
0.000342 -0.008246 0.000000
0.000180 -0.001118 0.000000
0.001904 -0.004958 0.000000
0.000411 -0.007241 0.000000
0.000510 -0.004411 0.000000
0.000405 -0.000284 0.000000
0.000215 -0.008809 0.000000
0.003155 -0.004091 0.000000
0.001023 -0.010371 0.000000
0.002020 -0.005038 0.000000
0.000379 -0.008173 0.000000
0.001730 -0.001328 0.000000
0.002453 -0.006076 0.000000
0.000222 -0.000710 0.000000
0.001390 -0.010467 0.000000
0.000003 -0.010502 0.000000
-0.000001 -0.010509 0.000000
0.000019 -0.000882 0.000000
0.000093 -0.000137 0.000000
0.000287 -0.009992 0.000000
-0.000070 -0.005210 0.000000
0.001998 -0.007409 0.000000
0.000037 -0.010391 0.000000
-0.000006 -0.003221 0.000000
0.000467 -0.005142 0.000000
0.001165 -0.008292 0.000000
0.000235 -0.007356 0.000000
0.001076 -0.009553 0.000000
0.000353 -0.001024 0.000000
0.003037 -0.003571 0.000000
0.003364 -0.004513 0.000000
0.003310 -0.004501 0.000000
0.002939 -0.007981 0.000000
0.000394 -0.000450 0.000000
0.001613 -0.003505 0.000000
0.002917 -0.003429 0.000000
0.003371 -0.006254 0.000000
0.001552 -0.002539 0.000000
0.000093 -0.010235 0.000000
0.002571 -0.002895 0.000000
0.000458 -0.000308 0.000000
0.000001 -0.010493 0.000000
0.000283 -0.000427 0.000000
0.000293 -0.008779 0.000000
0.000121 -0.000684 0.000000
0.000158 -0.000495 0.000000
0.001160 -0.000604 0.000000
0.000111 -0.000495 0.000000
0.000052 -0.010376 0.000000
0.002994 -0.003755 0.000000
0.003074 -0.005499 0.000000
0.001228 -0.010878 0.000000
0.002784 -0.008486 0.000000
0.003513 -0.006640 0.000000
0.000030 -0.000550 0.000000
0.000092 -0.000523 0.000000
0.000306 -0.010137 0.000000
0.003269 -0.004779 0.000000
0.000065 -0.000532 0.000000
0.000276 -0.005394 0.000000
0.002731 -0.008033 0.000000
0.000269 -0.008415 0.000000
0.003152 -0.003990 0.000000
0.000231 -0.000420 0.000000
0.000820 -0.001782 0.000000
0.000267 -0.009991 0.000000
0.000259 -0.010136 0.000000
0.000416 -0.008160 0.000000
0.000236 -0.005403 0.000000
0.002839 -0.007667 0.000000
0.000206 -0.010147 0.000000
0.000114 -0.006846 0.000000
0.000172 -0.000891 0.000000
0.000054 -0.010334 0.000000
0.000322 -0.006951 0.000000
0.000174 -0.003900 0.000000
0.003101 -0.007044 0.000000
0.002977 -0.003286 0.000000
0.003305 -0.005504 0.000000
0.000151 -0.001170 0.000000
0.000089 -0.001041 0.000000
0.000115 -0.010203 0.000000
0.000213 -0.010040 0.000000
0.000153 -0.010173 0.000000
0.001105 -0.002866 0.000000
0.000113 -0.004626 0.000000
0.002056 -0.008693 0.000000
0.000473 -0.006848 0.000000
0.000961 -0.000954 0.000000
0.000453 -0.004387 0.000000
0.000377 -0.004109 0.000000
0.000397 -0.001010 0.000000
-0.000048 -0.000523 0.000000
0.002109 -0.002484 0.000000
0.000907 -0.000660 0.000000
0.000314 -0.001022 0.000000
0.000062 -0.000133 0.000000
0.000010 -0.010457 0.000000
0.002899 -0.003888 0.000000
0.000178 -0.000414 0.000000
0.000195 -0.009647 0.000000
0.000313 -0.005203 0.000000
0.000271 -0.008482 0.000000
0.000049 -0.006668 0.000000
0.000192 -0.000409 0.000000
0.000781 -0.001841 0.000000
0.000086 -0.001111 0.000000
0.000476 -0.003508 0.000000
0.000301 -0.008624 0.000000
0.000371 -0.010036 0.000000
0.000457 -0.008981 0.000000
0.000029 -0.000171 0.000000
0.000212 -0.000365 0.000000
0.000005 -0.000158 0.000000
0.002529 -0.002839 0.000000
0.002643 -0.002380 0.000000
0.000489 -0.005980 0.000000
0.000534 -0.009159 0.000000
0.002984 -0.003199 0.000000
0.000164 -0.000399 0.000000
0.000543 -0.007838 0.000000
0.001133 -0.001240 0.000000
0.003273 -0.005496 0.000000
0.000710 -0.000824 0.000000
0.000037 -0.000665 0.000000
0.000558 -0.006524 0.000000
0.000122 -0.000621 0.000000
-0.000021 -0.002152 0.000000
-0.000182 -0.001694 0.000000
0.002107 -0.001745 0.000000
0.002150 -0.001737 0.000000
0.001910 -0.002935 0.000000
0.003112 -0.004125 0.000000
0.003106 -0.003261 0.000000
0.001371 -0.010487 0.000000
0.000357 -0.006163 0.000000
0.001320 -0.000906 0.000000
0.003167 -0.004180 0.000000
0.000090 -0.010245 0.000000
0.000247 -0.008293 0.000000
0.000344 -0.000379 0.000000
0.002773 -0.007702 0.000000
0.001294 -0.001027 0.000000
0.000692 -0.000852 0.000000
0.000489 -0.002438 0.000000
0.000712 -0.010014 0.000000
0.000448 -0.002091 0.000000
0.000058 -0.000705 0.000000
0.002490 -0.001404 0.000000
0.001475 -0.001898 0.000000
0.000039 -0.005249 0.000000
0.000308 -0.009994 0.000000
0.001228 -0.010880 0.000000
0.000829 -0.001120 0.000000
0.001161 -0.000887 0.000000
0.000065 -0.001284 0.000000
0.000055 -0.000830 0.000000
0.000467 -0.008889 0.000000
0.000015 -0.000152 0.000000
0.002614 -0.007514 0.000000
0.000811 -0.010425 0.000000
0.000570 -0.009496 0.000000
0.000645 -0.009479 0.000000
0.002238 -0.003874 0.000000
0.000258 -0.009884 0.000000
0.000152 -0.000411 0.000000
0.000369 -0.008532 0.000000
0.000271 -0.008381 0.000000
0.000643 -0.007960 0.000000
0.000382 -0.009678 0.000000
0.000023 -0.001308 0.000000
0.000004 -0.010475 0.000000
0.002970 -0.003051 0.000000
0.000941 -0.000897 0.000000
0.000748 -0.001866 0.000000
0.002982 -0.003125 0.000000
0.003420 -0.006215 0.000000
0.002721 -0.003245 0.000000
0.001406 -0.002933 0.000000
0.000069 -0.010347 0.000000
0.000631 -0.004556 0.000000
0.000276 -0.003309 0.000000
0.000309 -0.000198 0.000000
0.002356 -0.007805 0.000000
0.002231 -0.007082 0.000000
0.001395 -0.001657 0.000000
0.000741 -0.010459 0.000000
0.001971 -0.005715 0.000000
0.003086 -0.003176 0.000000
0.003054 -0.004293 0.000000
0.001229 -0.010870 0.000000
0.002691 -0.003145 0.000000
0.000208 -0.000602 0.000000
0.000477 -0.010204 0.000000
0.000050 -0.000617 0.000000
0.000156 -0.000459 0.000000
-0.000074 -0.009274 0.000000
0.003067 -0.003055 0.000000
0.000486 -0.001373 0.000000
0.002304 -0.008114 0.000000
0.003337 -0.005500 0.000000
0.000410 -0.008865 0.000000
0.000760 -0.001872 0.000000
0.003058 -0.003583 0.000000
0.000503 -0.010133 0.000000
0.001600 -0.002741 0.000000
0.003382 -0.004298 0.000000
0.002625 -0.001640 0.000000
0.001892 -0.001011 0.000000
0.002712 -0.005360 0.000000
0.000156 -0.001033 0.000000
0.000348 -0.002531 0.000000
0.001766 -0.000817 0.000000
0.000754 -0.000501 0.000000
0.001475 -0.001560 0.000000
0.000082 -0.002391 0.000000
-0.000117 -0.000874 0.000000
0.000661 -0.001687 0.000000
0.001394 -0.000908 0.000000
0.000833 -0.000954 0.000000
0.001184 -0.002174 0.000000
0.002129 -0.008282 0.000000
0.002845 -0.002935 0.000000
0.002853 -0.004663 0.000000
0.001713 -0.008499 0.000000
0.000924 -0.000702 0.000000
0.001089 -0.009968 0.000000
0.001874 -0.004594 0.000000
0.002524 -0.005899 0.000000
0.003024 -0.003533 0.000000
0.000335 -0.009753 0.000000
0.000422 -0.002623 0.000000
0.001412 -0.010439 0.000000
0.000465 -0.009289 0.000000
0.000285 -0.003880 0.000000
0.000257 -0.002682 0.000000
0.000106 -0.000139 0.000000
0.003192 -0.005451 0.000000
0.000418 -0.000342 0.000000
0.000703 -0.000846 0.000000
0.002797 -0.008039 0.000000
0.000049 -0.001146 0.000000
0.000212 -0.005071 0.000000
0.000474 -0.005893 0.000000
0.000483 -0.005802 0.000000
0.000442 -0.000322 0.000000
0.000414 -0.010066 0.000000
0.002906 -0.008077 0.000000
0.003082 -0.004642 0.000000
0.000193 -0.008887 0.000000
0.002086 -0.005354 0.000000
0.000205 -0.009334 0.000000
0.000429 -0.002328 0.000000
0.000149 -0.001475 0.000000
0.000326 -0.003822 0.000000
0.001167 -0.000588 0.000000
0.003125 -0.003908 0.000000
0.000405 -0.000391 0.000000
-0.000025 -0.009196 0.000000
-0.000075 -0.007436 0.000000
0.002520 -0.001447 0.000000
0.000779 -0.009647 0.000000
0.001832 -0.004911 0.000000
0.001244 -0.001827 0.000000
0.000785 -0.010059 0.000000
0.001877 -0.008768 0.000000
-0.000097 -0.002193 0.000000
0.001503 -0.001234 0.000000
-0.000125 -0.001611 0.000000
0.001227 -0.003305 0.000000
-0.000120 -0.004601 0.000000
0.003195 -0.004223 0.000000
0.000277 -0.008307 0.000000
0.001229 -0.010860 0.000000
0.000915 -0.000959 0.000000
0.001259 -0.010786 0.000000
0.000423 -0.000429 0.000000
0.000089 -0.000756 0.000000
0.000770 -0.001889 0.000000
0.002760 -0.003610 0.000000
0.000621 -0.009519 0.000000
0.001187 -0.004412 0.000000
0.001068 -0.004367 0.000000
0.000290 -0.009289 0.000000
0.003176 -0.004389 0.000000
0.000470 -0.004610 0.000000
0.000380 -0.000906 0.000000
0.000223 -0.001161 0.000000
0.001453 -0.009768 0.000000
0.002582 -0.005741 0.000000
0.000364 -0.009651 0.000000
0.000096 -0.000495 0.000000
0.003159 -0.003652 0.000000
0.002701 -0.003881 0.000000
0.003161 -0.004683 0.000000
0.002794 -0.003857 0.000000
0.001812 -0.000957 0.000000
0.000860 -0.010198 0.000000
0.001644 -0.003996 0.000000
0.003131 -0.004687 0.000000
0.000299 -0.008753 0.000000
0.002698 -0.002331 0.000000
0.000015 -0.000160 0.000000
0.000859 -0.000951 0.000000
0.000195 -0.000682 0.000000
-0.000035 -0.009059 0.000000
0.000532 -0.006579 0.000000
0.003083 -0.005720 0.000000
0.000897 -0.000841 0.000000
0.000407 -0.007398 0.000000
0.000453 -0.008927 0.000000
0.001003 -0.010375 0.000000
0.001419 -0.000817 0.000000
0.000016 -0.001096 0.000000
0.000348 -0.009589 0.000000
0.000871 -0.000961 0.000000
0.000081 -0.001230 0.000000
0.002499 -0.001372 0.000000
0.000053 -0.000798 0.000000
-0.000061 -0.000527 0.000000
0.001359 -0.001563 0.000000
0.000022 -0.000164 0.000000
0.000382 -0.000270 0.000000
-0.000326 -0.005168 0.000000
0.003008 -0.007420 0.000000
0.000260 -0.003401 0.000000
0.000189 -0.001530 0.000000
0.001814 -0.004920 0.000000
0.000351 -0.008695 0.000000
0.001115 -0.002380 0.000000
0.000147 -0.003229 0.000000
-0.000446 -0.001515 0.000000
0.000118 -0.001143 0.000000
0.001411 -0.009915 0.000000
0.002812 -0.007878 0.000000
0.000458 -0.001020 0.000000
0.001836 -0.008213 0.000000
-0.000062 -0.000538 0.000000
0.001627 -0.002943 0.000000
0.001307 -0.010710 0.000000
0.000376 -0.010020 0.000000
0.000602 -0.005131 0.000000
0.001143 -0.009843 0.000000
0.000191 -0.009931 0.000000
0.000874 -0.000623 0.000000
0.000468 -0.004073 0.000000
0.002432 -0.007991 0.000000
0.001294 -0.001422 0.000000
0.001258 -0.003791 0.000000
0.001589 -0.003803 0.000000
0.002669 -0.002289 0.000000
0.002883 -0.007603 0.000000
0.000565 -0.009524 0.000000
0.001750 -0.003855 0.000000
0.000721 -0.010129 0.000000
0.000827 -0.000959 0.000000
0.000237 -0.000381 0.000000
0.002840 -0.005839 0.000000
0.003182 -0.004036 0.000000
0.000666 -0.000942 0.000000
0.003354 -0.005088 0.000000
0.001234 -0.002376 0.000000
0.001072 -0.001863 0.000000
0.001117 -0.010476 0.000000
0.000734 -0.009671 0.000000
0.000438 -0.010108 0.000000
0.001821 -0.009993 0.000000
0.002623 -0.005593 0.000000
0.002150 -0.003441 0.000000
0.000857 -0.009966 0.000000
0.000273 -0.009856 0.000000
0.001531 -0.001892 0.000000
0.000632 -0.000471 0.000000
0.000276 -0.009725 0.000000
0.000805 -0.000955 0.000000
-0.000096 -0.002510 0.000000
0.000679 -0.004797 0.000000
0.000243 -0.001037 0.000000
0.002969 -0.003393 0.000000
0.000418 -0.008884 0.000000
0.000168 -0.006976 0.000000
0.000312 -0.006761 0.000000
0.001268 -0.002707 0.000000
0.000785 -0.000953 0.000000
0.000568 -0.000394 0.000000
0.002685 -0.003188 0.000000
0.000381 -0.003488 0.000000
0.001048 -0.010179 0.000000
0.000025 -0.001728 0.000000
0.000514 -0.008252 0.000000
0.000620 -0.000951 0.000000
0.000428 -0.006670 0.000000
0.000475 -0.000375 0.000000
0.000286 -0.000353 0.000000
0.000292 -0.000415 0.000000
0.001086 -0.003165 0.000000
0.000702 -0.001158 0.000000
0.001261 -0.003498 0.000000
0.000810 -0.010171 0.000000
0.000378 -0.009394 0.000000
0.000835 -0.010411 0.000000
0.000369 -0.005286 0.000000
0.002189 -0.002227 0.000000
0.000135 -0.000445 0.000000
0.000250 -0.003210 0.000000
0.003011 -0.003411 0.000000
0.001232 -0.010828 0.000000
0.002505 -0.002330 0.000000
0.000191 -0.002002 0.000000
0.000436 -0.009450 0.000000
0.003249 -0.004359 0.000000
-0.000203 -0.007082 0.000000
0.000477 -0.009165 0.000000
0.002013 -0.001085 0.000000
0.000531 -0.001016 0.000000
0.000382 -0.010008 0.000000
0.000377 -0.008184 0.000000
0.000735 -0.000890 0.000000
0.002672 -0.005466 0.000000
0.000564 -0.001510 0.000000
0.003089 -0.005687 0.000000
0.000612 -0.006770 0.000000
0.000555 -0.000404 0.000000
0.000505 -0.009046 0.000000
0.002865 -0.005696 0.000000
0.000247 -0.000691 0.000000
0.000192 -0.000658 0.000000
0.000401 -0.000347 0.000000
0.001595 -0.000777 0.000000
0.000346 -0.009542 0.000000
-0.000101 -0.008811 0.000000
0.001607 -0.003653 0.000000
0.002135 -0.004849 0.000000
0.000852 -0.000404 0.000000
0.001144 -0.001049 0.000000
0.001260 -0.003132 0.000000
0.001615 -0.000791 0.000000
0.000441 -0.003281 0.000000
0.001496 -0.009622 0.000000
0.000493 -0.006642 0.000000
0.001223 -0.000924 0.000000
0.003036 -0.003321 0.000000
0.003131 -0.003471 0.000000
0.002161 -0.005286 0.000000
0.000229 -0.000631 0.000000
0.000036 -0.001508 0.000000
0.003085 -0.003148 0.000000
0.001260 -0.002890 0.000000
0.002940 -0.003615 0.000000
0.000364 -0.005390 0.000000
0.001776 -0.001717 0.000000
0.000610 -0.000609 0.000000
0.001462 -0.009762 0.000000
0.000294 -0.001052 0.000000
-0.000401 -0.001139 0.000000
0.001620 -0.003358 0.000000
0.000800 -0.010031 0.000000
0.000418 -0.000473 0.000000
0.001201 -0.009713 0.000000
0.003058 -0.007715 0.000000
0.000380 -0.003415 0.000000
0.001800 -0.004345 0.000000
0.001870 -0.004338 0.000000
0.000365 -0.000243 0.000000
0.000303 -0.009403 0.000000
-0.000030 -0.009661 0.000000
0.000273 -0.008524 0.000000
0.000218 -0.010003 0.000000
0.002465 -0.001335 0.000000
0.001623 -0.003160 0.000000
0.000272 -0.009658 0.000000
0.000099 -0.001825 0.000000
0.000728 -0.010444 0.000000
0.000001 -0.000152 0.000000
0.001433 -0.001466 0.000000
0.000372 -0.000728 0.000000
0.002455 -0.008252 0.000000
0.000020 -0.000800 0.000000
0.000248 -0.000731 0.000000
0.000721 -0.009450 0.000000
0.001058 -0.010543 0.000000
0.000414 -0.008633 0.000000
0.002578 -0.008682 0.000000
0.002921 -0.007530 0.000000
0.000222 -0.000496 0.000000
0.001959 -0.001054 0.000000
0.001291 -0.000644 0.000000
0.000460 -0.000938 0.000000
0.001156 -0.010569 0.000000
0.000259 -0.007477 0.000000
0.002448 -0.008241 0.000000
0.000308 -0.003814 0.000000
0.000389 -0.009307 0.000000
0.000400 -0.006432 0.000000
0.000201 -0.000149 0.000000
0.001032 -0.002351 0.000000
0.002380 -0.009407 0.000000
0.001598 -0.004535 0.000000
0.001270 -0.010785 0.000000
0.002980 -0.007912 0.000000
0.001866 -0.000890 0.000000
0.003375 -0.005507 0.000000
0.001131 -0.000875 0.000000
0.000505 -0.010223 0.000000
0.000525 -0.008994 0.000000
0.000557 -0.009056 0.000000
0.000142 -0.001173 0.000000
0.000140 -0.001994 0.000000
0.000430 -0.000330 0.000000
0.000189 -0.010143 0.000000
0.000415 -0.000332 0.000000
0.001096 -0.010441 0.000000
0.000344 -0.006632 0.000000
0.000337 -0.002586 0.000000
0.000860 -0.010264 0.000000
0.000591 -0.010246 0.000000
0.000988 -0.010297 0.000000
0.000587 -0.000920 0.000000
0.001307 -0.010705 0.000000
0.002442 -0.008959 0.000000
0.000099 -0.000498 0.000000
0.000365 -0.009795 0.000000
0.000106 -0.007702 0.000000
0.000370 -0.009197 0.000000
0.000089 -0.001258 0.000000
0.000147 -0.008746 0.000000
0.000895 -0.000706 0.000000
0.000242 -0.003373 0.000000
-0.000026 -0.001912 0.000000
0.000340 -0.009916 0.000000
0.001006 -0.010308 0.000000
0.002610 -0.008440 0.000000
0.000348 -0.008246 0.000000
0.000025 -0.010263 0.000000
0.000052 -0.000393 0.000000
0.002769 -0.008356 0.000000
0.000337 -0.000560 0.000000
0.001370 -0.000894 0.000000
0.002104 -0.005290 0.000000
0.000866 -0.010297 0.000000
0.000105 -0.000503 0.000000
0.000129 -0.000424 0.000000
0.002715 -0.008134 0.000000
0.000042 -0.000143 0.000000
0.002839 -0.002731 0.000000
0.000053 -0.001221 0.000000
0.000005 -0.010476 0.000000
0.000288 -0.004455 0.000000
0.000365 -0.009094 0.000000
0.000549 -0.001858 0.000000
0.000051 -0.007911 0.000000
0.000768 -0.005124 0.000000
0.002272 -0.002575 0.000000
-0.000037 -0.001805 0.000000
0.000648 -0.000931 0.000000
0.000113 -0.000775 0.000000
0.000453 -0.008775 0.000000
0.003469 -0.006208 0.000000
0.003168 -0.007547 0.000000
0.000742 -0.000920 0.000000
0.000345 -0.000654 0.000000
0.002521 -0.009095 0.000000
0.000465 -0.006458 0.000000
0.000269 -0.000813 0.000000
0.000608 -0.000916 0.000000
0.002303 -0.001488 0.000000
0.000064 -0.000499 0.000000
0.001979 -0.005906 0.000000
0.000149 -0.010090 0.000000
0.003096 -0.005089 0.000000
0.000258 -0.000761 0.000000
0.000122 -0.010232 0.000000
0.000098 -0.001213 0.000000
0.000899 -0.010373 0.000000
0.000125 -0.006657 0.000000
0.002652 -0.008692 0.000000
0.001167 -0.000907 0.000000
0.000204 -0.002415 0.000000
0.000111 -0.000421 0.000000
0.000391 -0.009710 0.000000
-0.000032 -0.000621 0.000000
0.000032 -0.002007 0.000000
0.001021 -0.001323 0.000000
0.001853 -0.005444 0.000000
0.000324 -0.000572 0.000000
0.000088 -0.007988 0.000000
0.002101 -0.005501 0.000000
0.003404 -0.004263 0.000000
0.001356 -0.010508 0.000000
0.002751 -0.008487 0.000000
0.001270 -0.009582 0.000000
0.000623 -0.000969 0.000000
0.003183 -0.007206 0.000000
0.000106 -0.000466 0.000000
0.000200 -0.000977 0.000000
0.002467 -0.009122 0.000000
-0.000184 -0.007053 0.000000
0.000474 -0.000229 0.000000
0.001932 -0.009728 0.000000
0.000376 -0.008114 0.000000
0.002189 -0.002208 0.000000
0.000518 -0.003844 0.000000
0.000825 -0.000924 0.000000
0.000814 -0.000926 0.000000
0.000382 -0.000893 0.000000
0.000210 -0.008178 0.000000
0.000379 -0.000990 0.000000
0.000391 -0.002376 0.000000
0.003152 -0.003882 0.000000
-0.000422 -0.003535 0.000000
0.002604 -0.003013 0.000000
0.000058 -0.010234 0.000000
0.001058 -0.000773 0.000000
0.003082 -0.003776 0.000000
0.001701 -0.000780 0.000000
0.000221 -0.007045 0.000000
0.000132 -0.000150 0.000000
0.000576 -0.010239 0.000000
-0.000187 -0.007719 0.000000
0.001044 -0.010406 0.000000
0.000246 -0.000496 0.000000
0.000489 -0.008992 0.000000
0.002379 -0.002194 0.000000
-0.000019 -0.009333 0.000000
0.002849 -0.003397 0.000000
0.000397 -0.003551 0.000000
0.000162 -0.000521 0.000000
0.002157 -0.007291 0.000000
0.002971 -0.004587 0.000000
0.000063 -0.000148 0.000000
0.000341 -0.008579 0.000000
0.002659 -0.006744 0.000000
0.000873 -0.010398 0.000000
0.000012 -0.000431 0.000000
0.002169 -0.006666 0.000000
0.000083 -0.000457 0.000000
0.001071 -0.001119 0.000000
0.000134 -0.000643 0.000000
0.000064 -0.000815 0.000000
0.000360 -0.000529 0.000000
0.000604 -0.010222 0.000000
0.002947 -0.003389 0.000000
0.002965 -0.007468 0.000000
0.000898 -0.010138 0.000000
0.000393 -0.001004 0.000000
0.000205 -0.003197 0.000000
0.002697 -0.008533 0.000000
0.000353 -0.009805 0.000000
0.001228 -0.010878 0.000000
0.000115 -0.000432 0.000000
0.001784 -0.001111 0.000000
0.002476 -0.001305 0.000000
0.000186 -0.001088 0.000000
0.000557 -0.000747 0.000000
0.000446 -0.000207 0.000000
0.001522 -0.010070 0.000000
0.000272 -0.001046 0.000000
0.003221 -0.005420 0.000000
0.000385 -0.009000 0.000000
0.001771 -0.002799 0.000000
0.000316 -0.008144 0.000000
-0.000397 -0.004617 0.000000
0.003022 -0.007813 0.000000
0.000384 -0.000919 0.000000
0.001247 -0.010782 0.000000
0.000254 -0.000352 0.000000
0.000009 -0.002413 0.000000
0.000141 -0.008175 0.000000
0.000366 -0.009169 0.000000
0.000067 -0.000423 0.000000
-0.000155 -0.003198 0.000000
0.000403 -0.002175 0.000000
0.000263 -0.005223 0.000000
0.003433 -0.005522 0.000000
0.000712 -0.000540 0.000000
0.000422 -0.000401 0.000000
0.000721 -0.009461 0.000000
0.000581 -0.007190 0.000000
0.003286 -0.003811 0.000000
0.002894 -0.003345 0.000000
0.000250 -0.008523 0.000000
0.000409 -0.003468 0.000000
0.000377 -0.000460 0.000000
0.000119 -0.001146 0.000000
0.003554 -0.006024 0.000000
0.001728 -0.004159 0.000000
0.000310 -0.001052 0.000000
0.001303 -0.010715 0.000000
0.000065 -0.000712 0.000000
0.000359 -0.001174 0.000000
0.000593 -0.000977 0.000000
0.002321 -0.005793 0.000000
0.000074 -0.000871 0.000000
0.000094 -0.001881 0.000000
0.001570 -0.001869 0.000000
0.003309 -0.004282 0.000000
0.000023 -0.001299 0.000000
0.001525 -0.009497 0.000000
0.000425 -0.000308 0.000000
0.000362 -0.009473 0.000000
0.000880 -0.010275 0.000000
0.000940 -0.010306 0.000000
0.000247 -0.008202 0.000000
-0.000004 -0.010025 0.000000
0.002738 -0.005251 0.000000
0.000202 -0.001008 0.000000
0.000482 -0.005942 0.000000
0.000009 -0.006879 0.000000
0.000186 -0.010040 0.000000
0.000590 -0.000967 0.000000
0.000818 -0.010003 0.000000
0.000074 -0.001066 0.000000
0.000427 -0.010045 0.000000
0.000983 -0.010388 0.000000
0.003040 -0.003941 0.000000
0.002207 -0.007204 0.000000
0.001333 -0.009454 0.000000
0.000323 -0.007638 0.000000
0.000289 -0.007605 0.000000
0.000055 -0.000652 0.000000
0.000448 -0.000646 0.000000
0.003513 -0.006168 0.000000
0.003034 -0.004357 0.000000
0.000564 -0.008281 0.000000
0.000967 -0.010292 0.000000
-0.000126 -0.002473 0.000000
0.000952 -0.010230 0.000000
0.001222 -0.007806 0.000000
0.001352 -0.007754 0.000000
0.000108 -0.002089 0.000000
0.002539 -0.008994 0.000000
0.001523 -0.001826 0.000000
0.000130 -0.000495 0.000000
0.002708 -0.003165 0.000000
0.000712 -0.000857 0.000000
0.001705 -0.001981 0.000000
0.003349 -0.005209 0.000000
0.003319 -0.005226 0.000000
0.000388 -0.002986 0.000000
0.000089 -0.000468 0.000000
0.002663 -0.008552 0.000000
0.000770 -0.009679 0.000000
0.003199 -0.006451 0.000000
0.000667 -0.009823 0.000000
0.000398 -0.006599 0.000000
0.000587 -0.009429 0.000000
0.000375 -0.004125 0.000000
0.002293 -0.007581 0.000000
0.002942 -0.005500 0.000000
0.000031 -0.000144 0.000000
0.001446 -0.010218 0.000000
0.000713 -0.010417 0.000000
0.001955 -0.001452 0.000000
0.002987 -0.004814 0.000000
0.000478 -0.010142 0.000000
0.003000 -0.003609 0.000000
0.000464 -0.008714 0.000000
0.001072 -0.010496 0.000000
0.001074 -0.000568 0.000000
0.000945 -0.000510 0.000000
0.000021 -0.010411 0.000000
0.000640 -0.000885 0.000000
0.000134 -0.001172 0.000000
-0.000067 -0.007624 0.000000
0.002642 -0.001985 0.000000
0.000041 -0.000158 0.000000
0.000685 -0.002010 0.000000
-0.000063 -0.003028 0.000000
0.000073 -0.000389 0.000000
0.000147 -0.009210 0.000000
0.000267 -0.001029 0.000000
0.000316 -0.007584 0.000000
0.000571 -0.001009 0.000000
-0.000004 -0.009934 0.000000
0.001258 -0.010814 0.000000
0.000257 -0.000774 0.000000
0.000368 -0.000241 0.000000
-0.000026 -0.001332 0.000000
0.000449 -0.008900 0.000000
0.000314 -0.008821 0.000000
0.001016 -0.010522 0.000000
0.002581 -0.002757 0.000000
0.000670 -0.010358 0.000000
0.000102 -0.000362 0.000000
0.000428 -0.009012 0.000000
0.002172 -0.001846 0.000000
0.000538 -0.005808 0.000000
0.000225 -0.006625 0.000000
0.000698 -0.009853 0.000000
0.002998 -0.003381 0.000000
0.000392 -0.008278 0.000000
0.000299 -0.000539 0.000000
0.000147 -0.010202 0.000000
0.000299 -0.000961 0.000000
0.000316 -0.001428 0.000000
0.000788 -0.010155 0.000000
0.001508 -0.010262 0.000000
0.001660 -0.008626 0.000000
0.002852 -0.008027 0.000000
0.002811 -0.008074 0.000000
0.002850 -0.003273 0.000000
0.002900 -0.003594 0.000000
-0.000012 -0.009870 0.000000
0.000084 -0.007963 0.000000
0.002241 -0.005710 0.000000
0.000738 -0.000803 0.000000
0.001270 -0.010775 0.000000
0.000453 -0.000984 0.000000
0.001047 -0.001905 0.000000
0.000054 -0.007921 0.000000
0.000812 -0.003813 0.000000
0.002923 -0.003740 0.000000
0.000465 -0.009008 0.000000
0.000954 -0.000491 0.000000
0.000258 -0.003473 0.000000
0.000218 -0.001022 0.000000
0.000095 -0.000905 0.000000
0.001125 -0.010593 0.000000
0.002727 -0.002884 0.000000
0.001980 -0.000963 0.000000
0.000548 -0.000724 0.000000
0.000436 -0.000328 0.000000
0.000137 -0.000902 0.000000
0.000098 -0.000484 0.000000
0.000896 -0.010305 0.000000
0.000223 -0.000704 0.000000
0.001565 -0.009367 0.000000
0.000266 -0.000807 0.000000
0.000157 -0.000589 0.000000
0.000175 -0.008780 0.000000
0.000924 -0.010390 0.000000
0.002258 -0.006680 0.000000
0.000184 -0.001921 0.000000
0.003021 -0.004033 0.000000
0.002589 -0.008856 0.000000
0.003615 -0.005995 0.000000
0.000463 -0.000695 0.000000
0.000418 -0.007633 0.000000
0.000554 -0.009571 0.000000
0.000444 -0.001923 0.000000
-0.000085 -0.000517 0.000000
0.000314 -0.001039 0.000000
0.002198 -0.005393 0.000000
0.002665 -0.008887 0.000000
0.000362 -0.006278 0.000000
0.002560 -0.008822 0.000000
0.001397 -0.000994 0.000000
0.000549 -0.001001 0.000000
0.001385 -0.009324 0.000000
0.002164 -0.007739 0.000000
-0.000014 -0.009463 0.000000
0.000823 -0.001006 0.000000
-0.000035 -0.009563 0.000000
0.000311 -0.009641 0.000000
-0.000011 -0.009586 0.000000
0.000278 -0.002793 0.000000
0.000367 -0.008572 0.000000
-0.000008 -0.009713 0.000000
0.001177 -0.010804 0.000000
-0.000023 -0.009756 0.000000
-0.000005 -0.009829 0.000000
0.001592 -0.000777 0.000000
0.000352 -0.000363 0.000000
0.000480 -0.009066 0.000000
0.002673 -0.006475 0.000000
0.001284 -0.010729 0.000000
0.003122 -0.004707 0.000000
0.003170 -0.004895 0.000000
0.000416 -0.008565 0.000000
0.002660 -0.002212 0.000000
0.001038 -0.010476 0.000000
0.000566 -0.009273 0.000000
0.000935 -0.010388 0.000000
0.000050 -0.000520 0.000000
0.000691 -0.000859 0.000000
0.000072 -0.000837 0.000000
0.001111 -0.010702 0.000000
0.003084 -0.003250 0.000000
0.003056 -0.004523 0.000000
0.000564 -0.009313 0.000000
0.000132 -0.000490 0.000000
0.002536 -0.001534 0.000000
0.000652 -0.004593 0.000000
0.000019 -0.000715 0.000000
0.002230 -0.008890 0.000000
0.000747 -0.001117 0.000000
0.000813 -0.004865 0.000000
0.000484 -0.009178 0.000000
0.002989 -0.003493 0.000000
0.001276 -0.000726 0.000000
0.000350 -0.000362 0.000000
0.000513 -0.000352 0.000000
0.002800 -0.002686 0.000000
0.002164 -0.008444 0.000000
0.001084 -0.010643 0.000000
0.002450 -0.002098 0.000000
0.000141 -0.000477 0.000000
0.001077 -0.000734 0.000000
0.001093 -0.000709 0.000000
0.000534 -0.001651 0.000000
0.000020 -0.000143 0.000000
0.000506 -0.001405 0.000000
0.002261 -0.007681 0.000000
0.000001 -0.001538 0.000000
-0.000023 -0.000535 0.000000
0.002505 -0.008968 0.000000
0.000547 -0.010255 0.000000
0.000321 -0.005811 0.000000
0.002729 -0.002633 0.000000
0.003149 -0.004865 0.000000
0.002585 -0.001867 0.000000
0.000544 -0.007900 0.000000
0.000971 -0.000738 0.000000
0.000263 -0.005880 0.000000
0.000148 -0.000829 0.000000
0.000439 -0.009498 0.000000
0.002121 -0.007541 0.000000
0.001152 -0.010679 0.000000
-0.000014 -0.000485 0.000000
0.001209 -0.010836 0.000000
0.000353 -0.008194 0.000000
0.000051 -0.000475 0.000000
0.002430 -0.002665 0.000000
0.000219 -0.000424 0.000000
0.000822 -0.010222 0.000000
0.000824 -0.000879 0.000000
0.000990 -0.002422 0.000000
0.001830 -0.009958 0.000000
0.000513 -0.009079 0.000000
0.000017 -0.001153 0.000000
0.002153 -0.007432 0.000000
0.000114 -0.000450 0.000000
-0.000032 -0.000495 0.000000
0.000397 -0.000790 0.000000
0.000076 -0.001007 0.000000
0.000108 -0.000509 0.000000
0.001178 -0.010748 0.000000
0.000375 -0.009926 0.000000
0.001692 -0.000991 0.000000
0.002331 -0.007484 0.000000
0.001437 -0.009200 0.000000
0.003180 -0.005142 0.000000
0.002619 -0.008446 0.000000
0.001609 -0.009246 0.000000
0.000447 -0.008844 0.000000
0.000746 -0.000944 0.000000
0.001000 -0.000994 0.000000
0.000600 -0.000986 0.000000
0.001272 -0.001488 0.000000
0.000097 -0.000493 0.000000
0.000786 -0.009670 0.000000
0.000211 -0.001016 0.000000
0.000172 -0.007773 0.000000
0.000242 -0.004375 0.000000
0.002182 -0.007320 0.000000
0.000809 -0.000882 0.000000
0.000103 -0.001233 0.000000
0.000115 -0.005511 0.000000
-0.000131 -0.004919 0.000000
0.000423 -0.001015 0.000000
0.001282 -0.010741 0.000000
0.001772 -0.005227 0.000000
0.001906 -0.008067 0.000000
0.002906 -0.003861 0.000000
0.001223 -0.010841 0.000000
0.000456 -0.006297 0.000000
0.002429 -0.001269 0.000000
0.000261 -0.009130 0.000000
0.001423 -0.000894 0.000000
0.003098 -0.007664 0.000000
-0.000067 -0.007256 0.000000
0.002962 -0.004182 0.000000
0.001496 -0.000865 0.000000
0.002729 -0.007394 0.000000
0.001294 -0.010722 0.000000
-0.000004 -0.009976 0.000000
0.002106 -0.001725 0.000000
0.002652 -0.006924 0.000000
0.001684 -0.004603 0.000000
0.000119 -0.008735 0.000000
0.002486 -0.002234 0.000000
0.000230 -0.000353 0.000000
0.001252 -0.010780 0.000000
0.000816 -0.000447 0.000000
-0.000008 -0.010141 0.000000
0.001486 -0.009084 0.000000
-0.000040 -0.000501 0.000000
0.000366 -0.008148 0.000000
0.001663 -0.002700 0.000000
0.002258 -0.007997 0.000000
0.000264 -0.002948 0.000000
0.000029 -0.001125 0.000000
0.000454 -0.003926 0.000000
-0.000038 -0.008923 0.000000
0.000558 -0.010206 0.000000
-0.000124 -0.007920 0.000000
0.000077 -0.000834 0.000000
0.001864 -0.001438 0.000000
0.000091 -0.009922 0.000000
0.000594 -0.010284 0.000000
0.000179 -0.000355 0.000000
0.002687 -0.003216 0.000000
-0.000059 -0.001380 0.000000
0.000848 -0.001653 0.000000
0.000832 -0.000590 0.000000
0.000792 -0.000910 0.000000
0.001125 -0.003676 0.000000
-0.000179 -0.007125 0.000000
0.003002 -0.005007 0.000000
-0.000170 -0.001369 0.000000
0.000221 -0.000543 0.000000
0.001350 -0.000737 0.000000
0.002903 -0.002830 0.000000
0.002898 -0.002804 0.000000
0.000588 -0.001622 0.000000
0.002895 -0.003094 0.000000
0.002638 -0.008727 0.000000
0.000581 -0.008801 0.000000
0.000113 -0.001149 0.000000
0.000030 -0.000417 0.000000
0.002512 -0.007341 0.000000
0.000444 -0.009224 0.000000
0.000569 -0.009365 0.000000
0.003118 -0.004983 0.000000
0.000432 -0.000368 0.000000
0.001709 -0.004613 0.000000
0.003000 -0.003753 0.000000
0.001098 -0.010626 0.000000
0.002964 -0.005670 0.000000
0.003150 -0.007284 0.000000
0.000396 -0.006744 0.000000
-0.000072 -0.000475 0.000000
0.001532 -0.008971 0.000000
0.000402 -0.000296 0.000000
0.000584 -0.006745 0.000000
0.000335 -0.005714 0.000000
0.000953 -0.002903 0.000000
0.000103 -0.001714 0.000000
0.002997 -0.003659 0.000000
0.002441 -0.001240 0.000000
0.001415 -0.000882 0.000000
0.002870 -0.005208 0.000000
0.000287 -0.006558 0.000000
0.000022 -0.001285 0.000000
0.000925 -0.001699 0.000000
0.001657 -0.009131 0.000000
0.000477 -0.009112 0.000000
0.003194 -0.005060 0.000000
0.000427 -0.008960 0.000000
0.000834 -0.003626 0.000000
-0.000015 -0.002359 0.000000
0.000085 -0.000580 0.000000
0.001016 -0.000733 0.000000
0.000067 -0.010334 0.000000
0.000513 -0.007108 0.000000
0.000535 -0.002674 0.000000
0.003088 -0.007335 0.000000
0.003196 -0.004026 0.000000
0.000004 -0.009581 0.000000
0.000395 -0.003270 0.000000
0.000363 -0.000969 0.000000
0.000129 -0.001168 0.000000
0.000692 -0.010380 0.000000
0.000497 -0.007300 0.000000
0.000422 -0.000963 0.000000
0.002291 -0.001954 0.000000
0.002085 -0.001108 0.000000
0.000394 -0.001012 0.000000
0.001574 -0.008859 0.000000
0.000060 -0.001234 0.000000
0.000603 -0.004292 0.000000
0.000370 -0.001083 0.000000
0.000451 -0.003567 0.000000
0.000276 -0.007229 0.000000
0.001916 -0.004653 0.000000
0.001745 -0.008909 0.000000
0.000287 -0.008182 0.000000
0.001702 -0.009018 0.000000
0.000019 -0.001265 0.000000
0.001654 -0.000771 0.000000
0.000287 -0.000326 0.000000
0.002091 -0.007650 0.000000
0.000570 -0.000443 0.000000
0.002667 -0.006596 0.000000
0.000244 -0.001065 0.000000
0.001277 -0.010627 0.000000
0.002893 -0.003977 0.000000
0.000399 -0.009229 0.000000
0.000674 -0.000506 0.000000
0.000615 -0.008715 0.000000
0.002489 -0.006823 0.000000
-0.000049 -0.007814 0.000000
0.000458 -0.004017 0.000000
0.000081 -0.000848 0.000000
0.002614 -0.007777 0.000000
0.002318 -0.003507 0.000000
0.000400 -0.009451 0.000000
0.002602 -0.001729 0.000000
0.000416 -0.009642 0.000000
0.001360 -0.001904 0.000000
0.003240 -0.005219 0.000000
0.001614 -0.008745 0.000000
-0.000372 -0.001910 0.000000
0.002614 -0.001674 0.000000
0.000667 -0.005481 0.000000
0.000638 -0.010307 0.000000
0.002683 -0.007207 0.000000
-0.000437 -0.001430 0.000000
0.001272 -0.010766 0.000000
0.000392 -0.005529 0.000000
0.000432 -0.009371 0.000000
0.000026 -0.000160 0.000000
0.002431 -0.002015 0.000000
0.002986 -0.006053 0.000000
0.001727 -0.000899 0.000000
0.000083 -0.000484 0.000000
0.000604 -0.010258 0.000000
0.000296 -0.009523 0.000000
0.002695 -0.008233 0.000000
0.002533 -0.001496 0.000000
0.001260 -0.010732 0.000000
0.002846 -0.004750 0.000000
0.000353 -0.000230 0.000000
0.000608 -0.000954 0.000000
0.000519 -0.000984 0.000000
0.002314 -0.003366 0.000000
0.000112 -0.000912 0.000000
0.000016 -0.001237 0.000000
0.000656 -0.010341 0.000000
0.000239 -0.009972 0.000000
0.000422 -0.002079 0.000000
0.000064 -0.001016 0.000000
0.000227 -0.002989 0.000000
0.000391 -0.001266 0.000000
0.003225 -0.005087 0.000000
0.000347 -0.000276 0.000000
0.002182 -0.006789 0.000000
0.000043 -0.000164 0.000000
-0.000002 -0.010521 0.000000
0.000021 -0.001312 0.000000
-0.000141 -0.007728 0.000000
0.002169 -0.005579 0.000000
0.000095 -0.000174 0.000000
0.002156 -0.001781 0.000000
0.000329 -0.009825 0.000000
0.000768 -0.000942 0.000000
0.000591 -0.005625 0.000000
0.000048 -0.001202 0.000000
0.000623 -0.010287 0.000000
0.000122 -0.001151 0.000000
0.000324 -0.002660 0.000000
0.002037 -0.008023 0.000000
0.000369 -0.008038 0.000000
0.000187 -0.001054 0.000000
0.000622 -0.004860 0.000000
0.001205 -0.010816 0.000000
0.003366 -0.006623 0.000000
0.001329 -0.010561 0.000000
0.000662 -0.004176 0.000000
0.000366 -0.003517 0.000000
-0.000359 -0.002083 0.000000
-0.000160 -0.001119 0.000000
0.000049 -0.000446 0.000000
0.002659 -0.005804 0.000000
0.000567 -0.000926 0.000000
0.000220 -0.000380 0.000000
0.000540 -0.009122 0.000000
0.000407 -0.009242 0.000000
0.000823 -0.010262 0.000000
0.003082 -0.006393 0.000000
0.000066 -0.000840 0.000000
0.002094 -0.001061 0.000000
0.000324 -0.005935 0.000000
0.002662 -0.002134 0.000000
0.000047 -0.000586 0.000000
0.000414 -0.008230 0.000000
0.000481 -0.000237 0.000000
0.000079 -0.001018 0.000000
0.000310 -0.000915 0.000000
0.000768 -0.000972 0.000000
0.002566 -0.008490 0.000000
0.000435 -0.008385 0.000000
0.000016 -0.001199 0.000000
0.000421 -0.006075 0.000000
0.000489 -0.005367 0.000000
0.000095 -0.000858 0.000000
0.000140 -0.000498 0.000000
0.000046 -0.000501 0.000000
0.000804 -0.010211 0.000000
0.000269 -0.001041 0.000000
0.000665 -0.010340 0.000000
0.000338 -0.000498 0.000000
0.000687 -0.000593 0.000000
0.001267 -0.010554 0.000000
0.000108 -0.001193 0.000000
0.000326 -0.008252 0.000000
0.000409 -0.006248 0.000000
0.000510 -0.000699 0.000000
0.000864 -0.010351 0.000000
-0.000005 -0.010120 0.000000
0.000066 -0.001149 0.000000
0.000409 -0.000379 0.000000
0.000428 -0.007800 0.000000
0.001132 -0.010684 0.000000
0.002958 -0.003288 0.000000
0.000073 -0.001119 0.000000
0.000418 -0.008393 0.000000
0.000577 -0.000427 0.000000
-0.000174 -0.002877 0.000000
0.001250 -0.010772 0.000000
0.000457 -0.007982 0.000000
0.001165 -0.001840 0.000000
-0.000016 -0.000165 0.000000
0.000296 -0.002738 0.000000
0.000993 -0.010473 0.000000
0.000016 -0.007338 0.000000
0.002045 -0.006228 0.000000
0.001197 -0.010826 0.000000
0.000086 -0.000453 0.000000
0.000190 -0.000494 0.000000
0.002889 -0.004097 0.000000
0.000090 -0.007068 0.000000
0.001225 -0.010870 0.000000
0.001685 -0.009847 0.000000
0.000868 -0.010376 0.000000
0.000033 -0.000418 0.000000
0.001348 -0.003662 0.000000
0.000443 -0.009458 0.000000
0.000952 -0.002602 0.000000
0.000339 -0.008531 0.000000
0.003152 -0.004720 0.000000
0.000623 -0.009407 0.000000
0.002502 -0.006782 0.000000
-0.000060 -0.001540 0.000000
0.000549 -0.005097 0.000000
0.000169 -0.000524 0.000000
0.000533 -0.008670 0.000000
0.000030 -0.000442 0.000000
0.000113 -0.001206 0.000000
0.000128 -0.000751 0.000000
0.000205 -0.000996 0.000000
0.002754 -0.002628 0.000000
0.000430 -0.000327 0.000000
0.002850 -0.008151 0.000000
0.000066 -0.000137 0.000000
0.000317 -0.000990 0.000000
0.002398 -0.007725 0.000000
0.000413 -0.009769 0.000000
0.003347 -0.004641 0.000000
0.002654 -0.007045 0.000000
0.000298 -0.006111 0.000000
0.000369 -0.008413 0.000000
0.002219 -0.007270 0.000000
0.000034 -0.000145 0.000000
0.000468 -0.009327 0.000000
-0.000180 -0.001642 0.000000
0.000010 -0.000228 0.000000
0.000202 -0.000514 0.000000
0.000472 -0.000264 0.000000
-0.000123 -0.005183 0.000000
0.000184 -0.008020 0.000000
-0.000407 -0.001830 0.000000
-0.000203 -0.001941 0.000000
0.001038 -0.001650 0.000000
0.000572 -0.008714 0.000000
0.001146 -0.001354 0.000000
0.002631 -0.002099 0.000000
0.001242 -0.010831 0.000000
0.000084 -0.002118 0.000000
0.003025 -0.004649 0.000000
0.000512 -0.008806 0.000000
0.002766 -0.005155 0.000000
0.000110 -0.001436 0.000000
0.000579 -0.008293 0.000000
-0.000046 -0.008776 0.000000
0.002859 -0.004506 0.000000
0.000016 -0.000225 0.000000
0.000257 -0.008070 0.000000
0.001018 -0.003687 0.000000
0.003157 -0.004008 0.000000
0.000848 -0.009754 0.000000
0.000252 -0.006899 0.000000
0.001128 -0.002744 0.000000
0.000694 -0.000952 0.000000
0.000018 -0.000172 0.000000
0.002182 -0.005334 0.000000
0.000466 -0.001807 0.000000
-0.000090 -0.008708 0.000000
0.000173 -0.002144 0.000000
-0.000181 -0.002264 0.000000
0.003244 -0.006820 0.000000
0.000057 -0.000175 0.000000
-0.000121 -0.005196 0.000000
0.001234 -0.002058 0.000000
-0.000357 -0.002356 0.000000
0.000214 -0.000459 0.000000
-0.000180 -0.002575 0.000000
0.000005 -0.000167 0.000000
0.000162 -0.000952 0.000000
0.000904 -0.010210 0.000000
0.000006 -0.000286 0.000000
0.000167 -0.000620 0.000000
0.000304 -0.005936 0.000000
0.001627 -0.004477 0.000000
0.001409 -0.000900 0.000000
0.000971 -0.010256 0.000000
0.002871 -0.003876 0.000000
0.000406 -0.009260 0.000000
0.000294 -0.000366 0.000000
0.002961 -0.003293 0.000000
0.002698 -0.002578 0.000000
0.000215 -0.003462 0.000000
0.002077 -0.002567 0.000000
0.000063 -0.003209 0.000000
0.001212 -0.010848 0.000000
0.002517 -0.002327 0.000000
0.000171 -0.001022 0.000000
0.002919 -0.005805 0.000000
0.000196 -0.006519 0.000000
0.000189 -0.000995 0.000000
0.002546 -0.008723 0.000000
0.001446 -0.000803 0.000000
0.000245 -0.007261 0.000000
-0.000022 -0.000589 0.000000
0.000062 -0.000398 0.000000
0.001373 -0.010509 0.000000
0.001690 -0.001734 0.000000
0.000186 -0.003659 0.000000
0.001779 -0.002278 0.000000
0.000356 -0.000288 0.000000
0.002476 -0.002472 0.000000
0.001868 -0.004446 0.000000
0.002886 -0.004209 0.000000
0.000024 -0.000615 0.000000
0.002609 -0.002379 0.000000
0.002312 -0.001921 0.000000
0.000110 -0.001753 0.000000
0.000283 -0.001082 0.000000
0.000022 -0.000344 0.000000
0.000217 -0.001016 0.000000
0.000661 -0.009640 0.000000
0.000057 -0.000694 0.000000
0.000637 -0.000442 0.000000
0.003235 -0.004376 0.000000
0.000467 -0.001368 0.000000
0.000745 -0.000605 0.000000
-0.000220 -0.005437 0.000000
0.001690 -0.001033 0.000000
0.002833 -0.004834 0.000000
0.003050 -0.004784 0.000000
-0.000098 -0.008055 0.000000
-0.000049 -0.000503 0.000000
0.003177 -0.003754 0.000000
0.000127 -0.001166 0.000000
0.001952 -0.004998 0.000000
0.000938 -0.010482 0.000000
0.000167 -0.000623 0.000000
0.000437 -0.007843 0.000000
0.003203 -0.005000 0.000000
0.000998 -0.010585 0.000000
0.000380 -0.006923 0.000000
0.000803 -0.000924 0.000000
0.000404 -0.008885 0.000000
0.000118 -0.000783 0.000000
0.000141 -0.000801 0.000000
0.001119 -0.001830 0.000000
0.000153 -0.000981 0.000000
0.002275 -0.006071 0.000000
0.003167 -0.004319 0.000000
0.000830 -0.010259 0.000000
0.000014 -0.000215 0.000000
0.000178 -0.000176 0.000000
0.000366 -0.000300 0.000000
0.002137 -0.001756 0.000000
0.000251 -0.001229 0.000000
0.003208 -0.004334 0.000000
0.002871 -0.003057 0.000000
0.001693 -0.004982 0.000000
0.000012 -0.000209 0.000000
0.000566 -0.001006 0.000000
0.000757 -0.000594 0.000000
0.000437 -0.007609 0.000000
0.000688 -0.002214 0.000000
0.002876 -0.004314 0.000000
0.000086 -0.010302 0.000000
0.000214 -0.000467 0.000000
0.000477 -0.009500 0.000000
0.002150 -0.001124 0.000000
0.002994 -0.007577 0.000000
0.000122 -0.001155 0.000000
0.001323 -0.009862 0.000000
0.000273 -0.000170 0.000000
0.002561 -0.001641 0.000000
0.002185 -0.005435 0.000000
0.003151 -0.004512 0.000000
0.001869 -0.001111 0.000000
0.000713 -0.000940 0.000000
0.002050 -0.006176 0.000000
0.001134 -0.010743 0.000000
0.000052 -0.000149 0.000000
0.001170 -0.010609 0.000000
0.002144 -0.008644 0.000000
0.000983 -0.000484 0.000000
0.002620 -0.008643 0.000000
0.000184 -0.001025 0.000000
0.002648 -0.008429 0.000000
0.000256 -0.000161 0.000000
0.000303 -0.001048 0.000000
0.002407 -0.001200 0.000000
0.000659 -0.004639 0.000000
0.000084 -0.006725 0.000000
0.001176 -0.010786 0.000000
-0.000000 -0.001190 0.000000
-0.000109 -0.005446 0.000000
0.001212 -0.000620 0.000000
0.003294 -0.003910 0.000000
0.000493 -0.008650 0.000000
0.002758 -0.008417 0.000000
0.002670 -0.002498 0.000000
0.002052 -0.007739 0.000000
0.001612 -0.000800 0.000000
0.000309 -0.007202 0.000000
0.000214 -0.007951 0.000000
0.002798 -0.003455 0.000000
0.001408 -0.002428 0.000000
0.003089 -0.004692 0.000000
0.002868 -0.004413 0.000000
0.000259 -0.009970 0.000000
0.001319 -0.002258 0.000000
0.003185 -0.004943 0.000000
0.000022 -0.009459 0.000000
0.000498 -0.000211 0.000000
0.002126 -0.001790 0.000000
0.000123 -0.010249 0.000000
0.002424 -0.008696 0.000000
0.000070 -0.000365 0.000000
0.000287 -0.006336 0.000000
0.001691 -0.004154 0.000000
-0.000053 -0.007327 0.000000
0.000347 -0.007865 0.000000
0.000305 -0.007257 0.000000
-0.000001 -0.000198 0.000000
0.001076 -0.010670 0.000000
0.000782 -0.000575 0.000000
0.000023 -0.000180 0.000000
0.000478 -0.001713 0.000000
0.002459 -0.002292 0.000000
0.000558 -0.008391 0.000000
0.002362 -0.002219 0.000000
0.000005 -0.010443 0.000000
0.000193 -0.005796 0.000000
0.000369 -0.001129 0.000000
0.001922 -0.001553 0.000000
0.000402 -0.004081 0.000000
0.000116 -0.001181 0.000000
0.000412 -0.007932 0.000000
0.000337 -0.008810 0.000000
0.003146 -0.004257 0.000000
0.000055 -0.000634 0.000000
0.000535 -0.001657 0.000000
0.002683 -0.002542 0.000000
0.000544 -0.009019 0.000000
0.002261 -0.002055 0.000000
0.002611 -0.008602 0.000000
0.000604 -0.000627 0.000000
0.000964 -0.010542 0.000000
0.000044 -0.000510 0.000000
0.001264 -0.010794 0.000000
0.000558 -0.008931 0.000000
0.002945 -0.004292 0.000000
0.000015 -0.000153 0.000000
0.001572 -0.000783 0.000000
0.002147 -0.009652 0.000000
0.000428 -0.000368 0.000000
0.000300 -0.003644 0.000000
0.001267 -0.010767 0.000000
0.000304 -0.004433 0.000000
0.000171 -0.000974 0.000000
0.000016 -0.007024 0.000000
0.000061 -0.000175 0.000000
0.000357 -0.000384 0.000000
0.002480 -0.002797 0.000000
0.000562 -0.009465 0.000000
0.002076 -0.006136 0.000000
0.001103 -0.010515 0.000000
0.000379 -0.007840 0.000000
0.000362 -0.000278 0.000000
0.001219 -0.010772 0.000000
0.000295 -0.005821 0.000000
0.001455 -0.000867 0.000000
0.000652 -0.009693 0.000000
0.000235 -0.010042 0.000000
0.001220 -0.010861 0.000000
0.000406 -0.000206 0.000000
0.001331 -0.003611 0.000000
0.003106 -0.005248 0.000000
0.000404 -0.009905 0.000000
0.000450 -0.000924 0.000000
0.000629 -0.009803 0.000000
0.002992 -0.005429 0.000000
0.000115 -0.001150 0.000000
0.000320 -0.008463 0.000000
0.000372 -0.008234 0.000000
0.000264 -0.007323 0.000000
0.000145 -0.004061 0.000000
0.000024 -0.000519 0.000000
0.000191 -0.000542 0.000000
0.001180 -0.010761 0.000000
-0.000000 -0.000401 0.000000
0.000043 -0.001093 0.000000
0.000139 -0.000481 0.000000
0.002373 -0.001845 0.000000
0.000383 -0.007303 0.000000
0.001359 -0.010562 0.000000
0.001198 -0.010766 0.000000
0.000393 -0.001291 0.000000
0.000508 -0.004246 0.000000
0.002929 -0.004401 0.000000
0.000064 -0.000172 0.000000
0.000252 -0.006838 0.000000
0.000375 -0.000284 0.000000
0.002906 -0.006069 0.000000
0.000209 -0.007310 0.000000
0.000490 -0.008974 0.000000
0.002309 -0.001858 0.000000
-0.000017 -0.000177 0.000000
0.000044 -0.000183 0.000000
0.003087 -0.003609 0.000000
0.002600 -0.002000 0.000000
0.000294 -0.009663 0.000000
-0.000041 -0.002189 0.000000
0.000487 -0.004129 0.000000
0.000172 -0.000463 0.000000
0.003020 -0.003477 0.000000
0.000184 -0.002562 0.000000
0.001668 -0.000926 0.000000
-0.000317 -0.005707 0.000000
0.000088 -0.001186 0.000000
0.001957 -0.002124 0.000000
0.000496 -0.009413 0.000000
0.000300 -0.000193 0.000000
0.000977 -0.000529 0.000000
-0.000180 -0.002825 0.000000
0.000065 -0.000668 0.000000
0.000291 -0.000843 0.000000
-0.000386 -0.003859 0.000000
0.000360 -0.007271 0.000000
0.002399 -0.007281 0.000000
0.000387 -0.000572 0.000000
0.000047 -0.000164 0.000000
0.002228 -0.001995 0.000000
0.003207 -0.004777 0.000000
0.001297 -0.010707 0.000000
0.000062 -0.000205 0.000000
0.002047 -0.002034 0.000000
0.001404 -0.010427 0.000000
0.000330 -0.000984 0.000000
0.000868 -0.010119 0.000000
0.000524 -0.000783 0.000000
0.000105 -0.000183 0.000000
0.001499 -0.000908 0.000000
0.002102 -0.006549 0.000000
0.000497 -0.009443 0.000000
0.000492 -0.000927 0.000000
0.000045 -0.001009 0.000000
0.000033 -0.000174 0.000000
0.000051 -0.000622 0.000000
0.001307 -0.010639 0.000000
0.002590 -0.008922 0.000000
0.001132 -0.000842 0.000000
0.002259 -0.009327 0.000000
-0.000132 -0.000648 0.000000
0.000098 -0.000505 0.000000
0.000348 -0.000994 0.000000
0.000034 -0.002046 0.000000
0.000421 -0.009256 0.000000
0.003041 -0.005139 0.000000
0.000845 -0.010317 0.000000
0.001168 -0.010716 0.000000
-0.000018 -0.007543 0.000000
0.002628 -0.008986 0.000000
0.000821 -0.010205 0.000000
-0.000079 -0.008173 0.000000
0.000201 -0.007570 0.000000
0.001362 -0.010554 0.000000
0.001927 -0.009929 0.000000
0.001975 -0.007937 0.000000
0.000158 -0.007290 0.000000
0.000555 -0.006136 0.000000
0.000463 -0.009571 0.000000
0.000349 -0.000767 0.000000
0.000016 -0.010291 0.000000
0.000034 -0.010335 0.000000
0.002077 -0.006241 0.000000
0.000127 -0.000956 0.000000
0.000840 -0.000882 0.000000
0.000030 -0.007513 0.000000
-0.000101 -0.006870 0.000000
0.000005 -0.000770 0.000000
0.003037 -0.002948 0.000000
0.003142 -0.004149 0.000000
0.000359 -0.001010 0.000000
0.003154 -0.005213 0.000000
0.000095 -0.000480 0.000000
0.000371 -0.000217 0.000000
0.001346 -0.010574 0.000000
0.002215 -0.001951 0.000000
0.002445 -0.009006 0.000000
0.003183 -0.004285 0.000000
-0.000154 -0.005847 0.000000
0.000326 -0.008020 0.000000
0.000220 -0.001980 0.000000
0.002679 -0.002461 0.000000
0.000489 -0.000946 0.000000
0.000204 -0.000654 0.000000
0.000326 -0.005898 0.000000
0.000006 -0.007554 0.000000
0.000332 -0.007853 0.000000
0.002274 -0.007247 0.000000
0.000435 -0.000732 0.000000
0.000116 -0.000879 0.000000
0.000258 -0.006922 0.000000
0.000478 -0.000905 0.000000
0.000323 -0.007991 0.000000
0.001268 -0.010624 0.000000
0.000493 -0.000412 0.000000
0.001950 -0.004681 0.000000
0.000263 -0.004162 0.000000
0.003014 -0.003179 0.000000
0.001623 -0.004635 0.000000
0.000302 -0.008773 0.000000
-0.000114 -0.006710 0.000000
0.002266 -0.001950 0.000000
0.000559 -0.000376 0.000000
0.003166 -0.004114 0.000000
0.002723 -0.008044 0.000000
0.000384 -0.003402 0.000000
0.000182 -0.000989 0.000000
0.000369 -0.007545 0.000000
0.002030 -0.004948 0.000000
0.001294 -0.000641 0.000000
0.000471 -0.009175 0.000000
0.000414 -0.008735 0.000000
0.000174 -0.000992 0.000000
0.000153 -0.002593 0.000000
0.003065 -0.007739 0.000000
0.000325 -0.008397 0.000000
0.001343 -0.000648 0.000000
0.001221 -0.010723 0.000000
-0.000015 -0.007580 0.000000
0.001168 -0.001315 0.000000
0.000248 -0.008175 0.000000
0.000406 -0.008826 0.000000
0.002265 -0.001909 0.000000
0.002287 -0.002110 0.000000
0.000095 -0.000243 0.000000
0.002148 -0.005252 0.000000
0.000063 -0.002991 0.000000
0.000557 -0.001499 0.000000
0.002960 -0.003226 0.000000
0.001528 -0.000912 0.000000
0.002176 -0.005221 0.000000
0.003051 -0.003127 0.000000
0.000362 -0.009931 0.000000
-0.000029 -0.000591 0.000000
0.000109 -0.000915 0.000000
-0.000181 -0.005990 0.000000
0.000381 -0.001119 0.000000
0.002569 -0.001748 0.000000
0.000732 -0.002113 0.000000
0.000472 -0.000259 0.000000
0.003210 -0.004405 0.000000
0.001997 -0.001561 0.000000
0.001595 -0.000938 0.000000
0.003245 -0.005180 0.000000
0.000006 -0.010404 0.000000
-0.000107 -0.002376 0.000000
0.000027 -0.000697 0.000000
0.001490 -0.000949 0.000000
0.003136 -0.005037 0.000000
0.000286 -0.009629 0.000000
0.001367 -0.010468 0.000000
0.000280 -0.000852 0.000000
0.000225 -0.004294 0.000000
0.003072 -0.005325 0.000000
0.001284 -0.010719 0.000000
0.000595 -0.009777 0.000000
0.003011 -0.003289 0.000000
0.002961 -0.005138 0.000000
0.000324 -0.008557 0.000000
0.000101 -0.000504 0.000000
0.000198 -0.008539 0.000000
0.000479 -0.000507 0.000000
0.000269 -0.008408 0.000000
0.000224 -0.000710 0.000000
0.002934 -0.005056 0.000000
0.000126 -0.008034 0.000000
0.000175 -0.000705 0.000000
0.002651 -0.006040 0.000000
0.000060 -0.000717 0.000000
0.002262 -0.001158 0.000000
-0.000049 -0.008505 0.000000
0.001328 -0.000655 0.000000
-0.000163 -0.006672 0.000000
0.000475 -0.009222 0.000000
0.001378 -0.001513 0.000000
0.000059 -0.000474 0.000000
0.001302 -0.010711 0.000000
0.002413 -0.001753 0.000000
0.002540 -0.008778 0.000000
0.000591 -0.010045 0.000000
0.003338 -0.004479 0.000000
0.000351 -0.001032 0.000000
0.000070 -0.001178 0.000000
0.002305 -0.002095 0.000000
0.000373 -0.008197 0.000000
0.003546 -0.006532 0.000000
0.000279 -0.009338 0.000000
0.000300 -0.000193 0.000000
0.000322 -0.003125 0.000000
0.003144 -0.007002 0.000000
0.001277 -0.010775 0.000000
0.000170 -0.002909 0.000000
0.000052 -0.007892 0.000000
0.000640 -0.003095 0.000000
-0.000187 -0.002692 0.000000
0.000363 -0.003268 0.000000
0.002126 -0.005387 0.000000
0.002149 -0.001772 0.000000
0.001378 -0.000736 0.000000
0.000197 -0.000848 0.000000
-0.000034 -0.001678 0.000000
0.000586 -0.009570 0.000000
0.000483 -0.004065 0.000000
0.001311 -0.010699 0.000000
0.000590 -0.009532 0.000000
0.000006 -0.010362 0.000000
0.003069 -0.005464 0.000000
0.000410 -0.008603 0.000000
0.000400 -0.008781 0.000000
0.000070 -0.007908 0.000000
0.002096 -0.005185 0.000000
0.000191 -0.000382 0.000000
0.000310 -0.008735 0.000000
0.001377 -0.010447 0.000000
0.001194 -0.010695 0.000000
0.001662 -0.000852 0.000000
0.000457 -0.000903 0.000000
0.000275 -0.005799 0.000000
0.000475 -0.005838 0.000000
0.003186 -0.004311 0.000000
0.000244 -0.004593 0.000000
0.001158 -0.004286 0.000000
0.003200 -0.004611 0.000000
0.000025 -0.000147 0.000000
0.000872 -0.010294 0.000000
0.000533 -0.009416 0.000000
0.000130 -0.000135 0.000000
0.003013 -0.004462 0.000000
0.003066 -0.003333 0.000000
0.000083 -0.000435 0.000000
0.000326 -0.008689 0.000000
0.000171 -0.000984 0.000000
0.001141 -0.000636 0.000000
0.000643 -0.005505 0.000000
0.001211 -0.003752 0.000000
0.000038 -0.000588 0.000000
0.000373 -0.008630 0.000000
0.000259 -0.000454 0.000000
0.000348 -0.008550 0.000000
0.002529 -0.002727 0.000000
-0.000251 -0.000812 0.000000
0.002175 -0.005308 0.000000
0.000468 -0.000950 0.000000
0.000166 -0.010093 0.000000
0.002491 -0.002271 0.000000
0.000171 -0.000980 0.000000
0.003091 -0.003156 0.000000
0.001915 -0.004491 0.000000
0.002105 -0.006475 0.000000
0.000553 -0.008988 0.000000
0.000490 -0.000687 0.000000
0.000641 -0.009413 0.000000
0.002018 -0.005786 0.000000
0.002146 -0.006257 0.000000
0.000002 -0.010310 0.000000
0.002535 -0.008985 0.000000
0.001887 -0.001903 0.000000
0.001243 -0.010802 0.000000
0.001280 -0.010740 0.000000
0.000358 -0.003714 0.000000
0.000386 -0.008684 0.000000
0.000539 -0.009721 0.000000
0.000000 -0.000401 0.000000
0.000026 -0.010219 0.000000
-0.000042 -0.001859 0.000000
0.002209 -0.006759 0.000000
0.000818 -0.000929 0.000000
0.000070 -0.000729 0.000000
0.001203 -0.010795 0.000000
0.000076 -0.000420 0.000000
0.000141 -0.000504 0.000000
0.001559 -0.001813 0.000000
0.000525 -0.009044 0.000000
0.000584 -0.007128 0.000000
0.001244 -0.001698 0.000000
0.000902 -0.010327 0.000000
0.002722 -0.008471 0.000000
0.002904 -0.002999 0.000000
0.000311 -0.007575 0.000000
0.001296 -0.007888 0.000000
0.001584 -0.001902 0.000000
0.003344 -0.005252 0.000000
0.000086 -0.000786 0.000000
0.000411 -0.001457 0.000000
0.001131 -0.010727 0.000000
0.000580 -0.000971 0.000000
0.001517 -0.000819 0.000000
0.002826 -0.008099 0.000000
0.000490 -0.008013 0.000000
0.000732 -0.009507 0.000000
0.000994 -0.000673 0.000000
0.002144 -0.001770 0.000000
0.000448 -0.000845 0.000000
0.000424 -0.003959 0.000000
0.000868 -0.010164 0.000000
0.000217 -0.009937 0.000000
-0.000222 -0.002451 0.000000
0.000441 -0.010062 0.000000
0.000026 -0.001561 0.000000
0.001234 -0.010804 0.000000
0.001121 -0.010608 0.000000
0.000870 -0.010211 0.000000
0.003207 -0.005378 0.000000
0.000491 -0.010109 0.000000
0.001273 -0.010755 0.000000
0.000605 -0.000993 0.000000
0.002258 -0.005501 0.000000
0.002856 -0.003226 0.000000
0.000505 -0.006998 0.000000
0.000305 -0.007975 0.000000
0.001802 -0.001317 0.000000
0.002028 -0.001159 0.000000
0.000310 -0.007987 0.000000
0.000377 -0.007259 0.000000
0.000340 -0.007285 0.000000
0.000507 -0.005864 0.000000
0.000450 -0.006112 0.000000
0.001576 -0.005481 0.000000
0.002731 -0.002959 0.000000
0.000308 -0.007962 0.000000
0.001886 -0.006882 0.000000
0.001739 -0.001234 0.000000
0.002517 -0.002465 0.000000
0.002205 -0.001556 0.000000
0.002252 -0.001331 0.000000
0.001980 -0.001156 0.000000
0.000229 -0.007475 0.000000
0.002487 -0.002439 0.000000
0.001499 -0.005323 0.000000
0.002604 -0.002534 0.000000
0.002018 -0.001623 0.000000
0.002819 -0.002954 0.000000
0.002647 -0.002950 0.000000
0.001854 -0.001384 0.000000
0.000264 -0.006625 0.000000
0.000413 -0.007233 0.000000
0.000156 -0.000971 0.000000
0.003150 -0.005152 0.000000
0.001854 -0.001140 0.000000
0.001244 -0.004791 0.000000
0.003002 -0.007199 0.000000
0.001783 -0.001092 0.000000
0.003173 -0.005132 0.000000
0.000353 -0.006301 0.000000
0.000611 -0.005381 0.000000
0.002074 -0.001162 0.000000
0.000760 -0.004742 0.000000
0.000289 -0.006545 0.000000
0.003390 -0.004630 0.000000
0.002860 -0.002929 0.000000
0.001961 -0.006788 0.000000
0.003200 -0.005178 0.000000
0.000326 -0.007921 0.000000
0.003179 -0.005186 0.000000
0.001585 -0.001009 0.000000
0.000412 -0.006333 0.000000
0.000569 -0.005612 0.000000
0.001667 -0.001145 0.000000
0.003397 -0.006911 0.000000
0.002610 -0.002935 0.000000
0.002458 -0.002416 0.000000
-0.000237 -0.005585 0.000000
0.001789 -0.007008 0.000000
0.002968 -0.007273 0.000000
0.000158 -0.000970 0.000000
0.000427 -0.007658 0.000000
0.002244 -0.001266 0.000000
-0.000279 -0.006096 0.000000
0.000445 -0.007564 0.000000
-0.000279 -0.005990 0.000000
0.000146 -0.000924 0.000000
0.000376 -0.006198 0.000000
0.000095 -0.006832 0.000000
0.003387 -0.004646 0.000000
0.000336 -0.007881 0.000000
0.002889 -0.007492 0.000000
0.000242 -0.006699 0.000000
0.000331 -0.007901 0.000000
0.001200 -0.010472 0.000000
0.002283 -0.002497 0.000000
0.000389 -0.007992 0.000000
0.000232 -0.007583 0.000000
0.001476 -0.010309 0.000000
0.002380 -0.002604 0.000000
0.000139 -0.000966 0.000000
0.002854 -0.007657 0.000000
0.003265 -0.004584 0.000000
0.000447 -0.007211 0.000000
0.000527 -0.007225 0.000000
0.000884 -0.007380 0.000000
0.001500 -0.010271 0.000000
0.002784 -0.002628 0.000000
0.000715 -0.004771 0.000000
0.001777 -0.009917 0.000000
0.001943 -0.003274 0.000000
0.001656 -0.002762 0.000000
0.000641 -0.005180 0.000000
0.002872 -0.007571 0.000000
0.002043 -0.009589 0.000000
0.003385 -0.004611 0.000000
0.001679 -0.010041 0.000000
0.003178 -0.007162 0.000000
0.003334 -0.004855 0.000000
0.000128 -0.000902 0.000000
0.000239 -0.007606 0.000000
0.003214 -0.005009 0.000000
0.001157 -0.010429 0.000000
0.002556 -0.002501 0.000000
0.003220 -0.005173 0.000000
0.002314 -0.009287 0.000000
0.001200 -0.004710 0.000000
0.001229 -0.010502 0.000000
0.002588 -0.002919 0.000000
0.001674 -0.003638 0.000000
0.001370 -0.000885 0.000000
0.001439 -0.010346 0.000000
0.003378 -0.004667 0.000000
0.001283 -0.010509 0.000000
0.000671 -0.007189 0.000000
0.000233 -0.009937 0.000000
0.001792 -0.002866 0.000000
0.003369 -0.006929 0.000000
0.000164 -0.000960 0.000000
0.001698 -0.003726 0.000000
0.001679 -0.007160 0.000000
0.003268 -0.004602 0.000000
0.002847 -0.002898 0.000000
0.002832 -0.002871 0.000000
0.001282 -0.010186 0.000000
0.000957 -0.009862 0.000000
-0.000253 -0.006291 0.000000
0.000249 -0.007624 0.000000
0.001921 -0.009746 0.000000
0.001533 -0.002664 0.000000
0.000154 -0.000941 0.000000
0.000153 -0.000972 0.000000
0.001104 -0.010375 0.000000
0.001811 -0.003182 0.000000
0.000304 -0.007309 0.000000
0.000265 -0.009939 0.000000
0.002289 -0.003360 0.000000
0.000703 -0.009971 0.000000
0.002988 -0.007674 0.000000
0.002018 -0.006726 0.000000
0.001394 -0.000750 0.000000
0.000692 -0.004767 0.000000
0.003223 -0.004932 0.000000
0.000468 -0.007472 0.000000
0.001816 -0.009870 0.000000
0.001932 -0.001152 0.000000
0.003243 -0.005172 0.000000
0.001507 -0.003908 0.000000
-0.000071 -0.006716 0.000000
0.000554 -0.009327 0.000000
0.002377 -0.009255 0.000000
0.002150 -0.002374 0.000000
0.000495 -0.009135 0.000000
0.000488 -0.006334 0.000000
0.002111 -0.001164 0.000000
0.002449 -0.002699 0.000000
0.000572 -0.009224 0.000000
0.000273 -0.009795 0.000000
0.003337 -0.005019 0.000000
0.000185 -0.006907 0.000000
0.000360 -0.005519 0.000000
0.000508 -0.009195 0.000000
0.001437 -0.002858 0.000000
0.001647 -0.003544 0.000000
0.003135 -0.005171 0.000000
0.000668 -0.005008 0.000000
0.001438 -0.000859 0.000000
0.001059 -0.010332 0.000000
0.000420 -0.007751 0.000000
0.000163 -0.000969 0.000000
0.001889 -0.001445 0.000000
0.001969 -0.001566 0.000000
0.001306 -0.000883 0.000000
0.003278 -0.004567 0.000000
0.000167 -0.000965 0.000000
0.000425 -0.007967 0.000000
0.003437 -0.006818 0.000000
0.000331 -0.006676 0.000000
0.000167 -0.000970 0.000000
0.001485 -0.000785 0.000000
0.000423 -0.006001 0.000000
0.000622 -0.009325 0.000000
0.003193 -0.006869 0.000000
0.000260 -0.007637 0.000000
0.001003 -0.007476 0.000000
0.003438 -0.006679 0.000000
0.000276 -0.009808 0.000000
0.000091 -0.006823 0.000000
0.000594 -0.009275 0.000000
0.001238 -0.000863 0.000000
0.000242 -0.006386 0.000000
0.000423 -0.005907 0.000000
0.000284 -0.009919 0.000000
0.001438 -0.010368 0.000000
0.000296 -0.009770 0.000000
0.001933 -0.002970 0.000000
0.002413 -0.009204 0.000000
0.001455 -0.010345 0.000000
0.001260 -0.000748 0.000000
0.001514 -0.010385 0.000000
0.001438 -0.010322 0.000000
0.000330 -0.009777 0.000000
0.002251 -0.009315 0.000000
0.001182 -0.010629 0.000000
0.003057 -0.006062 0.000000
0.001083 -0.002427 0.000000
0.000340 -0.009846 0.000000
0.000801 -0.010054 0.000000
0.002132 -0.003380 0.000000
0.001269 -0.003483 0.000000
0.001720 -0.003808 0.000000
0.003345 -0.005101 0.000000
0.001612 -0.004030 0.000000
0.001203 -0.000849 0.000000
0.002511 -0.002446 0.000000
0.001171 -0.010552 0.000000
0.002825 -0.002832 0.000000
0.000959 -0.000923 0.000000
0.000557 -0.006080 0.000000
0.003148 -0.006764 0.000000
0.001219 -0.002324 0.000000
0.001151 -0.000804 0.000000
0.000704 -0.009417 0.000000
0.001993 -0.002365 0.000000
0.000276 -0.006252 0.000000
0.000185 -0.006811 0.000000
0.000338 -0.007778 0.000000
0.000342 -0.007831 0.000000
0.000130 -0.008462 0.000000
0.001210 -0.002560 0.000000
0.002526 -0.002462 0.000000
0.002210 -0.009394 0.000000
0.000172 -0.008101 0.000000
0.002498 -0.002775 0.000000
0.000226 -0.006770 0.000000
0.000681 -0.004731 0.000000
0.000614 -0.004764 0.000000
0.002305 -0.009438 0.000000
0.001413 -0.001381 0.000000
0.001967 -0.009685 0.000000
0.001680 -0.004144 0.000000
0.002809 -0.007858 0.000000
0.002800 -0.007964 0.000000
0.000249 -0.008382 0.000000
0.000442 -0.007982 0.000000
0.002439 -0.009089 0.000000
0.002233 -0.001476 0.000000
0.003263 -0.004715 0.000000
0.001888 -0.009254 0.000000
0.000647 -0.009364 0.000000
0.000047 -0.001008 0.000000
0.003159 -0.006632 0.000000
0.002096 -0.006527 0.000000
0.000685 -0.004861 0.000000
0.000090 -0.008442 0.000000
0.000551 -0.007270 0.000000
0.000229 -0.003839 0.000000
0.001801 -0.001107 0.000000
0.002292 -0.009295 0.000000
0.002071 -0.006689 0.000000
0.002077 -0.002189 0.000000
0.002405 -0.006785 0.000000
0.001020 -0.009912 0.000000
0.001200 -0.010075 0.000000
0.002700 -0.008103 0.000000
0.001313 -0.010487 0.000000
0.003066 -0.005859 0.000000
0.001704 -0.001041 0.000000
0.000115 -0.010179 0.000000
0.001609 -0.000988 0.000000
-0.000051 -0.008261 0.000000
0.000493 -0.007391 0.000000
0.002435 -0.006622 0.000000
0.001160 -0.010458 0.000000
0.003077 -0.005912 0.000000
0.001996 -0.002250 0.000000
0.000281 -0.004167 0.000000
0.000685 -0.006356 0.000000
0.000862 -0.010162 0.000000
0.003324 -0.006923 0.000000
0.001180 -0.000936 0.000000
0.000238 -0.008093 0.000000
0.000439 -0.007844 0.000000
0.002927 -0.002840 0.000000
0.001489 -0.000794 0.000000
0.001175 -0.001205 0.000000
0.001928 -0.009145 0.000000
0.002794 -0.008024 0.000000
0.001468 -0.000763 0.000000
-0.000005 -0.008168 0.000000
0.000058 -0.010338 0.000000
0.000294 -0.003230 0.000000
0.000507 -0.007169 0.000000
0.001532 -0.010231 0.000000
0.000439 -0.008900 0.000000
0.002157 -0.002463 0.000000
0.001460 -0.000843 0.000000
0.002880 -0.002797 0.000000
0.000092 -0.000971 0.000000
0.001080 -0.002441 0.000000
0.000904 -0.010147 0.000000
0.000459 -0.008949 0.000000
0.001124 -0.000941 0.000000
0.000348 -0.001007 0.000000
0.000455 -0.007944 0.000000
0.000949 -0.010208 0.000000
0.000127 -0.001050 0.000000
0.000272 -0.007327 0.000000
0.000641 -0.000667 0.000000
0.000207 -0.000658 0.000000
0.002838 -0.002724 0.000000
0.000012 -0.001060 0.000000
0.002074 -0.009022 0.000000
0.001566 -0.001033 0.000000
0.000155 -0.001145 0.000000
0.001189 -0.000745 0.000000
0.000168 -0.000611 0.000000
-0.000161 -0.006543 0.000000
0.001297 -0.010699 0.000000
0.002180 -0.009015 0.000000
0.000639 -0.000831 0.000000
0.002165 -0.001165 0.000000
0.001191 -0.010688 0.000000
0.002915 -0.002857 0.000000
0.000193 -0.000665 0.000000
0.000137 -0.000954 0.000000
0.000431 -0.004350 0.000000
0.000572 -0.000661 0.000000
0.001073 -0.001914 0.000000
0.000913 -0.009814 0.000000
0.002460 -0.009046 0.000000
0.002945 -0.007197 0.000000
0.000399 -0.003029 0.000000
0.000002 -0.005231 0.000000
0.002750 -0.004464 0.000000
0.000101 -0.001061 0.000000
0.000668 -0.006412 0.000000
0.002819 -0.007937 0.000000
0.000206 -0.000982 0.000000
0.002946 -0.002915 0.000000
0.002045 -0.006249 0.000000
0.002746 -0.007164 0.000000
0.002623 -0.007182 0.000000
0.003302 -0.004550 0.000000
-0.000223 -0.003656 0.000000
0.003456 -0.006747 0.000000
0.000684 -0.006324 0.000000
-0.000242 -0.003725 0.000000
-0.000042 -0.008376 0.000000
0.002852 -0.007184 0.000000
0.003088 -0.007040 0.000000
0.001151 -0.010348 0.000000
0.003456 -0.004992 0.000000
-0.000166 -0.003460 0.000000
-0.000432 -0.004522 0.000000
0.001465 -0.001497 0.000000
0.001165 -0.001547 0.000000
0.000491 -0.010139 0.000000
0.000348 -0.001020 0.000000
0.000070 -0.010303 0.000000
0.000147 -0.001159 0.000000
0.002367 -0.009213 0.000000
0.003100 -0.005813 0.000000
0.003235 -0.004460 0.000000
0.000476 -0.000654 0.000000
0.002473 -0.006436 0.000000
0.000837 -0.000679 0.000000
0.000088 -0.001017 0.000000
0.000533 -0.010195 0.000000
0.000333 -0.008189 0.000000
0.000318 -0.008261 0.000000
0.003523 -0.005157 0.000000
0.003300 -0.006021 0.000000
0.001606 -0.001165 0.000000
0.000875 -0.000676 0.000000
0.002373 -0.006931 0.000000
0.000150 -0.000974 0.000000
0.002030 -0.001795 0.000000
0.001014 -0.000925 0.000000
0.003527 -0.005887 0.000000
0.000480 -0.007195 0.000000
0.000611 -0.009428 0.000000
0.000742 -0.009925 0.000000
0.002089 -0.001698 0.000000
0.002133 -0.001691 0.000000
0.000059 -0.001055 0.000000
0.001933 -0.008108 0.000000
0.002912 -0.006644 0.000000
0.000759 -0.010443 0.000000
0.002750 -0.006336 0.000000
0.000398 -0.010068 0.000000
0.000590 -0.005201 0.000000
0.000138 -0.010147 0.000000
0.003262 -0.004105 0.000000
0.002463 -0.007803 0.000000
0.000807 -0.000903 0.000000
0.000209 -0.000680 0.000000
0.000992 -0.000927 0.000000
0.000415 -0.005064 0.000000
0.000862 -0.010233 0.000000
-0.000231 -0.004105 0.000000
0.002976 -0.007738 0.000000
0.001144 -0.010225 0.000000
0.000299 -0.009540 0.000000
0.000281 -0.009423 0.000000
0.002837 -0.004243 0.000000
0.000413 -0.010160 0.000000
0.001072 -0.000947 0.000000
0.003428 -0.005940 0.000000
0.000422 -0.000577 0.000000
0.000244 -0.000984 0.000000
0.000059 -0.000678 0.000000
0.000781 -0.010428 0.000000
0.000063 -0.000702 0.000000
0.001856 -0.008273 0.000000
0.000187 -0.000878 0.000000
0.000313 -0.002978 0.000000
0.000739 -0.010336 0.000000
0.000051 -0.000770 0.000000
0.000748 -0.009956 0.000000
0.000322 -0.001025 0.000000
0.001461 -0.009457 0.000000
-0.000003 -0.003054 0.000000
0.000033 -0.000992 0.000000
0.000048 -0.010368 0.000000
0.000269 -0.007520 0.000000
0.000833 -0.000549 0.000000
0.000172 -0.000632 0.000000
0.003131 -0.005196 0.000000
0.001241 -0.000936 0.000000
-0.000012 -0.001102 0.000000
0.003377 -0.004828 0.000000
0.000452 -0.005907 0.000000
0.000501 -0.007798 0.000000
0.000247 -0.009945 0.000000
0.000432 -0.010171 0.000000
0.000139 -0.004991 0.000000
0.000271 -0.009856 0.000000
0.000289 -0.001573 0.000000
0.002742 -0.008534 0.000000
0.000711 -0.009310 0.000000
0.000163 -0.001124 0.000000
0.001237 -0.000929 0.000000
0.000326 -0.006740 0.000000
0.003114 -0.003884 0.000000
0.001439 -0.010470 0.000000
0.002559 -0.002880 0.000000
0.001016 -0.004535 0.000000
0.000035 -0.000913 0.000000
0.000196 -0.000575 0.000000
0.000806 -0.000698 0.000000
0.000128 -0.007150 0.000000
0.000414 -0.010047 0.000000
0.000369 -0.008846 0.000000
0.000381 -0.008874 0.000000
0.000475 -0.008910 0.000000
0.002082 -0.003121 0.000000
0.000092 -0.001165 0.000000
0.000397 -0.008383 0.000000
0.000091 -0.010291 0.000000
0.002534 -0.002830 0.000000
0.001401 -0.010073 0.000000
0.002017 -0.007954 0.000000
0.000427 -0.010093 0.000000
0.001258 -0.010524 0.000000
0.002972 -0.002975 0.000000
0.001088 -0.001236 0.000000
0.001872 -0.001721 0.000000
0.000834 -0.000896 0.000000
0.000687 -0.004671 0.000000
0.000680 -0.006271 0.000000
0.002790 -0.002605 0.000000
0.001316 -0.003721 0.000000
0.000052 -0.000636 0.000000
0.000633 -0.004950 0.000000
0.002170 -0.001872 0.000000
0.003348 -0.004722 0.000000
0.000807 -0.000913 0.000000
0.000078 -0.001135 0.000000
-0.000097 -0.003877 0.000000
0.000726 -0.008393 0.000000
0.000393 -0.010148 0.000000
0.000416 -0.009402 0.000000
0.000521 -0.000677 0.000000
0.000020 -0.000300 0.000000
0.000054 -0.000934 0.000000
0.000895 -0.000590 0.000000
0.000145 -0.000976 0.000000
-0.000207 -0.003741 0.000000
-0.000083 -0.005443 0.000000
0.000086 -0.010266 0.000000
0.000429 -0.005188 0.000000
0.000281 -0.008241 0.000000
0.000404 -0.001636 0.000000
0.000379 -0.003977 0.000000
0.000369 -0.008812 0.000000
0.000964 -0.000941 0.000000
0.000325 -0.000997 0.000000
0.000586 -0.005883 0.000000
0.000703 -0.004536 0.000000
0.000256 -0.009885 0.000000
0.002509 -0.002418 0.000000
0.000285 -0.009567 0.000000
0.002852 -0.007860 0.000000
-0.000063 -0.002416 0.000000
0.000074 -0.006913 0.000000
0.000295 -0.000421 0.000000
0.000249 -0.004089 0.000000
0.003001 -0.003601 0.000000
0.002769 -0.002569 0.000000
0.002032 -0.009034 0.000000
0.000545 -0.000815 0.000000
0.000049 -0.000639 0.000000
0.001021 -0.000952 0.000000
0.000068 -0.000499 0.000000
0.000152 -0.006948 0.000000
0.003025 -0.003473 0.000000
0.000049 -0.000309 0.000000
0.000548 -0.000564 0.000000
0.001789 -0.008421 0.000000
0.000494 -0.006997 0.000000
0.000077 -0.001158 0.000000
0.001718 -0.004206 0.000000
-0.000012 -0.002189 0.000000
0.000159 -0.000949 0.000000
0.000953 -0.010230 0.000000
0.000104 -0.001142 0.000000
0.000247 -0.003475 0.000000
0.002097 -0.007821 0.000000
0.000390 -0.004830 0.000000
0.000200 -0.009711 0.000000
-0.000274 -0.003344 0.000000
0.000718 -0.000850 0.000000
0.001018 -0.000774 0.000000
0.000056 -0.000621 0.000000
0.000409 -0.008875 0.000000
-0.000012 -0.001091 0.000000
0.000668 -0.006219 0.000000
0.000837 -0.008513 0.000000
0.002992 -0.003039 0.000000
0.000040 -0.010395 0.000000
0.003104 -0.004290 0.000000
0.002825 -0.008400 0.000000
0.002526 -0.006232 0.000000
0.001725 -0.008561 0.000000
0.003131 -0.004599 0.000000
0.000388 -0.010056 0.000000
0.000273 -0.006792 0.000000
0.000701 -0.005013 0.000000
0.000536 -0.004769 0.000000
0.000186 -0.006965 0.000000
0.002342 -0.007062 0.000000
0.000870 -0.000679 0.000000
0.000237 -0.003493 0.000000
0.002895 -0.004024 0.000000
0.001751 -0.004184 0.000000
0.002868 -0.004328 0.000000
0.000361 -0.000498 0.000000
0.000372 -0.010134 0.000000
0.000518 -0.009032 0.000000
0.000796 -0.000745 0.000000
0.002593 -0.003866 0.000000
0.000419 -0.000697 0.000000
0.000496 -0.004953 0.000000
0.000233 -0.005038 0.000000
0.001231 -0.010870 0.000000
0.001990 -0.008593 0.000000
0.000281 -0.009539 0.000000
0.000418 -0.008361 0.000000
0.000369 -0.010065 0.000000
0.000536 -0.009074 0.000000
0.001483 -0.010224 0.000000
0.000106 -0.004997 0.000000
0.000198 -0.000748 0.000000
0.000011 -0.000313 0.000000
0.002932 -0.007659 0.000000
0.000741 -0.010447 0.000000
0.000088 -0.001124 0.000000
0.000513 -0.008720 0.000000
0.000046 -0.001089 0.000000
0.000116 -0.001137 0.000000
0.000789 -0.000541 0.000000
0.000181 -0.006003 0.000000
0.000271 -0.007331 0.000000
0.000242 -0.000978 0.000000
0.003041 -0.005867 0.000000
0.000213 -0.000247 0.000000
0.003129 -0.004214 0.000000
0.003025 -0.003367 0.000000
0.000103 -0.010232 0.000000
0.002658 -0.002026 0.000000
0.000023 -0.010436 0.000000
0.000560 -0.010212 0.000000
0.003308 -0.004115 0.000000
0.000709 -0.009422 0.000000
0.001837 -0.001974 0.000000
0.000618 -0.000769 0.000000
0.002916 -0.003360 0.000000
0.001395 -0.010508 0.000000
0.001088 -0.002424 0.000000
0.000171 -0.000432 0.000000
0.000862 -0.010022 0.000000
0.000415 -0.000636 0.000000
0.000369 -0.004885 0.000000
0.000128 -0.000240 0.000000
0.000843 -0.000609 0.000000
0.000972 -0.000958 0.000000
0.000911 -0.010287 0.000000
0.002992 -0.003686 0.000000
0.000374 -0.008896 0.000000
0.001234 -0.010864 0.000000
0.001916 -0.005004 0.000000
0.000317 -0.003531 0.000000
0.000226 -0.008571 0.000000
0.001493 -0.001128 0.000000
0.000034 -0.010417 0.000000
0.002996 -0.003467 0.000000
0.000612 -0.006135 0.000000
0.003005 -0.005737 0.000000
0.000351 -0.010125 0.000000
0.001892 -0.001150 0.000000
0.000105 -0.000629 0.000000
0.000154 -0.008716 0.000000
0.000380 -0.009257 0.000000
0.002585 -0.006047 0.000000
0.000202 -0.004742 0.000000
0.002364 -0.009052 0.000000
-0.000013 -0.002769 0.000000
0.000805 -0.010410 0.000000
0.000334 -0.010049 0.000000
0.000281 -0.009051 0.000000
0.000860 -0.000581 0.000000
0.002314 -0.007185 0.000000
0.000018 -0.001080 0.000000
0.000066 -0.010367 0.000000
0.001496 -0.001224 0.000000
0.000811 -0.000920 0.000000
0.001038 -0.008603 0.000000
0.000812 -0.000658 0.000000
0.002124 -0.006606 0.000000
0.002732 -0.007649 0.000000
0.001009 -0.000913 0.000000
0.001741 -0.010127 0.000000
0.001002 -0.009251 0.000000
0.001797 -0.000905 0.000000
0.003287 -0.004675 0.000000
-0.000042 -0.000894 0.000000
0.000009 -0.000302 0.000000
0.001887 -0.008632 0.000000
0.000106 -0.001118 0.000000
0.001666 -0.004112 0.000000
0.001273 -0.000959 0.000000
0.000361 -0.008495 0.000000
0.000232 -0.010043 0.000000
0.000445 -0.008357 0.000000
0.000008 -0.010489 0.000000
0.002606 -0.001960 0.000000
0.001289 -0.000920 0.000000
-0.000227 -0.004480 0.000000
0.001201 -0.010730 0.000000
0.000251 -0.007670 0.000000
0.000341 -0.003436 0.000000
0.000091 -0.006506 0.000000
0.001212 -0.001598 0.000000
0.000082 -0.007319 0.000000
0.001836 -0.008497 0.000000
0.000062 -0.000335 0.000000
0.003140 -0.004253 0.000000
0.000133 -0.006667 0.000000
0.000070 -0.001260 0.000000
0.000831 -0.010261 0.000000
0.001862 -0.004974 0.000000
0.000552 -0.007263 0.000000
0.003142 -0.003515 0.000000
0.000204 -0.003676 0.000000
0.000809 -0.009779 0.000000
0.000924 -0.000786 0.000000
0.003005 -0.002912 0.000000
0.000927 -0.000963 0.000000
0.000256 -0.010030 0.000000
0.003144 -0.004040 0.000000
0.002794 -0.003285 0.000000
0.000062 -0.000696 0.000000
0.000323 -0.010112 0.000000
0.001933 -0.001534 0.000000
0.001078 -0.000838 0.000000
0.000506 -0.001025 0.000000
0.000124 -0.010197 0.000000
0.001847 -0.002056 0.000000
0.002146 -0.009619 0.000000
0.000168 -0.000969 0.000000
0.002275 -0.004978 0.000000
0.000347 -0.003442 0.000000
0.000273 -0.000256 0.000000
0.000285 -0.003327 0.000000
0.000298 -0.008805 0.000000
0.000076 -0.001128 0.000000
0.000729 -0.000741 0.000000
0.000205 -0.010072 0.000000
0.000139 -0.001165 0.000000
0.000029 -0.010435 0.000000
0.003090 -0.005715 0.000000
0.000789 -0.010077 0.000000
0.003116 -0.003934 0.000000
0.000948 -0.010276 0.000000
0.000032 -0.001062 0.000000
0.001332 -0.000921 0.000000
0.000666 -0.009501 0.000000
0.000455 -0.000799 0.000000
0.000229 -0.006199 0.000000
0.000313 -0.010045 0.000000
0.000625 -0.006459 0.000000
0.000037 -0.000830 0.000000
0.000451 -0.010180 0.000000
0.000285 -0.010102 0.000000
0.000363 -0.004456 0.000000
0.001121 -0.010534 0.000000
0.000320 -0.007680 0.000000
0.000162 -0.001093 0.000000
0.000207 -0.001013 0.000000
0.000726 -0.000796 0.000000
0.000243 -0.010101 0.000000
0.001048 -0.010439 0.000000
0.002747 -0.002477 0.000000
0.001371 -0.007611 0.000000
0.000479 -0.000703 0.000000
0.000408 -0.004952 0.000000
0.003309 -0.005192 0.000000
0.000012 -0.010473 0.000000
0.001247 -0.010816 0.000000
0.000020 -0.010453 0.000000
0.000854 -0.009930 0.000000
0.003173 -0.005500 0.000000
0.000055 -0.010386 0.000000
0.000380 -0.000790 0.000000
0.000665 -0.001469 0.000000
0.000199 -0.010119 0.000000
0.003156 -0.003769 0.000000
0.000466 -0.001025 0.000000
0.000155 -0.010157 0.000000
0.000233 -0.003106 0.000000
0.003131 -0.003912 0.000000
0.002473 -0.009064 0.000000
0.001100 -0.010479 0.000000
0.002796 -0.003378 0.000000
0.001460 -0.002373 0.000000
0.000298 -0.002420 0.000000
0.000497 -0.008662 0.000000
-0.000038 -0.000964 0.000000
0.001898 -0.008342 0.000000
0.000058 -0.000640 0.000000
0.001239 -0.000969 0.000000
0.003019 -0.006044 0.000000
0.000346 -0.002981 0.000000
0.003015 -0.003595 0.000000
0.003024 -0.003271 0.000000
0.000327 -0.000777 0.000000
0.000147 -0.009838 0.000000
-0.000058 -0.004867 0.000000
0.000099 -0.001114 0.000000
0.000077 -0.003764 0.000000
0.003343 -0.005984 0.000000
0.001323 -0.009567 0.000000
0.000497 -0.004225 0.000000
-0.000057 -0.009119 0.000000
0.002993 -0.004175 0.000000
0.000404 -0.006878 0.000000
0.003009 -0.003108 0.000000
0.000022 -0.001556 0.000000
0.000814 -0.000626 0.000000
0.000065 -0.000879 0.000000
0.000304 -0.008802 0.000000
0.001886 -0.005438 0.000000
0.001622 -0.001714 0.000000
0.000220 -0.000900 0.000000
0.001341 -0.003728 0.000000
0.000237 -0.009254 0.000000
0.001175 -0.001287 0.000000
0.002250 -0.001945 0.000000
0.000039 -0.000333 0.000000
0.002731 -0.008494 0.000000
0.001239 -0.010852 0.000000
0.000552 -0.008445 0.000000
0.000068 -0.009604 0.000000
0.002059 -0.002200 0.000000
0.000295 -0.000767 0.000000
0.003333 -0.005746 0.000000
0.000846 -0.000618 0.000000
0.000571 -0.000784 0.000000
0.002880 -0.007950 0.000000
0.003030 -0.003193 0.000000
-0.000221 -0.001566 0.000000
0.002442 -0.009133 0.000000
0.002367 -0.008003 0.000000
0.003076 -0.003221 0.000000
0.000966 -0.000897 0.000000
0.000358 -0.003791 0.000000
0.000610 -0.001496 0.000000
0.000056 -0.000333 0.000000
0.000775 -0.000553 0.000000
0.000058 -0.010278 0.000000
0.000603 -0.006025 0.000000
-0.000261 -0.001399 0.000000
0.000484 -0.004146 0.000000
0.000282 -0.010029 0.000000
0.003104 -0.003837 0.000000
0.000337 -0.002163 0.000000
0.002533 -0.001434 0.000000
0.000361 -0.004592 0.000000
0.000769 -0.010071 0.000000
-0.000145 -0.007523 0.000000
0.001579 -0.001762 0.000000
0.000026 -0.000283 0.000000
0.000304 -0.000844 0.000000
0.002789 -0.003336 0.000000
0.000009 -0.010480 0.000000
-0.000140 -0.006621 0.000000
0.002329 -0.003276 0.000000
0.003097 -0.003325 0.000000
0.000514 -0.001366 0.000000
0.001764 -0.001853 0.000000
-0.000142 -0.001660 0.000000
0.000822 -0.000920 0.000000
0.000391 -0.009446 0.000000
0.000592 -0.000876 0.000000
0.001744 -0.002277 0.000000
0.000581 -0.001501 0.000000
0.002722 -0.008564 0.000000
-0.000123 -0.001066 0.000000
0.000061 -0.000658 0.000000
-0.000045 -0.009452 0.000000
0.000888 -0.010144 0.000000
0.002783 -0.005459 0.000000
0.000018 -0.000319 0.000000
0.000826 -0.009894 0.000000
0.000332 -0.000951 0.000000
0.000167 -0.006648 0.000000
0.000345 -0.002443 0.000000
0.000327 -0.009680 0.000000
0.001675 -0.000800 0.000000
0.000049 -0.000645 0.000000
0.002397 -0.008144 0.000000
0.002053 -0.008441 0.000000
0.000603 -0.000968 0.000000
0.002928 -0.004382 0.000000
0.002922 -0.007925 0.000000
0.001440 -0.010380 0.000000
-0.000061 -0.002277 0.000000
0.000910 -0.002697 0.000000
0.000098 -0.001657 0.000000
-0.000188 -0.007310 0.000000
0.001127 -0.000753 0.000000
0.000070 -0.010310 0.000000
0.000314 -0.006534 0.000000
0.000774 -0.000568 0.000000
0.000723 -0.010438 0.000000
0.000368 -0.008309 0.000000
0.000816 -0.000645 0.000000
0.000721 -0.000954 0.000000
0.000177 -0.001456 0.000000
0.000926 -0.010441 0.000000
0.000302 -0.000989 0.000000
0.000052 -0.002438 0.000000
0.000340 -0.000771 0.000000
0.000090 -0.010283 0.000000
0.000710 -0.009835 0.000000
0.002706 -0.002328 0.000000
0.002190 -0.009406 0.000000
0.000379 -0.008915 0.000000
-0.000041 -0.009258 0.000000
0.001488 -0.003933 0.000000
0.000072 -0.002127 0.000000
0.000990 -0.000726 0.000000
0.000319 -0.009780 0.000000
0.000831 -0.000888 0.000000
0.000125 -0.000366 0.000000
0.000755 -0.000954 0.000000
0.000278 -0.000921 0.000000
0.002670 -0.005871 0.000000
0.000075 -0.002158 0.000000
0.001479 -0.002566 0.000000
0.000473 -0.008610 0.000000
0.000332 -0.000993 0.000000
0.000093 -0.005124 0.000000
0.000699 -0.000792 0.000000
0.003521 -0.005518 0.000000
0.000236 -0.003849 0.000000
0.003484 -0.006651 0.000000
0.000545 -0.005684 0.000000
0.001191 -0.009954 0.000000
-0.000050 -0.006187 0.000000
0.000339 -0.001448 0.000000
0.001167 -0.000830 0.000000
0.001355 -0.008424 0.000000
0.000949 -0.010498 0.000000
0.002105 -0.002354 0.000000
0.000829 -0.010394 0.000000
0.000081 -0.001248 0.000000
-0.000294 -0.002818 0.000000
0.002792 -0.005332 0.000000
0.000387 -0.001844 0.000000
0.000855 -0.000965 0.000000
0.001128 -0.000916 0.000000
0.000806 -0.009735 0.000000
0.002823 -0.007872 0.000000
0.000760 -0.000573 0.000000
0.002900 -0.004148 0.000000
0.000884 -0.000966 0.000000
0.001470 -0.003580 0.000000
0.000174 -0.000257 0.000000
0.000045 -0.000830 0.000000
0.002733 -0.008221 0.000000
0.000257 -0.001045 0.000000
0.000170 -0.001096 0.000000
0.000551 -0.006150 0.000000
0.000416 -0.008295 0.000000
0.002523 -0.001404 0.000000
0.002368 -0.007378 0.000000
0.003125 -0.006988 0.000000
0.000597 -0.000419 0.000000
0.001874 -0.000973 0.000000
0.000597 -0.004444 0.000000
0.002893 -0.007798 0.000000
0.000818 -0.000965 0.000000
0.000853 -0.000406 0.000000
0.001052 -0.000777 0.000000
0.000633 -0.005479 0.000000
0.002705 -0.005694 0.000000
0.003397 -0.005972 0.000000
0.001342 -0.000909 0.000000
0.001074 -0.000868 0.000000
0.000009 -0.008745 0.000000
0.001347 -0.003932 0.000000
0.000037 -0.006092 0.000000
0.000843 -0.000967 0.000000
0.000320 -0.009501 0.000000
0.003208 -0.004220 0.000000
0.002957 -0.007831 0.000000
0.002724 -0.005562 0.000000
0.000470 -0.010188 0.000000
0.000033 -0.010421 0.000000
0.000077 -0.001265 0.000000
0.000379 -0.000926 0.000000
0.000756 -0.000882 0.000000
0.000346 -0.001001 0.000000
-0.000072 -0.008970 0.000000
0.002854 -0.002781 0.000000
0.001494 -0.003249 0.000000
0.000592 -0.000790 0.000000
0.003002 -0.003722 0.000000
0.000294 -0.000763 0.000000
-0.000310 -0.002993 0.000000
0.003157 -0.003995 0.000000
0.002309 -0.005791 0.000000
0.000277 -0.000666 0.000000
0.000070 -0.000854 0.000000
0.002620 -0.001798 0.000000
0.000312 -0.001082 0.000000
0.000856 -0.000656 0.000000
0.002422 -0.007162 0.000000
0.000064 -0.001197 0.000000
0.000370 -0.005219 0.000000
0.000245 -0.003451 0.000000
0.001813 -0.000887 0.000000
0.002725 -0.008385 0.000000
0.001077 -0.010429 0.000000
0.000756 -0.000896 0.000000
0.000012 -0.001903 0.000000
0.001360 -0.009814 0.000000
0.002100 -0.003940 0.000000
0.003411 -0.005719 0.000000
0.000127 -0.002014 0.000000
0.000128 -0.003004 0.000000
0.000540 -0.007549 0.000000
0.000534 -0.002349 0.000000
0.002235 -0.005785 0.000000
0.003342 -0.004082 0.000000
0.000303 -0.008097 0.000000
0.000352 -0.001013 0.000000
0.000371 -0.009527 0.000000
0.002991 -0.003632 0.000000
0.000501 -0.008371 0.000000
0.000429 -0.001222 0.000000
0.001229 -0.010871 0.000000
0.002074 -0.006124 0.000000
0.002543 -0.001467 0.000000
0.000443 -0.009340 0.000000
0.000077 -0.000958 0.000000
0.000415 -0.008483 0.000000
0.000345 -0.003396 0.000000
0.000890 -0.000949 0.000000
0.000307 -0.009235 0.000000
0.000217 -0.007639 0.000000
0.000653 -0.000748 0.000000
0.000685 -0.009669 0.000000
0.000084 -0.000687 0.000000
0.000428 -0.001020 0.000000
0.000406 -0.009360 0.000000
0.000093 -0.005191 0.000000
0.001720 -0.000804 0.000000
0.000560 -0.009433 0.000000
0.003157 -0.004484 0.000000
0.000046 -0.001290 0.000000
0.002744 -0.008488 0.000000
0.000418 -0.002839 0.000000
0.001244 -0.010754 0.000000
0.000443 -0.008983 0.000000
0.001762 -0.010116 0.000000
0.000886 -0.010275 0.000000
0.000141 -0.002873 0.000000
0.000345 -0.007817 0.000000
0.000346 -0.001028 0.000000
0.000313 -0.008410 0.000000
0.000501 -0.008566 0.000000
0.001019 -0.010479 0.000000
0.002721 -0.008740 0.000000
0.000364 -0.009653 0.000000
0.001384 -0.002983 0.000000
0.000433 -0.009263 0.000000
0.000769 -0.000932 0.000000
0.000408 -0.001243 0.000000
0.000224 -0.002121 0.000000
0.000290 -0.000580 0.000000
0.001323 -0.010596 0.000000
0.000398 -0.008840 0.000000
0.000248 -0.000993 0.000000
0.000766 -0.009920 0.000000
0.000215 -0.006839 0.000000
-0.000172 -0.000361 0.000000
0.000554 -0.006473 0.000000
-0.000058 -0.001375 0.000000
0.000888 -0.001071 0.000000
0.000035 -0.000277 0.000000
0.000184 -0.009114 0.000000
0.002750 -0.002654 0.000000
0.003068 -0.003097 0.000000
0.000515 -0.000366 0.000000
0.001518 -0.002846 0.000000
0.000386 -0.000871 0.000000
0.000719 -0.009869 0.000000
0.000309 -0.008802 0.000000
0.000118 -0.000833 0.000000
0.001793 -0.001299 0.000000
0.000616 -0.008706 0.000000
0.002697 -0.008815 0.000000
0.000107 -0.007953 0.000000
0.002901 -0.005306 0.000000
0.000188 -0.000940 0.000000
0.002486 -0.006505 0.000000
0.003080 -0.004082 0.000000
0.000142 -0.003123 0.000000
-0.000058 -0.008528 0.000000
0.001773 -0.008614 0.000000
0.000004 -0.010504 0.000000
0.000043 -0.001300 0.000000
0.001588 -0.004186 0.000000
0.000256 -0.008713 0.000000
0.000054 -0.007562 0.000000
0.000463 -0.000313 0.000000
0.002781 -0.007960 0.000000
0.000119 -0.010172 0.000000
0.002557 -0.001512 0.000000
0.000125 -0.001174 0.000000
0.000302 -0.006317 0.000000
0.000199 -0.010070 0.000000
0.000501 -0.008872 0.000000
0.002498 -0.002366 0.000000
0.000863 -0.010369 0.000000
0.000330 -0.000868 0.000000
0.001155 -0.000586 0.000000
0.001260 -0.003672 0.000000
0.003000 -0.003460 0.000000
0.001299 -0.000690 0.000000
0.001249 -0.010831 0.000000
0.000288 -0.005841 0.000000
-0.000136 -0.001071 0.000000
0.000397 -0.008575 0.000000
0.000079 -0.000842 0.000000
0.000469 -0.000922 0.000000
0.000348 -0.009595 0.000000
0.000471 -0.007964 0.000000
0.000494 -0.007977 0.000000
0.001027 -0.010352 0.000000
0.002709 -0.008343 0.000000
0.000309 -0.005897 0.000000
0.001501 -0.000828 0.000000
0.001509 -0.000808 0.000000
0.000549 -0.009107 0.000000
0.002695 -0.002275 0.000000
0.001273 -0.000621 0.000000
0.000794 -0.000724 0.000000
-0.000131 -0.000973 0.000000
0.002967 -0.007650 0.000000
0.003402 -0.004185 0.000000
0.003469 -0.005737 0.000000
0.003156 -0.004807 0.000000
0.000137 -0.000359 0.000000
0.000087 -0.000900 0.000000
0.000032 -0.001124 0.000000
0.000082 -0.007966 0.000000
0.000699 -0.000928 0.000000
0.000166 -0.000253 0.000000
0.000319 -0.009880 0.000000
0.000355 -0.008412 0.000000
0.001077 -0.010568 0.000000
0.000382 -0.003656 0.000000
0.000541 -0.000710 0.000000
0.000164 -0.010114 0.000000
0.000497 -0.003247 0.000000
0.001969 -0.008181 0.000000
0.001107 -0.010603 0.000000
0.001504 -0.001894 0.000000
0.000473 -0.009010 0.000000
0.000313 -0.000863 0.000000
0.000532 -0.000409 0.000000
0.000937 -0.000667 0.000000
0.001745 -0.003912 0.000000
0.000550 -0.007227 0.000000
-0.000236 -0.004837 0.000000
0.002010 -0.005013 0.000000
0.000080 -0.000319 0.000000
0.002476 -0.002586 0.000000
0.002419 -0.006438 0.000000
0.000710 -0.000944 0.000000
0.000058 -0.000683 0.000000
0.000616 -0.000797 0.000000
0.000447 -0.006543 0.000000
0.000758 -0.000773 0.000000
0.000420 -0.009561 0.000000
0.002563 -0.009003 0.000000
0.002477 -0.007354 0.000000
0.002715 -0.007503 0.000000
0.000228 -0.001030 0.000000
0.000036 -0.001177 0.000000
0.000043 -0.001281 0.000000
0.001717 -0.008727 0.000000
0.001995 -0.005132 0.000000
0.002174 -0.006745 0.000000
0.000050 -0.000273 0.000000
0.000902 -0.010349 0.000000
0.003027 -0.005686 0.000000
0.000251 -0.000672 0.000000
0.000157 -0.000682 0.000000
0.002048 -0.006220 0.000000
0.000441 -0.000645 0.000000
0.000776 -0.000591 0.000000
0.001276 -0.003364 0.000000
0.000706 -0.010418 0.000000
0.000453 -0.000759 0.000000
0.001665 -0.001047 0.000000
0.000497 -0.001462 0.000000
0.000798 -0.000768 0.000000
0.000345 -0.008792 0.000000
0.000085 -0.000768 0.000000
0.001246 -0.002429 0.000000
0.001256 -0.010778 0.000000
0.000978 -0.010395 0.000000
0.000301 -0.009924 0.000000
0.000416 -0.009140 0.000000
0.000455 -0.000871 0.000000
0.000013 -0.000213 0.000000
0.002812 -0.002650 0.000000
0.002285 -0.002434 0.000000
0.000037 -0.000521 0.000000
0.000185 -0.000559 0.000000
0.000163 -0.000971 0.000000
0.000165 -0.000972 0.000000
0.000293 -0.007855 0.000000
0.000320 -0.005613 0.000000
0.002207 -0.007899 0.000000
0.001004 -0.010341 0.000000
0.000131 -0.001165 0.000000
0.001261 -0.002931 0.000000
0.003186 -0.004916 0.000000
0.001334 -0.010621 0.000000
0.002862 -0.002929 0.000000
0.000613 -0.000696 0.000000
0.000586 -0.000860 0.000000
0.000495 -0.010196 0.000000
0.000594 -0.009272 0.000000
0.001345 -0.010459 0.000000
0.000174 -0.001062 0.000000
0.003019 -0.007819 0.000000
0.003158 -0.006942 0.000000
0.000198 -0.009954 0.000000
0.000228 -0.009920 0.000000
0.003064 -0.003187 0.000000
-0.000209 -0.007376 0.000000
0.000100 -0.002553 0.000000
-0.000008 -0.001399 0.000000
0.000386 -0.006638 0.000000
0.001082 -0.002150 0.000000
0.003045 -0.005068 0.000000
0.000398 -0.010003 0.000000
0.002996 -0.003766 0.000000
0.000629 -0.000952 0.000000
0.000351 -0.009891 0.000000
0.000293 -0.005366 0.000000
0.002871 -0.003940 0.000000
0.000519 -0.009318 0.000000
0.000695 -0.009964 0.000000
0.002915 -0.004729 0.000000
0.000059 -0.007473 0.000000
0.000026 -0.002415 0.000000
0.000235 -0.008477 0.000000
0.000696 -0.002339 0.000000
0.000102 -0.000412 0.000000
0.000117 -0.000890 0.000000
0.000402 -0.008930 0.000000
0.000271 -0.001106 0.000000
0.000074 -0.000927 0.000000
0.000038 -0.000744 0.000000
0.001150 -0.010649 0.000000
0.000361 -0.000291 0.000000
0.000230 -0.005987 0.000000
0.000138 -0.000722 0.000000
0.000116 -0.000923 0.000000
0.000723 -0.000941 0.000000
0.001693 -0.001715 0.000000
0.001615 -0.000992 0.000000
0.003290 -0.006714 0.000000
0.000776 -0.010063 0.000000
0.000290 -0.003411 0.000000
0.000421 -0.000999 0.000000
0.001560 -0.002280 0.000000
0.000918 -0.001045 0.000000
0.000318 -0.008266 0.000000
0.000088 -0.009101 0.000000
0.003066 -0.007525 0.000000
0.000291 -0.009814 0.000000
0.002910 -0.004827 0.000000
0.002788 -0.003405 0.000000
-0.000023 -0.001109 0.000000
0.002240 -0.001134 0.000000
0.000311 -0.001722 0.000000
0.001027 -0.002293 0.000000
0.003218 -0.004174 0.000000
0.001155 -0.010617 0.000000
0.000393 -0.009274 0.000000
0.000746 -0.003682 0.000000
0.000229 -0.008271 0.000000
0.000325 -0.003080 0.000000
0.000549 -0.001905 0.000000
0.002087 -0.008146 0.000000
0.000476 -0.008997 0.000000
0.000091 -0.001241 0.000000
0.001220 -0.003402 0.000000
0.000661 -0.001097 0.000000
0.000124 -0.000946 0.000000
0.000667 -0.009438 0.000000
0.001573 -0.000865 0.000000
0.000232 -0.007355 0.000000
0.002790 -0.002697 0.000000
0.001159 -0.010785 0.000000
0.000180 -0.004240 0.000000
0.003184 -0.007121 0.000000
0.001759 -0.005069 0.000000
0.000328 -0.006910 0.000000
0.001257 -0.001517 0.000000
0.003215 -0.005117 0.000000
0.001348 -0.002549 0.000000
-0.000073 -0.008132 0.000000
0.000035 -0.007596 0.000000
-0.000006 -0.009973 0.000000
0.002141 -0.001757 0.000000
0.002673 -0.008426 0.000000
0.002411 -0.001222 0.000000
0.000067 -0.007945 0.000000
0.003670 -0.005889 0.000000
0.002496 -0.006930 0.000000
0.000409 -0.009178 0.000000
0.000385 -0.008402 0.000000
0.000437 -0.001939 0.000000
0.002841 -0.008159 0.000000
0.000073 -0.000494 0.000000
-0.000014 -0.005194 0.000000
-0.000125 -0.006575 0.000000
0.000490 -0.000705 0.000000
0.002807 -0.003310 0.000000
0.000293 -0.000909 0.000000
0.002464 -0.002241 0.000000
-0.000312 -0.005650 0.000000
0.001572 -0.000790 0.000000
0.000849 -0.010221 0.000000
0.000424 -0.008843 0.000000
0.000225 -0.000291 0.000000
0.003175 -0.007377 0.000000
0.003181 -0.004846 0.000000
0.000248 -0.001029 0.000000
0.003076 -0.005020 0.000000
-0.000502 -0.002653 0.000000
0.001853 -0.001149 0.000000
0.003173 -0.004097 0.000000
0.003014 -0.003743 0.000000
0.002612 -0.008667 0.000000
0.003204 -0.004837 0.000000
-0.000086 -0.009159 0.000000
0.000176 -0.001002 0.000000
0.001962 -0.005752 0.000000
0.002806 -0.006501 0.000000
0.001452 -0.000788 0.000000
0.000270 -0.009760 0.000000
0.000265 -0.009864 0.000000
0.000188 -0.000448 0.000000
0.000291 -0.006679 0.000000
-0.000414 -0.001843 0.000000
0.000602 -0.002977 0.000000
0.002049 -0.001689 0.000000
0.000399 -0.008468 0.000000
-0.000142 -0.007310 0.000000
0.002646 -0.001861 0.000000
0.003353 -0.005170 0.000000
0.002596 -0.001594 0.000000
0.002658 -0.008298 0.000000
0.000218 -0.003762 0.000000
0.000735 -0.009769 0.000000
0.000840 -0.009728 0.000000
0.003132 -0.005228 0.000000
0.003160 -0.005549 0.000000
0.001952 -0.004762 0.000000
0.000068 -0.000723 0.000000
0.001556 -0.007447 0.000000
0.000132 -0.009961 0.000000
0.003126 -0.007517 0.000000
0.002611 -0.006298 0.000000
0.000798 -0.000696 0.000000
-0.000321 -0.005811 0.000000
0.003425 -0.006607 0.000000
0.000497 -0.008393 0.000000
0.001126 -0.007724 0.000000
0.002953 -0.003992 0.000000
0.002738 -0.003275 0.000000
0.002440 -0.003334 0.000000
0.000787 -0.010112 0.000000
0.000419 -0.007521 0.000000
0.002837 -0.004969 0.000000
0.000667 -0.000715 0.000000
0.000315 -0.003450 0.000000
0.002690 -0.007707 0.000000
0.002864 -0.002844 0.000000
0.001436 -0.000882 0.000000
0.000801 -0.003959 0.000000
0.000158 -0.008445 0.000000
0.000320 -0.001042 0.000000
0.000114 -0.000906 0.000000
0.002509 -0.007532 0.000000
0.002122 -0.005396 0.000000
0.002173 -0.001685 0.000000
0.002196 -0.001659 0.000000
0.000386 -0.003553 0.000000
0.000644 -0.005757 0.000000
0.002919 -0.004504 0.000000
0.001286 -0.010719 0.000000
0.000479 -0.005754 0.000000
0.000460 -0.005676 0.000000
0.000647 -0.005647 0.000000
0.000736 -0.004497 0.000000
0.000476 -0.005741 0.000000
0.003280 -0.004591 0.000000
0.000846 -0.000903 0.000000
0.001545 -0.003981 0.000000
-0.000096 -0.008342 0.000000
0.001139 -0.003202 0.000000
0.001707 -0.009951 0.000000
0.001609 -0.010029 0.000000
0.002667 -0.002431 0.000000
0.000273 -0.007611 0.000000
0.001192 -0.010758 0.000000
0.002603 -0.003077 0.000000
0.000848 -0.001140 0.000000
0.000535 -0.005656 0.000000
-0.000123 -0.002589 0.000000
0.001597 -0.002062 0.000000
0.000933 -0.001413 0.000000
0.000128 -0.000597 0.000000
0.003240 -0.006526 0.000000
0.000333 -0.007724 0.000000
0.003133 -0.007489 0.000000
0.000141 -0.005754 0.000000
0.000116 -0.000262 0.000000
0.000439 -0.009028 0.000000
0.000070 -0.000595 0.000000
-0.000258 -0.005175 0.000000
0.002277 -0.001194 0.000000
0.000401 -0.000363 0.000000
0.000299 -0.003976 0.000000
0.000283 -0.000849 0.000000
0.000235 -0.006043 0.000000
0.000070 -0.008058 0.000000
0.002494 -0.009186 0.000000
0.002592 -0.009090 0.000000
0.003383 -0.004541 0.000000
-0.000020 -0.009621 0.000000
0.000655 -0.000600 0.000000
0.002110 -0.002701 0.000000
0.000066 -0.000724 0.000000
0.000119 -0.000885 0.000000
0.000098 -0.000756 0.000000
0.000132 -0.000899 0.000000
0.000320 -0.001049 0.000000
-0.000091 -0.002274 0.000000
0.000130 -0.000720 0.000000
0.000489 -0.009008 0.000000
0.003195 -0.004124 0.000000
0.001252 -0.010618 0.000000
-0.000411 -0.004759 0.000000
-0.000194 -0.005342 0.000000
-0.000366 -0.005109 0.000000
0.000342 -0.000553 0.000000
-0.000018 -0.009710 0.000000
0.000547 -0.000977 0.000000
-0.000077 -0.008619 0.000000
0.000656 -0.000837 0.000000
0.000837 -0.010301 0.000000
0.000218 -0.007509 0.000000
0.002048 -0.005113 0.000000
0.001219 -0.001989 0.000000
0.002645 -0.008726 0.000000
0.000299 -0.000510 0.000000
0.000220 -0.004472 0.000000
-0.000070 -0.001855 0.000000
0.000034 -0.002381 0.000000
0.000441 -0.000380 0.000000
0.001119 -0.010699 0.000000
0.001198 -0.004495 0.000000
0.003097 -0.005624 0.000000
0.000072 -0.000279 0.000000
0.002064 -0.001718 0.000000
0.000022 -0.000419 0.000000
0.000361 -0.001848 0.000000
0.002803 -0.003285 0.000000
0.000408 -0.008840 0.000000
0.000244 -0.008240 0.000000
0.003251 -0.004358 0.000000
0.003295 -0.004583 0.000000
0.000571 -0.009193 0.000000
0.002037 -0.001652 0.000000
0.000284 -0.001048 0.000000
0.000310 -0.008550 0.000000
0.000618 -0.004084 0.000000
0.002027 -0.005047 0.000000
0.000026 -0.000209 0.000000
0.000685 -0.009447 0.000000
0.000713 -0.009620 0.000000
0.000114 -0.001850 0.000000
-0.000013 -0.001268 0.000000
0.001256 -0.010763 0.000000
0.000006 -0.000208 0.000000
0.002470 -0.008756 0.000000
0.000540 -0.009805 0.000000
0.000147 -0.000977 0.000000
0.000132 -0.000962 0.000000
0.000147 -0.001030 0.000000
0.000048 -0.000609 0.000000
0.003062 -0.003015 0.000000
0.000123 -0.003545 0.000000
0.000246 -0.000773 0.000000
0.000497 -0.010039 0.000000
0.000484 -0.008967 0.000000
0.000307 -0.000937 0.000000
0.001686 -0.009637 0.000000
0.002769 -0.008049 0.000000
0.000754 -0.000936 0.000000
0.001652 -0.010157 0.000000
0.001341 -0.001254 0.000000
-0.000003 -0.010189 0.000000
0.000303 -0.009279 0.000000
0.001123 -0.009912 0.000000
-0.000063 -0.008784 0.000000
0.000022 -0.004262 0.000000
0.003051 -0.003587 0.000000
0.000336 -0.006959 0.000000
0.000382 -0.007655 0.000000
0.000077 -0.001052 0.000000
0.000867 -0.009555 0.000000
0.002910 -0.007835 0.000000
0.002743 -0.007539 0.000000
0.000423 -0.003040 0.000000
0.000725 -0.000873 0.000000
0.002650 -0.005925 0.000000
0.000021 -0.002328 0.000000
0.002366 -0.001171 0.000000
0.002019 -0.007834 0.000000
0.002792 -0.005074 0.000000
0.000464 -0.004488 0.000000
0.001216 -0.010773 0.000000
0.000198 -0.001005 0.000000
0.000173 -0.000517 0.000000
-0.000113 -0.005655 0.000000
-0.000080 -0.000758 0.000000
-0.000048 -0.008004 0.000000
0.000423 -0.000277 0.000000
0.000684 -0.000943 0.000000
0.000301 -0.007277 0.000000
0.000369 -0.005925 0.000000
0.000272 -0.009748 0.000000
0.002842 -0.002733 0.000000
0.002881 -0.002773 0.000000
0.000342 -0.000213 0.000000
0.000230 -0.006335 0.000000
0.001244 -0.010816 0.000000
0.001985 -0.006085 0.000000
0.002043 -0.005955 0.000000
0.000619 -0.000980 0.000000
0.000377 -0.005848 0.000000
0.000159 -0.000856 0.000000
0.000183 -0.006526 0.000000
0.001113 -0.010671 0.000000
0.003073 -0.004443 0.000000
0.000408 -0.008618 0.000000
0.002675 -0.002403 0.000000
0.000519 -0.004759 0.000000
0.001511 -0.003100 0.000000
0.001470 -0.002312 0.000000
0.001956 -0.004888 0.000000
0.001289 -0.010661 0.000000
0.001503 -0.009292 0.000000
0.000330 -0.008925 0.000000
0.000131 -0.000650 0.000000
0.002397 -0.008969 0.000000
0.001799 -0.005703 0.000000
0.002667 -0.003320 0.000000
0.000324 -0.008776 0.000000
0.001266 -0.010764 0.000000
0.000500 -0.006560 0.000000
0.002780 -0.003219 0.000000
0.002432 -0.003363 0.000000
0.000657 -0.010337 0.000000
0.000074 -0.000495 0.000000
0.002218 -0.009218 0.000000
0.002102 -0.009549 0.000000
-0.000234 -0.006410 0.000000
0.002345 -0.008249 0.000000
0.000321 -0.008220 0.000000
-0.000056 -0.008283 0.000000
0.002979 -0.007903 0.000000
0.000437 -0.003240 0.000000
0.000106 -0.001158 0.000000
0.000386 -0.005471 0.000000
0.000257 -0.001074 0.000000
0.002205 -0.005438 0.000000
-0.000008 -0.009886 0.000000
0.000785 -0.000805 0.000000
0.002335 -0.008612 0.000000
0.002551 -0.008230 0.000000
0.002170 -0.005358 0.000000
0.000360 -0.007938 0.000000
0.002604 -0.008427 0.000000
0.000487 -0.000791 0.000000
0.002591 -0.001930 0.000000
0.000445 -0.004067 0.000000
0.000423 -0.009012 0.000000
0.002714 -0.002539 0.000000
0.001618 -0.010060 0.000000
0.001774 -0.009845 0.000000
0.000303 -0.007201 0.000000
0.000260 -0.000500 0.000000
0.000167 -0.001274 0.000000
-0.000083 -0.007683 0.000000
0.002611 -0.002343 0.000000
0.003257 -0.004243 0.000000
0.000126 -0.001168 0.000000
0.002023 -0.005139 0.000000
0.000176 -0.008764 0.000000
0.001387 -0.010378 0.000000
0.001493 -0.000876 0.000000
0.000418 -0.009620 0.000000
0.000454 -0.009849 0.000000
0.000098 -0.000767 0.000000
0.000522 -0.009494 0.000000
-0.000163 -0.006104 0.000000
0.001402 -0.003899 0.000000
0.000545 -0.001017 0.000000
0.002978 -0.004698 0.000000
0.000279 -0.009843 0.000000
0.000218 -0.000163 0.000000
0.001492 -0.000850 0.000000
0.002579 -0.002922 0.000000
0.000461 -0.008540 0.000000
0.000029 -0.008480 0.000000
0.001146 -0.002446 0.000000
0.001259 -0.002542 0.000000
0.000094 -0.002879 0.000000
0.000269 -0.004273 0.000000
0.000210 -0.004142 0.000000
0.000397 -0.009679 0.000000
0.000367 -0.009793 0.000000
0.000111 -0.010281 0.000000
0.003175 -0.003779 0.000000
0.001046 -0.010573 0.000000
0.001245 -0.010792 0.000000
0.000065 -0.000443 0.000000
0.000531 -0.009220 0.000000
0.000420 -0.006501 0.000000
0.002533 -0.008679 0.000000
0.001526 -0.002592 0.000000
-0.000310 -0.001054 0.000000
0.002220 -0.001166 0.000000
0.002740 -0.002581 0.000000
0.000299 -0.007265 0.000000
0.001228 -0.010847 0.000000
0.002878 -0.008179 0.000000
0.000274 -0.008277 0.000000
0.001649 -0.004567 0.000000
0.000002 -0.000553 0.000000
0.000736 -0.003901 0.000000
0.000870 -0.004530 0.000000
0.000488 -0.000989 0.000000
0.001911 -0.008943 0.000000
0.000224 -0.003706 0.000000
0.000001 -0.010519 0.000000
0.000043 -0.001302 0.000000
0.000042 -0.000329 0.000000
0.001143 -0.010560 0.000000
0.000005 -0.010092 0.000000
0.002436 -0.003375 0.000000
0.000581 -0.001126 0.000000
0.002577 -0.002080 0.000000
0.001999 -0.009814 0.000000
0.000452 -0.007761 0.000000
-0.000182 -0.000544 0.000000
0.000517 -0.009203 0.000000
0.000276 -0.000540 0.000000
0.001101 -0.002935 0.000000
0.000390 -0.010016 0.000000
0.000328 -0.001040 0.000000
0.002188 -0.007626 0.000000
0.000358 -0.000283 0.000000
0.001823 -0.004627 0.000000
0.001024 -0.010339 0.000000
0.000341 -0.009419 0.000000
0.000254 -0.009956 0.000000
0.001382 -0.010316 0.000000
0.000570 -0.010236 0.000000
0.000393 -0.009088 0.000000
0.000429 -0.009134 0.000000
0.002944 -0.003152 0.000000
0.002232 -0.001868 0.000000
-0.000019 -0.008437 0.000000
-0.000274 -0.001018 0.000000
0.000079 -0.000356 0.000000
0.001788 -0.004889 0.000000
0.002492 -0.002430 0.000000
0.001304 -0.000730 0.000000
0.002050 -0.006184 0.000000
0.002983 -0.003844 0.000000
0.001816 -0.004277 0.000000
0.001802 -0.004077 0.000000
0.000031 -0.002763 0.000000
0.002652 -0.005672 0.000000
0.000057 -0.000271 0.000000
0.000106 -0.002890 0.000000
0.001743 -0.009393 0.000000
0.002222 -0.007516 0.000000
-0.000290 -0.001885 0.000000
0.000366 -0.010021 0.000000
0.003268 -0.005214 0.000000
0.000519 -0.009583 0.000000
0.000586 -0.009268 0.000000
0.000556 -0.007581 0.000000
0.000162 -0.002283 0.000000
0.000351 -0.009823 0.000000
-0.000178 -0.007741 0.000000
0.000264 -0.009867 0.000000
0.000672 -0.005137 0.000000
0.000027 -0.000421 0.000000
0.000053 -0.000279 0.000000
0.001140 -0.010582 0.000000
0.000547 -0.009084 0.000000
0.000566 -0.009160 0.000000
0.000518 -0.009256 0.000000
0.000803 -0.000892 0.000000
0.000593 -0.010259 0.000000
0.002091 -0.002402 0.000000
0.001059 -0.002270 0.000000
0.000493 -0.003573 0.000000
0.000318 -0.007640 0.000000
0.000079 -0.008735 0.000000
0.003022 -0.006103 0.000000
-0.000007 -0.010068 0.000000
0.000004 -0.000385 0.000000
0.002364 -0.002233 0.000000
0.000129 -0.000560 0.000000
0.002294 -0.002391 0.000000
0.002876 -0.007406 0.000000
0.002455 -0.008536 0.000000
0.001142 -0.010704 0.000000
0.000561 -0.009216 0.000000
0.000427 -0.009480 0.000000
0.000352 -0.008063 0.000000
0.002990 -0.003782 0.000000
0.000326 -0.008765 0.000000
0.002028 -0.003053 0.000000
0.002096 -0.003182 0.000000
0.000356 -0.009932 0.000000
0.000333 -0.007968 0.000000
0.002635 -0.001901 0.000000
0.001143 -0.010732 0.000000
0.002504 -0.002432 0.000000
0.001360 -0.001461 0.000000
0.002975 -0.007499 0.000000
-0.000007 -0.002277 0.000000
0.000806 -0.000576 0.000000
0.002931 -0.003199 0.000000
0.000330 -0.001043 0.000000
0.001859 -0.004917 0.000000
0.000403 -0.007734 0.000000
0.001314 -0.010680 0.000000
0.001944 -0.009492 0.000000
0.002115 -0.006591 0.000000
0.000040 -0.000781 0.000000
0.002081 -0.007312 0.000000
0.001195 -0.010736 0.000000
0.000071 -0.000189 0.000000
0.002224 -0.002265 0.000000
0.000357 -0.000599 0.000000
0.000136 -0.009565 0.000000
0.002987 -0.005335 0.000000
0.001956 -0.002371 0.000000
0.000989 -0.001462 0.000000
-0.000115 -0.007737 0.000000
0.000104 -0.007469 0.000000
0.003006 -0.004117 0.000000
0.003012 -0.003676 0.000000
0.001303 -0.010709 0.000000
0.003330 -0.004531 0.000000
-0.000026 -0.000335 0.000000
0.000071 -0.000181 0.000000
0.000237 -0.000944 0.000000
0.002957 -0.006451 0.000000
0.002359 -0.001980 0.000000
0.000286 -0.001005 0.000000
0.001270 -0.010765 0.000000
0.001746 -0.001642 0.000000
0.002046 -0.002043 0.000000
0.003238 -0.005480 0.000000
0.000402 -0.008749 0.000000
0.000615 -0.010145 0.000000
0.001300 -0.010719 0.000000
0.000197 -0.005489 0.000000
0.001035 -0.000561 0.000000
0.003230 -0.003704 0.000000
0.000248 -0.008371 0.000000
0.000231 -0.000223 0.000000
0.000461 -0.009356 0.000000
0.000544 -0.009099 0.000000
0.000212 -0.000630 0.000000
0.000258 -0.007813 0.000000
0.000027 -0.000265 0.000000
0.001284 -0.002762 0.000000
0.000181 -0.000643 0.000000
0.000090 -0.002919 0.000000
0.000077 -0.000669 0.000000
0.001641 -0.009756 0.000000
0.000030 -0.009728 0.000000
0.000063 -0.007919 0.000000
0.000374 -0.009942 0.000000
0.003152 -0.004033 0.000000
0.000269 -0.009940 0.000000
0.000566 -0.007193 0.000000
0.000571 -0.000665 0.000000
0.000684 -0.000565 0.000000
0.001290 -0.010732 0.000000
0.001258 -0.002693 0.000000
0.000313 -0.008460 0.000000
0.000401 -0.009378 0.000000
0.000860 -0.002989 0.000000
0.000166 -0.008301 0.000000
0.000425 -0.008510 0.000000
0.000638 -0.000809 0.000000
0.000202 -0.003570 0.000000
0.000850 -0.000486 0.000000
0.000036 -0.000527 0.000000
0.003061 -0.003659 0.000000
0.000381 -0.006474 0.000000
0.000483 -0.008933 0.000000
0.002549 -0.001562 0.000000
0.001381 -0.004815 0.000000
0.000361 -0.009791 0.000000
0.000208 -0.000577 0.000000
0.000536 -0.008699 0.000000
0.002440 -0.001954 0.000000
0.000933 -0.010215 0.000000
0.003112 -0.004929 0.000000
0.003124 -0.004560 0.000000
0.000335 -0.000267 0.000000
0.002938 -0.003481 0.000000
0.000278 -0.000886 0.000000
0.001705 -0.009677 0.000000
0.002847 -0.004580 0.000000
0.000033 -0.000162 0.000000
0.000695 -0.010383 0.000000
0.000050 -0.000170 0.000000
0.001656 -0.003377 0.000000
0.003333 -0.004928 0.000000
0.003135 -0.005304 0.000000
0.000467 -0.009305 0.000000
0.002969 -0.006026 0.000000
0.002059 -0.004856 0.000000
0.001561 -0.004025 0.000000
0.000426 -0.003968 0.000000
0.003139 -0.004036 0.000000
0.000934 -0.001009 0.000000
0.000797 -0.000828 0.000000
0.001219 -0.010853 0.000000
0.000542 -0.005363 0.000000
0.000624 -0.005916 0.000000
0.002810 -0.005225 0.000000
0.000064 -0.000951 0.000000
0.000527 -0.001676 0.000000
0.001494 -0.000768 0.000000
0.000138 -0.003153 0.000000
0.000363 -0.005069 0.000000
0.000317 -0.004526 0.000000
0.002773 -0.007777 0.000000
0.002746 -0.007941 0.000000
-0.000048 -0.001472 0.000000
0.002369 -0.001789 0.000000
0.000382 -0.004433 0.000000
0.000398 -0.003791 0.000000
0.000037 -0.007052 0.000000
0.001442 -0.010130 0.000000
0.001469 -0.000769 0.000000
0.003162 -0.004300 0.000000
0.001239 -0.001396 0.000000
0.001392 -0.001820 0.000000
0.000335 -0.001412 0.000000
0.001682 -0.001845 0.000000
0.001550 -0.001500 0.000000
0.001260 -0.000929 0.000000
0.001336 -0.000909 0.000000
0.000348 -0.008839 0.000000
0.000097 -0.000939 0.000000
0.000363 -0.009778 0.000000
0.003058 -0.004958 0.000000
0.001573 -0.004535 0.000000
0.001270 -0.010677 0.000000
0.002857 -0.003274 0.000000
0.000672 -0.000948 0.000000
0.000394 -0.008094 0.000000
0.000357 -0.007883 0.000000
0.002329 -0.003853 0.000000
0.002268 -0.003499 0.000000
-0.000035 -0.000856 0.000000
0.003013 -0.007159 0.000000
0.003038 -0.007345 0.000000
0.000061 -0.002554 0.000000
0.001633 -0.003128 0.000000
0.000396 -0.006235 0.000000
0.001675 -0.001558 0.000000
0.000152 -0.001690 0.000000
0.000287 -0.001136 0.000000
0.000735 -0.000352 0.000000
0.000495 -0.008914 0.000000
0.002251 -0.005762 0.000000
0.002659 -0.002182 0.000000
0.000402 -0.001012 0.000000
-0.000074 -0.000950 0.000000
0.000036 -0.001245 0.000000
0.003184 -0.005128 0.000000
0.000700 -0.000342 0.000000
0.003173 -0.004769 0.000000
0.000543 -0.000931 0.000000
0.003130 -0.005458 0.000000
0.002418 -0.002244 0.000000
0.000411 -0.008746 0.000000
0.000374 -0.009837 0.000000
0.000213 -0.000568 0.000000
0.000554 -0.001011 0.000000
0.000786 -0.004290 0.000000
0.001420 -0.010320 0.000000
0.000708 -0.007389 0.000000
0.000846 -0.010302 0.000000
0.001968 -0.009778 0.000000
0.003019 -0.003432 0.000000
0.002687 -0.008355 0.000000
-0.000303 -0.006202 0.000000
0.000813 -0.000870 0.000000
-0.000470 -0.004076 0.000000
0.000336 -0.000940 0.000000
0.000521 -0.009710 0.000000
0.002112 -0.006410 0.000000
0.000313 -0.006007 0.000000
0.000210 -0.010096 0.000000
0.000062 -0.000676 0.000000
0.000044 -0.000531 0.000000
0.002273 -0.002019 0.000000
0.002954 -0.004061 0.000000
0.000350 -0.008220 0.000000
0.000076 -0.007936 0.000000
0.003128 -0.003610 0.000000
0.000623 -0.010291 0.000000
0.001107 -0.002988 0.000000
0.002479 -0.008898 0.000000
0.001282 -0.010745 0.000000
0.002440 -0.002635 0.000000
0.000380 -0.000435 0.000000
0.000531 -0.008941 0.000000
0.000382 -0.005365 0.000000
0.001258 -0.000900 0.000000
0.000939 -0.002299 0.000000
0.000398 -0.007743 0.000000
0.002626 -0.007098 0.000000
0.000110 -0.001127 0.000000
0.000280 -0.000853 0.000000
0.002629 -0.002027 0.000000
0.000300 -0.009620 0.000000
0.002129 -0.001723 0.000000
0.000266 -0.008106 0.000000
0.002808 -0.005989 0.000000
0.000161 -0.000581 0.000000
0.000419 -0.001262 0.000000
0.002374 -0.002151 0.000000
0.000286 -0.007146 0.000000
0.002888 -0.005578 0.000000
0.001285 -0.001433 0.000000
0.000055 -0.000327 0.000000
0.002987 -0.003414 0.000000
0.000212 -0.005724 0.000000
0.000554 -0.000385 0.000000
0.000778 -0.001879 0.000000
0.003056 -0.003829 0.000000
0.003085 -0.004730 0.000000
0.000929 -0.010304 0.000000
0.001295 -0.010710 0.000000
0.002672 -0.002211 0.000000
0.000187 -0.000368 0.000000
0.003005 -0.005569 0.000000
0.000419 -0.010092 0.000000
0.000280 -0.000219 0.000000
0.000313 -0.001013 0.000000
-0.000014 -0.002123 0.000000
0.000620 -0.009472 0.000000
0.000211 -0.001019 0.000000
0.000244 -0.001078 0.000000
-0.000122 -0.002447 0.000000
0.002300 -0.006930 0.000000
0.000109 -0.000322 0.000000
0.000100 -0.002054 0.000000
0.000732 -0.009461 0.000000
0.000490 -0.004351 0.000000
0.000862 -0.010151 0.000000
0.000312 -0.009340 0.000000
0.002653 -0.001796 0.000000
0.000292 -0.008344 0.000000
0.000138 -0.000368 0.000000
0.001193 -0.001327 0.000000
0.000078 -0.009484 0.000000
0.003348 -0.005058 0.000000
0.001768 -0.003919 0.000000
-0.000001 -0.000133 0.000000
0.002936 -0.002833 0.000000
0.001759 -0.004691 0.000000
0.002848 -0.008022 0.000000
0.001255 -0.010799 0.000000
0.000084 -0.002407 0.000000
0.001043 -0.010069 0.000000
0.002585 -0.008863 0.000000
0.000345 -0.000207 0.000000
0.002100 -0.003434 0.000000
0.000171 -0.006674 0.000000
0.000597 -0.008522 0.000000
-0.000054 -0.000885 0.000000
0.000304 -0.000483 0.000000
0.001282 -0.003727 0.000000
-0.000240 -0.005789 0.000000
0.003067 -0.004046 0.000000
0.002350 -0.002084 0.000000
0.002078 -0.005750 0.000000
0.002444 -0.009337 0.000000
0.003056 -0.007350 0.000000
0.003008 -0.003539 0.000000
0.000641 -0.009564 0.000000
0.002320 -0.001433 0.000000
0.000634 -0.009862 0.000000
0.000730 -0.000898 0.000000
0.001091 -0.010560 0.000000
0.002930 -0.003387 0.000000
0.002562 -0.008563 0.000000
0.001860 -0.009816 0.000000
0.001799 -0.001117 0.000000
0.001637 -0.001645 0.000000
0.000029 -0.000436 0.000000
-0.000019 -0.006572 0.000000
0.003186 -0.004294 0.000000
0.003154 -0.004438 0.000000
0.001381 -0.001460 0.000000
0.000734 -0.010214 0.000000
0.001327 -0.010574 0.000000
0.000308 -0.005864 0.000000
0.000060 -0.006923 0.000000
0.001030 -0.010351 0.000000
0.001329 -0.000924 0.000000
-0.000467 -0.001689 0.000000
0.000011 -0.010415 0.000000
0.000194 -0.000953 0.000000
0.000418 -0.003665 0.000000
0.000475 -0.005851 0.000000
0.002962 -0.002970 0.000000
0.000644 -0.009430 0.000000
0.000671 -0.009791 0.000000
0.000237 -0.000518 0.000000
0.000406 -0.008275 0.000000
0.000311 -0.008445 0.000000
0.000439 -0.008960 0.000000
0.002431 -0.001684 0.000000
0.000379 -0.008681 0.000000
0.003024 -0.004195 0.000000
0.001872 -0.001390 0.000000
0.003057 -0.004442 0.000000
0.001549 -0.010208 0.000000
-0.000076 -0.000944 0.000000
0.000515 -0.010181 0.000000
0.000140 -0.000905 0.000000
0.000247 -0.001036 0.000000
0.000031 -0.001218 0.000000
0.000732 -0.000605 0.000000
0.001400 -0.001024 0.000000
0.000072 -0.010322 0.000000
0.000073 -0.001064 0.000000
0.000092 -0.001109 0.000000
0.000375 -0.007995 0.000000
0.002415 -0.007602 0.000000
0.002501 -0.008980 0.000000
0.000405 -0.000393 0.000000
0.001104 -0.004423 0.000000
0.003320 -0.006294 0.000000
0.000253 -0.003554 0.000000
0.000283 -0.009553 0.000000
0.000321 -0.008791 0.000000
0.000043 -0.000621 0.000000
0.000180 -0.010082 0.000000
0.000629 -0.000920 0.000000
0.000152 -0.000480 0.000000
0.001948 -0.002004 0.000000
0.000013 -0.009527 0.000000
0.001954 -0.001473 0.000000
0.002891 -0.005930 0.000000
0.002378 -0.003537 0.000000
0.000359 -0.000860 0.000000
-0.000032 -0.002192 0.000000
0.000500 -0.004190 0.000000
0.003124 -0.004791 0.000000
0.000398 -0.000593 0.000000
0.000026 -0.010311 0.000000
0.000462 -0.000671 0.000000
0.001559 -0.000827 0.000000
0.002643 -0.002673 0.000000
-0.000001 -0.002092 0.000000
0.002914 -0.006250 0.000000
0.000297 -0.009443 0.000000
0.000620 -0.010289 0.000000
0.003009 -0.003786 0.000000
0.001183 -0.010661 0.000000
0.000043 -0.000609 0.000000
0.000315 -0.003257 0.000000
0.000171 -0.003606 0.000000
0.000419 -0.008970 0.000000
0.000441 -0.000692 0.000000
0.002034 -0.001687 0.000000
0.001874 -0.001336 0.000000
0.001990 -0.001165 0.000000
0.000300 -0.007944 0.000000
0.000349 -0.007334 0.000000
0.000540 -0.006160 0.000000
0.000297 -0.007938 0.000000
0.001834 -0.001255 0.000000
0.001890 -0.006758 0.000000
0.000382 -0.007309 0.000000
0.001450 -0.005445 0.000000
0.002729 -0.002903 0.000000
0.002652 -0.002903 0.000000
0.002197 -0.001293 0.000000
0.003168 -0.005097 0.000000
0.002506 -0.002460 0.000000
0.001785 -0.001177 0.000000
0.002617 -0.002898 0.000000
0.002806 -0.002893 0.000000
0.001799 -0.006861 0.000000
0.000208 -0.006613 0.000000
0.000231 -0.006534 0.000000
0.000677 -0.005675 0.000000
0.003370 -0.004664 0.000000
0.002450 -0.002577 0.000000
0.000155 -0.000968 0.000000
0.001941 -0.001164 0.000000
0.001834 -0.005982 0.000000
0.000415 -0.007286 0.000000
0.000312 -0.006234 0.000000
0.003024 -0.007222 0.000000
0.003200 -0.005147 0.000000
0.000318 -0.007358 0.000000
0.000726 -0.005451 0.000000
0.003376 -0.006969 0.000000
0.002574 -0.002547 0.000000
0.000152 -0.000968 0.000000
0.000772 -0.004844 0.000000
0.000408 -0.007612 0.000000
0.003372 -0.004686 0.000000
-0.000241 -0.006047 0.000000
0.000313 -0.007892 0.000000
0.001159 -0.004862 0.000000
0.001818 -0.001101 0.000000
0.002913 -0.007589 0.000000
0.002934 -0.007505 0.000000
0.003368 -0.004711 0.000000
0.001140 -0.010397 0.000000
0.003220 -0.005141 0.000000
0.001837 -0.003156 0.000000
0.001904 -0.001406 0.000000
0.001532 -0.010238 0.000000
0.003153 -0.005121 0.000000
0.002848 -0.002860 0.000000
0.001756 -0.009941 0.000000
0.001604 -0.002686 0.000000
0.000241 -0.007626 0.000000
0.002233 -0.009385 0.000000
0.002082 -0.001168 0.000000
0.001998 -0.009634 0.000000
0.003269 -0.004623 0.000000
0.000961 -0.009869 0.000000
0.003259 -0.004639 0.000000
0.002174 -0.001460 0.000000
0.001735 -0.002789 0.000000
0.003229 -0.004947 0.000000
0.001086 -0.010342 0.000000
0.000746 -0.004847 0.000000
0.000385 -0.007920 0.000000
0.001504 -0.010281 0.000000
0.000397 -0.007689 0.000000
0.001658 -0.003671 0.000000
0.000163 -0.000960 0.000000
0.001472 -0.010313 0.000000
0.000749 -0.005079 0.000000
0.002494 -0.002662 0.000000
0.001003 -0.007314 0.000000
0.003241 -0.005137 0.000000
0.002836 -0.002819 0.000000
0.002296 -0.009352 0.000000
0.001628 -0.003575 0.000000
0.001819 -0.009854 0.000000
0.001042 -0.010301 0.000000
0.001283 -0.010463 0.000000
0.000260 -0.007662 0.000000
0.001562 -0.010194 0.000000
0.001685 -0.003758 0.000000
0.002543 -0.002519 0.000000
0.000190 -0.006686 0.000000
0.001689 -0.001058 0.000000
0.001873 -0.002894 0.000000
0.000119 -0.000911 0.000000
0.000536 -0.009156 0.000000
0.000265 -0.009815 0.000000
0.001473 -0.010294 0.000000
0.003354 -0.006988 0.000000
0.000066 -0.005350 0.000000
0.001251 -0.003188 0.000000
0.000803 -0.009823 0.000000
0.003005 -0.006526 0.000000
0.002335 -0.009293 0.000000
0.003090 -0.007378 0.000000
0.000297 -0.006305 0.000000
0.000582 -0.009228 0.000000
0.000149 -0.000969 0.000000
0.000290 -0.007377 0.000000
0.000449 -0.007268 0.000000
0.000610 -0.009276 0.000000
0.002120 -0.001172 0.000000
0.000122 -0.000933 0.000000
0.000734 -0.004818 0.000000
0.001177 -0.010096 0.000000
0.000312 -0.009810 0.000000
0.002015 -0.006623 0.000000
0.000461 -0.007445 0.000000
0.001239 -0.010581 0.000000
0.001236 -0.010496 0.000000
0.003149 -0.005148 0.000000
0.003094 -0.007259 0.000000
0.002873 -0.007738 0.000000
0.002282 -0.002379 0.000000
0.001236 -0.000838 0.000000
0.000195 -0.006851 0.000000
0.000747 -0.004940 0.000000
0.001373 -0.005041 0.000000
0.003072 -0.006183 0.000000
0.000615 -0.003560 0.000000
0.003161 -0.007025 0.000000
0.000395 -0.005956 0.000000
0.001314 -0.010438 0.000000
0.001255 -0.010483 0.000000
0.000248 -0.009922 0.000000
0.000290 -0.003901 0.000000
0.001448 -0.001480 0.000000
0.002822 -0.002727 0.000000
0.001493 -0.003228 0.000000
0.001439 -0.000840 0.000000
0.001415 -0.010220 0.000000
0.000232 -0.009904 0.000000
0.000131 -0.002778 0.000000
0.000416 -0.007899 0.000000
0.001241 -0.010651 0.000000
0.001471 -0.000796 0.000000
0.001217 -0.003106 0.000000
0.002522 -0.006747 0.000000
0.003119 -0.006620 0.000000
0.000156 -0.000947 0.000000
0.003413 -0.006827 0.000000
0.001120 -0.002296 0.000000
0.000234 -0.001402 0.000000
0.000630 -0.009399 0.000000
0.000138 -0.006826 0.000000
0.000285 -0.006712 0.000000
0.000560 -0.005909 0.000000
0.000105 -0.008402 0.000000
0.001565 -0.001450 0.000000
0.000348 -0.000624 0.000000
0.002137 -0.009117 0.000000
0.002159 -0.001637 0.000000
0.001530 -0.010190 0.000000
0.002260 -0.002821 0.000000
0.002667 -0.007590 0.000000
0.000219 -0.003569 0.000000
0.000423 -0.002276 0.000000
0.001133 -0.002499 0.000000
0.000161 -0.004147 0.000000
0.001992 -0.009236 0.000000
0.002326 -0.003256 0.000000
0.000072 -0.001511 0.000000
0.000455 -0.005758 0.000000
0.002256 -0.009325 0.000000
0.000263 -0.000533 0.000000
0.003246 -0.006212 0.000000
0.000205 -0.008177 0.000000
0.002829 -0.008127 0.000000
0.000381 -0.002667 0.000000
0.001942 -0.009726 0.000000
0.002899 -0.007916 0.000000
0.000533 -0.006156 0.000000
0.001652 -0.004068 0.000000
0.000274 -0.000547 0.000000
0.000294 -0.000539 0.000000
0.001343 -0.010346 0.000000
0.000114 -0.001406 0.000000
0.000627 -0.004313 0.000000
0.001328 -0.000746 0.000000
0.001203 -0.000937 0.000000
0.000141 -0.001140 0.000000
0.000935 -0.010210 0.000000
0.000165 -0.000964 0.000000
0.001458 -0.010488 0.000000
0.001234 -0.010392 0.000000
0.001953 -0.001505 0.000000
0.002674 -0.007053 0.000000
0.000493 -0.005793 0.000000
0.000090 -0.001017 0.000000
0.003089 -0.006040 0.000000
0.001140 -0.000943 0.000000
0.000435 -0.008948 0.000000
0.002173 -0.001176 0.000000
0.000089 -0.002090 0.000000
0.001803 -0.009592 0.000000
0.000138 -0.001344 0.000000
0.000346 -0.009055 0.000000
0.000683 -0.006015 0.000000
-0.000020 -0.005577 0.000000
0.002871 -0.002784 0.000000
0.000099 -0.001002 0.000000
0.000171 -0.001395 0.000000
0.002519 -0.002474 0.000000
-0.000001 -0.008381 0.000000
0.000822 -0.000925 0.000000
-0.000459 -0.002998 0.000000
0.000351 -0.009814 0.000000
0.003042 -0.003030 0.000000
0.000769 -0.000817 0.000000
0.002981 -0.002958 0.000000
0.003290 -0.004637 0.000000
0.001221 -0.003065 0.000000
0.001825 -0.009475 0.000000
0.000358 -0.009809 0.000000
0.002535 -0.002805 0.000000
0.002950 -0.002900 0.000000
0.001582 -0.001933 0.000000
0.003202 -0.006350 0.000000
0.002912 -0.002842 0.000000
0.000448 -0.007800 0.000000
0.002538 -0.007719 0.000000
0.000178 -0.000636 0.000000
0.000754 -0.000886 0.000000
0.000457 -0.007252 0.000000
0.000730 -0.004768 0.000000
0.000024 -0.001586 0.000000
0.001282 -0.001237 0.000000
0.000337 -0.008978 0.000000
0.000735 -0.009870 0.000000
0.001596 -0.001233 0.000000
0.001741 -0.003978 0.000000
0.001620 -0.010060 0.000000
0.000676 -0.009673 0.000000
0.000771 -0.010407 0.000000
0.000708 -0.009789 0.000000
-0.000344 -0.003526 0.000000
0.002492 -0.006906 0.000000
0.000069 -0.010333 0.000000
0.000703 -0.005934 0.000000
0.003412 -0.004802 0.000000
0.002628 -0.002257 0.000000
0.002544 -0.006587 0.000000
0.002820 -0.007049 0.000000
0.000079 -0.010301 0.000000
0.002090 -0.008345 0.000000
0.000902 -0.010166 0.000000
0.003202 -0.005766 0.000000
0.001338 -0.001018 0.000000
0.001236 -0.010700 0.000000
0.000197 -0.000659 0.000000
0.002336 -0.008802 0.000000
0.003132 -0.005527 0.000000
-0.000120 -0.003850 0.000000
0.000048 -0.000942 0.000000
-0.000333 -0.003928 0.000000
0.000327 -0.002560 0.000000
0.001677 -0.010226 0.000000
0.000317 -0.001452 0.000000
0.002184 -0.008196 0.000000
0.003136 -0.007333 0.000000
0.001484 -0.010318 0.000000
0.000007 -0.002424 0.000000
-0.000466 -0.003743 0.000000
0.000136 -0.000910 0.000000
0.001244 -0.000983 0.000000
0.002858 -0.008054 0.000000
0.000340 -0.001024 0.000000
0.000149 -0.001123 0.000000
0.000896 -0.001185 0.000000
0.002861 -0.002888 0.000000
0.002823 -0.007978 0.000000
0.003321 -0.004584 0.000000
0.002226 -0.008929 0.000000
0.001081 -0.000947 0.000000
0.000060 -0.000683 0.000000
-0.000036 -0.002205 0.000000
0.002402 -0.009232 0.000000
0.001055 -0.000934 0.000000
0.001189 -0.000808 0.000000
0.000357 -0.009801 0.000000
0.000257 -0.002919 0.000000
0.001590 -0.001092 0.000000
0.000320 -0.005991 0.000000
0.003031 -0.006335 0.000000
0.000476 -0.001026 0.000000
0.000303 -0.009422 0.000000
0.000188 -0.000585 0.000000
0.000025 -0.001740 0.000000
0.000356 -0.001476 0.000000
0.003498 -0.004958 0.000000
0.002828 -0.002712 0.000000
0.001879 -0.001564 0.000000
0.000266 -0.000941 0.000000
0.000261 -0.001977 0.000000
0.000389 -0.000608 0.000000
0.002082 -0.006565 0.000000
0.002240 -0.003396 0.000000
0.000055 -0.000857 0.000000
0.000333 -0.001296 0.000000
0.001570 -0.003352 0.000000
0.000474 -0.004186 0.000000
0.000795 -0.001187 0.000000
0.000352 -0.000436 0.000000
0.000413 -0.010145 0.000000
0.000475 -0.005232 0.000000
0.000523 -0.007326 0.000000
0.002664 -0.002194 0.000000
0.000042 -0.001345 0.000000
0.000636 -0.005797 0.000000
-0.000123 -0.006588 0.000000
0.000292 -0.009420 0.000000
0.000334 -0.001002 0.000000
0.000408 -0.004443 0.000000
0.001855 -0.002352 0.000000
0.000835 -0.000907 0.000000
0.001232 -0.010275 0.000000
0.000818 -0.000914 0.000000
0.000277 -0.004223 0.000000
0.001264 -0.000837 0.000000
0.000230 -0.003217 0.000000
0.001356 -0.010561 0.000000
0.000364 -0.008367 0.000000
-0.000318 -0.004347 0.000000
0.000419 -0.008935 0.000000
0.000079 -0.000985 0.000000
0.002506 -0.008135 0.000000
0.002015 -0.001629 0.000000
0.000111 -0.001099 0.000000
0.000766 -0.000952 0.000000
0.000158 -0.003602 0.000000
0.002122 -0.002224 0.000000
0.003036 -0.006001 0.000000
0.001818 -0.009268 0.000000
0.003412 -0.005543 0.000000
0.000295 -0.008237 0.000000
0.001316 -0.009250 0.000000
0.000429 -0.010153 0.000000
0.000410 -0.010098 0.000000
0.000438 -0.001021 0.000000
0.001171 -0.000928 0.000000
0.000049 -0.000854 0.000000
0.002058 -0.006429 0.000000
0.000516 -0.001016 0.000000
0.000296 -0.009086 0.000000
0.000360 -0.006897 0.000000
0.000468 -0.005822 0.000000
0.000343 -0.001014 0.000000
0.000222 -0.009918 0.000000
0.000334 -0.007796 0.000000
0.000087 -0.000959 0.000000
0.000851 -0.010183 0.000000
0.000479 -0.010141 0.000000
0.000303 -0.004335 0.000000
0.000309 -0.008380 0.000000
0.002257 -0.003423 0.000000
-0.000154 -0.004121 0.000000
0.000095 -0.005337 0.000000
0.000156 -0.001100 0.000000
0.000681 -0.001167 0.000000
0.003431 -0.006753 0.000000
0.000562 -0.005993 0.000000
0.003155 -0.004336 0.000000
0.000488 -0.008966 0.000000
0.000175 -0.006756 0.000000
0.000530 -0.005295 0.000000
0.002456 -0.007038 0.000000
0.001212 -0.001012 0.000000
0.000745 -0.010423 0.000000
0.000269 -0.007805 0.000000
0.003127 -0.004461 0.000000
0.000690 -0.004727 0.000000
-0.000286 -0.005790 0.000000
0.000058 -0.010366 0.000000
0.000213 -0.002714 0.000000
0.000187 -0.000333 0.000000
0.000870 -0.010190 0.000000
0.000721 -0.000990 0.000000
0.000103 -0.001127 0.000000
0.000333 -0.001032 0.000000
0.000154 -0.000715 0.000000
0.001654 -0.009394 0.000000
0.000838 -0.010137 0.000000
0.000204 -0.000618 0.000000
0.000470 -0.007931 0.000000
0.000093 -0.010262 0.000000
0.003323 -0.006745 0.000000
0.000090 -0.004804 0.000000
0.000237 -0.009827 0.000000
0.000043 -0.006838 0.000000
0.001150 -0.002256 0.000000
0.000662 -0.009420 0.000000
0.003183 -0.004223 0.000000
0.002677 -0.004027 0.000000
0.000409 -0.008474 0.000000
-0.000110 -0.005329 0.000000
0.003101 -0.005694 0.000000
-0.000012 -0.002565 0.000000
0.001148 -0.009251 0.000000
0.000674 -0.000859 0.000000
0.000179 -0.001550 0.000000
0.003128 -0.006978 0.000000
0.000117 -0.000917 0.000000
0.000129 -0.000954 0.000000
0.000431 -0.008912 0.000000
0.003090 -0.003730 0.000000
0.000212 -0.000696 0.000000
0.000457 -0.008968 0.000000
0.001117 -0.004551 0.000000
0.000348 -0.008774 0.000000
0.002840 -0.007869 0.000000
0.002763 -0.008342 0.000000
0.002582 -0.006392 0.000000
0.000232 -0.000807 0.000000
0.000795 -0.010391 0.000000
0.000019 -0.000451 0.000000
0.000434 -0.010101 0.000000
0.001672 -0.008717 0.000000
0.000319 -0.003387 0.000000
0.002459 -0.007067 0.000000
0.000337 -0.003459 0.000000
0.000349 -0.001418 0.000000
0.001214 -0.001156 0.000000
0.000929 -0.010185 0.000000
0.000396 -0.010134 0.000000
0.001492 -0.000816 0.000000
0.002640 -0.006203 0.000000
0.001846 -0.002723 0.000000
0.000547 -0.005061 0.000000
0.002844 -0.004111 0.000000
0.003075 -0.003565 0.000000
0.000383 -0.008862 0.000000
0.003231 -0.004809 0.000000
0.000258 -0.007402 0.000000
0.000900 -0.010259 0.000000
0.002386 -0.008375 0.000000
0.001098 -0.000742 0.000000
0.003038 -0.007124 0.000000
0.000132 -0.010185 0.000000
0.001127 -0.002795 0.000000
0.000782 -0.010017 0.000000
0.000434 -0.010064 0.000000
0.000385 -0.003047 0.000000
0.000333 -0.001461 0.000000
0.000437 -0.005652 0.000000
0.002761 -0.008125 0.000000
0.002827 -0.007756 0.000000
0.002202 -0.003411 0.000000
0.002415 -0.004246 0.000000
0.000342 -0.007861 0.000000
0.001494 -0.001414 0.000000
0.000271 -0.000492 0.000000
0.001340 -0.000888 0.000000
0.001325 -0.002473 0.000000
0.001030 -0.000946 0.000000
0.000823 -0.000896 0.000000
0.003006 -0.003020 0.000000
0.002274 -0.002449 0.000000
0.000528 -0.005025 0.000000
0.000477 -0.000525 0.000000
0.000149 -0.000727 0.000000
0.000067 -0.000914 0.000000
0.000061 -0.000700 0.000000
0.000531 -0.009155 0.000000
0.000222 -0.005106 0.000000
-0.000088 -0.009017 0.000000
0.000334 -0.008347 0.000000
0.000216 -0.007155 0.000000
0.000838 -0.010199 0.000000
0.000342 -0.009294 0.000000
0.000410 -0.009342 0.000000
0.000133 -0.001150 0.000000
0.000054 -0.000651 0.000000
0.001373 -0.010577 0.000000
0.002745 -0.008600 0.000000
0.000769 -0.010176 0.000000
0.001338 -0.010626 0.000000
0.003046 -0.003606 0.000000
0.002414 -0.009121 0.000000
0.003200 -0.005069 0.000000
0.000616 -0.000964 0.000000
0.000612 -0.009573 0.000000
0.003002 -0.003563 0.000000
0.000778 -0.009932 0.000000
0.000148 -0.007350 0.000000
0.000238 -0.004463 0.000000
0.000060 -0.000666 0.000000
0.002018 -0.009622 0.000000
0.003084 -0.003769 0.000000
0.000328 -0.009879 0.000000
-0.000016 -0.001636 0.000000
0.000546 -0.007250 0.000000
0.002639 -0.001888 0.000000
0.000478 -0.009070 0.000000
0.000913 -0.010159 0.000000
0.003299 -0.006100 0.000000
0.000720 -0.008769 0.000000
0.001939 -0.008651 0.000000
0.001741 -0.003895 0.000000
0.000120 -0.000894 0.000000
0.000376 -0.010118 0.000000
0.002422 -0.007160 0.000000
0.000204 -0.006495 0.000000
0.003029 -0.007209 0.000000
0.001125 -0.002428 0.000000
0.000161 -0.000970 0.000000
0.000037 -0.000409 0.000000
0.000763 -0.010264 0.000000
0.000231 -0.003652 0.000000
0.000245 -0.009897 0.000000
0.000110 -0.010223 0.000000
0.002831 -0.003274 0.000000
0.002261 -0.007723 0.000000
0.003181 -0.005450 0.000000
0.000538 -0.000735 0.000000
0.001934 -0.005628 0.000000
0.001326 -0.010646 0.000000
0.002910 -0.004614 0.000000
0.000020 -0.000436 0.000000
0.000713 -0.009423 0.000000
0.001064 -0.010504 0.000000
0.000234 -0.009885 0.000000
0.001234 -0.010857 0.000000
0.000643 -0.006111 0.000000
0.000612 -0.009260 0.000000
0.001238 -0.010850 0.000000
0.001270 -0.000929 0.000000
0.000426 -0.004392 0.000000
0.000381 -0.000363 0.000000
0.001065 -0.010427 0.000000
0.000205 -0.000926 0.000000
0.001206 -0.001070 0.000000
0.001293 -0.000927 0.000000
0.001253 -0.000933 0.000000
0.000250 -0.001042 0.000000
-0.000094 -0.001724 0.000000
0.000393 -0.006570 0.000000
0.000111 -0.009756 0.000000
0.000093 -0.000492 0.000000
0.001636 -0.002296 0.000000
0.001220 -0.001311 0.000000
-0.000067 -0.006198 0.000000
0.000001 -0.006282 0.000000
0.000344 -0.000847 0.000000
-0.000095 -0.002372 0.000000
0.000043 -0.002867 0.000000
0.000321 -0.001015 0.000000
0.002398 -0.002375 0.000000
0.000892 -0.002458 0.000000
0.001282 -0.000876 0.000000
0.000047 -0.001022 0.000000
-0.000282 -0.006198 0.000000
0.000871 -0.001064 0.000000
0.000791 -0.009922 0.000000
0.000917 -0.000714 0.000000
0.000208 -0.009018 0.000000
0.000934 -0.000959 0.000000
0.002516 -0.002462 0.000000
0.000694 -0.000898 0.000000
0.002064 -0.003066 0.000000
0.003282 -0.004649 0.000000
0.000981 -0.000955 0.000000
0.002813 -0.002656 0.000000
0.003035 -0.002980 0.000000
0.002370 -0.009345 0.000000
0.001576 -0.003001 0.000000
0.002263 -0.001415 0.000000
0.000051 -0.008431 0.000000
0.000624 -0.000887 0.000000
0.001404 -0.009570 0.000000
0.000162 -0.000969 0.000000
0.000164 -0.000970 0.000000
0.003051 -0.005602 0.000000
0.003183 -0.004135 0.000000
0.001141 -0.010091 0.000000
0.001457 -0.010273 0.000000
0.000722 -0.010422 0.000000
0.001857 -0.005007 0.000000
0.003344 -0.005062 0.000000
0.003084 -0.003755 0.000000
0.000321 -0.009376 0.000000
0.000463 -0.004086 0.000000
0.000675 -0.004603 0.000000
-0.000319 -0.004757 0.000000
0.000306 -0.004844 0.000000
0.000847 -0.010209 0.000000
0.000436 -0.000664 0.000000
0.003153 -0.005174 0.000000
0.000029 -0.000460 0.000000
0.001874 -0.009795 0.000000
0.002889 -0.007968 0.000000
0.001883 -0.008812 0.000000
0.002539 -0.002930 0.000000
0.000771 -0.010036 0.000000
0.000430 -0.004023 0.000000
0.000085 -0.000474 0.000000
0.000834 -0.000815 0.000000
0.000430 -0.008334 0.000000
0.000557 -0.009174 0.000000
0.003308 -0.004580 0.000000
0.003134 -0.007271 0.000000
0.003233 -0.007057 0.000000
0.000671 -0.009608 0.000000
0.001643 -0.001179 0.000000
0.000399 -0.000690 0.000000
0.001818 -0.001120 0.000000
0.002967 -0.006635 0.000000
0.002754 -0.003647 0.000000
0.001320 -0.002721 0.000000
0.000279 -0.009820 0.000000
0.001314 -0.009702 0.000000
0.000855 -0.010112 0.000000
0.000172 -0.000594 0.000000
0.002766 -0.005936 0.000000
0.000613 -0.000973 0.000000
0.003339 -0.005140 0.000000
0.000318 -0.007111 0.000000
0.000055 -0.000667 0.000000
0.000573 -0.000690 0.000000
0.001706 -0.001028 0.000000
0.000826 -0.010362 0.000000
0.000479 -0.004287 0.000000
0.003266 -0.005176 0.000000
0.000364 -0.007132 0.000000
0.000318 -0.007366 0.000000
0.000670 -0.000466 0.000000
0.001464 -0.007468 0.000000
0.000740 -0.009961 0.000000
0.000257 -0.008248 0.000000
0.000721 -0.010001 0.000000
0.002870 -0.005488 0.000000
0.000570 -0.005791 0.000000
0.003026 -0.003086 0.000000
0.001063 -0.001065 0.000000
0.002068 -0.003355 0.000000
0.001303 -0.002177 0.000000
0.002512 -0.002447 0.000000
0.000055 -0.000776 0.000000
0.000660 -0.000907 0.000000
0.000292 -0.009910 0.000000
0.003072 -0.003697 0.000000
0.000076 -0.002780 0.000000
0.000716 -0.000946 0.000000
0.000279 -0.008330 0.000000
0.002559 -0.002866 0.000000
0.001648 -0.001744 0.000000
-0.000033 -0.008191 0.000000
0.000231 -0.006736 0.000000
0.000421 -0.000854 0.000000
0.001275 -0.001341 0.000000
0.000077 -0.001700 0.000000
0.003079 -0.003426 0.000000
0.001476 -0.000770 0.000000
0.003345 -0.003982 0.000000
0.000085 -0.006956 0.000000
0.002889 -0.003365 0.000000
0.000681 -0.000708 0.000000
0.000218 -0.000952 0.000000
0.001306 -0.003607 0.000000
0.000760 -0.007295 0.000000
0.000386 -0.008139 0.000000
0.001248 -0.010823 0.000000
0.002600 -0.002068 0.000000
0.000511 -0.008773 0.000000
0.001018 -0.010304 0.000000
0.002656 -0.001926 0.000000
0.001577 -0.003983 0.000000
0.001946 -0.008477 0.000000
0.000276 -0.009838 0.000000
0.001588 -0.010157 0.000000
0.000048 -0.010310 0.000000
0.003234 -0.006823 0.000000
-0.000015 -0.001612 0.000000
0.000401 -0.010058 0.000000
0.000320 -0.009801 0.000000
0.000557 -0.001454 0.000000
0.002851 -0.006657 0.000000
0.000106 -0.010222 0.000000
0.000719 -0.009820 0.000000
0.001923 -0.000996 0.000000
0.000320 -0.008835 0.000000
0.000190 -0.002330 0.000000
0.000328 -0.007712 0.000000
0.001096 -0.002946 0.000000
-0.000355 -0.001656 0.000000
0.000347 -0.003661 0.000000
0.000979 -0.001257 0.000000
0.000070 -0.001022 0.000000
0.000778 -0.000692 0.000000
0.000475 -0.006837 0.000000
0.001581 -0.001063 0.000000
0.000267 -0.004472 0.000000
0.000521 -0.001023 0.000000
0.001839 -0.001131 0.000000
0.000146 -0.000970 0.000000
0.003334 -0.004964 0.000000
0.000826 -0.004684 0.000000
0.001254 -0.010801 0.000000
0.001940 -0.004080 0.000000
0.002014 -0.008313 0.000000
0.000634 -0.000799 0.000000
0.003147 -0.005566 0.000000
0.000277 -0.009927 0.000000
0.000468 -0.008391 0.000000
0.002745 -0.008486 0.000000
0.002795 -0.008088 0.000000
0.000308 -0.002120 0.000000
0.001085 -0.010490 0.000000
0.000317 -0.006461 0.000000
0.001415 -0.000874 0.000000
0.000984 -0.000852 0.000000
0.001453 -0.004334 0.000000
0.002903 -0.003556 0.000000
0.000158 -0.008536 0.000000
0.000472 -0.010117 0.000000
0.002463 -0.009037 0.000000
0.000451 -0.003709 0.000000
0.000692 -0.001045 0.000000
0.000079 -0.010329 0.000000
0.002869 -0.008275 0.000000
0.000094 -0.000484 0.000000
-0.000119 -0.001249 0.000000
0.000097 -0.001147 0.000000
0.001267 -0.010727 0.000000
0.002733 -0.002596 0.000000
0.000388 -0.004091 0.000000
0.002125 -0.009492 0.000000
0.000549 -0.005556 0.000000
0.002328 -0.003241 0.000000
0.003533 -0.005748 0.000000
0.003082 -0.004365 0.000000
0.000614 -0.000818 0.000000
0.001270 -0.000878 0.000000
0.002468 -0.006281 0.000000
0.000824 -0.009904 0.000000
0.000226 -0.007554 0.000000
-0.000272 -0.005668 0.000000
-0.000281 -0.005883 0.000000
0.000449 -0.008902 0.000000
0.000667 -0.009396 0.000000
0.000818 -0.010309 0.000000
0.003407 -0.006691 0.000000
0.002573 -0.002906 0.000000
0.000160 -0.003074 0.000000
0.000091 -0.000770 0.000000
0.003641 -0.005674 0.000000
0.002935 -0.007347 0.000000
0.000259 -0.000601 0.000000
0.001423 -0.002568 0.000000
0.000767 -0.009775 0.000000
0.000688 -0.009415 0.000000
0.000472 -0.008563 0.000000
0.001453 -0.003853 0.000000
0.000111 -0.004381 0.000000
0.000411 -0.009486 0.000000
0.002785 -0.002592 0.000000
0.000366 -0.006819 0.000000
0.000288 -0.000947 0.000000
0.000051 -0.002466 0.000000
0.000074 -0.000612 0.000000
0.001447 -0.001619 0.000000
0.000438 -0.001015 0.000000
0.000052 -0.010390 0.000000
0.002617 -0.005519 0.000000
0.001396 -0.002793 0.000000
0.000234 -0.001444 0.000000
0.003197 -0.005086 0.000000
0.002515 -0.002463 0.000000
0.000583 -0.001230 0.000000
0.001226 -0.000962 0.000000
0.000293 -0.007497 0.000000
0.003147 -0.006894 0.000000
0.002742 -0.002454 0.000000
0.000647 -0.009633 0.000000
0.001462 -0.000757 0.000000
0.000758 -0.002251 0.000000
0.002485 -0.001326 0.000000
0.001320 -0.010051 0.000000
-0.000007 -0.002141 0.000000
0.000355 -0.005140 0.000000
0.003180 -0.004051 0.000000
0.000042 -0.008151 0.000000
0.001435 -0.005180 0.000000
0.001543 -0.001542 0.000000
0.002671 -0.008567 0.000000
0.001593 -0.010298 0.000000
0.000189 -0.008492 0.000000
0.000438 -0.008895 0.000000
0.000124 -0.004861 0.000000
0.000135 -0.008957 0.000000
0.002640 -0.008660 0.000000
0.002118 -0.006655 0.000000
0.000525 -0.006233 0.000000
0.000628 -0.004599 0.000000
-0.000220 -0.006376 0.000000
0.000000 -0.000290 0.000000
0.000279 -0.009783 0.000000
0.002758 -0.006563 0.000000
0.000223 -0.001244 0.000000
0.001332 -0.001372 0.000000
0.000120 -0.003253 0.000000
0.001256 -0.003342 0.000000
-0.000400 -0.003080 0.000000
0.001997 -0.001595 0.000000
0.000932 -0.001311 0.000000
0.001383 -0.001751 0.000000
0.000030 -0.002282 0.000000
0.003177 -0.006495 0.000000
0.000192 -0.002894 0.000000
0.000408 -0.010034 0.000000
0.000434 -0.009136 0.000000
-0.000016 -0.004313 0.000000
0.000114 -0.001030 0.000000
0.001106 -0.010548 0.000000
0.002884 -0.008075 0.000000
0.000944 -0.008590 0.000000
0.000602 -0.008350 0.000000
0.000529 -0.009280 0.000000
0.000084 -0.001171 0.000000
0.000124 -0.000898 0.000000
0.000132 -0.000906 0.000000
0.000046 -0.003000 0.000000
0.000286 -0.003777 0.000000
0.000892 -0.000963 0.000000
0.003161 -0.003633 0.000000
-0.000382 -0.004642 0.000000
-0.000464 -0.004387 0.000000
-0.000181 -0.005473 0.000000
0.000224 -0.007519 0.000000
0.001314 -0.001873 0.000000
0.000206 -0.000495 0.000000
0.000796 -0.009306 0.000000
0.000550 -0.010234 0.000000
0.000344 -0.001035 0.000000
0.000520 -0.007315 0.000000
0.002916 -0.007871 0.000000
0.000390 -0.006552 0.000000
0.000220 -0.000971 0.000000
0.000952 -0.010342 0.000000
0.000773 -0.010010 0.000000
0.001498 -0.000802 0.000000
0.003018 -0.007623 0.000000
0.001202 -0.000934 0.000000
0.000072 -0.009539 0.000000
0.002794 -0.002682 0.000000
0.000732 -0.004840 0.000000
-0.000063 -0.008324 0.000000
0.001761 -0.001243 0.000000
0.000473 -0.009007 0.000000
0.000264 -0.008090 0.000000
0.001880 -0.001153 0.000000
0.000139 -0.001062 0.000000
0.000134 -0.000961 0.000000
0.000327 -0.001358 0.000000
0.000323 -0.000703 0.000000
0.001372 -0.010539 0.000000
0.000607 -0.005610 0.000000
0.000731 -0.004108 0.000000
0.001662 -0.001599 0.000000
-0.000105 -0.008833 0.000000
0.002880 -0.002791 0.000000
0.000235 -0.005988 0.000000
0.002058 -0.001672 0.000000
0.001865 -0.001148 0.000000
0.001107 -0.009967 0.000000
0.000583 -0.007090 0.000000
0.003227 -0.004866 0.000000
0.000845 -0.000621 0.000000
0.002968 -0.002884 0.000000
0.002751 -0.008692 0.000000
0.000568 -0.000791 0.000000
0.000703 -0.001046 0.000000
0.000187 -0.001115 0.000000
0.001390 -0.000898 0.000000
0.003563 -0.005360 0.000000
0.000000 -0.004913 0.000000
0.000173 -0.005757 0.000000
0.000833 -0.009835 0.000000
0.001187 -0.008668 0.000000
0.001710 -0.000857 0.000000
0.000429 -0.006907 0.000000
0.000350 -0.006507 0.000000
0.002036 -0.001648 0.000000
0.003146 -0.005764 0.000000
0.000086 -0.010308 0.000000
0.001120 -0.007580 0.000000
0.000150 -0.000932 0.000000
0.000315 -0.007949 0.000000
0.000314 -0.009499 0.000000
0.003339 -0.004789 0.000000
0.001925 -0.005051 0.000000
0.000972 -0.010452 0.000000
0.002812 -0.004136 0.000000
0.000327 -0.008002 0.000000
0.002959 -0.005894 0.000000
0.001163 -0.004623 0.000000
0.001427 -0.000754 0.000000
0.003003 -0.004409 0.000000
0.003176 -0.004133 0.000000
0.001599 -0.000994 0.000000
0.000217 -0.008441 0.000000
0.003234 -0.004401 0.000000
0.002236 -0.001215 0.000000
0.000274 -0.007645 0.000000
0.002830 -0.002815 0.000000
0.000228 -0.003615 0.000000
0.000009 -0.005468 0.000000
0.000087 -0.001962 0.000000
-0.000134 -0.006460 0.000000
0.003010 -0.003473 0.000000
0.001756 -0.001072 0.000000
-0.000217 -0.004392 0.000000
0.003068 -0.003687 0.000000
0.002808 -0.005603 0.000000
0.000038 -0.010420 0.000000
0.000308 -0.009135 0.000000
0.001274 -0.010722 0.000000
0.001902 -0.005018 0.000000
0.001880 -0.002119 0.000000
0.003211 -0.004345 0.000000
0.003180 -0.006103 0.000000
0.003418 -0.006873 0.000000
0.000200 -0.008711 0.000000
0.000387 -0.009564 0.000000
0.000077 -0.000898 0.000000
0.002185 -0.004393 0.000000
0.002633 -0.008641 0.000000
0.002473 -0.007626 0.000000
0.002687 -0.003198 0.000000
0.000136 -0.009624 0.000000
0.000424 -0.009285 0.000000
0.001135 -0.002981 0.000000
0.003136 -0.003667 0.000000
0.000152 -0.009898 0.000000
0.003599 -0.005725 0.000000
0.000274 -0.000335 0.000000
0.001301 -0.010657 0.000000
0.000905 -0.010451 0.000000
0.002232 -0.009527 0.000000
0.000105 -0.000792 0.000000
-0.000227 -0.005629 0.000000
0.000060 -0.000407 0.000000
-0.000174 -0.002275 0.000000
-0.000369 -0.003205 0.000000
0.000046 -0.000642 0.000000
0.001419 -0.001044 0.000000
0.000146 -0.006813 0.000000
0.000532 -0.000892 0.000000
-0.000471 -0.004244 0.000000
0.000696 -0.005190 0.000000
0.001661 -0.000779 0.000000
-0.000139 -0.006686 0.000000
0.000571 -0.006196 0.000000
0.000063 -0.000700 0.000000
0.002656 -0.007217 0.000000
-0.000035 -0.008658 0.000000
0.000393 -0.004702 0.000000
0.003371 -0.005733 0.000000
0.000220 -0.008428 0.000000
0.000801 -0.000962 0.000000
-0.000017 -0.001251 0.000000
0.000456 -0.006228 0.000000
0.000770 -0.000950 0.000000
0.001432 -0.004070 0.000000
0.001107 -0.010639 0.000000
0.001215 -0.009521 0.000000
0.003209 -0.004177 0.000000
0.001173 -0.000935 0.000000
0.001053 -0.000914 0.000000
0.000104 -0.008123 0.000000
0.000388 -0.010052 0.000000
0.000017 -0.010447 0.000000
0.001258 -0.010787 0.000000
0.000410 -0.001514 0.000000
-0.000032 -0.009394 0.000000
0.000128 -0.000670 0.000000
0.000568 -0.000889 0.000000
0.002962 -0.006117 0.000000
0.001558 -0.000945 0.000000
0.002351 -0.002173 0.000000
0.000526 -0.009178 0.000000
0.000305 -0.006766 0.000000
0.000126 -0.010168 0.000000
0.001009 -0.000919 0.000000
0.000158 -0.001782 0.000000
0.000317 -0.000892 0.000000
0.002179 -0.001104 0.000000
0.000086 -0.000292 0.000000
0.001728 -0.004383 0.000000
0.000584 -0.009375 0.000000
0.001723 -0.004438 0.000000
0.000257 -0.007126 0.000000
0.002429 -0.009149 0.000000
0.000393 -0.010033 0.000000
0.000093 -0.000784 0.000000
0.002041 -0.004443 0.000000
0.002202 -0.002673 0.000000
0.002665 -0.002292 0.000000
0.001508 -0.003061 0.000000
-0.000139 -0.007278 0.000000
0.001139 -0.000779 0.000000
0.000359 -0.006955 0.000000
0.000011 -0.002769 0.000000
0.000348 -0.009811 0.000000
0.000359 -0.008820 0.000000
0.000234 -0.010024 0.000000
0.000122 -0.001186 0.000000
0.000034 -0.007499 0.000000
0.000298 -0.001669 0.000000
0.000090 -0.000601 0.000000
0.000395 -0.001012 0.000000
0.001154 -0.010769 0.000000
0.000654 -0.009348 0.000000
0.000103 -0.000355 0.000000
0.000080 -0.000773 0.000000
0.001226 -0.000748 0.000000
0.000295 -0.007708 0.000000
0.000060 -0.000308 0.000000
0.001369 -0.003166 0.000000
0.002550 -0.009162 0.000000
0.000185 -0.008383 0.000000
0.000338 -0.008358 0.000000
0.000289 -0.000893 0.000000
0.000278 -0.006262 0.000000
0.000370 -0.000945 0.000000
0.000510 -0.007189 0.000000
0.002258 -0.007408 0.000000
0.002406 -0.007895 0.000000
0.000106 -0.006218 0.000000
0.003522 -0.006562 0.000000
0.000028 -0.000870 0.000000
0.001486 -0.003422 0.000000
0.000424 -0.000689 0.000000
0.000598 -0.004436 0.000000
0.000162 -0.010142 0.000000
0.000019 -0.010460 0.000000
0.000366 -0.003996 0.000000
0.000052 -0.000759 0.000000
0.002504 -0.009062 0.000000
0.000265 -0.002540 0.000000
0.000907 -0.000470 0.000000
0.000341 -0.009366 0.000000
0.003368 -0.004686 0.000000
0.000419 -0.008972 0.000000
0.002836 -0.005133 0.000000
0.000403 -0.000978 0.000000
0.002356 -0.002569 0.000000
0.001337 -0.003480 0.000000
0.003070 -0.004212 0.000000
0.000718 -0.000539 0.000000
0.003170 -0.006932 0.000000
0.000313 -0.003928 0.000000
0.002912 -0.003148 0.000000
0.000041 -0.001265 0.000000
0.000545 -0.000450 0.000000
0.002814 -0.002677 0.000000
-0.000189 -0.007451 0.000000
0.001078 -0.000524 0.000000
0.000685 -0.010383 0.000000
0.003194 -0.004275 0.000000
0.002278 -0.009004 0.000000
0.000425 -0.005761 0.000000
0.000516 -0.009541 0.000000
-0.000056 -0.008417 0.000000
0.000398 -0.006103 0.000000
0.000258 -0.006422 0.000000
0.000257 -0.000781 0.000000
0.001186 -0.010814 0.000000
0.000297 -0.007231 0.000000
0.000115 -0.000448 0.000000
0.000681 -0.000944 0.000000
0.000071 -0.007801 0.000000
0.001711 -0.001911 0.000000
0.001226 -0.010864 0.000000
-0.000189 -0.007529 0.000000
0.000825 -0.009961 0.000000
0.000012 -0.010474 0.000000
0.000446 -0.009108 0.000000
0.000384 -0.003686 0.000000
0.000334 -0.009693 0.000000
0.000440 -0.007544 0.000000
0.001261 -0.010770 0.000000
0.000555 -0.006172 0.000000
0.000126 -0.001161 0.000000
0.001970 -0.009036 0.000000
0.000097 -0.000252 0.000000
0.000248 -0.002731 0.000000
0.002410 -0.002428 0.000000
0.002710 -0.008440 0.000000
0.000592 -0.002869 0.000000
-0.000006 -0.010199 0.000000
0.003216 -0.004081 0.000000
0.000300 -0.003084 0.000000
0.000388 -0.008808 0.000000
0.001148 -0.000944 0.000000
-0.000138 -0.001555 0.000000
0.002887 -0.004908 0.000000
0.000263 -0.009917 0.000000
0.000289 -0.001052 0.000000
0.000254 -0.000160 0.000000
0.000359 -0.007958 0.000000
0.001550 -0.009171 0.000000
0.000450 -0.008564 0.000000
-0.000002 -0.002451 0.000000
0.001612 -0.000776 0.000000
0.000486 -0.009213 0.000000
0.002108 -0.007809 0.000000
0.000296 -0.007658 0.000000
0.002670 -0.002564 0.000000
0.001869 -0.002190 0.000000
0.000122 -0.001162 0.000000
0.000336 -0.001639 0.000000
0.003361 -0.004285 0.000000
0.000082 -0.000992 0.000000
0.000440 -0.001178 0.000000
0.000768 -0.000583 0.000000
0.002800 -0.005006 0.000000
0.003076 -0.004076 0.000000
0.003262 -0.003952 0.000000
0.000259 -0.007627 0.000000
0.001311 -0.010631 0.000000
0.000855 -0.000712 0.000000
0.003190 -0.005466 0.000000
0.002603 -0.002685 0.000000
0.001253 -0.007658 0.000000
0.000933 -0.010286 0.000000
0.001293 -0.010720 0.000000
0.002929 -0.007730 0.000000
0.003440 -0.005954 0.000000
-0.000149 -0.006197 0.000000
0.001254 -0.009830 0.000000
0.002576 -0.002177 0.000000
0.003187 -0.005287 0.000000
0.002736 -0.002542 0.000000
0.001248 -0.010525 0.000000
0.000058 -0.001991 0.000000
0.000759 -0.000714 0.000000
0.002080 -0.008561 0.000000
0.000077 -0.000530 0.000000
0.000794 -0.004549 0.000000
0.000789 -0.000545 0.000000
0.000696 -0.009474 0.000000
0.000236 -0.001749 0.000000
0.000087 -0.000344 0.000000
0.002052 -0.005333 0.000000
0.000108 -0.000648 0.000000
0.000316 -0.009919 0.000000
0.001837 -0.004951 0.000000
0.000522 -0.010186 0.000000
0.000234 -0.010070 0.000000
0.002837 -0.008002 0.000000
0.003086 -0.003194 0.000000
0.000274 -0.009648 0.000000
0.002982 -0.003377 0.000000
0.000356 -0.008804 0.000000
0.000418 -0.005063 0.000000
0.000269 -0.007991 0.000000
0.002998 -0.003942 0.000000
0.000834 -0.000592 0.000000
0.000021 -0.000403 0.000000
-0.000037 -0.000952 0.000000
0.000140 -0.007604 0.000000
0.000206 -0.001000 0.000000
0.000081 -0.001126 0.000000
0.000075 -0.000921 0.000000
0.000210 -0.002370 0.000000
0.000375 -0.003493 0.000000
0.000327 -0.003677 0.000000
0.000375 -0.006439 0.000000
0.000308 -0.005940 0.000000
0.000401 -0.007987 0.000000
0.000723 -0.005343 0.000000
0.001146 -0.000808 0.000000
0.000170 -0.001003 0.000000
0.000244 -0.006509 0.000000
0.000208 -0.001014 0.000000
0.000605 -0.008510 0.000000
0.001182 -0.010637 0.000000
0.001313 -0.002149 0.000000
0.000240 -0.009913 0.000000
0.000233 -0.006732 0.000000
0.002050 -0.005228 0.000000
-0.000362 -0.002663 0.000000
-0.000401 -0.000896 0.000000
0.000629 -0.000948 0.000000
0.002206 -0.005842 0.000000
0.001223 -0.010776 0.000000
0.002230 -0.008583 0.000000
-0.000031 -0.001015 0.000000
0.002281 -0.001144 0.000000
0.000267 -0.010064 0.000000
0.000204 -0.000592 0.000000
0.002366 -0.002168 0.000000
0.000453 -0.009755 0.000000
0.000652 -0.004016 0.000000
0.000461 -0.008262 0.000000
0.000072 -0.010018 0.000000
0.000162 -0.000955 0.000000
-0.000008 -0.001518 0.000000
0.001024 -0.010442 0.000000
0.000464 -0.008670 0.000000
0.001836 -0.010042 0.000000
0.003187 -0.004690 0.000000
0.000360 -0.004202 0.000000
0.000352 -0.008386 0.000000
0.000803 -0.000908 0.000000
0.000388 -0.008539 0.000000
0.000078 -0.000318 0.000000
0.001322 -0.010633 0.000000
0.000301 -0.010071 0.000000
0.002707 -0.003086 0.000000
0.000200 -0.010096 0.000000
0.000381 -0.010035 0.000000
0.001266 -0.010777 0.000000
0.000307 -0.000922 0.000000
0.001129 -0.010604 0.000000
0.001144 -0.000843 0.000000
-0.000003 -0.010247 0.000000
0.000066 -0.000823 0.000000
0.000268 -0.008898 0.000000
0.000730 -0.009961 0.000000
0.000497 -0.003966 0.000000
0.000404 -0.010000 0.000000
0.000213 -0.000694 0.000000
0.000070 -0.007921 0.000000
0.000072 -0.001014 0.000000
0.000046 -0.000497 0.000000
0.001288 -0.010640 0.000000
0.002561 -0.001491 0.000000
0.000256 -0.009949 0.000000
0.002852 -0.003410 0.000000
0.001336 -0.010640 0.000000
0.002968 -0.003957 0.000000
0.000941 -0.001230 0.000000
0.000677 -0.009748 0.000000
0.000265 -0.009872 0.000000
0.000090 -0.000276 0.000000
0.002786 -0.002700 0.000000
0.002640 -0.005973 0.000000
0.002327 -0.001158 0.000000
-0.000295 -0.000498 0.000000
0.000407 -0.003348 0.000000
0.000232 -0.001006 0.000000
0.000602 -0.009684 0.000000
0.000149 -0.005173 0.000000
0.000127 -0.001153 0.000000
0.000447 -0.009366 0.000000
0.000316 -0.008287 0.000000
0.000139 -0.001850 0.000000
0.002600 -0.008434 0.000000
0.000488 -0.008411 0.000000
0.000337 -0.007023 0.000000
0.000152 -0.005996 0.000000
0.002751 -0.002649 0.000000
0.000398 -0.000181 0.000000
0.000131 -0.000282 0.000000
0.000088 -0.000259 0.000000
0.000447 -0.009211 0.000000
0.000431 -0.008526 0.000000
0.000109 -0.008235 0.000000
0.000074 -0.001145 0.000000
0.000125 -0.002868 0.000000
0.000273 -0.000842 0.000000
0.000408 -0.008571 0.000000
0.002239 -0.002055 0.000000
0.000066 -0.001250 0.000000
0.002565 -0.002338 0.000000
0.000345 -0.009223 0.000000
0.001000 -0.001227 0.000000
0.002867 -0.003254 0.000000
0.002581 -0.001761 0.000000
0.000374 -0.007812 0.000000
0.002397 -0.002063 0.000000
0.000182 -0.000650 0.000000
0.003212 -0.005217 0.000000
0.001552 -0.000801 0.000000
0.001213 -0.010757 0.000000
0.000494 -0.001138 0.000000
0.001151 -0.000738 0.000000
0.000430 -0.009087 0.000000
0.000541 -0.000645 0.000000
0.001645 -0.004081 0.000000
0.000292 -0.001571 0.000000
0.000435 -0.009524 0.000000
0.002992 -0.003705 0.000000
0.000415 -0.008956 0.000000
0.000579 -0.001005 0.000000
0.001127 -0.010632 0.000000
0.001899 -0.001143 0.000000
0.000894 -0.010296 0.000000
0.000088 -0.000459 0.000000
0.002155 -0.001801 0.000000
0.003039 -0.003239 0.000000
-0.000056 -0.009369 0.000000
0.001211 -0.010844 0.000000
0.002371 -0.001187 0.000000
0.000609 -0.000961 0.000000
-0.000012 -0.009797 0.000000
0.002578 -0.008638 0.000000
0.002849 -0.005292 0.000000
0.001681 -0.001042 0.000000
0.001694 -0.004896 0.000000
0.000578 -0.008617 0.000000
0.003153 -0.003748 0.000000
0.002719 -0.008426 0.000000
0.000541 -0.000398 0.000000
0.000306 -0.009166 0.000000
0.000257 -0.000341 0.000000
0.001747 -0.000846 0.000000
0.000389 -0.008561 0.000000
0.000168 -0.000971 0.000000
0.000036 -0.000668 0.000000
0.000414 -0.008433 0.000000
0.002799 -0.007516 0.000000
0.000541 -0.010106 0.000000
-0.000183 -0.001457 0.000000
0.000102 -0.001219 0.000000
0.000291 -0.005900 0.000000
0.000225 -0.006874 0.000000
0.001225 -0.010808 0.000000
0.001471 -0.000866 0.000000
0.003240 -0.006926 0.000000
0.000058 -0.000667 0.000000
-0.000095 -0.001314 0.000000
0.000198 -0.000358 0.000000
0.000472 -0.001540 0.000000
0.000092 -0.000195 0.000000
-0.000352 -0.002540 0.000000
0.000025 -0.010447 0.000000
0.000311 -0.001045 0.000000
0.000309 -0.002185 0.000000
0.001207 -0.003621 0.000000
0.003200 -0.003995 0.000000
0.000663 -0.000948 0.000000
0.000068 -0.000929 0.000000
0.000003 -0.001792 0.000000
0.000461 -0.000805 0.000000
0.000877 -0.000623 0.000000
0.000272 -0.000347 0.000000
0.001794 -0.004307 0.000000
0.002895 -0.003087 0.000000
0.002152 -0.005286 0.000000
0.001913 -0.001499 0.000000
0.002409 -0.003453 0.000000
0.000954 -0.010256 0.000000
0.000811 -0.000897 0.000000
0.001263 -0.010790 0.000000
0.000375 -0.000824 0.000000
0.001231 -0.010599 0.000000
-0.000035 -0.008152 0.000000
0.000235 -0.006252 0.000000
0.001308 -0.000644 0.000000
0.002926 -0.005410 0.000000
0.000660 -0.000692 0.000000
0.000002 -0.007680 0.000000
0.002379 -0.002074 0.000000
0.001590 -0.009863 0.000000
-0.000450 -0.002023 0.000000
0.000129 -0.007997 0.000000
0.002576 -0.001592 0.000000
-0.000390 -0.000829 0.000000
0.000531 -0.009028 0.000000
0.002874 -0.002953 0.000000
-0.000085 -0.007902 0.000000
0.001910 -0.002363 0.000000
0.000258 -0.007881 0.000000
0.000190 -0.000441 0.000000
0.003184 -0.004880 0.000000
0.000508 -0.000838 0.000000
0.000166 -0.001035 0.000000
0.000393 -0.008881 0.000000
0.000249 -0.000795 0.000000
0.000087 -0.000239 0.000000
0.000020 -0.001310 0.000000
-0.000001 -0.010528 0.000000
0.002921 -0.007577 0.000000
0.003187 -0.004982 0.000000
0.002056 -0.006241 0.000000
0.000162 -0.001101 0.000000
0.000456 -0.001004 0.000000
0.001226 -0.010815 0.000000
0.002127 -0.001746 0.000000
-0.000306 -0.001360 0.000000
0.000157 -0.000567 0.000000
0.002987 -0.003539 0.000000
-0.000005 -0.010047 0.000000
0.000042 -0.000304 0.000000
0.002503 -0.002319 0.000000
0.000100 -0.006750 0.000000
0.000787 -0.009658 0.000000
0.000480 -0.001348 0.000000
0.001237 -0.010846 0.000000
0.000709 -0.000650 0.000000
0.001842 -0.004384 0.000000
0.000439 -0.008853 0.000000
0.001206 -0.010790 0.000000
0.000296 -0.005852 0.000000
0.000902 -0.001770 0.000000
0.000589 -0.005340 0.000000
0.000511 -0.000629 0.000000
0.001055 -0.010391 0.000000
0.000177 -0.000553 0.000000
0.000476 -0.000937 0.000000
0.000038 -0.000527 0.000000
0.002727 -0.008302 0.000000
0.000294 -0.005874 0.000000
0.000137 -0.010153 0.000000
0.003203 -0.004497 0.000000
0.000279 -0.008015 0.000000
0.002563 -0.002867 0.000000
0.002680 -0.008796 0.000000
0.000105 -0.010252 0.000000
0.000871 -0.010145 0.000000
0.000316 -0.009490 0.000000
0.000887 -0.000936 0.000000
0.001085 -0.001308 0.000000
0.000046 -0.000443 0.000000
0.001057 -0.001089 0.000000
0.001157 -0.002584 0.000000
0.000458 -0.002711 0.000000
0.000100 -0.010284 0.000000
0.000559 -0.000784 0.000000
-0.000081 -0.003311 0.000000
0.002236 -0.009343 0.000000
0.001046 -0.000896 0.000000
0.000881 -0.009776 0.000000
0.002859 -0.002805 0.000000
0.002532 -0.006732 0.000000
0.000296 -0.000723 0.000000
0.000259 -0.003487 0.000000
0.002064 -0.009714 0.000000
0.002111 -0.001682 0.000000
0.001207 -0.010735 0.000000
0.000927 -0.001594 0.000000
0.002993 -0.005081 0.000000
0.000062 -0.001279 0.000000
0.000340 -0.000997 0.000000
0.000276 -0.000801 0.000000
0.002139 -0.007858 0.000000
0.000136 -0.010255 0.000000
0.001212 -0.010668 0.000000
0.001915 -0.001358 0.000000
0.000294 -0.007907 0.000000
0.001951 -0.001166 0.000000
0.000618 -0.006933 0.000000
0.000327 -0.007403 0.000000
0.001859 -0.001197 0.000000
0.001781 -0.006708 0.000000
0.000301 -0.007424 0.000000
0.002655 -0.002849 0.000000
0.002623 -0.002850 0.000000
0.001875 -0.001144 0.000000
0.002022 -0.001601 0.000000
0.000152 -0.000964 0.000000
0.000386 -0.007358 0.000000
0.000157 -0.006601 0.000000
0.000148 -0.000964 0.000000
0.000176 -0.006525 0.000000
0.002747 -0.002633 0.000000
0.003171 -0.005067 0.000000
0.002559 -0.002551 0.000000
0.003353 -0.004721 0.000000
0.003349 -0.007027 0.000000
-0.000171 -0.005610 0.000000
0.000132 -0.000913 0.000000
0.000817 -0.005517 0.000000
0.000385 -0.007653 0.000000
0.000417 -0.007339 0.000000
0.003183 -0.007250 0.000000
0.002974 -0.007515 0.000000
0.003353 -0.004750 0.000000
0.000237 -0.007527 0.000000
0.003223 -0.005105 0.000000
0.001066 -0.010306 0.000000
0.002527 -0.002631 0.000000
0.003259 -0.004677 0.000000
0.000802 -0.004925 0.000000
0.002848 -0.002807 0.000000
0.002531 -0.002490 0.000000
0.001608 -0.010144 0.000000
0.000144 -0.006673 0.000000
0.000136 -0.000959 0.000000
0.003137 -0.007350 0.000000
-0.000202 -0.006338 0.000000
0.000695 -0.007035 0.000000
0.000798 -0.009921 0.000000
0.003242 -0.005102 0.000000
0.001239 -0.010423 0.000000
0.001668 -0.002735 0.000000
0.001616 -0.003622 0.000000
0.002043 -0.001627 0.000000
0.001018 -0.010267 0.000000
0.000162 -0.000961 0.000000
0.000758 -0.010026 0.000000
0.001647 -0.003718 0.000000
0.000136 -0.000916 0.000000
0.001330 -0.000865 0.000000
0.002214 -0.009446 0.000000
0.003328 -0.004992 0.000000
0.003338 -0.004848 0.000000
0.001805 -0.002843 0.000000
0.002530 -0.002490 0.000000
0.000233 -0.007567 0.000000
0.000161 -0.000967 0.000000
0.001497 -0.003835 0.000000
0.000475 -0.006743 0.000000
0.001314 -0.005165 0.000000
0.002090 -0.001176 0.000000
0.000284 -0.009914 0.000000
0.001524 -0.010238 0.000000
0.001344 -0.003455 0.000000
0.002110 -0.001642 0.000000
0.002253 -0.009387 0.000000
0.001412 -0.000764 0.000000
0.000324 -0.007852 0.000000
0.001406 -0.002785 0.000000
0.000507 -0.007301 0.000000
0.002574 -0.002873 0.000000
0.000472 -0.008958 0.000000
0.000826 -0.010064 0.000000
0.003206 -0.006896 0.000000
0.003331 -0.005044 0.000000
0.000490 -0.008998 0.000000
0.002856 -0.002846 0.000000
0.000791 -0.004908 0.000000
0.002144 -0.003330 0.000000
0.000148 -0.000933 0.000000
0.001349 -0.003327 0.000000
0.001203 -0.002351 0.000000
0.003383 -0.006772 0.000000
0.000687 -0.009387 0.000000
0.000048 -0.006758 0.000000
0.000274 -0.007444 0.000000
0.000377 -0.007853 0.000000
0.000122 -0.000923 0.000000
0.001888 -0.001150 0.000000
0.000811 -0.005011 0.000000
0.001455 -0.000773 0.000000
0.001014 -0.000951 0.000000
0.003048 -0.006493 0.000000
0.003138 -0.006904 0.000000
0.001504 -0.003325 0.000000
0.001308 -0.010518 0.000000
0.001212 -0.001177 0.000000
0.000579 -0.009262 0.000000
0.000595 -0.009229 0.000000
0.001459 -0.001344 0.000000
0.001428 -0.001407 0.000000
0.000523 -0.006010 0.000000
0.000609 -0.009314 0.000000
0.001149 -0.002488 0.000000
-0.000096 -0.005498 0.000000
0.000144 -0.000964 0.000000
0.000262 -0.009858 0.000000
0.001136 -0.001195 0.000000
0.001463 -0.010314 0.000000
0.003071 -0.007098 0.000000
0.000525 -0.009077 0.000000
0.002139 -0.009551 0.000000
0.001251 -0.000766 0.000000
0.000131 -0.000953 0.000000
0.001586 -0.003965 0.000000
0.001529 -0.005592 0.000000
0.003389 -0.006834 0.000000
0.000242 -0.009885 0.000000
0.001297 -0.010601 0.000000
0.002562 -0.007827 0.000000
-0.000230 -0.006245 0.000000
0.002128 -0.001186 0.000000
0.002386 -0.009162 0.000000
0.000213 -0.008391 0.000000
0.003019 -0.006696 0.000000
0.000031 -0.008222 0.000000
0.000690 -0.009638 0.000000
0.000882 -0.010163 0.000000
0.003421 -0.004801 0.000000
0.001535 -0.010249 0.000000
0.001289 -0.010664 0.000000
0.000124 -0.000907 0.000000
0.003247 -0.004827 0.000000
0.000782 -0.007132 0.000000
0.000319 -0.003603 0.000000
0.000460 -0.002967 0.000000
0.002688 -0.002604 0.000000
-0.000246 -0.005852 0.000000
0.001024 -0.004688 0.000000
0.001302 -0.010684 0.000000
0.002992 -0.007060 0.000000
0.001504 -0.010218 0.000000
0.000350 -0.009819 0.000000
0.002950 -0.006780 0.000000
0.000077 -0.008213 0.000000
0.001212 -0.004945 0.000000
0.002744 -0.007997 0.000000
0.003264 -0.004664 0.000000
0.003046 -0.006236 0.000000
0.000385 -0.000625 0.000000
0.000670 -0.009363 0.000000
0.000876 -0.010187 0.000000
0.001299 -0.000860 0.000000
0.000328 -0.002342 0.000000
0.001708 -0.003903 0.000000
0.002861 -0.007866 0.000000
0.000298 -0.000565 0.000000
0.000205 -0.000881 0.000000
0.000212 -0.000822 0.000000
0.003070 -0.005699 0.000000
0.002045 -0.003290 0.000000
0.001720 -0.009972 0.000000
0.000323 -0.007806 0.000000
0.000117 -0.001064 0.000000
0.002628 -0.006687 0.000000
0.001308 -0.010427 0.000000
0.001368 -0.003679 0.000000
0.003369 -0.004841 0.000000
0.000779 -0.004860 0.000000
0.000342 -0.006167 0.000000
0.002659 -0.004782 0.000000
-0.000453 -0.004044 0.000000
-0.000049 -0.003681 0.000000
0.002833 -0.007626 0.000000
0.001383 -0.002491 0.000000
0.000275 -0.005525 0.000000
-0.000422 -0.003072 0.000000
0.003170 -0.005129 0.000000
0.000146 -0.008425 0.000000
0.000047 -0.004642 0.000000
0.001461 -0.001606 0.000000
0.001530 -0.010408 0.000000
0.002230 -0.003162 0.000000
0.001927 -0.009537 0.000000
0.000316 -0.008011 0.000000
0.001394 -0.001649 0.000000
0.000507 -0.006223 0.000000
-0.000144 -0.006511 0.000000
0.000705 -0.009747 0.000000
0.000135 -0.001115 0.000000
0.002774 -0.003776 0.000000
0.002884 -0.002800 0.000000
0.001341 -0.007491 0.000000
0.000150 -0.001853 0.000000
0.002858 -0.002765 0.000000
0.000307 -0.007702 0.000000
0.003132 -0.007165 0.000000
0.002902 -0.002825 0.000000
0.002180 -0.002800 0.000000
0.002117 -0.003057 0.000000
0.000110 -0.002029 0.000000
0.001247 -0.010206 0.000000
0.002906 -0.007058 0.000000
0.002156 -0.001535 0.000000
0.001138 -0.001826 0.000000
0.000193 -0.002303 0.000000
0.003114 -0.007021 0.000000
0.001158 -0.000941 0.000000
0.000326 -0.007761 0.000000
0.000333 -0.009340 0.000000
0.002673 -0.003887 0.000000
0.002984 -0.002937 0.000000
0.000410 -0.004098 0.000000
0.000216 -0.001729 0.000000
0.000336 -0.001019 0.000000
-0.000421 -0.003700 0.000000
0.001188 -0.001465 0.000000
0.000339 -0.009157 0.000000
0.000933 -0.010253 0.000000
0.000107 -0.010227 0.000000
0.003361 -0.004641 0.000000
0.001844 -0.001124 0.000000
0.000334 -0.009810 0.000000
0.002162 -0.009425 0.000000
0.002839 -0.008407 0.000000
0.001218 -0.001273 0.000000
0.002847 -0.002886 0.000000
0.001075 -0.000929 0.000000
0.003278 -0.004694 0.000000
0.000869 -0.010209 0.000000
0.002523 -0.002484 0.000000
0.000437 -0.007885 0.000000
0.000931 -0.000956 0.000000
0.000080 -0.003172 0.000000
0.001174 -0.000765 0.000000
0.000495 -0.000629 0.000000
0.002307 -0.002331 0.000000
0.001962 -0.009338 0.000000
0.001133 -0.002492 0.000000
0.000414 -0.007801 0.000000
0.000432 -0.004798 0.000000
0.003178 -0.006142 0.000000
0.002426 -0.002988 0.000000
0.002590 -0.006855 0.000000
0.002520 -0.002475 0.000000
0.002883 -0.007902 0.000000
0.001914 -0.009738 0.000000
0.000354 -0.007938 0.000000
0.000103 -0.001035 0.000000
0.000518 -0.007323 0.000000
0.000247 -0.006443 0.000000
0.001460 -0.000825 0.000000
0.001722 -0.001926 0.000000
0.002860 -0.008245 0.000000
0.000413 -0.008915 0.000000
0.003263 -0.005137 0.000000
0.000309 -0.007915 0.000000
0.000486 -0.007268 0.000000
0.000059 -0.000686 0.000000
0.000533 -0.004590 0.000000
0.000313 -0.002616 0.000000
0.000559 -0.009181 0.000000
0.000088 -0.010286 0.000000
0.002693 -0.006535 0.000000
0.002826 -0.002740 0.000000
0.002889 -0.007679 0.000000
0.000797 -0.010325 0.000000
0.000874 -0.009795 0.000000
0.000403 -0.005931 0.000000
0.001636 -0.001559 0.000000
0.002952 -0.007428 0.000000
0.003147 -0.006319 0.000000
0.000764 -0.010375 0.000000
0.002942 -0.002877 0.000000
0.000329 -0.001876 0.000000
0.000709 -0.009850 0.000000
0.000251 -0.003117 0.000000
0.002410 -0.009114 0.000000
0.003144 -0.005573 0.000000
0.000244 -0.001273 0.000000
0.000128 -0.001127 0.000000
0.000082 -0.001148 0.000000
-0.000030 -0.002345 0.000000
0.000913 -0.001544 0.000000
0.002342 -0.009219 0.000000
0.002867 -0.007772 0.000000
0.000606 -0.005917 0.000000
0.000187 -0.001771 0.000000
0.001185 -0.000936 0.000000
0.002816 -0.002681 0.000000
0.000056 -0.000880 0.000000
0.002874 -0.002915 0.000000
0.003269 -0.005884 0.000000
0.000132 -0.002456 0.000000
0.002010 -0.002997 0.000000
0.002571 -0.007612 0.000000
0.000231 -0.000941 0.000000
0.000378 -0.009390 0.000000
0.000430 -0.007530 0.000000
0.000696 -0.009913 0.000000
-0.000021 -0.008314 0.000000
0.000374 -0.004199 0.000000
0.002254 -0.009123 0.000000
0.002622 -0.002048 0.000000
0.000533 -0.006082 0.000000
0.000479 -0.006370 0.000000
0.000068 -0.008385 0.000000
0.000277 -0.003593 0.000000
0.000052 -0.000666 0.000000
0.000466 -0.008921 0.000000
0.000306 -0.004786 0.000000
0.000423 -0.010067 0.000000
0.003291 -0.004605 0.000000
0.000143 -0.006727 0.000000
0.003054 -0.007146 0.000000
0.000550 -0.009211 0.000000
0.001690 -0.006999 0.000000
0.000342 -0.006128 0.000000
0.003303 -0.007018 0.000000
0.001505 -0.009130 0.000000
0.001312 -0.010309 0.000000
0.000747 -0.009931 0.000000
0.001093 -0.000944 0.000000
0.000197 -0.000633 0.000000
0.000428 -0.005855 0.000000
0.000222 -0.003241 0.000000
0.000294 -0.006348 0.000000
0.001227 -0.000935 0.000000
0.000606 -0.008993 0.000000
0.000109 -0.004437 0.000000
0.000234 -0.009909 0.000000
0.000827 -0.000903 0.000000
0.002481 -0.002438 0.000000
0.000829 -0.000914 0.000000
0.000051 -0.000655 0.000000
0.001466 -0.000783 0.000000
0.001708 -0.001030 0.000000
0.000194 -0.009782 0.000000
0.002596 -0.002196 0.000000
0.001324 -0.010656 0.000000
0.002574 -0.007023 0.000000
0.000746 -0.005252 0.000000
0.001587 -0.003460 0.000000
0.000057 -0.000649 0.000000
0.001417 -0.000852 0.000000
0.001647 -0.010228 0.000000
0.000472 -0.007432 0.000000
0.002169 -0.009429 0.000000
0.003213 -0.005012 0.000000
0.003053 -0.006101 0.000000
0.000707 -0.005503 0.000000
0.000808 -0.009802 0.000000
0.000088 -0.000995 0.000000
0.000815 -0.000908 0.000000
0.001225 -0.010490 0.000000
0.002203 -0.001360 0.000000
0.000372 -0.008834 0.000000
0.001960 -0.006685 0.000000
0.000140 -0.010158 0.000000
0.002384 -0.002479 0.000000
0.000565 -0.009455 0.000000
0.000235 -0.007599 0.000000
0.000440 -0.004015 0.000000
0.001727 -0.001111 0.000000
0.000202 -0.000679 0.000000
0.000816 -0.004811 0.000000
0.000029 -0.004810 0.000000
0.002520 -0.002741 0.000000
0.001004 -0.010264 0.000000
0.001921 -0.002219 0.000000
0.001936 -0.002720 0.000000
0.001683 -0.004095 0.000000
0.002527 -0.002496 0.000000
0.000160 -0.000954 0.000000
0.003372 -0.004590 0.000000
0.000937 -0.000949 0.000000
0.000094 -0.002538 0.000000
0.000338 -0.004442 0.000000
0.000427 -0.010129 0.000000
0.003055 -0.006319 0.000000
0.000398 -0.010116 0.000000
-0.000066 -0.009209 0.000000
0.000299 -0.000551 0.000000
0.000126 -0.000944 0.000000
0.001296 -0.004873 0.000000
0.000322 -0.005331 0.000000
0.000141 -0.000914 0.000000
-0.000239 -0.005947 0.000000
-0.000001 -0.004580 0.000000
0.000649 -0.003897 0.000000
0.000314 -0.009893 0.000000
0.001762 -0.009732 0.000000
0.000762 -0.009972 0.000000
0.000190 -0.000660 0.000000
0.001850 -0.009821 0.000000
0.001835 -0.002169 0.000000
0.000185 -0.000609 0.000000
0.001665 -0.010056 0.000000
0.000899 -0.010185 0.000000
0.000436 -0.000535 0.000000
0.000090 -0.010283 0.000000
0.003180 -0.007254 0.000000
0.002836 -0.002746 0.000000
0.000169 -0.002597 0.000000
0.001685 -0.003045 0.000000
0.000466 -0.010131 0.000000
0.003018 -0.007576 0.000000
0.000316 -0.000349 0.000000
0.000078 -0.000966 0.000000
0.002593 -0.002887 0.000000
0.003424 -0.004749 0.000000
0.002660 -0.007375 0.000000
0.000393 -0.008429 0.000000
0.000609 -0.000983 0.000000
0.000647 -0.000867 0.000000
-0.000095 -0.008983 0.000000
0.000320 -0.000845 0.000000
-0.000018 -0.001630 0.000000
0.000172 -0.007511 0.000000
0.000064 -0.005975 0.000000
0.000200 -0.005462 0.000000
0.002777 -0.008416 0.000000
0.000180 -0.008560 0.000000
0.001097 -0.009995 0.000000
0.000063 -0.000714 0.000000
0.000468 -0.010093 0.000000
0.000517 -0.008727 0.000000
0.001120 -0.001559 0.000000
0.000264 -0.009929 0.000000
0.000121 -0.000905 0.000000
0.000332 -0.000565 0.000000
0.000472 -0.008690 0.000000
0.000250 -0.007647 0.000000
0.002068 -0.004004 0.000000
0.003401 -0.006887 0.000000
0.000323 -0.004785 0.000000
0.000665 -0.009710 0.000000
0.001934 -0.001511 0.000000
0.001624 -0.004028 0.000000
0.001472 -0.010267 0.000000
0.000323 -0.001034 0.000000
0.001801 -0.001085 0.000000
0.003121 -0.006763 0.000000
0.000036 -0.000514 0.000000
0.003626 -0.005549 0.000000
0.000737 -0.004827 0.000000
0.001656 -0.005642 0.000000
0.000165 -0.000967 0.000000
0.000243 -0.000385 0.000000
0.000283 -0.009805 0.000000
0.000830 -0.008940 0.000000
0.001455 -0.009423 0.000000
0.002750 -0.006135 0.000000
0.000758 -0.001468 0.000000
0.002827 -0.003321 0.000000
0.000939 -0.008929 0.000000
0.002038 -0.006472 0.000000
0.003127 -0.006465 0.000000
-0.000132 -0.001010 0.000000
0.000326 -0.009230 0.000000
0.001656 -0.001309 0.000000
-0.000113 -0.006658 0.000000
0.001381 -0.005307 0.000000
0.000480 -0.001012 0.000000
0.000318 -0.007871 0.000000
0.000624 -0.005332 0.000000
0.000327 -0.001008 0.000000
0.000351 -0.010097 0.000000
0.001032 -0.000952 0.000000
-0.000053 -0.001409 0.000000
0.000346 -0.006592 0.000000
0.001113 -0.004783 0.000000
0.002189 -0.001237 0.000000
0.000273 -0.007672 0.000000
0.002769 -0.003216 0.000000
0.002826 -0.002799 0.000000
0.001124 -0.007407 0.000000
0.001335 -0.002378 0.000000
0.002833 -0.002754 0.000000
0.000919 -0.010170 0.000000
0.001339 -0.010577 0.000000
0.003033 -0.005815 0.000000
0.001922 -0.001470 0.000000
0.001928 -0.006158 0.000000
0.001081 -0.002371 0.000000
0.000233 -0.006813 0.000000
0.002781 -0.005768 0.000000
0.000723 -0.004727 0.000000
0.000168 -0.010120 0.000000
0.000283 -0.009262 0.000000
0.000105 -0.001067 0.000000
0.000174 -0.006574 0.000000
0.001106 -0.002383 0.000000
0.000236 -0.001035 0.000000
0.001969 -0.005748 0.000000
0.001447 -0.001465 0.000000
0.000150 -0.006886 0.000000
0.002311 -0.003297 0.000000
0.002954 -0.007774 0.000000
0.000520 -0.007352 0.000000
0.000796 -0.010136 0.000000
0.000383 -0.007931 0.000000
0.000557 -0.000844 0.000000
0.000313 -0.003337 0.000000
0.002790 -0.008218 0.000000
0.002926 -0.003555 0.000000
0.002601 -0.008122 0.000000
0.000162 -0.008479 0.000000
0.000270 -0.009809 0.000000
0.000218 -0.002227 0.000000
0.000426 -0.001883 0.000000
0.000323 -0.008891 0.000000
0.001396 -0.003085 0.000000
0.000542 -0.000702 0.000000
0.002845 -0.007999 0.000000
0.002815 -0.002698 0.000000
0.000936 -0.000878 0.000000
0.000077 -0.000501 0.000000
0.000337 -0.009131 0.000000
0.000161 -0.000755 0.000000
0.001045 -0.010379 0.000000
0.000266 -0.006927 0.000000
0.000311 -0.007948 0.000000
0.000300 -0.007928 0.000000
0.003207 -0.003932 0.000000
0.002092 -0.006386 0.000000
0.001187 -0.010450 0.000000
0.002144 -0.009018 0.000000
0.002116 -0.009500 0.000000
0.000328 -0.008449 0.000000
0.000702 -0.010407 0.000000
-0.000189 -0.006461 0.000000
0.001360 -0.000747 0.000000
0.000103 -0.002947 0.000000
0.001981 -0.001542 0.000000
0.000854 -0.010348 0.000000
0.002036 -0.001166 0.000000
0.000119 -0.010207 0.000000
0.002994 -0.007297 0.000000
0.003191 -0.005064 0.000000
0.000258 -0.006445 0.000000
0.001349 -0.010409 0.000000
0.003578 -0.005240 0.000000
0.002791 -0.006663 0.000000
0.001096 -0.000979 0.000000
0.002312 -0.007638 0.000000
0.000120 -0.001719 0.000000
0.001634 -0.001413 0.000000
0.000241 -0.009768 0.000000
0.001805 -0.008934 0.000000
0.000255 -0.000510 0.000000
0.003203 -0.004447 0.000000
0.002718 -0.004083 0.000000
0.000158 -0.000968 0.000000
0.002001 -0.008482 0.000000
0.000775 -0.000958 0.000000
0.000056 -0.000667 0.000000
0.000262 -0.000854 0.000000
0.002635 -0.007520 0.000000
0.002547 -0.002850 0.000000
0.000497 -0.006175 0.000000
0.000817 -0.000889 0.000000
0.001258 -0.010804 0.000000
0.000724 -0.010392 0.000000
0.000268 -0.008169 0.000000
0.002931 -0.003355 0.000000
0.000332 -0.009712 0.000000
0.000041 -0.000591 0.000000
0.000330 -0.010091 0.000000
0.002270 -0.008049 0.000000
0.003462 -0.006667 0.000000
0.000828 -0.010167 0.000000
-0.000099 -0.005708 0.000000
0.000677 -0.009709 0.000000
0.000330 -0.008833 0.000000
0.002403 -0.008127 0.000000
0.002227 -0.001183 0.000000
0.000413 -0.010125 0.000000
0.002379 -0.006136 0.000000
0.000437 -0.007067 0.000000
0.002938 -0.007822 0.000000
0.002856 -0.005385 0.000000
0.001168 -0.002493 0.000000
0.000445 -0.005875 0.000000
0.002195 -0.001900 0.000000
0.001386 -0.003787 0.000000
0.000329 -0.008821 0.000000
0.001677 -0.010203 0.000000
0.000889 -0.010403 0.000000
0.000600 -0.000661 0.000000
-0.000139 -0.006359 0.000000
0.000034 -0.002025 0.000000
0.000789 -0.010365 0.000000
0.002082 -0.009533 0.000000
0.000166 -0.000970 0.000000
0.000391 -0.008856 0.000000
-0.000099 -0.001017 0.000000
0.000407 -0.001729 0.000000
0.000032 -0.001836 0.000000
0.002564 -0.002895 0.000000
-0.000473 -0.003907 0.000000
0.003067 -0.003252 0.000000
0.000167 -0.000814 0.000000
0.000339 -0.004520 0.000000
0.000924 -0.001465 0.000000
0.000827 -0.010029 0.000000
0.002030 -0.009125 0.000000
0.003117 -0.003886 0.000000
-0.000090 -0.005825 0.000000
0.000737 -0.009784 0.000000
0.002303 -0.007892 0.000000
0.001323 -0.010274 0.000000
0.003061 -0.003336 0.000000
0.000687 -0.005893 0.000000
0.000109 -0.000599 0.000000
0.003043 -0.003153 0.000000
0.000103 -0.010241 0.000000
0.002066 -0.006609 0.000000
-0.000325 -0.001773 0.000000
0.002992 -0.003708 0.000000
0.000444 -0.006437 0.000000
0.003158 -0.006924 0.000000
0.000884 -0.010166 0.000000
0.000140 -0.009689 0.000000
0.000046 -0.010406 0.000000
0.002882 -0.008140 0.000000
0.000357 -0.003239 0.000000
0.003153 -0.005502 0.000000
-0.000023 -0.001954 0.000000
0.000411 -0.009097 0.000000
0.001226 -0.010831 0.000000
0.003280 -0.004621 0.000000
0.001869 -0.004963 0.000000
0.001367 -0.000910 0.000000
0.001294 -0.000747 0.000000
0.000071 -0.000770 0.000000
0.000373 -0.000655 0.000000
0.000506 -0.000376 0.000000
0.000219 -0.009932 0.000000
0.002221 -0.008574 0.000000
0.001377 -0.003361 0.000000
0.000151 -0.000765 0.000000
0.000310 -0.003340 0.000000
0.000219 -0.003181 0.000000
0.000494 -0.007375 0.000000
0.000185 -0.000324 0.000000
0.000915 -0.004602 0.000000
0.000395 -0.007305 0.000000
0.000304 -0.008976 0.000000
0.003134 -0.004291 0.000000
0.000151 -0.001068 0.000000
0.000869 -0.000619 0.000000
0.000148 -0.003121 0.000000
0.000176 -0.008113 0.000000
0.002047 -0.009662 0.000000
0.000444 -0.010063 0.000000
0.003039 -0.005860 0.000000
0.000810 -0.010092 0.000000
0.000810 -0.010198 0.000000
0.000483 -0.008534 0.000000
0.000434 -0.001022 0.000000
0.000050 -0.001618 0.000000
0.000337 -0.000816 0.000000
0.000620 -0.000429 0.000000
0.000351 -0.004080 0.000000
0.000456 -0.008951 0.000000
0.002021 -0.001053 0.000000
0.002571 -0.008717 0.000000
0.000296 -0.003530 0.000000
0.003001 -0.003700 0.000000
0.001353 -0.010594 0.000000
0.000341 -0.001006 0.000000
-0.000019 -0.006784 0.000000
0.001189 -0.000608 0.000000
0.003098 -0.003732 0.000000
0.002306 -0.002117 0.000000
0.002289 -0.007296 0.000000
0.000013 -0.008428 0.000000
0.002506 -0.002455 0.000000
0.000192 -0.008343 0.000000
0.001220 -0.003005 0.000000
0.000164 -0.008918 0.000000
0.001596 -0.009057 0.000000
0.000563 -0.005797 0.000000
0.002996 -0.003588 0.000000
0.000094 -0.001120 0.000000
0.001243 -0.010832 0.000000
0.000341 -0.006981 0.000000
0.000399 -0.008906 0.000000
0.000238 -0.007425 0.000000
0.001987 -0.005419 0.000000
0.000272 -0.001050 0.000000
0.000450 -0.006684 0.000000
0.000298 -0.005890 0.000000
0.000545 -0.010174 0.000000
0.000979 -0.010282 0.000000
0.000278 -0.002348 0.000000
0.000265 -0.002103 0.000000
0.001850 -0.009359 0.000000
0.000345 -0.009828 0.000000
-0.000441 -0.002728 0.000000
0.003030 -0.003524 0.000000
0.003164 -0.003823 0.000000
0.001282 -0.010691 0.000000
0.000461 -0.010098 0.000000
0.001383 -0.000959 0.000000
0.002416 -0.006090 0.000000
0.000716 -0.000681 0.000000
0.000430 -0.009384 0.000000
0.000036 -0.000397 0.000000
0.000774 -0.000368 0.000000
0.001257 -0.000628 0.000000
0.000212 -0.000690 0.000000
0.002859 -0.003036 0.000000
0.000424 -0.001318 0.000000
0.000318 -0.008218 0.000000
0.000325 -0.004238 0.000000
0.000450 -0.004261 0.000000
0.000306 -0.006116 0.000000
0.000057 -0.000699 0.000000
0.001227 -0.010767 0.000000
0.000626 -0.000800 0.000000
0.001719 -0.009971 0.000000
0.000106 -0.001178 0.000000
0.000333 -0.007744 0.000000
0.000654 -0.000704 0.000000
0.000770 -0.000960 0.000000
0.002138 -0.002269 0.000000
0.000058 -0.000513 0.000000
0.000501 -0.006483 0.000000
0.000228 -0.000895 0.000000
0.001196 -0.010829 0.000000
0.003113 -0.003519 0.000000
0.000598 -0.000995 0.000000
0.000011 -0.010450 0.000000
0.001393 -0.000886 0.000000
0.000199 -0.006166 0.000000
0.001744 -0.004075 0.000000
-0.000093 -0.002414 0.000000
0.000420 -0.005646 0.000000
0.000423 -0.004001 0.000000
0.001249 -0.002633 0.000000
0.000102 -0.000847 0.000000
0.002505 -0.001367 0.000000
0.000529 -0.000668 0.000000
0.000300 -0.003357 0.000000
0.001014 -0.003223 0.000000
0.002593 -0.001578 0.000000
0.000731 -0.009081 0.000000
0.001230 -0.010854 0.000000
0.000079 -0.001581 0.000000
0.000098 -0.001146 0.000000
-0.000025 -0.009512 0.000000
0.000036 -0.002773 0.000000
0.002141 -0.001662 0.000000
0.002179 -0.001599 0.000000
0.000496 -0.005460 0.000000
0.000333 -0.000992 0.000000
0.001116 -0.001523 0.000000
0.002907 -0.007421 0.000000
0.000210 -0.010086 0.000000
0.000354 -0.005914 0.000000
0.000459 -0.008388 0.000000
0.000263 -0.003713 0.000000
0.000340 -0.001032 0.000000
0.003289 -0.005181 0.000000
0.001521 -0.001040 0.000000
0.000383 -0.008818 0.000000
0.001725 -0.002567 0.000000
0.000355 -0.008006 0.000000
0.000400 -0.008531 0.000000
0.000207 -0.000639 0.000000
0.000163 -0.000972 0.000000
0.000324 -0.007941 0.000000
0.000401 -0.009594 0.000000
0.000710 -0.000682 0.000000
0.000287 -0.008538 0.000000
0.002652 -0.002193 0.000000
0.002999 -0.003688 0.000000
0.001221 -0.009744 0.000000
0.003261 -0.003854 0.000000
0.000917 -0.000564 0.000000
0.000066 -0.000887 0.000000
0.000075 -0.000938 0.000000
0.002584 -0.001546 0.000000
0.002647 -0.008571 0.000000
0.003195 -0.004190 0.000000
0.001169 -0.002255 0.000000
0.002431 -0.009131 0.000000
0.000053 -0.000391 0.000000
0.002454 -0.001272 0.000000
0.000155 -0.000343 0.000000
0.000202 -0.007611 0.000000
0.000700 -0.000504 0.000000
0.000411 -0.008610 0.000000
0.000314 -0.009437 0.000000
0.000100 -0.000700 0.000000
0.000565 -0.002026 0.000000
0.002150 -0.007667 0.000000
0.001979 -0.002927 0.000000
0.001941 -0.009162 0.000000
0.003013 -0.002998 0.000000
0.000037 -0.010289 0.000000
0.001478 -0.000828 0.000000
0.001130 -0.010657 0.000000
0.003479 -0.005919 0.000000
0.002399 -0.007273 0.000000
0.000545 -0.009122 0.000000
0.001694 -0.003109 0.000000
0.001520 -0.010148 0.000000
0.000120 -0.000926 0.000000
0.000109 -0.007265 0.000000
0.000516 -0.009116 0.000000
0.000343 -0.003898 0.000000
0.000235 -0.008985 0.000000
0.000772 -0.010094 0.000000
0.003040 -0.006160 0.000000
0.001265 -0.010762 0.000000
0.000465 -0.004036 0.000000
0.000679 -0.000846 0.000000
0.001567 -0.007315 0.000000
0.000647 -0.000493 0.000000
0.000349 -0.009789 0.000000
0.001408 -0.001191 0.000000
0.000489 -0.007599 0.000000
-0.000140 -0.001423 0.000000
0.000684 -0.010384 0.000000
0.001679 -0.001987 0.000000
0.000038 -0.001100 0.000000
-0.000044 -0.002233 0.000000
0.000318 -0.008766 0.000000
0.000484 -0.005614 0.000000
0.003239 -0.004760 0.000000
0.000998 -0.000805 0.000000
0.001200 -0.010669 0.000000
0.000087 -0.000958 0.000000
0.001418 -0.004109 0.000000
0.000301 -0.007236 0.000000
0.000469 -0.007931 0.000000
0.001650 -0.000785 0.000000
0.000454 -0.007901 0.000000
0.000166 -0.006398 0.000000
0.003101 -0.003800 0.000000
0.000597 -0.010265 0.000000
-0.000090 -0.002356 0.000000
0.000692 -0.009428 0.000000
0.001408 -0.009695 0.000000
-0.000073 -0.008844 0.000000
0.000097 -0.001159 0.000000
0.000324 -0.007601 0.000000
0.000303 -0.004800 0.000000
0.000121 -0.001171 0.000000
0.000334 -0.009175 0.000000
0.000330 -0.008164 0.000000
0.000125 -0.000618 0.000000
0.001484 -0.000776 0.000000
-0.000029 -0.005363 0.000000
0.000196 -0.000604 0.000000
0.000357 -0.009803 0.000000
0.002512 -0.002456 0.000000
0.001546 -0.003959 0.000000
0.000815 -0.010139 0.000000
0.001241 -0.010844 0.000000
0.000124 -0.003292 0.000000
0.000449 -0.001134 0.000000
0.003049 -0.004397 0.000000
0.001603 -0.000939 0.000000
0.003005 -0.006411 0.000000
0.001527 -0.004299 0.000000
0.002755 -0.008650 0.000000
0.000482 -0.005268 0.000000
0.000076 -0.001171 0.000000
0.000833 -0.002236 0.000000
0.000270 -0.009935 0.000000
0.001238 -0.010735 0.000000
0.000062 -0.001265 0.000000
0.000931 -0.000691 0.000000
0.000971 -0.010495 0.000000
0.000417 -0.000707 0.000000
0.000379 -0.006493 0.000000
0.000135 -0.000793 0.000000
0.000069 -0.000639 0.000000
0.000349 -0.006392 0.000000
0.000062 -0.000861 0.000000
0.000093 -0.000682 0.000000
0.002266 -0.002298 0.000000
0.000366 -0.003892 0.000000
0.000428 -0.000684 0.000000
0.003160 -0.005193 0.000000
0.002436 -0.008674 0.000000
0.000140 -0.002645 0.000000
0.000389 -0.006698 0.000000
0.000310 -0.002623 0.000000
0.001468 -0.010335 0.000000
0.000576 -0.005695 0.000000
0.001494 -0.000804 0.000000
0.000338 -0.009866 0.000000
0.001233 -0.003218 0.000000
0.000084 -0.000523 0.000000
0.000184 -0.002997 0.000000
0.000225 -0.001057 0.000000
0.000700 -0.009734 0.000000
0.001630 -0.003453 0.000000
0.003333 -0.004911 0.000000
0.001441 -0.003711 0.000000
0.000505 -0.009245 0.000000
0.000351 -0.003001 0.000000
0.002382 -0.003614 0.000000
0.000782 -0.000644 0.000000
0.000181 -0.000760 0.000000
0.001478 -0.002353 0.000000
0.001168 -0.010658 0.000000
0.001205 -0.000827 0.000000
-0.000387 -0.004424 0.000000
0.001402 -0.010556 0.000000
0.000484 -0.004899 0.000000
0.000300 -0.000642 0.000000
0.003155 -0.004139 0.000000
0.000338 -0.008514 0.000000
0.000511 -0.004241 0.000000
-0.000132 -0.004058 0.000000
0.000456 -0.004121 0.000000
0.000263 -0.001296 0.000000
0.001438 -0.010305 0.000000
0.000143 -0.000971 0.000000
0.002521 -0.009062 0.000000
0.000277 -0.009866 0.000000
0.000065 -0.000710 0.000000
0.003376 -0.006695 0.000000
0.002991 -0.007768 0.000000
0.000740 -0.010003 0.000000
0.002662 -0.002112 0.000000
0.002816 -0.004903 0.000000
0.002207 -0.001134 0.000000
0.001252 -0.003569 0.000000
0.002750 -0.007023 0.000000
0.002156 -0.006680 0.000000
0.000115 -0.008340 0.000000
0.002744 -0.008321 0.000000
0.001710 -0.000837 0.000000
0.001255 -0.002395 0.000000
0.001620 -0.000777 0.000000
0.000287 -0.006557 0.000000
0.002510 -0.002396 0.000000
0.000897 -0.001084 0.000000
-0.000291 -0.005720 0.000000
0.002410 -0.009147 0.000000
0.003276 -0.006800 0.000000
0.001253 -0.010803 0.000000
0.000608 -0.000436 0.000000
0.000859 -0.002700 0.000000
0.000879 -0.010253 0.000000
0.000438 -0.009296 0.000000
0.001884 -0.005003 0.000000
0.000245 -0.000527 0.000000
0.002129 -0.001759 0.000000
0.000963 -0.001159 0.000000
0.000071 -0.000388 0.000000
0.003027 -0.002941 0.000000
0.002897 -0.004168 0.000000
-0.000350 -0.001640 0.000000
0.000574 -0.002689 0.000000
0.001084 -0.001523 0.000000
-0.000076 -0.004525 0.000000
-0.000292 -0.000742 0.000000
0.000903 -0.010245 0.000000
0.000603 -0.000977 0.000000
0.000621 -0.005708 0.000000
0.000747 -0.000949 0.000000
0.003332 -0.005180 0.000000
0.000343 -0.008878 0.000000
0.000615 -0.006172 0.000000
0.001417 -0.005547 0.000000
0.000690 -0.005967 0.000000
0.002133 -0.001449 0.000000
0.000310 -0.007468 0.000000
0.002627 -0.002798 0.000000
0.001799 -0.006053 0.000000
0.000739 -0.006866 0.000000
0.002539 -0.002498 0.000000
0.001275 -0.005293 0.000000
0.000243 -0.007581 0.000000
0.002152 -0.001321 0.000000
-0.000198 -0.006013 0.000000
0.000123 -0.006510 0.000000
0.000297 -0.007878 0.000000
0.000242 -0.007616 0.000000
-0.000100 -0.005662 0.000000
0.001126 -0.005001 0.000000
0.000148 -0.000960 0.000000
0.001834 -0.001098 0.000000
0.003052 -0.007253 0.000000
0.000302 -0.007859 0.000000
0.003080 -0.007172 0.000000
0.000285 -0.006150 0.000000
0.000391 -0.007406 0.000000
-0.000173 -0.006293 0.000000
0.002524 -0.002482 0.000000
0.002026 -0.001567 0.000000
0.002703 -0.002631 0.000000
0.000256 -0.006259 0.000000
0.002546 -0.002515 0.000000
0.000137 -0.000923 0.000000
0.003333 -0.004782 0.000000
0.002847 -0.002792 0.000000
0.000286 -0.007488 0.000000
0.001743 -0.003057 0.000000
0.001838 -0.009837 0.000000
0.003028 -0.007612 0.000000
0.000307 -0.007838 0.000000
0.000144 -0.000959 0.000000
0.001897 -0.001147 0.000000
0.003179 -0.007320 0.000000
0.001147 -0.010113 0.000000
0.003221 -0.004948 0.000000
0.003244 -0.005062 0.000000
0.001719 -0.002820 0.000000
0.001001 -0.010234 0.000000
0.000262 -0.007689 0.000000
0.001829 -0.009840 0.000000
0.000134 -0.000952 0.000000
0.002033 -0.009592 0.000000
0.002794 -0.002849 0.000000
0.000259 -0.009908 0.000000
0.001323 -0.000843 0.000000
0.002165 -0.009488 0.000000
0.001145 -0.007233 0.000000
0.000263 -0.009830 0.000000
0.002582 -0.002834 0.000000
-0.000198 -0.005915 0.000000
0.002819 -0.002683 0.000000
0.000358 -0.006224 0.000000
0.001928 -0.006575 0.000000
0.001601 -0.003667 0.000000
0.001349 -0.000762 0.000000
0.000319 -0.009837 0.000000
0.001440 -0.000786 0.000000
0.001420 -0.000830 0.000000
0.002208 -0.003247 0.000000
0.000299 -0.006626 0.000000
0.002462 -0.002471 0.000000
0.000276 -0.009831 0.000000
0.000844 -0.004992 0.000000
0.000424 -0.007512 0.000000
0.003317 -0.005028 0.000000
0.000501 -0.006089 0.000000
0.002099 -0.001195 0.000000
0.000483 -0.007371 0.000000
0.000188 -0.006722 0.000000
-0.000103 -0.006556 0.000000
0.000561 -0.009175 0.000000
0.001208 -0.002573 0.000000
0.000610 -0.009273 0.000000
0.001430 -0.003451 0.000000
0.000445 -0.005957 0.000000
0.003294 -0.006827 0.000000
0.000315 -0.009873 0.000000
0.001628 -0.003997 0.000000
0.000293 -0.007893 0.000000
0.002121 -0.009484 0.000000
0.000624 -0.009275 0.000000
0.003348 -0.004781 0.000000
0.001967 -0.001482 0.000000
0.003327 -0.005110 0.000000
0.002212 -0.009371 0.000000
0.001737 -0.009967 0.000000
0.002258 -0.009383 0.000000
0.000348 -0.005666 0.000000
0.001515 -0.003405 0.000000
0.001191 -0.002560 0.000000
0.001365 -0.010534 0.000000
0.001314 -0.003184 0.000000
0.002081 -0.009320 0.000000
0.002545 -0.002777 0.000000
0.001542 -0.002631 0.000000
0.001778 -0.001059 0.000000
0.001923 -0.001161 0.000000
0.000382 -0.007713 0.000000
0.000124 -0.008359 0.000000
0.003116 -0.006760 0.000000
0.003068 -0.006492 0.000000
0.000157 -0.000951 0.000000
0.000124 -0.000932 0.000000
0.002281 -0.009315 0.000000
0.002629 -0.007768 0.000000
0.003314 -0.005150 0.000000
0.001613 -0.005739 0.000000
0.000497 -0.009001 0.000000
0.003356 -0.004748 0.000000
0.002177 -0.009225 0.000000
0.001347 -0.010603 0.000000
0.002066 -0.009550 0.000000
0.000919 -0.000943 0.000000
0.000207 -0.006561 0.000000
0.002407 -0.003204 0.000000
0.000456 -0.006374 0.000000
0.002719 -0.006913 0.000000
0.003092 -0.006609 0.000000
0.003363 -0.006987 0.000000
-0.000045 -0.006689 0.000000
0.000130 -0.000946 0.000000
0.002591 -0.002575 0.000000
0.000509 -0.004207 0.000000
0.001533 -0.010191 0.000000
0.003272 -0.007116 0.000000
0.002548 -0.008037 0.000000
0.001976 -0.006350 0.000000
0.000164 -0.000968 0.000000
0.001253 -0.002620 0.000000
0.000358 -0.007511 0.000000
0.000522 -0.003686 0.000000
0.001398 -0.010578 0.000000
0.000162 -0.000964 0.000000
0.002781 -0.007725 0.000000
0.002823 -0.002748 0.000000
0.001465 -0.010495 0.000000
0.002477 -0.007968 0.000000
0.001913 -0.001160 0.000000
0.003063 -0.006743 0.000000
0.000414 -0.005990 0.000000
0.000336 -0.009840 0.000000
0.002788 -0.006909 0.000000
0.003110 -0.007018 0.000000
0.000357 -0.007747 0.000000
0.000893 -0.010212 0.000000
0.000492 -0.006486 0.000000
0.001174 -0.010422 0.000000
0.000097 -0.006747 0.000000
0.000275 -0.009923 0.000000
0.003523 -0.005117 0.000000
0.000019 -0.005488 0.000000
0.000350 -0.000624 0.000000
0.003205 -0.005110 0.000000
0.000399 -0.000666 0.000000
0.003147 -0.006984 0.000000
0.001324 -0.001290 0.000000
0.000269 -0.002979 0.000000
0.000134 -0.006729 0.000000
0.001680 -0.006820 0.000000
0.000856 -0.005319 0.000000
0.000774 -0.005728 0.000000
0.000396 -0.007586 0.000000
0.002820 -0.006796 0.000000
0.003093 -0.007449 0.000000
0.001244 -0.002340 0.000000
0.000779 -0.010049 0.000000
0.002297 -0.009268 0.000000
0.002156 -0.009480 0.000000
0.002126 -0.001608 0.000000
0.001231 -0.000810 0.000000
-0.000043 -0.004286 0.000000
0.001191 -0.002474 0.000000
0.000175 -0.002856 0.000000
0.001546 -0.003907 0.000000
0.002309 -0.003385 0.000000
0.003251 -0.004698 0.000000
0.003280 -0.004667 0.000000
0.003331 -0.004923 0.000000
0.000541 -0.009132 0.000000
0.000716 -0.009838 0.000000
0.001347 -0.010636 0.000000
0.000125 -0.000916 0.000000
0.000324 -0.000572 0.000000
0.003095 -0.006268 0.000000
0.000315 -0.007772 0.000000
0.001394 -0.010437 0.000000
0.001674 -0.003817 0.000000
0.002789 -0.008493 0.000000
0.000046 -0.004005 0.000000
0.003262 -0.005100 0.000000
0.001391 -0.000865 0.000000
0.003030 -0.006950 0.000000
0.001567 -0.007160 0.000000
0.002539 -0.002704 0.000000
0.002500 -0.002552 0.000000
0.000396 -0.004022 0.000000
0.000240 -0.008257 0.000000
0.001866 -0.006630 0.000000
0.002897 -0.007774 0.000000
0.001277 -0.005034 0.000000
0.002636 -0.003672 0.000000
0.001536 -0.002912 0.000000
0.000129 -0.001547 0.000000
0.002534 -0.002508 0.000000
0.000569 -0.009185 0.000000
0.001505 -0.001425 0.000000
0.000969 -0.010246 0.000000
0.001587 -0.010322 0.000000
0.000144 -0.000925 0.000000
0.000878 -0.004753 0.000000
0.000234 -0.009895 0.000000
0.001699 -0.003990 0.000000
0.001360 -0.001373 0.000000
0.000192 -0.006789 0.000000
0.001130 -0.001059 0.000000
0.000141 -0.000964 0.000000
0.000188 -0.000809 0.000000
0.000861 -0.009882 0.000000
0.003254 -0.004775 0.000000
-0.000051 -0.004418 0.000000
0.000160 -0.000967 0.000000
0.000489 -0.005921 0.000000
0.003180 -0.005151 0.000000
0.000016 -0.008336 0.000000
0.002603 -0.002846 0.000000
-0.000065 -0.002307 0.000000
0.000246 -0.000882 0.000000
0.000263 -0.000974 0.000000
0.000831 -0.005153 0.000000
0.002602 -0.003233 0.000000
0.000650 -0.005447 0.000000
0.002075 -0.001650 0.000000
0.001862 -0.001135 0.000000
0.002045 -0.001170 0.000000
0.001219 -0.001806 0.000000
0.003239 -0.004883 0.000000
0.003229 -0.006011 0.000000
0.001951 -0.002955 0.000000
0.000642 -0.009325 0.000000
0.000623 -0.009553 0.000000
0.002003 -0.001572 0.000000
0.000218 -0.002556 0.000000
0.001305 -0.010374 0.000000
0.001227 -0.001398 0.000000
0.003311 -0.004638 0.000000
-0.000242 -0.006149 0.000000
0.002048 -0.009544 0.000000
0.000350 -0.007877 0.000000
0.000751 -0.009982 0.000000
0.000671 -0.009476 0.000000
0.002879 -0.003310 0.000000
0.000847 -0.010106 0.000000
0.000250 -0.007474 0.000000
0.003377 -0.006895 0.000000
0.002723 -0.002848 0.000000
0.000340 -0.009228 0.000000
0.000088 -0.001138 0.000000
0.001397 -0.001314 0.000000
0.000832 -0.004915 0.000000
0.002219 -0.003187 0.000000
0.003347 -0.004695 0.000000
0.002865 -0.007889 0.000000
0.000128 -0.000910 0.000000
0.000359 -0.004546 0.000000
0.000693 -0.009387 0.000000
0.000192 -0.005392 0.000000
0.000400 -0.010050 0.000000
0.002790 -0.008559 0.000000
0.001477 -0.000810 0.000000
0.000502 -0.009046 0.000000
0.002560 -0.002867 0.000000
0.000456 -0.010154 0.000000
0.000743 -0.009888 0.000000
0.000399 -0.007834 0.000000
0.000720 -0.009793 0.000000
0.002671 -0.005276 0.000000
0.001636 -0.010065 0.000000
0.001444 -0.000763 0.000000
0.000059 -0.000978 0.000000
0.000982 -0.010238 0.000000
0.000884 -0.007226 0.000000
0.002948 -0.007602 0.000000
0.001437 -0.003761 0.000000
0.003238 -0.005535 0.000000
0.000267 -0.009827 0.000000
0.001320 -0.010185 0.000000
0.000543 -0.006837 0.000000
0.002928 -0.002851 0.000000
-0.000396 -0.004182 0.000000
0.002836 -0.002786 0.000000
0.000382 -0.006022 0.000000
0.000069 -0.005669 0.000000
0.001361 -0.000867 0.000000
0.001020 -0.009927 0.000000
0.003133 -0.005976 0.000000
0.001349 -0.003572 0.000000
0.000152 -0.000940 0.000000
0.003000 -0.002933 0.000000
0.000787 -0.004900 0.000000
-0.000257 -0.005764 0.000000
0.000304 -0.007906 0.000000
0.002181 -0.001198 0.000000
0.002915 -0.004120 0.000000
0.000155 -0.000965 0.000000
0.002621 -0.002144 0.000000
0.002997 -0.007429 0.000000
-0.000025 -0.005924 0.000000
0.000327 -0.009066 0.000000
0.001820 -0.001137 0.000000
0.001703 -0.001040 0.000000
-0.000172 -0.006427 0.000000
0.001741 -0.005808 0.000000
0.003274 -0.004683 0.000000
0.002543 -0.002529 0.000000
0.000882 -0.009251 0.000000
0.000445 -0.007876 0.000000
0.000253 -0.009877 0.000000
0.000136 -0.008192 0.000000
0.001548 -0.010153 0.000000
-0.000018 -0.008255 0.000000
0.002522 -0.007132 0.000000
0.001203 -0.010698 0.000000
0.001890 -0.001275 0.000000
0.000056 -0.000673 0.000000
0.000182 -0.008443 0.000000
0.000221 -0.000878 0.000000
0.000356 -0.007380 0.000000
0.000198 -0.009855 0.000000
0.000468 -0.008950 0.000000
0.000123 -0.001098 0.000000
-0.000222 -0.005699 0.000000
0.000256 -0.001413 0.000000
0.003037 -0.003734 0.000000
0.001769 -0.001062 0.000000
-0.000075 -0.009007 0.000000
0.000129 -0.002179 0.000000
0.000329 -0.001017 0.000000
0.003240 -0.005676 0.000000
0.002792 -0.002659 0.000000
0.002863 -0.007841 0.000000
0.001565 -0.010203 0.000000
0.003409 -0.006763 0.000000
0.000692 -0.005596 0.000000
0.000292 -0.009904 0.000000
0.002653 -0.002096 0.000000
0.000334 -0.009471 0.000000
0.000803 -0.010270 0.000000
0.000247 -0.008334 0.000000
0.001268 -0.000851 0.000000
0.000130 -0.001084 0.000000
0.000959 -0.001245 0.000000
0.002347 -0.009159 0.000000
0.000478 -0.001022 0.000000
0.003390 -0.006934 0.000000
-0.000457 -0.003591 0.000000
0.000057 -0.000685 0.000000
0.001269 -0.010400 0.000000
0.002811 -0.007913 0.000000
0.000647 -0.009365 0.000000
0.002365 -0.009226 0.000000
0.000245 -0.002194 0.000000
0.003167 -0.005100 0.000000
0.001877 -0.009661 0.000000
0.000115 -0.003204 0.000000
0.002844 -0.002752 0.000000
0.002144 -0.001768 0.000000
0.000801 -0.009841 0.000000
0.002750 -0.007580 0.000000
0.000320 -0.000594 0.000000
0.001296 -0.002404 0.000000
-0.000086 -0.009128 0.000000
0.000400 -0.008882 0.000000
0.002921 -0.005753 0.000000
0.002859 -0.002871 0.000000
0.000156 -0.003294 0.000000
0.000574 -0.001141 0.000000
0.000434 -0.008934 0.000000
0.002551 -0.007321 0.000000
0.000353 -0.008440 0.000000
0.000214 -0.000427 0.000000
0.000837 -0.000901 0.000000
0.001076 -0.008941 0.000000
0.000917 -0.009824 0.000000
0.000612 -0.010276 0.000000
0.002125 -0.008701 0.000000
0.000531 -0.009021 0.000000
0.000622 -0.008660 0.000000
0.001387 -0.002596 0.000000
0.000377 -0.009323 0.000000
0.000177 -0.002079 0.000000
0.000076 -0.010327 0.000000
0.001037 -0.000992 0.000000
0.000382 -0.008833 0.000000
0.002622 -0.002575 0.000000
0.001284 -0.010297 0.000000
0.001509 -0.010280 0.000000
0.000381 -0.006215 0.000000
0.000398 -0.000677 0.000000
0.000321 -0.002750 0.000000
0.000704 -0.002310 0.000000
0.001096 -0.000926 0.000000
0.000139 -0.000792 0.000000
0.001215 -0.000766 0.000000
0.002817 -0.002703 0.000000
0.003118 -0.004371 0.000000
0.001110 -0.000940 0.000000
-0.000144 -0.006275 0.000000
0.000426 -0.001837 0.000000
0.001354 -0.008861 0.000000
0.002146 -0.001582 0.000000
0.001221 -0.007496 0.000000
0.000407 -0.000445 0.000000
0.001350 -0.010602 0.000000
0.002188 -0.003306 0.000000
0.000228 -0.001821 0.000000
0.000121 -0.001132 0.000000
0.000538 -0.003235 0.000000
0.000770 -0.009805 0.000000
0.000335 -0.001011 0.000000
0.002114 -0.003331 0.000000
0.000383 -0.001394 0.000000
0.000002 -0.003386 0.000000
0.000202 -0.004725 0.000000
0.000400 -0.010093 0.000000
0.000580 -0.000831 0.000000
0.000309 -0.009273 0.000000
0.001085 -0.004701 0.000000
0.002203 -0.001419 0.000000
0.003060 -0.003136 0.000000
0.000672 -0.009388 0.000000
0.000810 -0.010348 0.000000
0.003178 -0.005498 0.000000
0.000524 -0.000606 0.000000
0.000230 -0.008833 0.000000
0.000825 -0.000909 0.000000
0.000329 -0.007834 0.000000
0.002017 -0.002718 0.000000
0.000303 -0.009907 0.000000
0.000114 -0.010211 0.000000
0.000310 -0.006726 0.000000
0.001961 -0.003246 0.000000
0.000320 -0.007731 0.000000
0.001675 -0.009041 0.000000
0.000079 -0.000968 0.000000
0.000142 -0.010177 0.000000
0.002686 -0.006349 0.000000
0.001925 -0.002135 0.000000
0.002647 -0.001988 0.000000
0.002015 -0.005942 0.000000
0.001377 -0.010348 0.000000
0.000288 -0.007677 0.000000
0.000841 -0.002322 0.000000
0.000507 -0.009020 0.000000
0.002129 -0.003088 0.000000
0.001312 -0.010653 0.000000
0.000175 -0.010136 0.000000
0.000178 -0.000579 0.000000
0.000932 -0.010189 0.000000
0.000452 -0.004118 0.000000
0.000445 -0.004956 0.000000
0.002714 -0.008617 0.000000
0.003335 -0.005079 0.000000
0.001639 -0.008945 0.000000
0.000490 -0.005377 0.000000
0.000089 -0.002689 0.000000
0.001925 -0.009725 0.000000
0.003160 -0.004227 0.000000
0.003050 -0.007478 0.000000
0.000346 -0.009810 0.000000
0.000889 -0.010165 0.000000
0.001641 -0.010150 0.000000
0.003353 -0.004564 0.000000
0.003065 -0.003644 0.000000
0.000187 -0.000638 0.000000
0.000382 -0.010102 0.000000
0.000096 -0.010260 0.000000
0.002900 -0.008060 0.000000
0.000510 -0.001004 0.000000
0.001079 -0.002315 0.000000
0.000369 -0.000584 0.000000
0.003039 -0.003062 0.000000
0.003173 -0.007389 0.000000
0.000934 -0.010233 0.000000
0.000274 -0.009886 0.000000
0.001581 -0.001834 0.000000
0.001917 -0.009431 0.000000
0.002528 -0.002485 0.000000
0.003152 -0.004008 0.000000
0.000374 -0.006045 0.000000
0.003373 -0.004649 0.000000
0.001758 -0.002082 0.000000
0.000344 -0.003412 0.000000
0.000201 -0.000679 0.000000
0.000053 -0.000629 0.000000
0.003114 -0.003417 0.000000
0.002367 -0.007944 0.000000
0.000163 -0.001069 0.000000
0.001934 -0.005317 0.000000
0.000573 -0.009332 0.000000
0.000076 -0.009681 0.000000
0.002313 -0.008437 0.000000
0.003059 -0.003266 0.000000
0.000045 -0.004722 0.000000
0.000159 -0.008504 0.000000
0.000337 -0.003313 0.000000
0.000607 -0.000843 0.000000
0.001827 -0.001114 0.000000
0.000953 -0.000700 0.000000
0.001559 -0.010272 0.000000
0.000057 -0.000662 0.000000
0.000169 -0.006633 0.000000
0.003112 -0.005557 0.000000
0.002857 -0.003331 0.000000
0.001352 -0.004935 0.000000
0.001267 -0.010706 0.000000
0.001672 -0.001075 0.000000
0.002647 -0.006936 0.000000
0.001047 -0.000939 0.000000
0.000032 -0.000581 0.000000
0.001595 -0.010147 0.000000
0.000448 -0.010101 0.000000
0.000301 -0.007863 0.000000
0.002961 -0.007366 0.000000
0.001536 -0.001257 0.000000
0.000343 -0.008851 0.000000
0.001526 -0.001395 0.000000
0.000990 -0.000950 0.000000
0.000344 -0.005046 0.000000
0.002524 -0.002482 0.000000
0.000331 -0.007959 0.000000
0.001172 -0.000788 0.000000
0.000104 -0.002322 0.000000
0.002429 -0.002401 0.000000
0.000109 -0.006983 0.000000
0.000689 -0.000377 0.000000
0.000183 -0.000827 0.000000
0.000548 -0.006708 0.000000
-0.000031 -0.002250 0.000000
0.001319 -0.000919 0.000000
0.000817 -0.000902 0.000000
0.002457 -0.009045 0.000000
0.000298 -0.008352 0.000000
-0.000048 -0.009333 0.000000
0.001831 -0.002601 0.000000
0.000520 -0.009331 0.000000
0.002384 -0.006046 0.000000
0.000397 -0.004299 0.000000
0.000831 -0.010189 0.000000
0.001236 -0.010841 0.000000
0.000426 -0.001124 0.000000
0.000513 -0.010165 0.000000
0.002964 -0.004989 0.000000
0.001628 -0.004404 0.000000
0.000298 -0.003695 0.000000
0.000332 -0.002975 0.000000
0.000085 -0.001159 0.000000
0.002686 -0.006043 0.000000
0.000273 -0.003305 0.000000
0.000185 -0.001183 0.000000
0.000418 -0.001412 0.000000
0.000327 -0.003347 0.000000
0.000099 -0.010245 0.000000
0.000066 -0.000907 0.000000
0.003085 -0.007078 0.000000
0.000177 -0.000618 0.000000
0.000296 -0.008422 0.000000
0.000007 -0.002066 0.000000
0.000236 -0.003563 0.000000
0.001734 -0.001343 0.000000
0.000921 -0.010266 0.000000
0.003126 -0.005613 0.000000
0.000297 -0.000798 0.000000
-0.000250 -0.001184 0.000000
0.000606 -0.006015 0.000000
0.000048 -0.000528 0.000000
0.002915 -0.003358 0.000000
0.002379 -0.005937 0.000000
0.000437 -0.000301 0.000000
0.000748 -0.006018 0.000000
0.001759 -0.006560 0.000000
0.001923 -0.001290 0.000000
0.000297 -0.007869 0.000000
0.000371 -0.007684 0.000000
0.000813 -0.005842 0.000000
0.000901 -0.005562 0.000000
0.000294 -0.007530 0.000000
0.001875 -0.001158 0.000000
0.002555 -0.002520 0.000000
0.000250 -0.007631 0.000000
0.001828 -0.006493 0.000000
0.000285 -0.007856 0.000000
0.003332 -0.007040 0.000000
0.002575 -0.002574 0.000000
0.002550 -0.002605 0.000000
0.002724 -0.002808 0.000000
0.000221 -0.006178 0.000000
0.003112 -0.007197 0.000000
-0.000153 -0.005992 0.000000
0.001940 -0.001164 0.000000
0.003247 -0.004735 0.000000
0.003032 -0.007443 0.000000
0.000291 -0.007825 0.000000
0.000144 -0.000954 0.000000
0.003007 -0.007524 0.000000
0.001817 -0.009874 0.000000
0.002595 -0.002792 0.000000
0.000598 -0.006663 0.000000
0.002025 -0.003240 0.000000
0.000856 -0.009975 0.000000
0.003186 -0.005046 0.000000
0.001645 -0.010106 0.000000
0.002800 -0.002682 0.000000
0.000160 -0.000960 0.000000
0.002534 -0.002538 0.000000
0.000804 -0.010040 0.000000
0.000516 -0.009046 0.000000
0.000249 -0.005681 0.000000
0.000077 -0.006665 0.000000
0.000399 -0.007550 0.000000
0.000127 -0.000931 0.000000
0.000903 -0.005210 0.000000
0.000353 -0.007815 0.000000
0.000291 -0.009898 0.000000
0.000159 -0.000965 0.000000
0.001464 -0.002825 0.000000
0.000812 -0.010074 0.000000
0.001018 -0.004838 0.000000
0.003248 -0.004835 0.000000
0.000146 -0.000933 0.000000
0.001209 -0.010351 0.000000
0.000144 -0.006436 0.000000
0.001785 -0.001082 0.000000
0.003352 -0.006903 0.000000
0.001565 -0.003892 0.000000
0.001478 -0.003753 0.000000
0.003330 -0.004896 0.000000
0.000242 -0.009875 0.000000
0.000907 -0.007063 0.000000
0.000268 -0.009850 0.000000
0.000353 -0.005910 0.000000
0.001867 -0.001128 0.000000
0.001957 -0.006398 0.000000
0.001003 -0.009934 0.000000
0.000889 -0.005059 0.000000
0.001284 -0.002429 0.000000
0.002454 -0.002426 0.000000
0.002098 -0.001579 0.000000
0.000606 -0.009232 0.000000
0.002922 -0.007811 0.000000
0.002069 -0.009552 0.000000
0.000422 -0.007391 0.000000
0.001157 -0.001068 0.000000
0.000260 -0.006505 0.000000
0.000132 -0.000945 0.000000
0.000529 -0.009096 0.000000
0.001357 -0.001245 0.000000
0.003283 -0.005102 0.000000
0.001924 -0.009729 0.000000
0.000282 -0.009906 0.000000
0.001045 -0.010267 0.000000
0.003267 -0.004736 0.000000
0.001562 -0.006980 0.000000
0.000665 -0.009351 0.000000
0.000545 -0.009129 0.000000
0.003257 -0.004729 0.000000
0.000289 -0.007703 0.000000
0.001274 -0.002645 0.000000
0.001418 -0.003368 0.000000
0.001297 -0.001220 0.000000
0.002117 -0.003139 0.000000
0.001271 -0.001180 0.000000
0.002733 -0.007888 0.000000
0.000305 -0.007788 0.000000
0.000548 -0.009141 0.000000
0.001378 -0.000848 0.000000
0.002559 -0.002746 0.000000
0.001245 -0.010324 0.000000
0.000675 -0.009353 0.000000
0.002646 -0.007857 0.000000
0.002920 -0.007689 0.000000
0.001672 -0.003911 0.000000
0.000371 -0.006497 0.000000
0.001281 -0.007330 0.000000
0.001567 -0.003567 0.000000
0.000435 -0.006045 0.000000
0.000301 -0.009892 0.000000
0.002911 -0.007777 0.000000
0.002538 -0.002509 0.000000
0.002547 -0.002513 0.000000
0.003234 -0.007217 0.000000
0.003187 -0.005081 0.000000
0.000323 -0.007903 0.000000
0.002020 -0.006525 0.000000
0.003262 -0.005061 0.000000
0.003131 -0.007038 0.000000
0.003320 -0.005074 0.000000
0.002844 -0.002772 0.000000
0.000245 -0.007645 0.000000
0.000681 -0.009582 0.000000
0.000335 -0.009832 0.000000
0.000058 -0.008278 0.000000
0.002346 -0.002366 0.000000
0.000683 -0.009722 0.000000
0.000933 -0.009874 0.000000
0.000238 -0.006683 0.000000
0.000252 -0.007670 0.000000
0.001936 -0.009710 0.000000
0.001495 -0.010382 0.000000
0.001242 -0.000787 0.000000
0.000462 -0.007360 0.000000
0.002103 -0.003071 0.000000
0.002151 -0.009453 0.000000
0.001264 -0.000826 0.000000
0.003227 -0.005063 0.000000
0.001908 -0.001154 0.000000
0.002842 -0.002827 0.000000
0.001417 -0.003667 0.000000
0.003118 -0.006897 0.000000
0.001421 -0.003275 0.000000
0.001227 -0.005181 0.000000
0.001285 -0.000765 0.000000
0.000278 -0.002718 0.000000
0.000485 -0.007393 0.000000
0.001008 -0.001118 0.000000
0.000241 -0.009888 0.000000
0.002152 -0.001387 0.000000
0.002754 -0.006766 0.000000
0.000173 -0.008255 0.000000
0.001884 -0.001139 0.000000
0.003304 -0.004691 0.000000
0.003124 -0.007426 0.000000
0.000880 -0.004878 0.000000
-0.000161 -0.005749 0.000000
0.002019 -0.009438 0.000000
0.001244 -0.002575 0.000000
0.000911 -0.010238 0.000000
0.001856 -0.002928 0.000000
0.001428 -0.000776 0.000000
0.000497 -0.009005 0.000000
0.000139 -0.000957 0.000000
0.000493 -0.003408 0.000000
0.000253 -0.007539 0.000000
0.001321 -0.003135 0.000000
0.002471 -0.003749 0.000000
0.000897 -0.010188 0.000000
0.002821 -0.002724 0.000000
0.003015 -0.007344 0.000000
0.003347 -0.006782 0.000000
0.001191 -0.002542 0.000000
0.001588 -0.002714 0.000000
0.002211 -0.003015 0.000000
0.002290 -0.009257 0.000000
0.000141 -0.000926 0.000000
0.000335 -0.007445 0.000000
0.001939 -0.001433 0.000000
0.000129 -0.000917 0.000000
0.000299 -0.009840 0.000000
0.002889 -0.006794 0.000000
0.002008 -0.001541 0.000000
-0.000208 -0.005814 0.000000
0.002562 -0.002817 0.000000
0.002054 -0.001182 0.000000
0.002656 -0.002800 0.000000
0.002612 -0.002798 0.000000
0.003141 -0.007033 0.000000
0.002128 -0.009544 0.000000
0.000330 -0.001025 0.000000
0.001622 -0.010082 0.000000
0.003330 -0.004752 0.000000
0.001817 -0.001082 0.000000
0.003333 -0.004812 0.000000
0.000170 -0.008386 0.000000
0.000857 -0.004999 0.000000
-0.000124 -0.006474 0.000000
0.001488 -0.002587 0.000000
0.002548 -0.002830 0.000000
0.002278 -0.009289 0.000000
0.000509 -0.006156 0.000000
0.001344 -0.005420 0.000000
0.001325 -0.003242 0.000000
0.001646 -0.010084 0.000000
-0.000090 -0.006633 0.000000
0.000667 -0.006761 0.000000
0.000230 -0.006356 0.000000
0.000956 -0.010206 0.000000
0.000257 -0.009836 0.000000
0.001499 -0.005681 0.000000
0.001180 -0.005085 0.000000
0.000064 -0.003593 0.000000
0.001072 -0.004923 0.000000
0.001701 -0.005892 0.000000
0.000291 -0.007903 0.000000
0.003185 -0.005030 0.000000
0.000425 -0.006656 0.000000
0.001766 -0.001099 0.000000
0.001627 -0.003760 0.000000
0.002145 -0.001260 0.000000
0.000516 -0.009100 0.000000
0.000132 -0.000920 0.000000
0.000583 -0.009225 0.000000
0.000201 -0.006446 0.000000
0.003236 -0.004891 0.000000
0.001569 -0.010200 0.000000
0.001381 -0.000763 0.000000
0.000152 -0.000961 0.000000
0.002475 -0.003202 0.000000
0.000273 -0.007697 0.000000
0.001231 -0.010155 0.000000
-0.000150 -0.006385 0.000000
0.002639 -0.008025 0.000000
0.002811 -0.007967 0.000000
0.000328 -0.009857 0.000000
0.003090 -0.006458 0.000000
0.002000 -0.006304 0.000000
0.000450 -0.003814 0.000000
0.001122 -0.010367 0.000000
0.000049 -0.008974 0.000000
0.002732 -0.007656 0.000000
0.000239 -0.003182 0.000000
0.000926 -0.010226 0.000000
0.000698 -0.009395 0.000000
0.001018 -0.001509 0.000000
0.000065 -0.000943 0.000000
0.000413 -0.007499 0.000000
0.001457 -0.000810 0.000000
0.001002 -0.001196 0.000000
-0.000199 -0.006105 0.000000
0.001727 -0.009959 0.000000
0.001580 -0.003523 0.000000
0.002826 -0.002766 0.000000
0.000408 -0.009282 0.000000
0.001406 -0.002144 0.000000
0.003370 -0.006945 0.000000
0.003319 -0.007068 0.000000
0.001708 -0.003835 0.000000
0.000473 -0.006012 0.000000
0.001450 -0.000797 0.000000
0.003574 -0.005436 0.000000
0.000022 -0.004305 0.000000
0.002639 -0.002602 0.000000
0.000435 -0.004402 0.000000
0.000416 -0.008904 0.000000
0.003078 -0.006393 0.000000
0.000310 -0.007639 0.000000
0.001990 -0.001513 0.000000
0.003165 -0.006932 0.000000
0.001206 -0.000787 0.000000
0.000096 -0.001133 0.000000
0.000323 -0.009382 0.000000
-0.000193 -0.006199 0.000000
0.001999 -0.001168 0.000000
0.000180 -0.001408 0.000000
0.000087 -0.002344 0.000000
0.002461 -0.008055 0.000000
0.003288 -0.005721 0.000000
0.003361 -0.004737 0.000000
0.000478 -0.008962 0.000000
0.000918 -0.000905 0.000000
0.000363 -0.010081 0.000000
0.002363 -0.009184 0.000000
0.000754 -0.009940 0.000000
0.002216 -0.009471 0.000000
0.003536 -0.005045 0.000000
-0.000436 -0.003402 0.000000
0.000406 -0.006476 0.000000
0.000434 -0.002009 0.000000
0.003016 -0.002977 0.000000
0.000163 -0.000968 0.000000
0.002913 -0.005265 0.000000
0.000409 -0.005741 0.000000
0.001848 -0.009760 0.000000
0.002083 -0.009206 0.000000
0.000294 -0.000552 0.000000
0.000157 -0.000965 0.000000
0.003177 -0.005935 0.000000
0.000378 -0.000650 0.000000
0.000774 -0.010318 0.000000
0.002814 -0.008311 0.000000
0.003140 -0.005586 0.000000
0.001973 -0.009627 0.000000
0.002033 -0.006068 0.000000
0.000380 -0.008493 0.000000
0.000060 -0.000689 0.000000
0.002213 -0.003164 0.000000
0.002678 -0.006810 0.000000
0.003159 -0.003919 0.000000
0.001532 -0.008741 0.000000
0.003094 -0.006593 0.000000
0.000160 -0.000957 0.000000
0.001511 -0.010235 0.000000
0.000410 -0.010069 0.000000
0.000143 -0.001096 0.000000
-0.000026 -0.005603 0.000000
0.002865 -0.003337 0.000000
0.000358 -0.000599 0.000000
0.002801 -0.008542 0.000000
0.000278 -0.008293 0.000000
0.003126 -0.006151 0.000000
0.003223 -0.007162 0.000000
0.002636 -0.003425 0.000000
0.001152 -0.000934 0.000000
0.002008 -0.002548 0.000000
0.000440 -0.004677 0.000000
0.000205 -0.002249 0.000000
0.001217 -0.008995 0.000000
0.002511 -0.007247 0.000000
0.002637 -0.007677 0.000000
0.003343 -0.004616 0.000000
0.002885 -0.002802 0.000000
0.000262 -0.009870 0.000000
0.000110 -0.001071 0.000000
0.001678 -0.008836 0.000000
0.002093 -0.009529 0.000000
0.003610 -0.005359 0.000000
0.002378 -0.004708 0.000000
0.000003 -0.006745 0.000000
0.001174 -0.000938 0.000000
0.001602 -0.010321 0.000000
0.000757 -0.004812 0.000000
0.000154 -0.000946 0.000000
0.003346 -0.004788 0.000000
0.003249 -0.006870 0.000000
0.001443 -0.007325 0.000000
0.000268 -0.009839 0.000000
0.000017 -0.008278 0.000000
0.000251 -0.002123 0.000000
0.000570 -0.006323 0.000000
0.001216 -0.010445 0.000000
0.002630 -0.006524 0.000000
0.001169 -0.002385 0.000000
0.000165 -0.000968 0.000000
0.002497 -0.007884 0.000000
0.000140 -0.000919 0.000000
0.001271 -0.001275 0.000000
0.001338 -0.010639 0.000000
-0.000455 -0.003240 0.000000
0.000334 -0.000595 0.000000
0.000126 -0.000939 0.000000
0.002859 -0.006927 0.000000
0.002406 -0.002811 0.000000
0.000117 -0.001103 0.000000
0.000733 -0.009866 0.000000
0.003054 -0.007532 0.000000
0.000230 -0.005252 0.000000
0.000395 -0.008889 0.000000
0.001393 -0.001446 0.000000
0.000032 -0.008381 0.000000
0.000952 -0.004678 0.000000
0.000446 -0.010162 0.000000
0.000066 -0.010359 0.000000
0.003071 -0.006955 0.000000
0.002966 -0.002897 0.000000
0.000415 -0.007832 0.000000
0.003000 -0.006799 0.000000
0.000334 -0.000591 0.000000
0.002769 -0.003854 0.000000
0.000113 -0.001120 0.000000
-0.000417 -0.003335 0.000000
0.000562 -0.003994 0.000000
0.000161 -0.000969 0.000000
0.000492 -0.006291 0.000000
0.003073 -0.006626 0.000000
0.001406 -0.010543 0.000000
0.000400 -0.007745 0.000000
0.001252 -0.001279 0.000000
0.000404 -0.000652 0.000000
0.000126 -0.003855 0.000000
0.000687 -0.009396 0.000000
0.000123 -0.000916 0.000000
0.002052 -0.008787 0.000000
0.000432 -0.004192 0.000000
0.000245 -0.000925 0.000000
0.000798 -0.010214 0.000000
0.000993 -0.000935 0.000000
0.003087 -0.005655 0.000000
0.000348 -0.009823 0.000000
0.000385 -0.010080 0.000000
0.003088 -0.004460 0.000000
0.000090 -0.001152 0.000000
0.001399 -0.005629 0.000000
0.000805 -0.006675 0.000000
0.000875 -0.005894 0.000000
0.001717 -0.006401 0.000000
0.002628 -0.002751 0.000000
0.001253 -0.005396 0.000000
0.002012 -0.001502 0.000000
0.000963 -0.005631 0.000000
0.002659 -0.002756 0.000000
0.000738 -0.006564 0.000000
0.000090 -0.006419 0.000000
0.001890 -0.001134 0.000000
-0.000013 -0.005733 0.000000
-0.000121 -0.006339 0.000000
-0.000137 -0.006247 0.000000
0.002564 -0.002539 0.000000
0.003309 -0.004812 0.000000
0.001852 -0.001100 0.000000
0.003267 -0.006900 0.000000
0.002113 -0.001278 0.000000
0.003198 -0.007288 0.000000
0.001057 -0.005046 0.000000
0.001678 -0.005961 0.000000
0.001995 -0.001475 0.000000
0.002605 -0.002749 0.000000
0.000140 -0.000931 0.000000
0.003249 -0.005016 0.000000
0.001541 -0.006792 0.000000
0.002567 -0.002579 0.000000
0.003063 -0.007449 0.000000
0.000254 -0.007688 0.000000
0.001633 -0.002809 0.000000
-0.000086 -0.005805 0.000000
0.001368 -0.000777 0.000000
0.000154 -0.000949 0.000000
0.000393 -0.007457 0.000000
0.002062 -0.001206 0.000000
0.000973 -0.010185 0.000000
0.002818 -0.002775 0.000000
0.002116 -0.001333 0.000000
0.001855 -0.009831 0.000000
0.003224 -0.004892 0.000000
-0.000079 -0.006519 0.000000
0.002829 -0.002756 0.000000
0.000263 -0.007714 0.000000
0.000133 -0.000926 0.000000
0.001411 -0.000790 0.000000
0.002556 -0.002536 0.000000
0.003177 -0.006997 0.000000
0.000479 -0.006230 0.000000
0.000073 -0.005634 0.000000
0.001001 -0.004982 0.000000
0.000556 -0.009144 0.000000
0.001604 -0.010139 0.000000
0.000446 -0.007427 0.000000
0.000870 -0.010111 0.000000
0.002074 -0.009592 0.000000
0.000934 -0.010190 0.000000
0.001549 -0.003608 0.000000
0.002653 -0.002624 0.000000
0.000319 -0.009855 0.000000
0.000520 -0.009057 0.000000
0.003206 -0.005032 0.000000
0.000856 -0.010097 0.000000
0.000564 -0.009153 0.000000
0.000536 -0.009104 0.000000
0.003328 -0.004847 0.000000
0.000613 -0.006389 0.000000
0.000474 -0.006165 0.000000
0.001470 -0.003660 0.000000
0.002088 -0.003241 0.000000
0.003343 -0.004817 0.000000
0.000255 -0.006077 0.000000
0.000974 -0.009967 0.000000
0.001574 -0.003723 0.000000
0.003240 -0.004839 0.000000
0.000924 -0.005308 0.000000
0.002116 -0.001534 0.000000
0.000312 -0.009874 0.000000
0.003070 -0.007533 0.000000
0.000501 -0.009018 0.000000
0.001876 -0.006267 0.000000
0.000335 -0.006503 0.000000
0.001657 -0.010055 0.000000
0.001467 -0.002612 0.000000
0.002541 -0.002505 0.000000
0.000296 -0.007754 0.000000
0.000633 -0.009279 0.000000
0.000249 -0.009869 0.000000
0.002827 -0.002707 0.000000
0.003281 -0.005059 0.000000
0.003279 -0.004729 0.000000
0.001047 -0.001008 0.000000
0.002944 -0.007709 0.000000
0.001165 -0.010257 0.000000
0.000428 -0.007485 0.000000
0.002979 -0.007605 0.000000
0.001839 -0.001119 0.000000
0.001286 -0.002553 0.000000
0.000288 -0.009887 0.000000
0.000370 -0.007738 0.000000
0.000379 -0.007604 0.000000
0.003081 -0.007279 0.000000
0.002560 -0.002528 0.000000
0.001713 -0.010011 0.000000
0.003139 -0.007121 0.000000
0.001885 -0.006449 0.000000
0.001336 -0.002438 0.000000
0.000250 -0.007662 0.000000
-0.000144 -0.005885 0.000000
0.002560 -0.002677 0.000000
0.000295 -0.007802 0.000000
-0.000151 -0.006086 0.000000
0.000158 -0.000956 0.000000
0.002515 -0.002500 0.000000
0.000308 -0.006367 0.000000
0.000160 -0.000963 0.000000
0.001497 -0.003485 0.000000
0.003344 -0.006953 0.000000
0.000331 -0.007842 0.000000
0.000872 -0.005085 0.000000
0.000129 -0.000925 0.000000
0.000177 -0.005572 0.000000
0.001901 -0.003169 0.000000
0.000155 -0.000962 0.000000
0.000151 -0.000941 0.000000
0.000258 -0.009848 0.000000
0.000683 -0.006198 0.000000
0.002051 -0.001591 0.000000
0.001915 -0.009746 0.000000
0.000289 -0.007871 0.000000
0.000148 -0.000956 0.000000
0.000257 -0.007591 0.000000
0.003278 -0.007146 0.000000
0.001324 -0.001285 0.000000
0.001965 -0.001168 0.000000
0.001848 -0.001114 0.000000
0.000198 -0.006274 0.000000
0.003242 -0.004762 0.000000
0.002066 -0.009591 0.000000
0.002578 -0.007936 0.000000
0.000893 -0.004985 0.000000
0.000318 -0.007509 0.000000
0.000946 -0.004809 0.000000
0.000136 -0.000949 0.000000
0.001288 -0.007123 0.000000
0.003301 -0.005064 0.000000
0.002137 -0.009437 0.000000
0.003087 -0.006869 0.000000
0.000305 -0.005795 0.000000
0.000329 -0.006035 0.000000
0.000306 -0.007735 0.000000
0.000226 -0.006614 0.000000
0.001445 -0.010474 0.000000
0.002834 -0.002754 0.000000
0.002758 -0.002658 0.000000
0.002196 -0.009422 0.000000
0.001308 -0.002665 0.000000
0.000287 -0.007841 0.000000
0.001351 -0.000847 0.000000
0.003045 -0.006833 0.000000
0.000895 -0.005066 0.000000
0.001181 -0.010383 0.000000
0.000242 -0.006749 0.000000
0.001345 -0.002713 0.000000
0.001463 -0.003381 0.000000
0.002986 -0.007705 0.000000
0.000579 -0.009187 0.000000
0.000538 -0.006571 0.000000
0.003191 -0.005000 0.000000
0.001080 -0.010007 0.000000
0.002577 -0.002778 0.000000
0.001647 -0.006632 0.000000
0.000110 -0.008281 0.000000
0.003056 -0.007360 0.000000
0.002795 -0.002809 0.000000
0.000809 -0.010000 0.000000
0.002137 -0.001215 0.000000
0.003068 -0.006441 0.000000
0.001018 -0.007143 0.000000
0.002930 -0.006926 0.000000
0.001786 -0.001066 0.000000
0.000917 -0.010188 0.000000
-0.000003 -0.006665 0.000000
0.000915 -0.010212 0.000000
0.003165 -0.007146 0.000000
0.003321 -0.004970 0.000000
0.000313 -0.007820 0.000000
0.000682 -0.009365 0.000000
0.000339 -0.009834 0.000000
0.003307 -0.005108 0.000000
0.000290 -0.009864 0.000000
0.000202 -0.008327 0.000000
0.002714 -0.007802 0.000000
0.000047 -0.008330 0.000000
0.000225 -0.002436 0.000000
0.002457 -0.003456 0.000000
0.000398 -0.006087 0.000000
0.002559 -0.002553 0.000000
0.000378 -0.003406 0.000000
0.001413 -0.003194 0.000000
0.000449 -0.007326 0.000000
0.000084 -0.008338 0.000000
0.001994 -0.003032 0.000000
0.001654 -0.004003 0.000000
0.000371 -0.000630 0.000000
0.001902 -0.001216 0.000000
0.000886 -0.010233 0.000000
0.001414 -0.003562 0.000000
0.000808 -0.006968 0.000000
0.001527 -0.003829 0.000000
0.002629 -0.003535 0.000000
0.003365 -0.006843 0.000000
0.000635 -0.009321 0.000000
0.000834 -0.010096 0.000000
0.001278 -0.000784 0.000000
0.000128 -0.000939 0.000000
0.003096 -0.006751 0.000000
0.001269 -0.000803 0.000000
0.002345 -0.009203 0.000000
0.001643 -0.003845 0.000000
0.000362 -0.007424 0.000000
0.000106 -0.006580 0.000000
0.001600 -0.003950 0.000000
0.001601 -0.002943 0.000000
0.003204 -0.005002 0.000000
0.000704 -0.009711 0.000000
0.001401 -0.000844 0.000000
-0.000035 -0.004011 0.000000
0.002707 -0.006677 0.000000
0.001317 -0.000763 0.000000
0.000202 -0.003300 0.000000
0.001042 -0.001151 0.000000
0.001141 -0.002476 0.000000
0.001924 -0.001158 0.000000
0.001903 -0.001156 0.000000
0.001311 -0.002062 0.000000
0.002822 -0.002704 0.000000
0.001295 -0.000837 0.000000
0.000526 -0.009084 0.000000
0.003420 -0.005105 0.000000
0.003322 -0.004720 0.000000
0.001594 -0.010172 0.000000
0.001319 -0.003067 0.000000
0.000273 -0.009912 0.000000
0.000515 -0.009052 0.000000
0.000910 -0.001007 0.000000
0.000425 -0.007674 0.000000
0.002554 -0.002867 0.000000
0.000098 -0.008895 0.000000
0.001566 -0.010147 0.000000
0.003183 -0.006949 0.000000
0.002516 -0.003707 0.000000
0.000655 -0.009321 0.000000
0.003333 -0.004667 0.000000
0.001780 -0.008809 0.000000
0.001235 -0.010042 0.000000
0.000433 -0.009303 0.000000
0.002500 -0.002460 0.000000
0.000098 -0.001038 0.000000
0.000048 -0.006688 0.000000
0.003065 -0.006300 0.000000
0.000267 -0.007500 0.000000
0.001260 -0.001158 0.000000
0.000247 -0.009902 0.000000
0.003190 -0.005109 0.000000
0.000189 -0.002491 0.000000
0.003266 -0.004742 0.000000
0.002912 -0.007797 0.000000
0.002541 -0.002501 0.000000
0.000000 -0.008220 0.000000
0.003108 -0.007100 0.000000
0.000326 -0.009285 0.000000
0.003042 -0.006619 0.000000
0.001108 -0.000935 0.000000
0.002826 -0.008400 0.000000
0.000398 -0.003127 0.000000
0.001930 -0.001233 0.000000
0.001951 -0.001168 0.000000
0.000889 -0.006467 0.000000
0.001997 -0.001423 0.000000
0.000305 -0.007568 0.000000
0.000261 -0.007643 0.000000
0.000292 -0.007832 0.000000
0.002629 -0.002709 0.000000
0.002074 -0.001293 0.000000
0.002576 -0.002556 0.000000
0.000155 -0.006192 0.000000
0.001934 -0.001160 0.000000
0.000358 -0.007707 0.000000
0.001486 -0.006626 0.000000
0.000277 -0.007816 0.000000
0.003140 -0.007216 0.000000
-0.000099 -0.006089 0.000000
-0.000009 -0.005861 0.000000
0.002789 -0.002739 0.000000
0.001883 -0.001138 0.000000
0.001047 -0.006944 0.000000
0.002088 -0.001428 0.000000
-0.000089 -0.006291 0.000000
0.003315 -0.006964 0.000000
0.000154 -0.000952 0.000000
0.003311 -0.004944 0.000000
0.001152 -0.005203 0.000000
0.000258 -0.007703 0.000000
0.003314 -0.004873 0.000000
0.000215 -0.005820 0.000000
0.000278 -0.007804 0.000000
0.000065 -0.005790 0.000000
-0.000065 -0.005927 0.000000
0.000959 -0.005254 0.000000
0.001645 -0.002960 0.000000
0.002574 -0.002575 0.000000
0.000144 -0.000949 0.000000
0.003235 -0.004798 0.000000
0.001319 -0.000821 0.000000
0.002770 -0.002684 0.000000
0.000379 -0.007580 0.000000
0.001512 -0.002854 0.000000
0.003113 -0.007295 0.000000
0.001346 -0.000827 0.000000
0.003281 -0.005020 0.000000
0.001901 -0.003023 0.000000
0.002567 -0.002543 0.000000
0.000338 -0.007784 0.000000
0.000134 -0.000942 0.000000
0.002966 -0.007716 0.000000
0.001735 -0.009998 0.000000
0.003094 -0.007480 0.000000
0.001875 -0.003115 0.000000
0.001306 -0.000801 0.000000
0.000147 -0.000940 0.000000
0.001909 -0.009770 0.000000
0.000878 -0.010046 0.000000
0.003325 -0.006910 0.000000
0.001009 -0.005076 0.000000
0.001483 -0.005754 0.000000
0.002020 -0.001188 0.000000
0.001958 -0.001425 0.000000
0.001036 -0.010221 0.000000
0.000745 -0.006268 0.000000
0.000265 -0.009894 0.000000
0.000932 -0.005126 0.000000
0.000435 -0.006253 0.000000
0.000133 -0.000932 0.000000
0.000391 -0.006386 0.000000
0.000023 -0.006609 0.000000
0.002761 -0.002752 0.000000
0.001907 -0.001145 0.000000
0.000112 -0.006342 0.000000
0.002576 -0.002637 0.000000
0.000815 -0.006065 0.000000
0.001589 -0.003882 0.000000
0.001916 -0.001153 0.000000
0.001051 -0.010028 0.000000
0.000297 -0.009881 0.000000
0.003230 -0.004831 0.000000
0.003304 -0.004777 0.000000
0.001853 -0.006326 0.000000
0.000070 -0.006495 0.000000
0.000608 -0.009239 0.000000
0.000862 -0.010120 0.000000
0.000542 -0.009102 0.000000
0.002040 -0.009645 0.000000
0.000390 -0.007776 0.000000
0.002551 -0.002532 0.000000
0.002834 -0.002734 0.000000
0.001786 -0.006350 0.000000
0.000272 -0.007550 0.000000
0.000327 -0.009852 0.000000
0.001874 -0.001122 0.000000
0.000367 -0.007466 0.000000
0.003230 -0.005016 0.000000
0.003204 -0.004956 0.000000
0.000913 -0.005066 0.000000
0.001829 -0.001084 0.000000
0.000324 -0.006435 0.000000
-0.000059 -0.006605 0.000000
0.002616 -0.002747 0.000000
0.003016 -0.007639 0.000000
0.001624 -0.003921 0.000000
0.002712 -0.002652 0.000000
0.002589 -0.002743 0.000000
0.000300 -0.009889 0.000000
0.000951 -0.010203 0.000000
0.001392 -0.001306 0.000000
0.001758 -0.009941 0.000000
0.001355 -0.002663 0.000000
0.003204 -0.004988 0.000000
0.002549 -0.002533 0.000000
0.001509 -0.002703 0.000000
0.003032 -0.007533 0.000000
0.001323 -0.005510 0.000000
0.000151 -0.000958 0.000000
0.001426 -0.000801 0.000000
0.000311 -0.007861 0.000000
0.000276 -0.007728 0.000000
0.000136 -0.000929 0.000000
0.003266 -0.005017 0.000000
0.001764 -0.002918 0.000000
0.003222 -0.006941 0.000000
0.000255 -0.009850 0.000000
0.003323 -0.004885 0.000000
0.000288 -0.007767 0.000000
0.003254 -0.004783 0.000000
0.002107 -0.001229 0.000000
0.002108 -0.009525 0.000000
0.001397 -0.000778 0.000000
0.003314 -0.004842 0.000000
-0.000100 -0.006432 0.000000
0.001064 -0.001070 0.000000
0.000285 -0.007867 0.000000
0.000897 -0.010153 0.000000
0.000103 -0.006643 0.000000
0.003248 -0.007200 0.000000
0.001129 -0.010292 0.000000
0.002033 -0.001529 0.000000
0.001485 -0.003560 0.000000
0.000516 -0.009055 0.000000
0.001898 -0.006214 0.000000
0.003288 -0.005143 0.000000
0.001572 -0.010158 0.000000
0.000944 -0.004936 0.000000
0.003341 -0.006997 0.000000
0.001392 -0.003291 0.000000
0.000160 -0.000965 0.000000
0.001239 -0.002448 0.000000
0.000662 -0.009329 0.000000
0.000471 -0.006302 0.000000
0.002939 -0.007804 0.000000
0.000422 -0.007437 0.000000
0.003208 -0.005068 0.000000
0.003301 -0.007107 0.000000
0.001114 -0.010332 0.000000
0.000140 -0.000954 0.000000
0.000126 -0.000925 0.000000
0.000290 -0.005986 0.000000
0.000541 -0.009106 0.000000
0.000910 -0.009940 0.000000
0.001992 -0.009645 0.000000
0.000250 -0.009866 0.000000
0.002185 -0.009328 0.000000
0.000171 -0.006362 0.000000
0.001254 -0.002619 0.000000
0.000925 -0.005416 0.000000
0.001427 -0.007153 0.000000
0.002010 -0.001173 0.000000
0.002794 -0.007814 0.000000
0.001434 -0.002533 0.000000
0.002013 -0.009627 0.000000
0.000279 -0.009875 0.000000
0.000926 -0.010199 0.000000
0.000260 -0.002088 0.000000
0.000459 -0.007427 0.000000
-0.000156 -0.006163 0.000000
0.002606 -0.002597 0.000000
0.003308 -0.006857 0.000000
0.002667 -0.007940 0.000000
0.000187 -0.006655 0.000000
0.001205 -0.010226 0.000000
0.003262 -0.004723 0.000000
0.002832 -0.002849 0.000000
0.002222 -0.009368 0.000000
0.000108 -0.005489 0.000000
0.002826 -0.002743 0.000000
0.000377 -0.007636 0.000000
0.002114 -0.001388 0.000000
0.000460 -0.006090 0.000000
0.002328 -0.009238 0.000000
0.000152 -0.008323 0.000000
0.001527 -0.003474 0.000000
0.003163 -0.007263 0.000000
0.002982 -0.006906 0.000000
0.001967 -0.006529 0.000000
0.003161 -0.007055 0.000000
0.001808 -0.008712 0.000000
0.002078 -0.001605 0.000000
0.002698 -0.007727 0.000000
0.001314 -0.002687 0.000000
0.000908 -0.005765 0.000000
0.002515 -0.002481 0.000000
0.000371 -0.005803 0.000000
0.001300 -0.009935 0.000000
0.001526 -0.010412 0.000000
0.002948 -0.007677 0.000000
0.000992 -0.005748 0.000000
0.001390 -0.005697 0.000000
0.000948 -0.005930 0.000000
0.001243 -0.005474 0.000000
0.001944 -0.001165 0.000000
0.001657 -0.006252 0.000000
0.001909 -0.001141 0.000000
0.002654 -0.002641 0.000000
0.002588 -0.002615 0.000000
0.003308 -0.007051 0.000000
0.003194 -0.007069 0.000000
0.002609 -0.002694 0.000000
0.000056 -0.006319 0.000000
0.003280 -0.004838 0.000000
0.000978 -0.005365 0.000000
0.001721 -0.006212 0.000000
0.003207 -0.007255 0.000000
0.002726 -0.002717 0.000000
0.003164 -0.007231 0.000000
0.003291 -0.004870 0.000000
0.003256 -0.004968 0.000000
0.000001 -0.005990 0.000000
0.003254 -0.006958 0.000000
0.000366 -0.007518 0.000000
0.000945 -0.006610 0.000000
0.000038 -0.006396 0.000000
0.000061 -0.005920 0.000000
0.003261 -0.004777 0.000000
0.001399 -0.000807 0.000000
0.003285 -0.006969 0.000000
0.001394 -0.000827 0.000000
0.003293 -0.007098 0.000000
0.000893 -0.006137 0.000000
-0.000053 -0.006477 0.000000
0.002711 -0.002669 0.000000
0.003089 -0.007445 0.000000
0.001554 -0.002801 0.000000
0.003223 -0.004857 0.000000
0.000140 -0.000937 0.000000
0.001565 -0.002871 0.000000
0.001050 -0.005145 0.000000
0.000326 -0.007548 0.000000
0.001071 -0.010189 0.000000
0.000968 -0.010153 0.000000
0.001380 -0.006783 0.000000
0.000363 -0.007628 0.000000
0.002028 -0.001216 0.000000
0.001859 -0.001103 0.000000
0.000280 -0.007772 0.000000
0.000269 -0.007772 0.000000
0.000154 -0.000958 0.000000
0.002578 -0.002564 0.000000
0.001004 -0.010070 0.000000
0.002017 -0.001452 0.000000
-0.000101 -0.006187 0.000000
0.000390 -0.007507 0.000000
0.002671 -0.002717 0.000000
0.001344 -0.000806 0.000000
0.001982 -0.001402 0.000000
0.001927 -0.001155 0.000000
0.002078 -0.001352 0.000000
0.000262 -0.007726 0.000000
0.001947 -0.001303 0.000000
0.001307 -0.000780 0.000000
0.001547 -0.006476 0.000000
0.002993 -0.007622 0.000000
0.002008 -0.009643 0.000000
0.000211 -0.005966 0.000000
0.003286 -0.004972 0.000000
0.000423 -0.006155 0.000000
0.002804 -0.002721 0.000000
0.000139 -0.000947 0.000000
0.001772 -0.009951 0.000000
0.003223 -0.004978 0.000000
0.003208 -0.004930 0.000000
0.000304 -0.007825 0.000000
0.000056 -0.006569 0.000000
0.000148 -0.000952 0.000000
0.001658 -0.010092 0.000000
0.000285 -0.007585 0.000000
0.000284 -0.007836 0.000000
0.000257 -0.007679 0.000000
0.003147 -0.007381 0.000000
0.000137 -0.000934 0.000000
0.001424 -0.002763 0.000000
0.000875 -0.006785 0.000000
0.001820 -0.003022 0.000000
0.000637 -0.009296 0.000000
0.002619 -0.002705 0.000000
0.001522 -0.003744 0.000000
0.001986 -0.009695 0.000000
0.000906 -0.010149 0.000000
0.000950 -0.005144 0.000000
0.002080 -0.001514 0.000000
0.001387 -0.002609 0.000000
0.000178 -0.006090 0.000000
0.001979 -0.003141 0.000000
0.003300 -0.005011 0.000000
0.002574 -0.002550 0.000000
0.001813 -0.009895 0.000000
0.000585 -0.009192 0.000000
0.000150 -0.005723 0.000000
0.000672 -0.006469 0.000000
0.001586 -0.005817 0.000000
0.001966 -0.009711 0.000000
0.001157 -0.007032 0.000000
0.003170 -0.007139 0.000000
0.002828 -0.002727 0.000000
0.000262 -0.009872 0.000000
0.002565 -0.002556 0.000000
0.001199 -0.005295 0.000000
0.000376 -0.006301 0.000000
0.000249 -0.009856 0.000000
0.000305 -0.009860 0.000000
0.001106 -0.005122 0.000000
0.000253 -0.009887 0.000000
0.001910 -0.001178 0.000000
0.001689 -0.010039 0.000000
-0.000072 -0.006386 0.000000
0.000426 -0.006393 0.000000
0.000443 -0.006311 0.000000
0.003049 -0.007565 0.000000
0.003258 -0.004785 0.000000
0.001977 -0.001176 0.000000
0.003088 -0.007373 0.000000
0.001435 -0.000812 0.000000
0.000452 -0.007456 0.000000
0.001215 -0.001190 0.000000
0.000130 -0.000938 0.000000
0.000288 -0.007724 0.000000
0.000374 -0.007792 0.000000
0.003338 -0.006847 0.000000
0.001181 -0.001117 0.000000
0.000342 -0.007485 0.000000
-0.000103 -0.005991 0.000000
0.001938 -0.006441 0.000000
0.000562 -0.009146 0.000000
0.000857 -0.010071 0.000000
0.001978 -0.001451 0.000000
0.000910 -0.010156 0.000000
0.000277 -0.009894 0.000000
0.000955 -0.005055 0.000000
0.003298 -0.004740 0.000000
0.001291 -0.000817 0.000000
0.000151 -0.000946 0.000000
0.000162 -0.000966 0.000000
0.001986 -0.009647 0.000000
0.001603 -0.003822 0.000000
0.002107 -0.003202 0.000000
0.003245 -0.004789 0.000000
0.001776 -0.003061 0.000000
0.000144 -0.000934 0.000000
0.002477 -0.002452 0.000000
0.000307 -0.009873 0.000000
0.002968 -0.007737 0.000000
0.000277 -0.006572 0.000000
0.000931 -0.005163 0.000000
0.002574 -0.002725 0.000000
0.002721 -0.002768 0.000000
0.001858 -0.001110 0.000000
0.001425 -0.006961 0.000000
0.000143 -0.006281 0.000000
0.002958 -0.007704 0.000000
0.000869 -0.005701 0.000000
0.000523 -0.009069 0.000000
0.001982 -0.001338 0.000000
0.001066 -0.005825 0.000000
0.001950 -0.001249 0.000000
0.001036 -0.006403 0.000000
0.001030 -0.006013 0.000000
0.000315 -0.007606 0.000000
0.000287 -0.007796 0.000000
0.000298 -0.007790 0.000000
0.001043 -0.005598 0.000000
0.002618 -0.002672 0.000000
0.001997 -0.001351 0.000000
0.002589 -0.002583 0.000000
0.001413 -0.006468 0.000000
0.001912 -0.001158 0.000000
0.002041 -0.001308 0.000000
0.000267 -0.007693 0.000000
0.001595 -0.006109 0.000000
0.001139 -0.005292 0.000000
0.002612 -0.002662 0.000000
0.001474 -0.005818 0.000000
0.001007 -0.005307 0.000000
0.003275 -0.007028 0.000000
0.001938 -0.001161 0.000000
0.003224 -0.007084 0.000000
0.002579 -0.002578 0.000000
0.001988 -0.001195 0.000000
-0.000038 -0.006179 0.000000
0.000148 -0.000945 0.000000
0.001877 -0.001117 0.000000
-0.000004 -0.006300 0.000000
0.002584 -0.002574 0.000000
0.000274 -0.007789 0.000000
0.003261 -0.007124 0.000000
0.000103 -0.006118 0.000000
0.002049 -0.001370 0.000000
0.001001 -0.005149 0.000000
0.000362 -0.007601 0.000000
0.001894 -0.001130 0.000000
0.001578 -0.006319 0.000000
0.001378 -0.000795 0.000000
0.000909 -0.010133 0.000000
0.002595 -0.002661 0.000000
0.002590 -0.002596 0.000000
0.003052 -0.007533 0.000000
0.001037 -0.006741 0.000000
0.000263 -0.007724 0.000000
0.000924 -0.010017 0.000000
0.003223 -0.004933 0.000000
0.003264 -0.004908 0.000000
0.003242 -0.004827 0.000000
0.003006 -0.007630 0.000000
0.003308 -0.004918 0.000000
0.001760 -0.006170 0.000000
0.003275 -0.004964 0.000000
0.003120 -0.007369 0.000000
0.001313 -0.005584 0.000000
0.001196 -0.006806 0.000000
0.000145 -0.000945 0.000000
0.001571 -0.005882 0.000000
0.003151 -0.007352 0.000000
0.001883 -0.009825 0.000000
0.002577 -0.002572 0.000000
0.001672 -0.002904 0.000000
0.001849 -0.001101 0.000000
0.003279 -0.004783 0.000000
0.000821 -0.006352 0.000000
0.001415 -0.000816 0.000000
0.002755 -0.002703 0.000000
0.000271 -0.007767 0.000000
0.002070 -0.001244 0.000000
0.000365 -0.007656 0.000000
0.001448 -0.002704 0.000000
0.001000 -0.005487 0.000000
0.001104 -0.010138 0.000000
0.003295 -0.006913 0.000000
0.000157 -0.000959 0.000000
0.001373 -0.002520 0.000000
0.001383 -0.002746 0.000000
0.003313 -0.007006 0.000000
0.000275 -0.007745 0.000000
0.002810 -0.002705 0.000000
0.002022 -0.003108 0.000000
0.003295 -0.004900 0.000000
0.000320 -0.007808 0.000000
0.000348 -0.007520 0.000000
0.003216 -0.004894 0.000000
0.000279 -0.007830 0.000000
0.001442 -0.000824 0.000000
0.000398 -0.007529 0.000000
0.000131 -0.000933 0.000000
0.001941 -0.001367 0.000000
0.001290 -0.006942 0.000000
0.000355 -0.007759 0.000000
0.003256 -0.007167 0.000000
0.000272 -0.005894 0.000000
0.001000 -0.010135 0.000000
0.000949 -0.010182 0.000000
0.000582 -0.009196 0.000000
0.000151 -0.000955 0.000000
-0.000030 -0.006568 0.000000
0.002571 -0.002559 0.000000
0.000282 -0.007795 0.000000
0.003242 -0.004960 0.000000
0.000157 -0.000962 0.000000
0.001524 -0.003658 0.000000
0.001337 -0.000776 0.000000
0.000270 -0.007602 0.000000
0.000907 -0.010163 0.000000
0.001561 -0.003814 0.000000
0.001328 -0.000791 0.000000
0.001964 -0.001379 0.000000
0.001655 -0.006475 0.000000
0.003211 -0.007005 0.000000
0.001383 -0.005763 0.000000
0.001238 -0.005537 0.000000
0.001980 -0.001285 0.000000
0.001156 -0.005901 0.000000
0.000348 -0.007649 0.000000
0.000328 -0.007756 0.000000
0.000293 -0.007754 0.000000
0.002608 -0.002622 0.000000
0.002654 -0.002679 0.000000
0.001997 -0.001226 0.000000
0.001954 -0.001176 0.000000
0.001897 -0.001128 0.000000
0.001913 -0.001141 0.000000
0.000340 -0.007577 0.000000
0.002608 -0.002635 0.000000
0.001046 -0.005224 0.000000
0.001067 -0.005507 0.000000
0.001188 -0.006599 0.000000
-0.000028 -0.006432 0.000000
0.000022 -0.006229 0.000000
0.003257 -0.004875 0.000000
0.001560 -0.005941 0.000000
0.000275 -0.007641 0.000000
0.000085 -0.006227 0.000000
-0.000046 -0.006056 0.000000
0.002012 -0.001327 0.000000
0.002604 -0.002639 0.000000
0.003219 -0.007207 0.000000
0.001528 -0.006148 0.000000
0.000991 -0.006232 0.000000
0.001967 -0.001320 0.000000
0.003243 -0.007019 0.000000
0.002582 -0.002690 0.000000
0.003194 -0.007158 0.000000
-0.000002 -0.006520 0.000000
0.001934 -0.001197 0.000000
0.003282 -0.007061 0.000000
0.000140 -0.000942 0.000000
0.000981 -0.005212 0.000000
0.001372 -0.000815 0.000000
0.002588 -0.002579 0.000000
0.000270 -0.007747 0.000000
0.000293 -0.007624 0.000000
0.002043 -0.001489 0.000000
0.000944 -0.010087 0.000000
0.000153 -0.000954 0.000000
0.003170 -0.007291 0.000000
0.000128 -0.006000 0.000000
0.000149 -0.000950 0.000000
-0.000055 -0.006257 0.000000
0.001717 -0.002990 0.000000
0.001898 -0.009804 0.000000
0.001185 -0.005378 0.000000
0.002586 -0.002582 0.000000
0.001778 -0.006113 0.000000
0.001081 -0.005692 0.000000
0.000880 -0.010139 0.000000
0.001095 -0.005214 0.000000
0.003108 -0.007437 0.000000
0.003276 -0.004923 0.000000
0.003296 -0.004926 0.000000
0.001353 -0.000789 0.000000
0.003297 -0.004973 0.000000
0.000144 -0.000939 0.000000
0.003138 -0.007304 0.000000
0.001468 -0.006346 0.000000
0.000416 -0.007479 0.000000
0.001472 -0.002769 0.000000
0.001962 -0.001177 0.000000
0.000280 -0.007803 0.000000
0.000962 -0.005129 0.000000
0.000932 -0.006899 0.000000
0.000270 -0.007746 0.000000
0.002596 -0.002708 0.000000
0.000378 -0.007556 0.000000
0.000264 -0.007741 0.000000
0.003227 -0.004886 0.000000
0.003249 -0.004772 0.000000
0.001922 -0.001150 0.000000
0.001314 -0.002513 0.000000
0.001341 -0.006306 0.000000
0.001952 -0.001214 0.000000
0.001128 -0.005355 0.000000
0.001947 -0.001171 0.000000
0.001471 -0.005987 0.000000
0.001129 -0.006250 0.000000
0.001932 -0.001175 0.000000
0.000323 -0.007645 0.000000
0.002613 -0.002650 0.000000
0.000283 -0.007678 0.000000
0.001122 -0.005603 0.000000
0.001034 -0.005288 0.000000
0.000307 -0.007745 0.000000
0.001163 -0.005741 0.000000
0.002598 -0.002606 0.000000
0.002592 -0.002600 0.000000
0.002598 -0.002604 0.000000
0.002006 -0.001269 0.000000
0.002648 -0.002653 0.000000
0.001888 -0.001122 0.000000
0.001307 -0.005648 0.000000
0.003241 -0.004921 0.000000
0.000024 -0.006125 0.000000
0.001468 -0.005886 0.000000
0.000345 -0.007615 0.000000
0.001972 -0.001199 0.000000
0.002023 -0.001398 0.000000
0.000022 -0.006470 0.000000
0.001445 -0.006202 0.000000
0.002626 -0.002676 0.000000
-0.000043 -0.006341 0.000000
0.000351 -0.007679 0.000000
0.001664 -0.006021 0.000000
0.001821 -0.009896 0.000000
0.003259 -0.004828 0.000000
0.003214 -0.007174 0.000000
0.000136 -0.000939 0.000000
0.001080 -0.006539 0.000000
0.000138 -0.005873 0.000000
0.001928 -0.001153 0.000000
0.001324 -0.006627 0.000000
0.000363 -0.007563 0.000000
0.001033 -0.005410 0.000000
0.002061 -0.001553 0.000000
0.002619 -0.002616 0.000000
0.000151 -0.000950 0.000000
0.000312 -0.007779 0.000000
0.001369 -0.000833 0.000000
0.000343 -0.007729 0.000000
0.000917 -0.010117 0.000000
0.003181 -0.007242 0.000000
0.001093 -0.005282 0.000000
0.000156 -0.000956 0.000000
0.001876 -0.001114 0.000000
0.001960 -0.009738 0.000000
0.001324 -0.006126 0.000000
0.001082 -0.005432 0.000000
0.001386 -0.005845 0.000000
0.001255 -0.005865 0.000000
0.001964 -0.001200 0.000000
0.001231 -0.005597 0.000000
0.001069 -0.005308 0.000000
0.001203 -0.005650 0.000000
0.001187 -0.006397 0.000000
0.000335 -0.007702 0.000000
0.001930 -0.001156 0.000000
0.000279 -0.007763 0.000000
0.002613 -0.002643 0.000000
0.001004 -0.005218 0.000000
0.001967 -0.001270 0.000000
0.002035 -0.001256 0.000000
0.000305 -0.007703 0.000000
0.001914 -0.001142 0.000000
0.002599 -0.002606 0.000000
0.000064 -0.006030 0.000000
0.002591 -0.002601 0.000000
0.001644 -0.006075 0.000000
0.002701 -0.002684 0.000000
0.003241 -0.004878 0.000000
0.001178 -0.005439 0.000000
0.002588 -0.002598 0.000000
0.001126 -0.006080 0.000000
0.002057 -0.001437 0.000000
0.001990 -0.001282 0.000000
0.002603 -0.002624 0.000000
-0.000003 -0.006389 0.000000
0.003243 -0.007104 0.000000
0.000276 -0.007722 0.000000
0.001124 -0.005400 0.000000
0.001974 -0.001239 0.000000
0.001238 -0.006004 0.000000
0.001297 -0.005718 0.000000
0.001363 -0.005924 0.000000
0.001165 -0.005548 0.000000
0.000289 -0.007716 0.000000
0.000334 -0.007662 0.000000
0.000301 -0.007662 0.000000
0.001290 -0.006469 0.000000
0.001241 -0.005755 0.000000
0.001547 -0.005997 0.000000
0.002606 -0.002630 0.000000
0.002600 -0.002617 0.000000
0.000321 -0.007736 0.000000
0.001959 -0.001206 0.000000
0.001244 -0.006247 0.000000
0.001312 -0.005819 0.000000
0.001415 -0.006060 0.000000
0.001114 -0.005508 0.000000
0.001175 -0.005492 0.000000
0.001982 -0.001234 0.000000
0.001084 -0.005370 0.000000
0.000320 -0.007699 0.000000
0.001126 -0.005454 0.000000
0.001945 -0.001184 0.000000
0.001215 -0.006133 0.000000
0.001050 -0.005359 0.000000
0.001967 -0.001240 0.000000
0.001322 -0.005995 0.000000
0.000318 -0.001003 0.000000
0.000409 -0.008943 0.000000
0.000303 -0.009398 0.000000
0.000328 -0.001936 0.000000
0.001477 -0.001578 0.000000
0.000371 -0.009461 0.000000
0.000628 -0.000959 0.000000
0.002582 -0.002304 0.000000
0.003216 -0.005399 0.000000
0.000697 -0.009471 0.000000
0.002726 -0.002930 0.000000
-0.000120 -0.007066 0.000000
0.000392 -0.001009 0.000000
0.003194 -0.004521 0.000000
0.000619 -0.000956 0.000000
0.000088 -0.000478 0.000000
0.000339 -0.009899 0.000000
0.002576 -0.002889 0.000000
0.000834 -0.000918 0.000000
-0.000101 -0.004323 0.000000
0.000029 -0.000859 0.000000
0.000644 -0.005729 0.000000
0.002827 -0.002776 0.000000
0.000834 -0.004966 0.000000
0.001064 -0.010626 0.000000
VECTORS pstress float
-23.212139 -25.286329 8.761529
-5.998801 -8.618285 -1.344906
-1.661075 -0.263973 -0.026729
-4.020928 -1.227295 1.076679
-1.018065 -0.358635 0.351298
-0.287636 -0.202940 0.013015
-31.244731 -40.201250 -6.732189
-41.691321 -44.211285 -2.312020
-36.292078 -57.352986 11.189316
-36.819059 -69.247840 -2.925361
-38.644006 -72.976549 -1.203977
-35.820509 -54.151451 -5.290767
-37.495896 -45.706518 -6.701455
-20.987484 -42.590979 1.531503
-30.953547 -45.318127 -0.515369
-30.400159 -51.858325 -1.951059
-12.088201 -25.352353 1.759339
-21.434335 -27.506811 7.867355
-30.260986 -43.552611 7.933407
-28.230250 -47.630492 3.180499
-19.621850 -46.455156 2.170076
-19.703452 -42.364029 4.870567
-15.687893 -29.071090 4.665697
-14.287549 -30.279289 3.143357
-37.807022 -63.926199 9.294112
-33.643760 -47.051201 9.741160
-42.999291 -37.970364 10.979284
-31.305079 -39.656741 11.541305
-18.570432 -21.656103 7.030472
-16.255092 -19.252086 4.165397
-17.544370 -16.503560 4.998535
-23.016033 -21.057948 6.793137
-44.657205 -32.582626 14.732990
-28.864542 -48.717954 13.095741
-48.126156 -87.665651 3.649026
-42.191145 -77.643204 6.642547
-57.807478 -82.208977 -5.524645
-33.673132 -59.963666 2.490675
-31.501736 -46.180043 6.017036
-24.690038 -48.427830 3.469771
-21.773540 -43.498667 2.369917
-22.255850 -45.918314 -0.101641
-22.321624 -43.525330 1.092293
-26.860878 -55.899626 7.816622
-32.671375 -63.030437 9.167236
-6.744783 -15.177550 -1.311166
-9.052970 -18.224049 -0.204058
-11.219888 -34.201054 2.628374
-18.928615 -36.561099 1.355245
-21.998805 -39.724737 0.684515
-15.383626 -26.470472 -2.400798
-9.800774 -21.588360 0.671697
-4.664920 -14.108865 1.127185
-3.907299 -14.170190 -1.778388
-4.872663 -13.998230 -1.282986
-48.844577 -64.079219 6.073237
-42.020070 -75.118841 -5.754421
-52.609765 -95.411838 6.165222
-43.112094 -69.162581 -8.813815
-36.550328 -53.542806 2.027257
-30.906539 -50.664229 5.821163
-35.630016 -70.230242 -1.457506
-30.939615 -54.964996 -5.098695
-33.492396 -54.875905 -7.074705
-26.351487 -47.424837 9.764287
-26.997777 -49.120900 4.347331
-37.798727 -44.678288 10.950311
-23.528558 -37.014356 5.230134
-16.958530 -31.691861 5.015142
-13.434324 -28.527325 6.709378
-8.076896 -16.965039 2.643212
-13.776254 -13.370788 5.100962
-23.191481 -27.957277 8.228793
-39.911207 -38.997417 12.031783
-24.601546 -40.472765 6.656660
-47.027582 -55.788763 11.079670
-45.344592 -62.529107 9.175811
-67.817868 -115.096152 12.287435
-50.766399 -94.226376 -1.049086
-52.388334 -91.231131 13.708432
-43.562489 -68.721144 13.597007
-35.845631 -64.967381 6.291504
-33.519941 -63.315059 -3.378327
-46.946887 -64.704528 1.909477
-29.656466 -49.666451 -3.233312
-21.296598 -35.384298 -2.442111
-15.033110 -28.837654 2.402911
-9.976570 -23.385871 1.839637
-8.182761 -18.600126 1.381870
-13.646164 -26.711930 -2.313080
-13.713310 -22.338292 -3.004705
-19.515742 -31.399218 -0.787275
-21.860758 -42.237435 1.748657
-55.590143 -77.578535 11.083512
-47.491237 -78.191056 11.630358
-57.762392 -59.252202 2.141136
-41.879242 -80.802731 10.805672
-41.150930 -59.829760 8.911438
-34.874442 -62.836821 6.512495
-37.077256 -68.360259 7.776700
-26.333145 -56.434671 6.835492
-30.108638 -59.532393 7.696972
-45.495546 -71.060237 9.453623
-44.730952 -78.989150 11.275401
-33.439892 -61.186202 7.867850
-41.273502 -62.449063 8.349717
-37.933031 -81.135649 6.030425
-34.299836 -74.501866 -2.633463
-42.795706 -56.451891 0.981046
-36.256513 -53.888710 -4.128450
-31.760766 -52.598381 7.874258
-29.583333 -64.781802 3.907231
-30.946873 -50.917258 1.553583
-33.776863 -61.519393 3.417157
-37.126272 -49.355792 -2.766071
-7.506331 -9.176728 1.410541
-11.196810 -16.879262 3.539764
-14.011326 -35.074232 1.647885
-11.673114 -25.935142 -1.947659
-9.350988 -9.922814 1.057848
-7.480156 -5.995010 2.853989
-1.504671 -1.383915 0.452635
-0.388333 -1.274693 0.197902
-1.982160 -6.120530 -0.935483
-37.820332 -32.921519 10.045391
-34.251959 -45.515182 12.142187
-36.454368 -49.395444 12.851955
-48.473412 -27.425097 7.847952
-28.698823 -21.538998 9.515715
-16.868979 -14.692611 7.093955
-6.163184 -4.123861 2.722723
-16.660525 -8.653656 3.814625
-11.980762 -15.559069 -1.515476
-7.731571 -15.379199 1.030937
-3.195685 -10.134690 1.468117
-1.301661 -9.130478 0.727375
-1.373414 -8.600467 0.153985
-1.287083 -7.945073 -0.132700
-2.661391 -10.070969 -1.250208
-6.446512 -15.212274 -2.130870
-8.816483 -19.288641 1.434196
-10.225216 -22.824293 -1.834239
-11.367420 -27.134751 2.207942
-13.291838 -22.993872 -0.107483
-8.082178 -17.397634 0.072120
-7.868563 -16.702373 1.991934
-15.606267 -27.001333 3.116134
-15.734859 -34.271506 0.458265
-16.857863 -36.231172 -0.043574
-12.493629 -28.551535 -1.077981
-9.701132 -19.672667 0.476487
-9.416423 -17.123477 -0.338798
-5.590906 -11.409002 0.781160
-4.621391 -14.516880 1.018926
-5.721451 -17.741839 -0.171370
-22.821385 -15.649888 3.242993
-24.409095 -27.364354 9.644563
-26.822132 -35.923404 9.153937
-29.730980 -21.909639 6.182326
-28.407837 -17.842560 4.650925
-16.905620 -9.315441 3.836993
-5.013982 -1.737636 -0.062792
-16.426983 -5.326478 -0.971829
-9.042529 -19.125336 -0.478530
-7.981853 -11.046371 0.331149
-8.205246 -5.776146 1.717787
-3.560279 -2.054015 0.552235
-4.151370 -1.593098 -0.771790
-7.485534 -4.632339 -0.421362
-10.874045 -6.664693 1.186085
-8.546004 -11.984278 -0.075944
-17.829090 -16.580723 3.927543
-19.208590 -26.748049 0.036261
-19.013068 -14.025848 1.749907
-13.462123 -8.755610 2.104583
-10.257751 -7.132216 1.228562
-11.210139 -8.561490 -2.054622
-15.219730 -10.442212 2.301419
-18.277149 -12.953683 5.785127
-17.352950 -35.530107 -0.331037
-14.245856 -22.307347 2.882679
-13.327107 -18.904175 4.885907
-8.838790 -18.898558 0.840569
-8.432863 -18.500963 -1.026252
-9.797027 -20.641494 -1.693260
-10.240576 -20.418730 -2.471005
-12.237478 -18.577216 2.106512
-13.230704 -30.892352 0.748248
-19.864972 -40.747543 1.156767
-13.026752 -26.762170 0.646788
-51.683130 -90.985953 8.451420
-40.458229 -76.882677 -0.621628
-49.239998 -86.243942 -4.203201
-44.709295 -67.048432 5.768604
-46.545153 -79.428287 5.172039
-54.435099 -98.961212 2.400695
-48.234023 -64.219986 -4.520172
-53.215387 -80.346197 4.881237
-53.587852 -77.493270 -3.255683
-55.694449 -88.779020 1.659727
-52.287322 -78.055804 12.862916
-113.195058 -200.983531 12.899429
-53.299634 -97.797914 -1.248874
-51.136959 -78.290498 0.575583
-50.702409 -89.062509 7.272835
-41.128680 -76.456499 3.861870
-46.041061 -87.721443 1.610950
-44.407538 -82.877713 -4.378347
-42.862008 -79.017421 -3.661367
-21.192484 -39.780988 -2.911389
-24.509909 -38.071172 2.768162
-25.900380 -51.252974 -0.941340
-31.530760 -63.270467 0.659522
-24.227717 -47.280724 -1.470656
-19.776000 -28.744108 0.975881
-19.018871 -37.888754 2.839891
-16.692992 -35.136497 0.319192
-18.336586 -38.068091 -0.644885
-45.758325 -73.385887 9.897061
-52.307690 -61.281541 14.053502
-46.014957 -52.600878 18.300720
-41.690789 -66.782596 12.089157
-34.765647 -62.087591 7.925136
-32.760673 -61.672760 2.487493
-39.648735 -61.856237 1.681869
-42.590020 -56.187652 8.764798
-45.954752 -74.964097 12.360176
-54.452031 -87.411071 14.530868
-58.276260 -89.054223 16.520185
-30.220867 -56.584793 3.787986
-26.547379 -45.135649 1.453684
-26.841340 -32.069263 0.471583
-23.699837 -28.005646 4.441779
-18.164821 -27.291348 2.661996
-16.263766 -32.979052 3.218784
-16.005883 -32.907060 -2.066507
-23.855104 -41.744049 -0.261000
-18.898721 -33.219407 0.116989
-22.668449 -39.215500 3.234611
-28.989576 -50.406919 4.457639
-47.674739 -69.139469 -3.038978
-50.993221 -72.605682 7.210436
-50.448269 -87.995333 1.660063
-54.710384 -95.688634 -6.630469
-51.222350 -91.001623 -8.669762
-50.763142 -75.842326 -0.026240
-44.026725 -79.279548 -0.124199
-46.156522 -86.496337 -2.018941
-46.543216 -86.843149 -4.292201
-7.057331 -10.889553 1.127070
-7.825363 -15.676085 0.375679
-9.460966 -21.169681 0.674873
-9.841165 -19.840624 -1.285981
-7.003457 -15.409519 -2.667700
-3.220584 -11.316690 0.001643
-0.693516 -7.729436 0.628552
0.267433 -7.303909 0.011975
-1.041964 -7.827223 -0.988587
-3.649934 -10.357525 -1.108526
-7.882950 -7.057564 3.832373
-8.748100 -9.611878 4.872243
-12.549713 -14.627099 6.027924
-11.982294 -17.046175 5.898879
-10.105297 -18.529392 4.782997
-10.753215 -14.168604 4.939591
-8.004874 -8.275067 2.256262
-8.231294 -8.548820 4.245332
-10.065710 -8.953283 4.707335
-6.954537 -6.685945 3.613817
-6.993481 -7.288967 3.382704
-7.129977 -7.212935 3.469356
-37.412881 -73.149999 -0.548070
-27.795747 -51.094700 -0.031801
-28.109174 -44.323758 3.272165
-28.336914 -41.354918 4.593052
-25.847807 -47.141353 4.849472
-23.752124 -47.168791 -0.917066
-13.394585 -29.622356 -4.225205
-27.489414 -39.005128 -4.493725
-29.503870 -45.408837 0.985077
-27.958204 -55.251999 0.477568
-12.436277 -28.114370 1.319938
-15.196433 -32.754176 0.018015
-15.906193 -31.878098 -0.019322
-10.103808 -22.010421 1.563135
-6.701868 -17.599091 1.802085
-6.631927 -15.471109 0.863227
-8.632035 -20.528971 -1.281126
-10.733109 -21.165494 0.019246
-14.483977 -24.623435 5.861896
-14.444407 -28.134431 5.661113
-19.608495 -45.241430 5.467646
-25.986867 -42.803208 11.440384
-22.377345 -33.737275 5.499958
-8.888060 -13.262392 5.018530
-7.453853 -14.764184 4.567051
-7.196549 -15.351155 3.033191
-10.717489 -14.366744 2.505388
-11.120403 -16.077346 3.746084
-17.101574 -22.957904 4.295809
-15.033982 -28.595140 3.593221
-16.761396 -34.271589 3.527165
-17.459628 -36.351420 2.280939
-15.234609 -20.387108 0.103943
-15.025367 -20.231573 3.271430
-15.299222 -23.831091 4.712157
-11.622981 -23.205295 2.319584
-7.326761 -16.750459 0.431649
-12.454096 -21.221097 1.439835
-11.466742 -18.249420 4.779252
-11.949647 -25.491887 2.980403
-9.653642 -22.269389 1.503949
-8.956658 -19.489909 0.123799
-10.039457 -15.542581 2.887944
-6.032890 -10.720990 3.714999
-3.063437 -9.218886 1.805888
-2.007425 -5.402630 0.334581
-3.663782 -5.797338 0.589715
-5.539346 -5.089283 -0.431781
-8.167810 -9.538853 2.556527
-22.483172 -39.866981 6.414867
-19.296756 -36.233968 5.201208
-15.078310 -27.509829 1.227272
-18.597425 -25.170898 4.539122
-18.985233 -19.776185 6.281342
-15.862818 -21.060395 5.141053
-14.919813 -22.813696 2.942715
-12.851112 -18.329785 -0.750936
-10.896482 -15.392768 -1.361261
-14.404038 -20.764102 1.469324
-20.716226 -32.099861 5.605465
-50.791719 -69.810571 9.056650
-59.022454 -102.470513 5.415698
-58.785030 -104.079427 2.109800
-69.823765 -112.945113 -9.742230
-44.230663 -65.882128 -10.491458
-50.496574 -88.211579 -1.219713
-62.354900 -117.201117 2.181055
-53.051118 -99.974764 -2.032923
-53.451927 -89.415346 -3.700498
-54.791576 -90.925198 2.740708
-2.473518 -5.265092 -0.055284
-5.965387 -8.464913 4.125180
-8.458306 -18.757487 3.079952
-7.677059 -20.160593 -0.217648
-5.987286 -16.883851 -1.010478
-4.646858 -13.595853 -0.393209
-2.746559 -9.402004 1.883537
-1.978040 -7.384115 0.440731
-25.574283 -44.316355 4.774982
-28.189824 -53.284203 2.848441
-24.845821 -47.653922 0.768524
-22.086757 -38.282932 -5.977447
-28.508150 -33.288547 -2.106451
-21.019942 -40.692997 2.300646
-14.221990 -34.348861 0.549983
-16.127583 -33.676760 -1.207657
-21.017906 -41.325793 -1.955534
-22.174181 -41.366253 0.404927
-19.913658 -40.137294 2.969467
-6.726711 -7.341848 -2.518194
-6.333757 -9.015792 -0.276218
-7.684266 -15.428682 -1.490993
-8.469508 -17.411381 -2.839905
-5.920077 -12.858698 -1.476736
-3.382509 -5.533636 0.902436
-2.445287 -5.405948 0.092438
-1.913691 -4.454406 -0.808989
-4.338004 -5.954460 -1.719437
-19.369857 -14.992533 6.273020
-12.467359 -14.101286 6.105672
-12.356627 -12.376482 5.744093
-9.594932 -8.901630 4.955048
-7.923783 -4.775749 4.076415
-9.944175 -7.803330 4.697754
-17.114650 -15.257268 7.207950
-17.214853 -18.219731 7.326229
-22.849233 -37.059967 -2.438866
-17.045675 -34.737001 0.098853
-17.148283 -29.564289 -1.021557
-9.355125 -25.221974 1.527255
-17.131517 -36.900342 1.115991
-14.140824 -30.730135 -0.456467
-13.337817 -29.408677 0.190564
-13.588722 -19.918814 -0.340795
-14.253265 -26.862569 1.513091
-17.919710 -34.912115 3.911304
-17.680784 -36.641939 2.520379
-18.927308 -39.594046 1.837665
0.200729 -7.001450 -0.137651
-1.931133 -10.972766 0.328822
-3.802222 -13.268919 0.512765
-4.872075 -14.033177 1.374712
-6.887305 -17.162500 -0.131473
-4.109835 -10.428871 -1.951883
-1.582174 -8.651609 0.781899
0.363670 -5.945653 -0.221359
0.654053 -5.295186 -0.549580
-48.375578 -84.638664 3.435736
-60.712520 -78.837938 7.133848
-66.540894 -107.984993 4.060938
-62.895997 -108.473099 6.253701
-59.217425 -106.143744 6.997510
-52.876163 -87.092027 0.950389
-136.035085 -188.578793 30.576420
-49.941717 -92.409851 4.511170
-48.735508 -92.002900 2.586332
-31.563900 -36.279020 11.481765
-27.824139 -29.819944 9.962100
-27.822472 -28.168845 10.443499
-27.953268 -29.787568 9.961247
-18.297251 -23.814896 7.048993
-22.831824 -30.877982 9.217248
-15.806708 -22.111438 6.521660
-23.832800 -26.956864 9.030888
-25.273123 -28.449651 9.184150
-37.385624 -43.564342 13.654800
-57.303794 -88.470496 6.273512
-53.819648 -92.320019 4.760233
-56.179617 -101.647056 4.334991
-51.512674 -95.687435 -1.287631
-59.820731 -88.299432 -6.705679
-51.490642 -77.539895 4.539250
-57.720019 -92.597071 13.173009
-54.072717 -89.765019 12.810950
-50.169883 -84.445221 -0.695310
-57.276409 -101.317276 -4.933185
-61.427332 -107.608324 0.799694
-48.767058 -78.795922 6.139907
-46.155401 -84.099526 2.856671
-46.212045 -68.280612 -4.036767
-44.358291 -59.264338 9.064290
-36.899935 -130.321173 1.350855
-103.362193 -137.342818 -32.011582
-16.112149 -21.529031 7.519908
-15.861790 -26.187127 6.846790
-13.785429 -19.110849 6.158987
-12.032752 -14.811569 5.920784
-7.930350 -11.663322 4.176747
-10.016727 -10.347876 3.876520
-35.476448 -44.180965 12.503402
-33.078008 -50.412848 10.189126
-37.026588 -43.924104 11.841493
-45.903576 -51.284952 15.817621
-40.697237 -28.801546 8.649595
-42.745959 -34.402463 11.010545
-59.281889 -85.325664 -13.339927
-67.119531 -118.397211 6.953602
-67.136403 -117.890484 -9.565870
-70.496819 -100.757620 4.994151
-70.856014 -106.028756 13.076906
-58.517494 -105.680666 -6.653417
-12.440747 -14.340163 1.759787
-11.992894 -16.925503 -3.282767
-10.231068 -10.313577 -0.526957
-11.898643 -12.470788 3.320088
-10.627002 -9.648165 0.147645
-12.611155 -10.573521 2.799862
-2.048151 -2.862553 -0.998477
-1.422579 -8.079211 0.492782
-3.379338 -10.950408 -0.025086
-2.806401 -7.289527 -1.161208
-0.699457 -2.605570 0.336232
-1.129490 -1.969558 -0.558894
-4.949795 -1.495224 -0.805889
-8.687934 -4.729558 -0.398952
-10.612504 -12.066312 4.199345
-10.369775 -8.481879 -0.340894
-10.734398 -4.032937 0.691916
-3.048318 -1.288085 0.282252
-30.719405 -56.464821 5.650233
-25.625123 -31.261453 4.404949
-33.530192 -56.148112 7.955561
-46.112448 -94.104898 3.373026
-47.335852 -47.233986 2.432745
-36.484258 -63.954119 9.309486
-53.325681 -92.450125 -9.618073
-53.638186 -78.710673 0.724692
-56.104545 -103.714167 3.881022
-69.001038 -122.109698 -6.476950
-60.611092 -73.663585 5.333664
-55.315758 -101.052689 -3.095740
-42.233858 -65.854849 14.797616
-28.106698 -34.437904 10.294032
-27.841155 -29.229426 9.856850
-18.670557 -28.806984 5.408131
-15.417147 -17.470692 1.408764
-24.694207 -34.729734 9.159307
-1.161868 -8.581993 0.698644
-2.429410 -10.373646 -0.220284
-0.339773 -4.858433 -0.066042
1.123028 -1.900406 -0.062786
0.736348 -2.785589 -0.811017
1.134462 -3.457937 -0.612826
-6.889535 -25.914627 -1.369784
-4.507053 -14.933663 -3.533196
-4.400745 -19.122766 -2.888794
0.015660 -6.019003 -0.647232
0.100942 -11.464814 -1.108997
-2.985690 -13.739346 -2.507197
-75.201296 -103.842247 17.558108
-87.161035 -132.250892 26.419061
-78.651209 -125.036937 16.641492
-76.160364 -112.639029 14.527616
-66.918000 -119.309668 15.563293
-65.955896 -105.991165 15.666914
-76.000564 -131.473009 15.950841
-77.358744 -103.374580 3.404650
-66.364057 -89.725309 18.190754
-59.019902 -115.464735 5.167472
-60.798926 -109.491554 12.225508
-73.641101 -120.709741 20.821514
-21.994142 -48.444528 -3.590760
-29.157931 -52.117143 -3.214983
-36.375666 -72.901137 4.637243
-24.313686 -49.384014 1.105511
-26.131950 -32.725184 7.570274
-22.887292 -47.457732 3.757715
-62.912028 -59.577822 17.528544
-76.356729 -96.872458 27.291823
-64.519818 -77.549641 22.141672
-69.060946 -59.559931 21.088285
-61.473367 -61.034387 20.649225
-50.677815 -41.632883 1.616766
-16.531693 -11.884541 4.154806
-26.171706 -21.651420 10.694732
-16.723186 -30.099176 5.933539
-20.145078 -16.713065 4.405147
-14.854434 -16.023787 6.561149
-8.870008 -9.823680 2.745368
-33.566558 -68.079210 -5.785660
-38.205774 -65.767765 2.049625
-35.777431 -70.161546 1.843205
-33.291679 -60.575725 -8.210969
-34.057931 -49.348326 -3.041329
-30.230483 -57.159139 3.467437
-23.210009 -44.442319 -6.735288
-28.974354 -47.976450 -1.017384
-38.361886 -74.197602 6.087793
-31.546727 -59.368319 0.800030
-40.205017 -39.411163 7.560760
-22.729308 -48.345545 3.844090
-62.564090 -118.689516 5.118424
-63.948802 -112.012716 11.336086
-83.802859 -118.661121 27.477634
-67.951311 -97.489366 19.318480
-93.107728 -83.084138 26.105878
-65.904364 -107.333478 19.388686
-92.726273 -119.352063 23.259314
-82.008005 -142.803516 3.189190
-65.755439 -125.631921 -5.962132
-64.739468 -115.372551 10.061141
-63.742625 -117.216918 11.855406
-59.529833 -108.413709 -0.083978
-66.324615 -105.947587 2.881784
-87.466538 -76.499315 -3.241448
-71.600154 -77.453044 7.397911
-43.460390 -109.905140 7.213604
-46.652236 -78.698122 0.439228
-68.825126 -104.409717 15.246444
-8.187659 -21.582648 -3.768841
-8.833750 -20.823748 0.536003
-14.425583 -38.781792 0.637515
-12.015250 -31.271177 -6.122955
-9.346882 -23.582996 -4.120846
-6.222562 -19.178462 0.009004
-13.976145 -36.936853 1.247144
-8.218464 -19.581067 0.302375
-4.954354 -20.774970 2.219429
-4.494626 -19.279738 0.513623
-5.119930 -17.958163 0.859548
-8.079160 -26.484425 1.853596
-34.202467 -69.239599 2.392563
-43.953851 -89.526001 -4.761054
-41.755884 -83.590870 -5.056966
-36.062150 -75.324552 1.909836
-30.797112 -64.500033 0.496290
-37.119198 -65.383013 4.709394
-117.268380 -194.609097 6.233550
-149.825354 -267.669469 18.794283
-112.497760 -279.550237 0.597492
-139.737111 -202.156245 27.275831
-100.302653 -136.107070 12.475220
-106.458743 -193.240961 -7.474106
-24.343843 -42.791318 -0.834642
-30.716749 -43.073891 2.484587
-29.873822 -61.181727 0.429106
-33.091314 -69.748073 0.267974
-95.577486 -178.674894 10.258269
-96.242930 -181.683546 -1.392662
-106.292171 -163.868827 -4.199211
-94.834858 -151.177291 9.187524
-108.282059 -166.126341 -0.800481
-93.413679 -160.334590 -7.494515
-138.520088 -234.213374 14.149831
-123.807368 -227.939887 6.325891
-99.466573 -161.944016 10.375476
-98.883532 -182.165902 12.219923
-93.973677 -178.183508 5.639176
-67.240333 -171.022594 -0.555351
-63.806326 -158.663434 -8.160157
-95.428922 -129.375760 10.479078
-51.483903 -94.718248 4.882304
-58.590853 -113.666408 5.744812
-53.085137 -81.480338 1.550861
-51.470095 -65.068265 2.743787
-40.847441 -61.288674 7.639675
-43.051127 -71.467924 -0.784435
-49.051896 -82.832595 7.034197
-139.717024 -191.211331 9.225857
-96.475076 -163.310879 5.826145
-104.110122 -181.261103 -6.522381
-91.508867 -154.722729 -0.047219
-14.633027 -26.344752 1.775426
-17.342901 -37.210536 0.880777
-23.265277 -46.200331 -0.643267
-5.162295 -21.320083 1.279831
-0.198864 -13.633769 0.823490
-17.147517 -17.174856 9.392743
-15.521576 -15.546187 7.171741
-19.752139 -23.043533 10.510052
-23.611418 -23.451647 11.809386
-23.259875 -35.651006 11.312143
-22.949267 -32.603970 8.775656
-25.165056 -29.108613 9.718610
-21.308089 -21.133173 10.191908
-18.996949 -19.756566 9.826879
-10.759871 -8.051706 5.302720
-10.142344 -8.202351 5.107448
-10.564955 -7.245723 3.363011
-45.273753 -68.600678 -0.028851
-35.614304 -70.229701 -0.870041
-29.688400 -51.008220 1.698339
-24.128960 -42.874484 3.526927
-22.473276 -40.210656 4.340715
-21.245850 -40.968500 1.775304
-24.277321 -46.714406 -1.950089
-24.045770 -36.491269 -4.654316
-33.401289 -51.605947 -2.421600
-6.758781 -18.329241 -0.337726
-15.084262 -27.191389 5.570681
-11.283485 -20.175931 4.820016
-14.608382 -28.324162 4.706725
-11.995419 -19.129656 5.575827
-9.546183 -13.852330 5.224174
-7.465958 -12.766047 4.488488
-5.511782 -12.535512 3.357095
-7.843129 -13.521010 1.934216
-9.759118 -13.376568 2.518157
-22.767708 -45.821111 4.914951
-15.598041 -32.542613 3.125933
-15.322968 -20.448908 2.221330
-13.711472 -20.291334 3.429172
-12.344233 -21.963096 3.012184
-3.956924 -10.270508 2.661198
-2.704469 -8.095783 1.394896
-24.403846 -45.485393 6.425843
-19.753953 -25.330765 7.454462
-17.423696 -24.384092 4.356838
-13.109378 -19.587715 1.195936
-14.788149 -20.653239 -2.518497
-16.538833 -22.234172 -0.014131
-15.956873 -23.718048 2.672928
-59.653864 -102.448662 7.594852
-57.848797 -101.519075 4.302814
-57.713677 -100.073965 -1.259644
-57.327573 -89.535119 -10.587430
-53.367927 -87.485826 -6.098597
-48.367075 -91.128721 0.714503
-54.297237 -102.566741 0.206630
-26.748260 -48.395113 4.285887
-23.131311 -41.294429 3.313144
-26.634152 -50.389294 1.377293
-24.717674 -44.969070 -1.946167
-25.755444 -35.046884 -4.945521
-21.933353 -37.496248 1.077821
-20.340912 -41.260771 1.738746
-18.898287 -39.705833 -1.115272
-24.293167 -50.063680 -1.843198
-22.465518 -41.439676 -0.339138
-23.705076 -42.215763 0.833306
-2.480321 -4.902342 -0.407707
-3.461642 -5.153041 -1.271016
-12.558311 -12.929442 5.754220
-17.884719 -33.801956 -2.076138
-18.912400 -39.430682 0.180989
-17.160193 -33.223131 -1.275645
-16.594688 -30.834889 0.904236
-14.679942 -31.292838 1.193579
-14.423513 -31.438983 0.203727
-13.456877 -29.333829 -0.114496
-13.663635 -29.420081 -1.019536
-19.203224 -34.922359 1.556671
-18.066735 -33.393009 3.151176
-16.834643 -35.144379 2.821828
-18.453548 -38.409764 2.284091
-0.416411 -7.104472 0.152001
0.303130 -5.977360 -0.128490
-2.796374 -11.422570 0.636804
-0.755529 -7.842050 0.276567
-54.856709 -82.676604 3.551272
-54.032698 -101.268190 4.940333
-56.499624 -84.388282 4.148636
-57.919692 -97.634840 3.118387
-71.358512 -127.586383 8.857851
-52.782183 -94.554347 5.270784
-58.815850 -84.977492 6.687373
-35.557151 -39.627596 12.699385
-31.748643 -36.450093 11.643376
-29.395320 -27.877980 9.914272
-25.054705 -27.961534 9.609637
-20.802749 -26.726936 8.076761
-17.915770 -26.768837 7.289486
-24.501443 -29.733219 9.585745
-27.189580 -29.710474 9.937471
-29.400469 -35.703458 10.978091
-55.634027 -91.583657 5.594072
-57.164350 -83.223152 4.830917
-53.576595 -92.864743 2.658760
-53.600066 -78.612911 0.656314
-52.248562 -78.066110 7.809717
-44.267599 -71.897898 12.093811
-47.727198 -83.387588 -4.194692
-47.255381 -80.444862 -1.837366
-42.979849 -76.275357 5.285070
-44.301680 -78.489238 -0.736970
-57.071811 -78.136398 2.593877
-40.081857 -64.683885 5.692550
-47.847162 -75.116851 -9.769488
-13.502850 -20.456185 6.220006
-11.323831 -18.200682 5.626436
-10.436243 -14.351300 5.482572
-11.042135 -15.203207 5.396467
-41.752958 -46.152589 13.885975
-36.251356 -43.343734 12.433179
-36.846591 -37.109784 11.369061
-38.434024 -27.226399 8.432449
-11.787315 -15.123705 -0.979359
-13.519901 -16.325473 -2.562077
-12.960806 -14.829117 1.921329
-11.622857 -11.128430 1.614256
-12.988180 -10.083697 1.317901
-1.969312 -5.823432 -0.762945
-2.256729 -8.766022 0.254506
-1.539650 -4.235513 -0.106849
-0.590991 -2.058331 -0.372838
-7.991788 -3.333054 -0.898821
-29.452975 -51.533381 4.730049
-36.580913 -64.804035 9.099337
-30.030801 -44.001191 8.333762
-24.898547 -48.347529 4.175644
-23.384773 -46.695657 2.556459
-26.158265 -50.374309 3.545225
-54.300243 -89.571109 -6.193648
-52.693364 -96.575902 1.413731
-1.381912 -9.075444 0.266649
-1.234001 -6.602150 -0.346390
0.779031 -3.831231 0.018171
0.925260 -1.929243 -0.485398
0.722910 -3.037556 -0.739827
-3.162981 -11.869448 -1.001264
-2.484835 -9.036212 -0.992051
-2.886403 -10.869063 -1.690513
-1.187773 -7.631338 -0.925860
0.036748 -5.925490 -0.559942
-0.572158 -6.500365 -0.820935
-40.949411 -71.512486 10.591081
-11.714279 -23.879112 -2.103384
-10.980560 -24.855681 -0.119534
-14.523685 -27.923348 0.114560
-14.889502 -25.957662 1.752804
-12.608634 -22.862051 3.859967
-38.176269 -33.743133 12.352630
-28.518079 -28.123902 6.860284
-8.880133 -6.764504 3.063483
-4.588816 -4.913806 1.134325
-8.957791 -8.574595 3.199421
-5.502290 -6.527463 2.429823
-21.817411 -39.274804 2.410644
-17.171016 -32.649411 -1.503278
-16.879194 -27.459713 -2.801266
-17.014831 -26.909287 0.553081
-13.184287 -23.378839 -2.529837
-16.067276 -34.923560 1.950760
-32.548002 -53.286127 3.204531
-30.794318 -59.997727 -1.729410
-27.457594 -57.390576 6.484110
-30.345227 -58.237441 2.075065
-35.249240 -43.373530 -0.960821
-34.846352 -37.716374 1.642625
-4.229585 -10.432179 -0.905009
-6.048487 -15.475001 0.452519
-4.772688 -11.812513 -2.528529
-3.202506 -8.665011 -0.926294
-4.079875 -12.525091 0.832099
-16.918832 -31.003612 0.526325
-58.277670 -103.024118 5.470647
-53.070526 -91.403986 -1.853915
-59.176271 -105.834886 4.728043
-58.493701 -84.940669 5.362975
-51.882793 -88.469128 9.759430
-54.814578 -102.532915 0.356228
-26.712733 -43.355642 1.948760
-0.378125 -0.804326 0.029977
-7.064073 -6.836256 -2.233168
-2.429850 -0.268135 -0.074134
-4.256562 -1.391684 1.435257
-1.359979 -0.284024 0.236225
-32.361108 -39.856291 -5.865383
-25.241711 -43.626083 -0.216168
-30.615410 -52.753687 -1.276518
-37.247494 -60.560023 9.058004
-43.736117 -82.669998 -3.917601
-37.738391 -68.988353 -1.447283
-34.870227 -50.352910 -5.029174
-33.245950 -43.439102 -1.948081
-20.001116 -41.120308 0.418313
-25.584522 -45.171767 -1.914745
-14.239297 -25.771370 2.225140
-13.861535 -29.691967 2.962840
-21.570264 -32.767956 7.722902
-27.361349 -48.852590 6.452599
-32.123063 -63.214531 3.615534
-21.941682 -44.124129 2.057458
-20.002378 -33.479503 5.961734
-17.388620 -32.398537 4.679405
-35.360387 -59.927703 8.734674
-33.350058 -50.277192 11.048600
-34.614919 -55.052058 9.762140
-44.117737 -40.431322 12.833060
-31.866792 -38.552217 11.724016
-19.754051 -25.826064 7.649394
-11.999028 -16.055088 3.911396
-20.170976 -14.759595 5.599210
-28.572188 -22.848664 8.294362
-36.922697 -39.656385 12.622365
-45.754407 -85.879108 1.998775
-39.435410 -55.792426 9.482259
-43.376657 -78.673510 6.199143
-46.891942 -74.875461 -0.339118
-35.239630 -59.748607 2.338522
-28.066660 -49.470056 6.691687
-22.860536 -46.102342 2.881158
-20.231888 -40.782097 2.221736
-22.962845 -47.214799 -0.300347
-27.961698 -47.251224 3.256048
-40.247557 -57.445263 7.773809
-9.816868 -18.199369 -0.486136
-5.372495 -14.690523 -1.894992
-11.074209 -22.297715 0.559180
-13.507025 -29.172188 2.624256
-20.558014 -39.597576 -1.310407
-13.420411 -29.068726 -0.278655
-10.659797 -23.627526 -1.077285
-8.743681 -17.917167 1.421205
-4.012064 -13.672089 0.583966
-4.269485 -13.852887 -1.167593
-45.383639 -73.716672 3.056932
-35.149635 -56.421679 -6.704436
-48.669073 -102.944437 -7.289625
-50.925556 -91.812845 5.578453
-39.014361 -68.906752 -6.034834
-40.337434 -53.140864 1.799865
-27.572888 -54.155317 2.333083
-30.416922 -60.210652 -0.891374
-31.291420 -54.583190 -5.049903
-29.473277 -45.058911 9.090222
-36.837608 -53.357914 12.013274
-28.310740 -47.029711 4.005283
-32.712158 -38.946860 10.464545
-22.247982 -35.602015 5.089590
-13.336341 -32.124185 3.583882
-12.254242 -20.320831 6.491973
-10.148719 -16.636677 2.864238
-14.659308 -16.033044 6.567004
-25.591813 -29.825650 8.179081
-32.306826 -37.901930 8.489956
-28.700418 -47.915183 7.855542
-45.247595 -76.016200 9.144984
-46.464052 -64.970459 3.696903
-53.393442 -94.965804 6.778313
-51.257834 -94.192478 1.782938
-34.714833 -53.973097 10.275866
-36.451464 -61.358790 8.542746
-34.430863 -64.833317 4.746572
-35.297207 -63.493230 -2.520011
-23.827393 -46.610148 -2.009288
-20.230163 -41.980550 -0.867419
-18.024026 -33.452967 -0.749713
-13.070963 -27.423979 2.585578
-9.200625 -22.471673 1.283157
-7.211458 -16.609767 0.364090
-10.335474 -23.557130 -2.364732
-16.512320 -24.384789 -1.833785
-19.580736 -32.360099 0.128309
-54.164578 -85.599083 12.530827
-52.291692 -83.248531 5.709409
-46.687329 -77.594870 10.584223
-60.346731 -83.832921 3.458503
-33.983926 -66.995551 9.941636
-39.980067 -69.304784 9.646400
-32.492410 -60.798774 5.837090
-30.734394 -56.288276 6.975339
-30.527667 -56.578282 6.449607
-33.778134 -52.569875 8.220676
-47.953942 -74.417082 9.427195
-36.922977 -61.209145 9.211717
-38.530222 -54.208889 1.736381
-41.000748 -73.797734 6.629796
-43.714693 -81.941578 5.217933
-37.500767 -58.287344 -2.725165
-41.512715 -71.603878 -3.620847
-37.440100 -56.858263 0.712847
-30.939429 -56.136207 5.416256
-32.833694 -64.184059 1.225327
-33.952817 -62.746932 2.689646
-33.576245 -60.327835 2.635565
-9.193211 -13.971135 2.292046
-3.533219 -6.768399 -1.009859
-12.713495 -21.401072 2.483516
-13.404072 -27.523978 1.404448
-10.590050 -20.252363 -0.980853
-9.428826 -10.056594 1.994767
-5.860605 -5.383746 1.744811
-1.022611 -1.481037 0.226445
-0.449841 -2.103702 0.239188
-33.657066 -29.793930 10.578269
-31.371129 -16.929671 6.064550
-32.688844 -44.453463 11.645666
-29.290534 -40.592913 10.133214
-35.048272 -26.926839 8.777102
-24.991462 -24.615069 9.292088
-12.202975 -11.408724 5.685615
-9.787970 -5.551391 3.253005
-10.574908 -13.832869 -1.034189
-12.334075 -24.926492 -0.376914
-6.108280 -14.214571 1.805092
-2.931853 -11.391493 1.122650
-1.584040 -9.123243 0.565887
-1.313779 -8.759730 0.062761
-1.766629 -9.721076 -0.183176
-4.475774 -9.080240 -1.472328
-9.052702 -16.720750 -1.163039
-11.813092 -18.534442 0.455776
-13.558462 -29.935827 -0.637115
-12.948339 -21.963548 2.978667
-8.318623 -21.373769 -0.182030
-5.763949 -14.301287 -0.241305
-8.230680 -22.022286 2.779475
-16.880748 -32.911661 2.662206
-19.261427 -41.581368 1.277027
-15.128971 -28.407551 -0.276741
-11.961774 -27.617227 -1.165657
-9.916291 -21.108134 0.309653
-8.493957 -17.407377 -0.376347
-5.693645 -15.611309 0.241121
-4.560345 -14.398706 0.895841
-22.300238 -17.354330 4.532958
-17.405382 -8.564558 -0.020371
-28.309015 -29.541389 9.775294
-28.511182 -34.368885 7.322437
-31.424678 -20.499845 6.651161
-27.803766 -14.955235 5.264731
-11.904088 -7.177580 2.778842
-6.402824 -2.998898 -0.603904
-8.894850 -17.783906 0.295821
-8.726704 -11.689763 -0.540537
-9.685967 -10.698842 1.015976
-8.047262 -6.444694 1.413228
-3.393348 -2.137358 0.149932
-5.516352 -2.692027 -0.846017
-8.497604 -5.365273 -0.059367
-9.646637 -7.369378 0.762199
-17.083789 -17.702676 2.443459
-18.453133 -15.244268 4.986127
-18.735649 -19.696200 0.252500
-20.121899 -13.785510 1.793381
-14.701631 -10.027913 1.740077
-11.200195 -8.521037 0.159316
-12.596016 -8.196198 -0.720034
-15.946450 -12.381144 3.437191
-16.226884 -30.867029 0.161683
-16.100264 -33.682089 1.213716
-11.056127 -18.506867 3.658946
-11.774359 -19.769744 3.903185
-9.823627 -19.536932 0.002622
-10.047244 -21.583745 -1.590204
-9.602998 -17.934427 -1.880943
-50.412615 -81.422239 6.536457
-46.705512 -82.847146 5.322461
-45.379558 -82.129491 -0.536222
-50.440230 -77.199336 -2.205954
-62.221009 -112.990519 3.563213
-44.366035 -78.686968 -1.183932
-22.884770 -39.268367 -2.922467
-18.251225 -37.422957 -0.730509
-23.348840 -43.492354 1.907365
-26.936817 -53.307638 -2.469603
-25.416384 -43.756201 2.013865
-24.047942 -44.395626 -1.575682
-18.476756 -35.785785 2.162753
-17.245363 -36.721624 1.334930
-15.136398 -36.010523 0.482300
-44.224259 -71.607151 10.990879
-44.815288 -78.956657 14.753629
-41.031158 -61.375584 15.586822
-43.888056 -65.198430 13.867456
-39.147065 -64.906303 10.801532
-32.286733 -59.985724 6.298789
-37.151014 -64.225668 2.547021
-39.090725 -53.377564 11.237598
-47.502157 -79.547140 11.856464
-66.055335 -104.876386 17.839309
-17.407459 -32.721369 2.747007
-15.186297 -27.892269 1.029731
-13.902464 -26.998662 -2.322740
-25.063354 -43.155739 3.627820
-43.843473 -81.126601 -3.945449
-51.868481 -91.524362 -7.581685
-48.534076 -72.119020 -5.571570
-43.173389 -80.227118 -0.997353
-45.056947 -84.706362 -3.395652
-5.096914 -10.598658 -0.773098
-9.411399 -19.093114 -1.904224
-6.851877 -11.980848 -1.643592
0.201342 -6.320554 -0.175742
-2.228477 -11.059831 -1.295010
-28.466420 -52.637168 2.597717
-13.669463 -30.228650 1.589707
-10.035377 -23.660340 0.829033
-14.522815 -31.302689 -0.514326
-10.311018 -24.400428 0.555762
-6.878111 -19.836373 1.222935
-5.047326 -14.147671 1.368694
-9.149803 -16.765870 -0.664735
-14.632367 -22.614584 5.332943
-15.790539 -22.807186 4.235636
-14.330117 -21.597056 2.295418
-12.597489 -28.096138 1.454335
-10.385493 -19.314545 1.628779
-9.857280 -20.540448 0.909893
-11.474394 -20.749876 4.854930
-7.535015 -11.754045 3.148164
-11.168491 -20.774032 2.907358
-8.888479 -18.113465 1.194809
-10.708131 -18.247837 0.936703
-8.933582 -14.092544 3.378984
-2.030226 -4.919737 0.197751
-4.613539 -6.234201 0.130069
-6.274170 -6.379563 0.385187
-17.971140 -31.252813 5.685843
-19.334518 -38.334268 4.158507
-21.599145 -36.764364 3.129655
-16.257667 -23.450180 5.724633
-59.404971 -111.934273 3.000767
-50.959670 -96.158363 -1.751087
-57.361595 -91.482303 -1.208262
-2.925456 -6.285475 0.595328
-1.801839 -6.671826 0.389447
-6.060240 -11.335665 2.776246
-6.041390 -17.339768 2.184177
-6.460861 -19.957860 -0.437606
-6.214189 -15.385999 -0.849129
-3.570314 -11.796916 -0.029461
-2.205718 -7.881457 2.140882
-7.143458 -7.048982 -2.097040
-4.309235 -5.705090 -1.967752
-8.929482 -11.310345 -0.741507
-7.188947 -15.648831 -2.255593
-6.736227 -16.177025 -2.484216
-4.929709 -10.253327 -0.372234
-3.225106 -6.486050 1.161271
-18.984055 -13.091540 6.208050
-17.952108 -16.642645 7.570897
-10.973873 -9.736048 4.757888
-8.382046 -6.355844 4.531463
-8.223185 -5.345913 3.306197
-9.572172 -8.114254 4.783883
-14.701884 -14.547019 7.774282
-3.632794 -12.674833 0.796961
-5.264047 -14.543482 1.310038
-5.067764 -14.012122 -0.555517
-3.538744 -9.618672 -0.172102
0.441276 -4.898958 -0.575692
-52.774641 -89.499120 9.480540
-48.992813 -91.283659 3.352208
-31.847337 -29.857815 10.749122
-44.823660 -117.377946 1.180558
-49.898839 -77.942555 -3.007139
-47.798926 -70.703066 8.947727
-46.716884 -60.736081 -10.038197
-11.632985 -12.264079 5.107199
-12.334538 -16.260701 5.979595
-32.868821 -47.680589 9.409310
-34.888115 -47.798152 10.059489
-65.516645 -96.422619 -8.187040
-44.762794 -78.557452 -4.128234
-65.883631 -146.912145 3.071725
-59.442384 -102.703998 -4.400578
-60.565125 -86.933212 7.976969
-52.193901 -95.228973 6.829094
-14.077659 -14.307013 2.986054
-1.789454 -2.982304 -1.026905
-3.277284 -7.923213 -1.059096
-3.330593 -1.720383 -0.086447
-8.814866 -6.648998 0.218460
-10.263830 -10.316871 2.716911
-11.433185 -7.061409 0.300880
-10.348130 -5.007350 1.615922
-52.516453 -95.271977 -5.392999
-49.202742 -107.746500 1.959368
-74.247294 -85.678023 -4.767668
-46.818599 -91.363194 4.451852
-24.882747 -30.444240 7.720819
-20.738675 -26.669902 7.556251
-21.615201 -28.625304 9.321217
-25.271467 -29.405618 9.168236
-18.714979 -27.550494 4.100926
-22.000233 -25.018171 4.857682
0.636705 -5.280375 -0.188507
-37.233091 -55.266502 11.945106
-35.657554 -52.148020 9.166332
-37.677590 -53.064806 10.482542
-42.187591 -61.025285 7.137543
-33.714791 -59.391329 9.916924
-37.175080 -64.838006 5.533405
-36.403602 -59.641777 10.520172
-39.078356 -53.642893 5.780810
-29.214491 -55.973480 6.959440
-27.450113 -53.985402 2.063500
-32.791832 -55.132894 10.171106
-14.123766 -34.688690 1.826578
-31.170061 -33.785533 11.292417
-26.142971 -27.209923 2.544748
-28.789668 -46.487648 9.016001
-33.705615 -34.293182 10.804400
-10.723264 -10.796458 4.210942
-8.439418 -13.628009 2.736380
-14.653205 -27.929103 -1.847209
-14.941533 -24.929964 0.526144
-11.091653 -24.123837 0.289388
-17.496554 -35.630276 2.686304
-14.925617 -22.137804 1.537345
-14.318696 -17.519588 3.317602
-31.622658 -58.942276 1.941924
-36.493078 -47.937383 9.362005
-31.631262 -65.261195 7.026165
-38.430338 -49.791031 12.089261
-33.375763 -41.931433 8.652843
-29.120929 -30.573666 12.923913
-34.813553 -53.777029 2.377459
-33.583258 -61.807883 -1.551294
-34.005602 -44.421461 7.309193
-28.534766 -51.293983 1.057929
-24.005584 -49.030333 4.057674
-32.910551 -52.539012 6.104691
-2.347730 -7.584437 -0.298085
-4.833805 -14.300013 -1.120342
-6.715552 -14.835475 0.029256
-4.311229 -13.895457 0.848014
-1.307516 -9.026559 0.480699
-2.215677 -7.661405 0.164716
-2.814487 -8.031953 0.495601
-19.606643 -41.315029 -0.598019
-19.087634 -33.830785 4.395322
-17.969733 -31.216636 -1.241737
-20.246702 -41.048581 -0.637174
-18.023726 -37.933935 -0.424940
-5.979886 -12.659124 -1.000412
-24.018731 -19.080590 5.719488
-2.380590 -0.636818 -0.055195
-4.314622 -0.724639 0.553077
-0.782103 -0.487050 0.405675
-0.400466 -0.300860 0.029916
-35.218960 -49.374416 -2.989240
-25.414197 -54.787025 -3.447336
-40.139124 -45.516600 6.740417
-40.641538 -76.067057 -2.540906
-32.311654 -72.343193 0.642175
-36.156424 -57.640501 -3.464702
-26.135951 -36.494920 -6.203123
-21.636882 -36.374665 1.190710
-25.298802 -44.458566 0.675431
-25.799571 -49.959425 -3.347072
-21.252115 -24.689278 5.234195
-11.600758 -26.320873 2.037194
-25.227252 -48.311721 7.162209
-26.313521 -51.141054 4.155135
-23.699400 -48.249295 1.798124
-17.994388 -38.806400 2.584444
-15.470881 -33.976372 4.014906
-17.387058 -25.963751 3.444342
-29.223764 -55.796409 11.630746
-35.946360 -51.112652 10.205280
-42.438758 -49.223671 11.726952
-29.989939 -40.611003 9.319879
-28.893038 -31.586900 10.896231
-12.763400 -15.828100 6.053971
-15.737427 -16.111865 4.629302
-20.783578 -19.059541 6.259244
-31.815862 -30.717822 9.731081
-34.378045 -46.703959 10.783598
-41.946855 -67.250616 5.348969
-53.708274 -93.757119 5.712203
-46.863896 -84.819509 -6.604785
-35.979235 -53.381471 3.449713
-33.963765 -42.282546 5.018226
-24.795854 -47.518793 4.131488
-17.603750 -35.620641 2.937934
-21.955643 -45.324079 0.105452
-21.334462 -44.371978 0.341927
-29.329581 -53.588607 5.293101
-35.870542 -51.239253 6.890931
-8.809918 -18.869875 -0.437012
-5.872493 -13.666503 -1.951324
-14.144393 -27.037760 2.580145
-17.795565 -39.695232 2.368718
-15.777550 -34.491530 0.311655
-15.725740 -31.533317 -3.596070
-10.329532 -18.127170 0.035820
-5.294678 -14.522254 1.360513
-4.690695 -14.705064 -1.123686
-4.883800 -14.464906 -0.770694
-41.415545 -73.933567 -5.535882
-59.280772 -66.845722 1.330471
-50.428781 -92.152411 5.762201
-42.064555 -77.574442 -3.635710
-42.636431 -54.598461 2.345840
-33.478440 -51.226962 5.271639
-29.006300 -49.192758 -1.291084
-27.616886 -54.775040 -0.340979
-32.346798 -54.806333 -6.638197
-27.458822 -48.214072 6.462266
-32.483410 -49.456182 10.561955
-37.424636 -41.122505 5.693624
-25.246165 -32.926200 6.121846
-18.306499 -32.464371 5.646245
-18.823687 -27.024571 6.045652
-9.746162 -18.723005 4.344141
-13.136003 -13.989132 3.943873
-20.199193 -24.632785 8.015760
-31.506280 -32.623130 9.057330
-34.933818 -45.166865 6.172534
-36.326258 -52.112183 12.309035
-45.169972 -86.726549 10.915642
-54.148017 -69.212371 7.982605
-43.510477 -95.207158 -0.314729
-52.025713 -73.724560 7.485614
-40.143249 -63.262156 10.039948
-36.371079 -55.196100 7.892777
-33.606864 -65.505255 -1.608348
-43.674918 -62.704029 0.558999
-24.727431 -39.681187 -1.831035
-24.794027 -41.598488 -3.162183
-14.002960 -29.224051 1.827865
-9.116160 -24.097123 2.242657
-7.429504 -16.542026 1.422405
-8.771939 -18.792095 -1.019042
-11.790578 -20.428150 -3.833983
-19.458749 -30.049850 -1.259499
-18.212909 -37.910073 1.858397
-49.530942 -80.688278 11.521559
-66.442639 -87.464576 9.032448
-46.653734 -80.697137 2.234565
-41.844228 -64.320077 10.419067
-38.119952 -65.450116 9.338598
-38.428346 -66.985201 7.928550
-26.827955 -48.885802 7.021010
-26.523839 -56.604183 7.030557
-29.890726 -47.712853 5.026474
-43.800973 -66.820610 9.867466
-52.137146 -79.104636 8.394499
-37.863477 -65.211756 8.843360
-39.638025 -59.870663 4.632109
-45.045313 -80.332482 8.908848
-38.447561 -74.238375 0.764497
-33.935034 -65.952345 0.789785
-35.891461 -53.175373 -2.903599
-34.584116 -66.574051 5.910501
-28.163484 -52.509697 3.632391
-27.080188 -60.898416 2.341397
-33.667666 -61.466586 3.688783
-35.155093 -66.197206 0.037245
-15.275748 -22.183159 5.345035
-7.922536 -9.513242 0.527964
-13.466455 -27.259555 1.721688
-11.850705 -22.520031 0.006442
-9.390954 -12.946472 0.909382
-8.329141 -7.445759 2.498172
-2.957787 -2.653329 0.780111
-0.579265 -1.387997 0.209347
-1.994887 -5.227005 -0.283693
-32.935716 -41.221662 11.847914
-34.358868 -25.275447 10.438949
-30.900748 -50.288678 13.388123
-40.173439 -35.894026 8.417366
-34.913691 -25.525102 9.421361
-15.546691 -14.139204 6.511895
-8.857577 -6.533189 4.659194
-25.145800 -11.385756 4.699685
-10.227094 -15.585456 0.260559
-12.126286 -20.253150 -1.217313
-5.598355 -12.961506 2.445253
-2.475721 -10.125639 0.765497
-1.579225 -10.034992 0.308840
-1.349699 -10.804226 -0.048430
-2.576218 -10.316614 -0.428379
-5.814069 -16.323562 -2.297274
-12.291676 -21.787330 0.348062
-11.155296 -29.888659 -2.246904
-16.074705 -28.816650 0.929099
-16.418751 -32.325888 1.187276
-12.037003 -29.718643 1.934142
-9.454680 -24.513581 -0.211622
-16.360652 -34.532581 3.656207
-18.775687 -40.259863 0.064562
-25.945522 -44.543252 0.938973
-16.002847 -36.028936 -1.180860
-11.429525 -23.418230 -1.015915
-11.774528 -21.181882 -0.414911
-6.665057 -16.332833 0.507239
-4.990947 -15.319798 0.781620
-4.680335 -14.910668 0.504032
-26.181738 -24.242810 8.436414
-21.360387 -13.632482 2.078454
-24.092431 -32.627965 9.160824
-28.491351 -24.057503 5.088025
-32.363974 -17.802656 5.715165
-20.109898 -11.295542 4.438963
-6.478979 -2.955710 0.551591
-14.703360 -6.951395 -0.972593
-8.800777 -15.903431 0.636714
-8.882165 -15.918553 -0.649908
-9.724779 -8.756268 1.483615
-5.539566 -3.750551 0.800596
-3.946122 -1.941747 -0.546018
-6.415841 -3.666313 -0.649063
-9.882554 -5.973907 0.605625
-8.360758 -9.798015 0.116152
-16.386659 -20.482493 1.473172
-18.156605 -15.485972 4.434809
-20.587013 -17.013241 1.164914
-17.251466 -11.631944 1.815193
-12.939486 -9.241335 1.282355
-11.138865 -8.205476 -0.864907
-13.803575 -9.328784 0.833753
-17.296105 -13.927767 4.473746
-15.044354 -26.373165 1.074628
-15.828041 -34.501550 0.788271
-13.899179 -20.729448 5.489066
-10.972073 -19.128733 2.204531
-9.693856 -20.083907 -0.658768
-10.162645 -20.930925 -1.990126
-9.444757 -20.999138 -1.972021
-49.387102 -83.371888 9.034312
-46.006847 -81.929466 4.267876
-45.687493 -82.016311 -2.049483
-51.234388 -77.161035 0.697352
-60.409074 -108.344930 4.009607
-50.196232 -86.114382 -1.362107
-25.448138 -39.322741 -0.208689
-19.141784 -38.524203 -1.950818
-24.662283 -48.453306 -1.173842
-27.798450 -55.537099 -0.999763
-23.987953 -48.548540 1.604093
-23.028483 -37.783960 0.164924
-19.996648 -37.545023 3.213763
-15.718365 -33.831927 0.192894
-18.294736 -37.784277 0.703969
-53.923128 -66.857839 12.022169
-40.043957 -61.318582 11.191012
-40.474885 -62.097344 15.407234
-42.687065 -65.526456 13.106567
-36.353291 -63.461439 8.944727
-29.783147 -58.164933 3.002351
-39.145078 -63.181185 1.953830
-42.576674 -59.379594 11.557024
-50.042526 -82.669793 12.701698
-56.362665 -88.908455 15.461653
-16.779882 -32.599891 3.171064
-13.952213 -31.150469 -0.393086
-18.033054 -32.949787 -1.433732
-21.785006 -38.700349 3.414956
-43.750145 -78.682911 -4.444585
-50.708082 -90.744429 -8.219821
-51.171979 -81.852063 -4.819391
-43.189944 -80.545323 -1.469695
-45.167387 -85.153727 -4.327270
-6.473942 -10.611284 -0.022543
-8.783675 -17.711422 -2.277938
-4.821229 -12.644699 -0.684456
-0.482294 -7.095394 -0.526912
-2.388193 -9.924540 -0.839508
-27.972691 -54.333700 2.236251
-17.739783 -38.259345 2.180403
-9.370184 -25.547436 1.005389
-13.605237 -29.357981 -0.567889
-11.669156 -23.884630 1.145949
-6.641161 -17.755703 1.422835
-7.553466 -20.558270 1.507767
-10.449145 -18.263140 -0.639403
-14.372074 -23.956881 6.013317
-16.093400 -26.015899 3.961593
-16.301059 -21.427450 3.214294
-12.702342 -21.891118 0.665213
-9.513442 -21.279593 1.486931
-10.902169 -17.806854 1.229838
-11.563060 -23.356310 3.707411
-11.997651 -18.075139 4.490817
-10.464824 -23.345207 1.960880
-8.434393 -20.361854 0.900349
-9.165655 -14.513349 2.124316
-7.415023 -11.971932 3.707057
-3.978747 -7.139753 0.693789
-5.024816 -5.024865 -0.288823
-7.013500 -7.864098 1.464069
-19.376144 -34.151079 6.009620
-18.620717 -37.871939 3.289075
-18.561331 -27.374544 3.547142
-19.138497 -21.374912 6.708605
-69.824103 -105.388605 7.450860
-49.451291 -92.479480 -2.078966
-57.565829 -92.341041 1.942524
-5.108563 -7.975453 2.477158
-2.291722 -6.044835 0.132187
-7.510293 -16.169992 3.074744
-6.827949 -18.506010 -0.189227
-7.351976 -20.685953 -0.690619
-4.902953 -14.752628 -0.498824
-2.132310 -8.947746 0.922284
-1.565031 -8.213174 0.714734
-7.475151 -8.526300 -1.350758
-5.774737 -7.270666 -2.241483
-7.556079 -13.258367 -1.242596
-8.596941 -16.549738 -2.430487
-6.671857 -14.491423 -2.033786
-5.013228 -9.091049 0.631538
-2.645135 -5.877648 0.483925
-16.777367 -14.681635 5.370447
-18.441913 -16.959603 7.728858
-10.400013 -10.049463 5.270559
-7.174187 -5.913377 4.105921
-8.142324 -5.668530 4.090692
-10.312590 -9.584501 5.163003
-19.074096 -16.516872 8.150819
-4.685436 -14.912263 1.747989
-6.211416 -14.280801 0.609641
-4.783487 -11.606160 -1.290524
-2.778942 -9.595043 0.485514
0.349944 -5.796135 -0.416004
-49.242680 -90.066066 6.866169
-49.177016 -91.886528 3.833691
-27.575876 -28.511509 9.081160
-52.974651 -98.661796 0.100219
-48.434424 -83.756573 -4.733348
-40.136394 -99.691585 5.309652
-40.498856 -58.200778 -1.824513
-15.541823 -16.332337 6.024931
-12.656936 -15.828932 6.093380
-31.577694 -49.497480 10.082257
-36.855235 -45.494267 10.624998
-78.047506 -104.338852 0.219529
-57.037025 -91.397837 -10.148069
-64.768043 -119.750628 -4.798611
-60.456603 -96.122881 0.460391
-58.349830 -83.823870 9.403367
-51.066462 -95.533278 -0.009664
-13.232670 -13.128995 2.579276
-3.280928 -4.863762 -1.658207
-3.339211 -7.917066 -1.402645
-4.233552 -1.707680 -0.423912
-12.081104 -9.895817 2.547320
-10.964800 -9.023928 0.515297
-12.429603 -5.060713 0.278924
-5.139795 -2.059173 0.516402
-51.381981 -79.028485 -8.450920
-68.187467 -107.020291 -0.432284
-62.523098 -79.385514 -0.344980
-55.795106 -99.096200 2.224976
-25.907909 -24.657567 7.288558
-29.594872 -44.914522 10.603953
-26.139027 -28.936001 11.405432
-22.876634 -29.921454 7.690866
-23.093975 -31.099330 2.829294
-19.333957 -29.810139 7.606150
-0.194657 -6.934818 0.393333
-39.209810 -58.008952 15.200217
-35.986307 -50.794579 9.897363
-37.474573 -62.733539 9.841938
-37.654549 -51.589953 5.757319
-41.168537 -60.588609 8.353416
-38.114733 -59.963377 3.619825
-37.187324 -59.266790 10.933753
-38.515990 -53.956155 9.317533
-29.123818 -56.034746 4.136545
-28.949057 -54.694568 4.699355
-34.590305 -48.066140 10.048326
-15.245260 -32.367703 1.616556
-36.274894 -34.879403 11.143156
-32.783320 -28.871450 5.845651
-28.859838 -32.146398 12.698688
-29.555920 -31.775218 10.792848
-11.087626 -12.407996 3.487698
-8.906538 -11.195615 2.377063
-16.244016 -24.416493 -1.264689
-14.462083 -29.976030 -0.815817
-11.234010 -23.844619 -1.209137
-14.033166 -32.655750 1.732236
-14.605185 -14.756843 1.661484
-10.451857 -22.768018 2.692441
-31.528109 -48.344939 3.033873
-29.670283 -66.051210 5.953707
-36.502464 -55.893009 9.724614
-34.569261 -52.332536 10.494931
-32.417463 -40.701287 7.762645
-35.247824 -53.882962 11.147050
-47.071154 -48.039332 5.400871
-28.643500 -50.261556 2.018800
-33.149987 -53.148976 5.464487
-24.251192 -47.364705 1.084103
-39.203858 -77.700584 1.833130
-34.308135 -45.854337 6.442111
-3.140697 -11.056483 -0.906449
-4.418036 -11.148798 -1.784310
-5.518392 -14.231333 0.050560
-5.503538 -15.833948 0.987835
-1.812623 -9.067180 0.285512
-2.051504 -8.345481 0.082518
-3.860552 -10.179892 1.221081
-21.042324 -43.404055 -1.511713
-17.637481 -32.726640 3.272991
-18.942315 -39.032654 -1.712887
-22.481220 -46.608164 0.655906
-18.882047 -32.577129 -0.279910
-25.877760 -20.075839 6.298393
-9.726316 -17.284611 -0.675581
-10.601808 -23.468429 1.361702
-15.611928 -33.365875 -1.081811
-10.713831 -19.763155 -0.687328
-28.641583 -46.194355 8.215175
-29.924572 -51.892865 11.309235
-11.499273 -15.162244 2.831429
-28.325701 -37.376355 8.285831
-32.012699 -50.652384 10.192199
-36.595852 -76.362626 8.191858
-22.286488 -43.439971 -1.917024
-18.648659 -31.464205 0.866598
-11.722263 -25.586018 2.175800
-10.818931 -23.651874 -2.553745
-51.911426 -83.027010 12.523091
-52.978242 -99.280984 8.014665
-37.943530 -65.605467 9.040642
-38.862644 -67.479448 9.451924
-31.187223 -70.185728 5.802363
-44.575076 -62.352187 9.376316
-38.897411 -68.162473 3.684780
-44.374472 -78.749482 9.122523
-50.320326 -80.105072 2.636681
-41.534352 -69.368172 -4.744662
-36.137744 -68.522868 2.956143
-27.057482 -57.575652 5.214884
-32.384364 -63.645997 1.029336
-28.721171 -52.512808 3.100791
-34.442269 -59.281699 1.958554
-3.699836 -3.945614 1.195484
-1.013202 -1.410839 0.165457
-10.657563 -17.473116 -0.722030
-11.160544 -19.258022 -0.599662
-2.537108 -10.877790 0.682816
-1.242006 -7.417098 0.580934
-10.246764 -20.031132 -1.204890
-13.186747 -26.152696 2.190195
-5.969790 -18.828599 -0.220676
-16.328407 -35.331563 0.976171
-16.985761 -31.496032 -0.784588
-11.715385 -18.504677 -0.119254
-24.560148 -13.609279 5.208611
-6.722569 -5.174590 1.027191
-3.857375 -2.010056 -0.237721
-8.588590 -7.108494 0.426047
-18.371707 -12.730511 1.673428
-13.957803 -41.435578 1.043079
-21.020254 -39.942056 -1.643838
-15.950160 -45.585687 -1.014570
-23.738255 -46.281674 0.162137
-23.702511 -54.957019 -1.992957
-21.256656 -49.758621 2.375463
-23.808931 -41.799361 -0.588439
-21.108159 -37.543768 3.005314
-13.623775 -34.366752 0.889684
-15.619494 -31.708270 0.714726
-42.552395 -63.954746 13.432317
-32.269087 -64.485048 8.321250
-26.697545 -58.994913 4.461560
-45.245052 -85.085953 -4.542875
-4.286221 -7.188018 1.484918
-2.213105 -5.398920 0.249382
-5.617337 -11.516491 3.009169
-5.974752 -18.949444 -0.413060
-3.039771 -9.970472 0.433085
-18.819350 -17.558553 7.839367
-5.766330 -15.575371 1.077818
-53.985269 -101.241703 -10.538788
-54.114788 -100.734968 -1.340614
-49.227163 -83.202104 -1.661324
-11.171460 -9.291651 1.331429
-10.080287 -5.947148 0.444307
-38.524122 -43.853460 7.314813
-36.248624 -47.503946 9.895907
-30.433899 -48.935654 4.457799
-25.544353 -45.005658 7.750883
-31.874514 -48.905354 11.266490
-5.625192 -12.423362 1.102495
-18.001372 -32.485150 4.220090
-27.225901 -49.327188 -4.987124
-0.478256 -1.509110 0.047102
-5.999046 -8.679340 -1.024509
-2.166931 -0.287427 -0.159004
-3.690769 -1.421894 1.382439
-1.768248 -0.347104 0.180068
-28.565277 -43.281961 -4.580034
-20.485179 -48.644189 0.443362
-36.181965 -62.790969 0.247227
-36.663153 -54.527439 5.549652
-41.968989 -79.540998 -3.486834
-37.404699 -66.478358 -1.229831
-29.013014 -47.192190 -5.278574
-30.134074 -43.190093 -0.134046
-20.513124 -41.400929 0.069442
-25.400063 -39.275961 -3.349374
-16.100690 -23.011650 3.224601
-13.548844 -25.138336 2.362300
-23.450703 -36.675235 7.991094
-25.376826 -46.865891 5.962597
-23.812903 -47.383059 2.799468
-21.436371 -36.864298 1.969933
-22.260387 -33.106033 4.996024
-16.712269 -31.752379 4.265439
-41.596567 -50.156994 10.748933
-33.324543 -52.066200 10.635330
-35.437049 -53.215283 9.433791
-36.954193 -39.924119 10.356532
-31.680678 -31.172617 11.625342
-14.722991 -25.890542 7.025933
-12.903952 -16.245593 4.128745
-25.464495 -21.077965 8.637733
-32.301472 -48.507646 12.948443
-37.603015 -82.949536 2.543093
-34.994930 -68.420883 9.044082
-44.626806 -78.713784 3.592498
-43.925395 -69.985436 1.425683
-35.256320 -56.928060 2.606934
-23.219146 -49.705818 5.767117
-22.030435 -53.909107 2.352172
-20.602323 -42.044982 2.060917
-23.375533 -57.500576 -0.644352
-30.074400 -48.204845 4.141416
-34.835997 -58.160344 8.368430
-5.574184 -15.305905 -1.729119
-14.985015 -30.137763 3.083003
-18.852459 -38.656348 -0.859599
-6.613585 -14.629551 1.513773
-4.562481 -14.742204 0.063928
-4.034245 -13.634904 -0.740846
-37.743505 -78.934603 -0.691845
-38.127928 -60.550104 -5.866822
-49.369070 -92.424854 -3.113143
-48.211331 -87.903857 4.662513
-38.345491 -65.549857 -2.842397
-38.412784 -53.154521 1.719007
-27.306898 -54.614439 -0.060502
-36.385228 -60.099086 -0.346555
-31.355164 -54.683232 -5.304760
-26.866230 -47.026576 4.509338
-28.529947 -39.511226 7.524355
-20.674314 -34.062173 4.466909
-14.618847 -29.786059 3.995193
-13.079816 -19.508634 6.017260
-14.917191 -18.246950 6.710286
-30.792490 -39.698643 6.995393
-47.120714 -79.799723 8.052141
-46.407693 -57.522023 5.062459
-53.524043 -97.582512 5.344884
-43.419471 -77.597009 3.940863
-42.594175 -66.805140 12.069771
-40.662806 -65.882964 0.609938
-36.816853 -62.687120 -1.805448
-21.433401 -43.001253 -2.882547
-8.524032 -21.356223 1.193056
-7.392853 -19.734388 0.110610
-18.155982 -26.483949 -1.442967
-19.805329 -28.513629 1.046171
-45.705203 -75.798855 8.498411
-49.189112 -68.017967 7.043679
-30.686918 -57.066986 6.259074
-35.232890 -56.472143 7.470710
-48.969088 -76.780759 9.152639
-37.523247 -67.749501 -2.066151
-9.624787 -16.234860 3.041512
-4.597982 -9.155167 -0.708223
-12.357452 -22.701090 1.742792
-12.885919 -25.862954 1.232336
-12.154878 -16.187688 -0.556765
-7.969467 -9.335990 2.309599
-1.059664 -2.696222 0.216260
-34.344627 -27.647761 11.338142
-29.442449 -14.873254 4.288745
-32.398201 -43.754161 11.616079
-30.114893 -41.307781 10.328974
-28.227916 -20.716518 8.072119
-22.419688 -22.745913 8.694045
-13.985765 -10.793537 5.527644
-10.701323 -7.155489 4.495840
-8.560950 -21.807740 -0.276383
-10.645335 -23.878585 2.853068
-17.436082 -34.186021 1.604153
-11.569385 -27.008986 -0.982220
-7.710289 -15.158564 0.060201
-5.657623 -15.903614 0.285936
-4.430102 -17.166839 0.862956
-27.620790 -19.580608 5.980638
-18.204371 -9.753022 0.420145
-27.317348 -30.006086 9.647580
-27.853168 -32.008643 6.782875
-31.711068 -16.549543 6.627191
-11.127268 -5.527011 1.926739
-8.304104 -4.057244 -0.758200
-5.602526 -16.903976 2.186666
-2.511440 -8.976826 1.595405
-7.835600 -16.490410 1.271825
-26.417933 -32.672811 3.309047
-2.504342 -1.321674 -0.102150
-3.572465 -0.410416 0.367330
-0.750280 -0.598759 0.478803
-0.267512 -0.347274 0.058947
-33.896108 -45.522207 -3.573806
-22.805777 -46.519294 -0.624949
-38.126559 -52.343916 4.817857
-38.159701 -70.732833 -1.778785
-44.185049 -84.043617 -0.006610
-36.491303 -61.748826 -2.542545
-31.310183 -52.721264 -5.657760
-23.578716 -43.107507 0.727660
-24.462449 -44.535303 1.621777
-25.675073 -47.829459 -4.512149
-19.354868 -28.403857 4.902833
-12.255015 -27.546570 2.092570
-32.723185 -44.050658 8.283456
-21.839851 -49.595127 4.036948
-29.348031 -59.425548 2.573987
-20.564848 -40.491049 2.478482
-21.928271 -35.355920 4.424212
-17.667967 -36.417205 3.730113
-34.391262 -56.545458 8.247321
-36.258371 -60.512765 10.180439
-45.508844 -45.804934 8.301428
-29.535760 -41.100998 10.375410
-32.355315 -31.285485 13.824021
-16.409305 -20.364798 7.540884
-14.431051 -13.784700 4.394651
-34.878786 -28.851406 9.368289
-31.057445 -38.927863 13.957702
-41.434457 -78.475821 4.610748
-41.968192 -71.961817 4.907907
-55.686627 -80.608912 -5.952840
-37.674490 -63.547427 3.527894
-41.881466 -53.310103 3.593352
-26.299110 -49.391441 5.107302
-18.079166 -51.568045 2.344919
-21.616374 -53.593504 0.589255
-27.333555 -56.252412 -0.180638
-35.369119 -52.894572 4.434253
-43.731457 -72.456486 10.187984
-6.882025 -15.732034 -2.352683
-16.651109 -31.251789 2.965481
-20.857038 -37.072665 -0.415305
-8.125089 -19.362520 1.547169
-4.962405 -15.380869 -0.890309
-4.563845 -17.493305 -0.736758
-56.502306 -102.145161 -5.294547
-56.700824 -67.593753 -2.049225
-50.616667 -114.186229 1.762225
-52.134320 -81.750751 -0.251990
-52.744855 -58.976041 1.796667
-34.865869 -62.263556 4.586114
-27.762773 -66.339176 -1.241116
-27.294708 -54.346632 2.035676
-32.032549 -65.868239 -6.157407
-40.955260 -45.369746 6.383115
-31.457075 -46.544709 8.173371
-23.094296 -32.705788 5.238957
-14.806693 -28.384888 5.908566
-13.623210 -22.911502 5.173187
-19.754946 -25.406895 8.552313
-29.783850 -50.917144 7.713040
-51.285892 -102.273896 11.015544
-55.472281 -68.732229 7.738356
-63.187693 -117.098225 3.964227
-51.421126 -92.918927 6.657375
-40.126260 -64.109479 12.142388
-40.252792 -55.850451 -2.665037
-41.020915 -75.622812 -1.177113
-28.195454 -39.616404 -3.492442
-9.313016 -23.806756 1.810107
-9.669603 -25.003845 -0.514141
-18.904142 -33.845789 -1.673106
-25.148255 -42.799078 2.047381
-54.704347 -76.330092 8.000537
-38.084173 -79.794893 12.339372
-36.290646 -68.299695 6.691425
-50.152154 -62.624104 9.726673
-60.172149 -93.981244 10.958974
-44.949097 -79.830367 -1.015904
-13.115122 -21.543930 4.597141
-8.064980 -13.023281 0.055162
-15.313901 -29.907228 1.974273
-14.264902 -27.739157 0.953928
-11.385067 -18.532575 0.717848
-10.769441 -10.131215 2.601838
-1.827550 -4.825323 0.029764
-39.793744 -46.803368 14.200283
-34.613940 -26.725786 7.487200
-37.905859 -50.945860 11.397359
-46.291093 -49.033003 11.339161
-31.165462 -31.501300 11.583201
-19.473999 -18.608730 8.211476
-8.614648 -7.324435 5.482970
-21.831722 -12.143098 4.636040
-11.871965 -30.134187 0.663690
-14.467991 -26.279327 3.560838
-19.792190 -34.181863 0.697542
-12.604396 -25.089588 -1.235723
-11.200667 -21.031037 0.358492
-6.304129 -19.003478 0.623617
-4.430681 -14.397483 0.720512
-24.349287 -21.699028 7.263324
-20.085727 -11.989797 1.279955
-24.889152 -32.092630 9.331028
-28.160367 -24.137467 4.618242
-31.514782 -18.233827 6.210813
-8.667339 -4.042995 1.166223
-12.552812 -6.257382 -0.965627
-6.664642 -17.649500 1.101231
-1.934980 -8.759795 1.232796
-22.847322 -46.777178 0.404253
-37.209307 -52.595756 2.317055
-37.064202 -64.644466 -1.740028
-25.657593 -46.987405 -4.367706
-17.596023 -27.580946 4.044293
-25.540035 -40.730541 8.229924
-25.192895 -50.547117 2.521950
-34.585169 -57.684051 9.295033
-36.415755 -50.220518 8.834321
-31.105332 -32.574278 11.060592
-13.704091 -16.207681 4.294779
-37.136694 -29.719325 10.081564
-42.504483 -80.624835 2.980743
-45.639825 -78.701629 -0.623761
-34.919273 -47.180942 2.867624
-23.783454 -48.621087 -0.780631
-35.623262 -59.398198 8.348408
-4.959769 -15.443502 -0.423970
-38.339228 -81.293758 -3.000659
-45.911911 -72.929871 2.863948
-51.136416 -68.954529 -1.026321
-36.592512 -52.699032 2.730804
-29.513097 -58.463044 0.635388
-27.102843 -39.093005 7.619509
-14.525985 -29.082039 4.316178
-49.456452 -71.380692 10.049756
-52.127008 -95.448306 4.599897
-46.316255 -66.337212 4.989151
-40.920714 -65.377140 10.823794
-38.365176 -62.377065 -1.645225
-22.342748 -44.022633 -3.661571
-8.254350 -20.742032 1.487978
-20.487433 -34.406894 1.596050
-46.510882 -67.540022 9.310176
-38.531132 -59.002653 9.204885
-5.640348 -10.150179 -0.301793
-12.297899 -24.395661 1.084945
-9.655165 -17.347326 0.040800
-1.401163 -2.790957 0.183225
-34.677713 -36.326811 11.963588
-32.065253 -42.949298 11.557607
-8.550910 -21.804381 -0.157272
-10.712917 -25.599704 -0.746583
-5.465527 -16.097571 0.380089
-19.086824 -10.854321 0.701938
-26.262836 -30.408601 9.652240
-14.043821 -4.970191 -1.281075
-26.600763 -46.222257 -5.454111
-0.616332 -2.194889 0.065582
-6.496610 -9.367937 -0.552315
-1.749587 -0.371370 -0.213895
-4.026936 -1.289004 1.587835
-2.092157 -0.345309 0.130990
-30.695318 -64.146673 2.886515
-34.122100 -75.432901 -2.953335
-32.966451 -45.429169 -5.462388
-27.934714 -43.429992 0.819177
-21.285454 -43.118662 0.751723
-13.201002 -28.975794 2.426569
-24.321782 -45.945007 5.073435
-21.306534 -42.616158 2.676412
-17.782356 -34.664322 3.497606
-16.066024 -31.062847 4.822526
-33.212230 -54.378191 8.536301
-32.856309 -48.607390 10.350952
-17.692392 -27.387350 9.138869
-39.134078 -34.612941 13.153829
-43.364721 -73.040200 8.941868
-43.348532 -59.164928 1.526468
-26.829546 -49.846854 5.475545
-21.441788 -44.031517 1.976687
-18.182305 -43.487098 1.669354
-30.646547 -41.773740 4.212496
-41.323754 -64.280135 -5.784971
-31.556989 -54.871772 -5.597019
-25.723321 -15.964219 4.928692
-27.061187 -41.887780 10.410827
-42.912870 -32.599719 11.156496
-20.312446 -20.834139 8.145982
-10.610725 -9.683739 4.473137
-12.409620 -6.745400 4.053264
-28.486809 -25.614755 3.894382
-8.325286 -17.186626 1.651524
-27.980000 -30.757258 1.446678
-2.730035 -1.835548 -0.111911
-2.979967 -0.386289 0.200584
-0.538939 -0.533675 0.396740
-0.139032 -0.371002 0.079001
-36.497782 -57.293271 0.126963
-36.751751 -69.806793 -0.678219
-32.014582 -44.209328 -5.527541
-21.880934 -43.187118 0.992938
-23.272452 -44.311191 1.415997
-10.773744 -28.177065 2.042421
-24.539742 -47.700952 4.026376
-21.016474 -50.087393 2.901903
-15.374273 -35.220090 3.002007
-15.024701 -36.525234 4.055031
-43.059385 -50.429451 10.485799
-30.356844 -41.839278 10.430224
-16.751372 -18.372413 6.301767
-36.999600 -43.014063 10.510442
-44.793783 -64.274508 8.775062
-33.707485 -55.858121 2.448200
-23.115644 -50.226555 4.688382
-21.222333 -37.296337 1.815003
-25.479979 -43.828478 1.164283
-26.416491 -44.634099 3.009979
-38.092874 -57.250604 -3.692807
-31.543069 -54.409691 -5.719231
-30.133941 -19.239948 6.195347
-36.025181 -42.435351 9.958530
-33.163603 -26.890148 9.735846
-14.911929 -17.167853 7.237922
-8.524403 -7.438647 4.960791
-17.170936 -9.091470 3.666925
-27.971940 -25.776004 4.803962
-35.805561 -64.913360 1.390072
-32.720011 -62.179611 -2.078639
-18.797301 -43.489712 1.296288
-12.305635 -23.828001 2.316276
-20.695266 -46.385392 4.379233
-15.378838 -30.537605 3.777559
-34.516504 -48.421855 10.234429
-30.955555 -35.512875 8.951276
-38.065350 -40.613402 12.656089
-35.602702 -67.267278 1.917943
-35.187409 -53.881197 5.699854
-28.987600 -36.501658 10.317045
-18.748892 -22.967005 6.596939
-32.526998 -54.878908 -7.054359
-0.792639 -2.827446 0.094745
-5.112914 -9.276361 -0.271557
-1.316854 -0.305214 -0.212973
-3.252096 -1.166472 1.302241
-2.314348 -0.337882 0.064439
-36.801757 -24.369019 7.981471
-11.012199 -7.602099 4.040832
-6.933493 -14.919666 0.669212
-28.159219 -32.340658 1.147159
-2.522670 -1.986647 -0.124275
-2.605532 -0.315191 0.190079
-0.355928 -0.530058 0.252200
0.024177 -0.374359 0.064266
-34.510645 -27.303649 9.554389
-16.410212 -8.442590 4.035482
-28.441680 -51.400347 -4.161805
-0.833001 -2.874896 0.125442
-4.826856 -9.090742 -0.234664
-0.921194 -0.347186 -0.176775
-3.098932 -0.963065 1.411012
-2.424808 -0.325898 0.012247
-6.968047 -17.675444 -0.046604
-24.151276 -25.204024 0.856543
-3.053000 -2.869482 -0.076842
-2.532304 -0.520324 0.308886
-0.232244 -0.586882 0.181130
0.134936 -0.321678 0.027178
-44.556645 -70.974188 -0.545036
-1.160354 -3.282338 0.156328
-5.346317 -10.386066 -0.161917
-0.508307 -0.421393 -0.153936
-2.918827 -0.806559 1.307684
-2.420506 -0.313535 -0.039990
-6.502195 -16.629545 -0.041506
-28.709726 -34.596333 0.658331
-2.634229 -3.506941 -0.061216
-1.576383 -0.171607 -0.013846
-0.180605 -0.525954 0.095029
0.169059 -0.364303 0.001581
-32.421477 -59.624288 2.925848
-1.485240 -4.224692 0.110642
-5.105903 -7.028437 -0.138507
-0.235853 -0.377365 -0.076226
-2.382997 -0.971030 1.229767
-2.276431 -0.293982 -0.111890
-7.398255 -15.879969 0.316681
-21.977702 -35.134877 0.715181
-3.173644 -3.598983 -0.058692
-3.069061 -0.646243 -0.329303
-0.235645 -0.398910 0.067101
0.170221 -0.298304 0.005324
-30.757603 -46.847949 3.631352
-1.849938 -4.999064 -0.013779
-4.763803 -7.674103 -0.107361
-0.153865 -0.368276 -0.001948
-2.254081 -1.065585 1.266455
-1.694466 -0.285373 -0.194968
-7.457708 -13.497870 0.941119
-24.784280 -36.206126 0.735254
-3.389003 -4.186516 -0.049201
-2.088956 -0.354458 -0.206693
-0.368600 -0.426788 0.079075
0.213779 -0.332318 0.038200
-25.542915 -47.537481 0.790622
-2.832556 -6.000186 -0.073130
-4.376614 -7.050740 -0.074740
-0.194398 -0.406592 0.054495
-2.608066 -1.102733 1.589398
-1.500515 -0.332539 -0.263349
-7.983987 -16.655055 1.480777
-27.483211 -31.679954 0.468628
-3.680647 -5.637384 -0.045266
-3.210162 -0.279448 -0.187233
-0.552949 -0.422725 0.157260
0.331775 -0.328186 0.065824
-4.006777 -5.453052 -0.056193
-25.968130 -48.732949 -0.773379
-3.308101 -6.889956 -0.068287
-0.334438 -0.428436 0.123111
-2.654786 -1.153836 1.400310
-0.923401 -0.367321 -0.256861
-8.147113 -17.174475 1.344874
-31.242804 -36.823391 0.112056
-3.565196 -0.326540 -0.134141
-0.775358 -0.441141 0.254853
0.518547 -0.335853 0.097497
-26.420972 -49.834417 -0.675893
-3.769460 -7.906004 -0.064990
-0.567609 -0.344095 0.104750
-3.254980 -0.980397 1.451968
-0.846478 -0.799013 -0.337836
-7.316016 -15.553222 0.871961
-29.966981 -35.960671 -0.174315
-2.848146 -0.386137 -0.094587
-0.859950 -0.409908 0.385139
0.762318 -0.350618 0.117139
-27.363936 -51.559756 0.766909
-4.134300 -8.824568 -0.027830
-0.785670 -0.364095 0.104391
-3.314401 -1.111037 1.465721
-0.257131 -0.478821 -0.178504
-11.042816 -19.572468 0.231458
-20.767099 -34.539968 -0.416382
-3.366289 -0.339091 -0.031089
-1.383885 -0.651605 0.526495
1.233740 -0.307434 0.121447
-23.135195 -42.831824 2.843001
-3.864730 -9.577134 0.018624
-0.962695 -0.350881 0.066809
-2.843568 -1.160966 1.509907
-0.074841 -0.348746 -0.039598
-10.969071 -19.374266 0.295986
-23.739434 -32.609651 -0.687406
-3.969950 -0.361858 -0.005279
-1.127629 -0.547170 0.630828
1.274984 -0.376527 0.108996
-26.654520 -57.984486 4.129260
-4.966633 -10.309911 0.025359
-1.259332 -0.339034 0.019399
-2.938144 -1.226339 1.555102
-0.029859 -0.396705 0.046249
-8.972207 -19.149432 0.350959
-22.716615 -30.084369 -0.725106
-3.972152 -0.363757 0.007422
-1.071699 -0.733184 0.635558
1.804714 -0.399373 0.054758
-26.023173 -40.377444 3.939617
-5.482131 -13.272432 0.034708
-1.034944 -0.331067 -0.039301
-3.022417 -1.583478 1.590656
-0.200320 -0.244988 0.079568
-8.833561 -18.929178 0.127921
-21.255823 -33.354275 -0.767802
-3.932505 -0.357252 0.023307
-0.530611 -0.928770 0.529174
1.633854 -0.347091 0.002806
-25.337837 -55.602401 2.387671
-6.095781 -11.791829 0.029415
-1.087542 -0.387772 -0.078032
-3.706895 -1.269935 1.866120
-0.325200 -0.292067 0.019794
-7.159511 -21.645596 -0.328146
-20.326585 -24.932492 -0.848307
-4.626321 -0.432277 0.041609
-0.162315 -0.912600 0.356798
1.705596 -0.301711 0.016630
-25.476279 -46.788484 0.216253
-6.776213 -12.491150 0.039965
-0.780694 -0.327531 -0.151352
-3.115413 -1.438573 1.521194
-0.254647 -0.343749 0.010236
-9.691018 -17.479889 -0.494858
-20.569444 -22.386818 -0.914764
-3.222687 -0.437893 0.034908
0.054788 -0.733305 0.122611
1.720606 -0.292524 0.013418
-32.832913 -60.450934 -2.719802
-9.032484 -13.160412 0.084791
-0.345878 -0.446752 -0.227135
-3.673695 -1.340495 1.786177
-0.338389 -0.420004 0.006849
-9.473835 -20.160105 -0.259543
-24.867183 -19.864806 -0.797531
-3.667244 -0.368121 0.029850
0.082118 -0.459200 -0.176148
1.715464 -0.289739 0.002931
-33.852026 -52.578035 -2.663422
-8.395538 -16.382127 0.197741
0.106201 -0.509601 -0.183666
-3.586350 -1.317870 1.489271
-0.245973 -0.328834 -0.013866
-8.987147 -16.108131 0.325073
-24.901449 -21.263558 -0.586165
-3.597851 -0.434984 0.018655
-0.305112 -0.408931 -0.144582
2.038026 -0.299337 0.009837
-29.652094 -55.639670 -0.812989
-9.115488 -16.591263 0.325237
0.325938 -0.448691 -0.067176
-3.059449 -1.168977 1.818421
-0.227501 -0.386550 -0.043541
-8.909526 -19.368153 0.795382
-25.242851 -19.429405 -0.317759
-4.244734 -0.349019 0.031177
-0.767814 -0.328929 0.084737
1.982064 -0.414573 -0.010269
-29.996454 -67.413796 0.894098
-11.399770 -16.732958 0.423675
0.324144 -0.406940 0.008625
-3.638066 -1.351291 1.809947
-0.115673 -0.341012 -0.070383
-8.851113 -16.178027 0.920872
-25.163660 -18.098731 0.080546
-4.135282 -0.401946 0.065675
-1.179249 -0.449493 0.275120
1.875931 -0.425623 -0.046922
-28.276225 -52.024838 3.795562
-11.440487 -16.540328 0.478302
0.324582 -0.400263 0.041322
-3.709070 -1.505244 1.899650
0.045561 -0.444222 -0.034509
-8.689090 -19.179242 0.797007
-20.119615 -18.191537 0.521706
-3.916420 -0.391611 0.157785
-1.327281 -0.654223 0.551730
1.781205 -0.400839 -0.027397
-27.400301 -59.410875 4.904275
-11.739153 -16.507540 0.599641
0.275728 -0.482678 0.034860
-3.085305 -1.466726 1.899549
0.085925 -0.498005 0.037355
-8.647368 -19.137534 0.627203
-22.469983 -18.880873 0.594143
-3.579536 -0.432128 0.237196
-1.710645 -0.747791 0.766333
1.468184 -0.383923 0.018440
-22.379826 -57.320312 3.471102
-12.177086 -13.199578 0.532643
0.134003 -0.427005 0.091502
-3.113855 -1.262885 1.896315
-0.104929 -0.394911 0.074476
-7.229197 -16.064092 0.324636
-17.442428 -16.472169 0.723896
-2.568181 -0.378236 0.183418
-2.105589 -0.702153 0.831498
1.536016 -0.336841 0.046989
-25.468888 -47.227635 2.694861
-10.502058 -13.545353 0.025577
-0.001707 -0.348763 0.067300
-3.059601 -1.134287 1.493509
-0.145391 -0.309173 0.041477
-7.321472 -16.253373 0.105102
-16.325145 -17.356206 0.861898
-1.910481 -0.367533 0.161495
-2.476735 -0.796642 1.035757
1.635152 -0.350318 0.036547
-25.123445 -47.083997 1.845292
-10.623489 -12.820049 -0.230467
-0.088909 -0.346551 0.042970
-2.998549 -1.028982 1.400194
-0.168844 -0.261778 -0.059579
-7.245592 -16.029162 0.087225
-15.392319 -18.438660 1.013909
-1.855755 -0.317438 0.148334
-2.740635 -0.907995 1.221163
1.689294 -0.350522 -0.023525
-25.039609 -47.247128 0.980428
-10.811620 -16.255978 -0.298977
-0.153014 -0.308388 0.029458
-2.452792 -0.821612 1.308450
0.012586 -0.457796 -0.213523
-7.130306 -15.648268 0.260510
-15.718353 -19.695923 0.778558
-1.985443 -0.536966 0.407592
-2.895451 -0.870934 1.361568
1.683271 -0.302529 -0.070482
-25.239581 -47.734772 0.263068
-11.833015 -17.843399 -0.237889
-0.219115 -0.288898 0.042955
-3.161442 -0.777120 1.178525
0.356930 -0.270598 -0.105180
-7.128785 -15.308134 0.652347
-15.985734 -20.303331 0.719002
-0.797481 -0.442067 0.178484
-2.934145 -1.104086 1.455807
1.238747 -0.382001 0.000911
-25.507456 -48.295504 -0.162151
-13.189571 -18.927487 -0.083273
-0.520358 -0.324409 0.130308
-2.399494 -0.863303 1.067071
0.567232 -0.251118 -0.063412
-7.541275 -18.676102 1.284560
-15.213344 -20.248065 0.270610
-0.672079 -0.543166 -0.033192
-2.357004 -1.170416 1.318576
1.667455 -0.435075 0.012660
-14.496180 -23.846386 0.046468
-25.611217 -48.589200 -0.155821
-0.688914 -0.353356 0.193834
-2.190765 -0.830077 0.971413
0.736921 -0.412864 0.063092
-8.804693 -17.554678 2.056405
-0.698441 -0.284578 -0.186654
-1.917674 -1.245847 1.502361
1.589712 -0.438216 -0.054795
-21.706630 -41.214270 0.080690
-1.086538 -0.394357 0.200299
-2.014798 -0.704900 0.901321
0.547470 -0.226390 0.000794
-7.396904 -18.040687 1.258906
-1.979879 -0.268335 -0.305918
-1.320178 -0.997148 1.145321
1.363713 -0.493119 -0.118499
-24.895756 -47.295211 0.481692
-1.656982 -0.282208 0.171229
-1.837217 -0.832335 0.859712
0.689296 -0.279758 -0.106750
-8.451225 -15.605747 0.398468
-2.108997 -0.312916 -0.232167
-0.903052 -1.012514 0.807805
0.867420 -0.381693 -0.144600
-24.159951 -45.836759 1.089817
-2.060071 -0.297236 0.136743
-1.501609 -0.759775 0.880288
0.866684 -0.294415 -0.161568
-7.813688 -16.944797 0.231663
-2.347283 -0.241957 -0.120245
-0.767093 -0.715068 0.459128
0.836018 -0.320005 -0.123184
-20.588548 -45.274546 1.554482
-2.016321 -0.247085 0.075246
-1.817806 -0.853057 0.998118
1.371951 -0.416253 -0.169929
-7.489103 -13.595199 0.625778
-2.838601 -0.261699 -0.002764
-0.509886 -0.661716 0.304056
0.459329 -0.264609 -0.032538
-20.663752 -45.356051 1.752882
-2.398220 -0.231996 -0.050968
-1.997494 -1.091915 0.992975
1.419419 -0.410141 -0.053636
-7.534432 -15.243108 1.147593
-2.717592 -0.329394 0.099257
-0.556000 -0.564069 0.282803
0.555642 -0.318378 0.049865
-24.435242 -45.746973 2.431373
-2.609074 -0.277540 -0.184811
-2.242702 -1.139436 1.307221
1.778488 -0.222000 0.025848
-6.803762 -15.581375 2.121984
-2.421653 -0.356924 0.155797
-0.659639 -0.457581 0.251350
0.750843 -0.346549 0.118600
-24.698411 -46.081545 2.275709
-1.768556 -0.296663 -0.261020
-2.497141 -0.968330 1.400964
1.765018 -0.251008 0.014048
-8.511281 -16.395303 2.470499
-1.700983 -0.389529 0.213854
-0.699389 -0.518478 0.312431
1.060823 -0.388966 0.166702
-29.547888 -46.018958 2.537642
-0.887990 -0.432973 -0.172659
-2.679010 -1.092035 1.419838
1.722003 -0.332162 0.006836
-8.857022 -17.429414 2.227890
-0.969813 -0.216841 0.142459
-0.631746 -0.453795 0.389329
1.152655 -0.418557 0.138653
-24.226474 -45.522190 1.825067
-0.866559 -0.505506 -0.057228
-2.739705 -1.076030 1.372160
1.710837 -0.328464 -0.003824
-9.305230 -19.030879 1.627287
-1.497075 -0.710368 0.280265
-0.889527 -0.551796 0.406338
1.558008 -0.442987 0.067278
-0.728206 -0.509383 0.064849
1.678966 -0.364097 0.002177
-23.900083 -38.815058 0.717576
-2.302350 -1.064284 1.300991
-8.770302 -18.448999 1.137050
-1.145545 -0.504269 0.349671
-29.166735 -55.178485 -0.831179
-2.255215 -1.027209 1.494460
-8.325827 -15.307973 0.754857
-2.154775 -0.653342 0.715424
-24.650149 -46.422045 -1.642224
-2.564979 -0.975908 1.191644
-7.776480 -16.940196 0.479027
-1.882535 -0.629614 0.811781
-24.901945 -56.238681 -1.881289
-2.442202 -0.812446 1.374715
-7.452224 -16.168795 0.465541
-2.500621 -0.796285 0.966891
-25.352845 -57.428975 -1.746013
-2.817412 -0.930591 0.981608
-7.293457 -15.421788 0.867449
-2.233999 -1.076138 1.064920
-2.275535 -0.916274 1.117590
-26.422388 -49.945335 -0.958966
-8.714731 -17.695345 1.494177
-27.121210 -43.920600 -0.394749
-9.105322 -14.551932 2.211003
-32.004557 -50.417509 0.248842
-9.957213 -12.649511 3.540577
-33.890992 -63.275071 2.190333
-9.397753 -15.461575 3.510622
-29.367971 -63.850919 4.937768
-12.666826 -20.125743 3.900097
-26.238023 -48.486724 2.806254
-15.000352 -26.462384 4.340282
-30.786847 -48.000385 1.120709
-10.434895 -17.494332 2.710662
-30.310151 -57.244276 -0.535085
-9.809817 -19.696070 1.881036
-25.056476 -47.305228 -1.182939
-9.486038 -22.914911 1.884740
-24.937827 -40.511849 -1.020628
-8.813794 -18.467442 1.431883
-29.337513 -46.444035 0.374745
-9.752631 -17.142691 0.913604
-29.097705 -45.660545 1.986187
-8.127393 -19.091819 1.369956
-24.484690 -45.692799 3.087266
-7.681517 -14.200608 2.729402
-25.454349 -56.037519 3.569344
-9.783115 -16.558249 3.741557
-24.968933 -55.241927 3.250350
-9.108565 -16.546091 3.687933
-28.992502 -45.267115 2.075238
-12.344463 -14.310258 4.147150
-23.801916 -54.116325 0.771811
-11.997709 -19.287884 5.604738
-24.315342 -45.997246 -0.553794
-16.255864 -22.711706 6.040259
-32.002632 -50.318224 -0.422190
-14.053009 -20.794200 5.014174
-29.787726 -66.746735 2.047556
-14.443765 -26.072247 5.047508
-37.017078 -68.210868 3.639058
-15.035892 -29.029399 5.336694
-29.778503 -63.444892 5.059457
-8.679950 -11.827969 2.573114
-23.694546 -56.994228 7.221728
-18.034340 -21.796971 6.884520
-29.717284 -42.915857 6.316502
-14.186022 -15.987961 5.542768
-28.191245 -49.784894 3.568312
-14.815373 -16.927083 5.703156
-24.117459 -36.937096 0.780206
-15.380920 -17.730715 5.842466
-40.079536 -75.380776 -1.345468
-13.276061 -21.934388 6.002987
-36.201869 -67.090745 2.192538
-13.555328 -22.052643 6.127630
-23.763535 -51.387046 3.110460
-13.931379 -22.173280 6.291629
-36.078364 -63.848650 6.206392
-15.325984 -19.902096 6.791837
-41.868478 -62.811862 6.422154
-17.493416 -22.760038 6.537294
-26.319329 -58.504028 2.677274
-14.483204 -17.431366 5.457591
-25.883399 -57.744724 3.293646
-18.985850 -18.745440 7.012828
-31.461393 -57.556059 4.302169
-25.874628 -34.119071 9.373219
-30.585382 -53.079647 6.359285
-18.637064 -24.185378 5.726720
-31.072765 -50.973516 7.948799
-15.043481 -23.540961 6.696955
-31.261551 -50.040634 8.538862
-18.402269 -19.710316 6.810254
-31.304682 -49.615079 8.743281
-18.734101 -23.618987 6.916979
-25.766847 -49.388641 8.535603
-19.168090 -24.110656 7.039943
-30.113313 -49.337531 7.914826
-16.977374 -26.389494 7.345885
-24.336225 -41.298603 7.003593
-20.709417 -28.165589 7.329569
-28.366192 -49.611261 5.082848
-17.318542 -29.368908 7.219060
-23.061265 -41.178153 4.480929
-17.099114 -24.683402 5.885519
-22.626153 -41.018771 3.989318
-16.571271 -23.940267 5.747736
-22.356891 -40.920299 3.650086
-16.400180 -23.772287 5.692405
-22.463401 -41.397853 3.307480
-16.386367 -23.729714 5.693265
-22.804904 -42.306157 2.970903
-16.294096 -23.526858 5.681279
-23.285482 -43.245555 2.726984
-16.620081 -23.763766 5.802052
-24.237084 -44.877746 2.677126
-16.702701 -23.681879 5.853580
-24.791323 -45.286650 3.487979
-16.764286 -23.361247 5.923673
-25.815723 -45.978120 4.647903
-14.707473 -23.857961 5.174579
-27.124884 -46.417928 6.043705
-17.364675 -24.007023 6.107749
-26.350315 -42.717001 6.978394
-17.517388 -23.849280 6.188317
-30.423604 -39.307198 7.390617
-17.792683 -24.074639 6.278123
-24.223953 -36.768367 6.293433
-18.262205 -24.840807 6.393010
-23.120153 -35.109526 7.071867
-18.801719 -26.160927 6.471252
-22.076259 -34.692089 5.570734
-16.490706 -27.462875 5.562487
-21.808134 -37.205459 5.200332
-16.626001 -24.117027 6.454748
-20.978293 -37.113459 4.497694
-19.433919 -28.557369 6.395754
-21.479784 -37.987151 5.493688
-23.264905 -28.512572 5.464147
-32.059922 -54.152793 7.755271
-19.259205 -28.223080 6.353551
-29.210450 -46.019211 6.890050
-19.325945 -28.704055 6.286674
-28.773779 -45.428779 7.903232
-19.479463 -29.629952 6.164183
-24.728749 -45.409676 6.827872
-16.678394 -30.402750 5.951428
-24.459880 -44.247985 8.104300
-16.627185 -26.616570 5.718215
-31.120161 -55.621574 10.600125
-16.398489 -31.444702 5.404531
-25.878650 -46.074807 6.802426
-16.452342 -27.550708 5.189490
-24.489735 -30.354044 7.779709
-18.832525 -32.105885 4.872285
-23.601986 -29.690598 6.388367
-19.089906 -32.798650 4.850147
-22.727013 -34.273069 7.040086
-19.234072 -33.618947 4.587193
-22.068289 -33.945649 6.717551
-19.510846 -34.061285 4.640411
-18.634445 -29.539304 7.626714
-14.536068 -28.007499 4.430990
-20.920250 -32.946034 5.342909
-19.632665 -32.087622 5.598949
-20.175548 -31.281989 5.317039
-17.036432 -31.613951 5.928554
-20.869587 -31.191927 6.644177
-20.089131 -26.723533 5.306574
-20.322179 -30.449400 6.499307
-20.175611 -30.686910 6.363565
-17.946302 -33.080950 3.127585
-43.715091 -84.972056 8.710790
-21.636476 -41.379442 -1.168922
-1.639430 -3.612333 -0.905971
-33.965907 -41.804072 7.939457
-11.878216 -19.858219 1.559342
-2.110487 -6.633052 0.731323
-41.072614 -48.227542 6.240360
-25.267369 -28.112139 9.696579
-36.191747 -62.757874 1.428066
-31.052882 -45.356232 3.527279
1.259770 -2.906313 0.031490
-13.584228 -26.257505 1.034308
-6.564890 -5.203808 2.199332
-24.606836 -48.847222 -0.510672
-17.513207 -37.070263 0.864742
-7.989362 -13.292799 -0.677001
-27.813362 -49.579094 -3.702202
-39.157125 -41.138875 13.188523
-46.106622 -70.012306 -0.457643
-31.834183 -62.076651 2.568092
-34.339804 -49.315498 -2.853506
-16.565362 -10.574057 6.439506
-37.244053 -40.815099 12.895757
-34.249151 -56.163362 4.330303
-37.294405 -34.195056 11.908786
-33.899365 -56.547064 -0.798020
-17.257751 -13.428478 5.537545
-35.557841 -66.318721 4.968003
-27.576610 -54.254632 2.846759
-28.133934 -66.341341 3.911210
-40.343200 -78.197709 3.160475
-39.529189 -73.553797 -1.146552
-37.486489 -46.685045 10.675360
-14.967141 -25.295849 5.478798
-34.890012 -29.123532 10.495085
-31.302487 -38.104506 13.872781
-36.501881 -42.437002 11.281136
-15.256672 -32.241595 2.476180
-13.304960 -11.517183 6.993711
-43.666670 -81.249838 4.950390
-34.803068 -78.824239 6.329418
-31.922685 -58.844924 -3.671763
-22.368041 -20.666575 8.864015
-45.223991 -60.245757 4.523188
-45.262827 -70.101962 5.878121
-39.066939 -83.599959 3.015715
-36.938896 -29.904498 8.552422
-3.018754 -4.393925 0.511661
-43.231598 -63.098455 11.704257
-51.453774 -77.814882 6.023476
-35.116902 -48.499132 -1.473893
-40.316998 -65.714321 1.780036
-35.456867 -40.998640 15.083843
-31.443970 -62.633371 2.605589
-24.295362 -49.199540 1.893453
-36.182603 -39.460108 13.281169
-31.080187 -32.518423 13.396451
-24.408781 -59.425017 1.048356
-3.542570 -5.162454 0.514908
-37.333512 -61.303998 1.089039
-32.923677 -26.938744 7.743000
-45.978012 -54.623894 13.842842
-31.057566 -55.123352 0.010018
-35.705098 -68.489115 -1.481471
-27.639161 -46.694350 3.941385
-40.758682 -61.330049 13.538000
-36.820336 -37.321511 13.161671
-47.880227 -78.846146 2.349652
-42.665163 -82.195927 -1.447844
-49.716441 -92.176011 6.066931
-36.810835 -44.940006 7.411109
-48.448520 -91.446200 0.257895
-41.574755 -80.316165 -0.929425
-41.527365 -75.596486 8.587257
-53.725464 -98.496381 5.745234
-30.412280 -57.875011 5.372781
-29.638401 -54.382007 6.909355
-48.723737 -92.380027 -1.709227
-23.843934 -48.017037 2.575333
-46.037774 -86.449978 -0.661338
-36.149457 -49.940266 11.249731
-17.000087 -32.752509 4.942146
-25.180000 -49.019014 3.716553
-38.947198 -74.805182 0.471149
-38.470340 -69.020075 -0.121145
-24.689143 -40.712910 2.530615
-15.626346 -32.110399 3.688681
-28.562910 -28.212986 10.176773
-15.364559 -31.788106 3.554582
-49.685587 -88.448720 7.876543
-44.331525 -69.621331 5.693827
-28.568434 -46.431143 0.157125
-35.524637 -69.266476 1.013303
-39.325608 -70.370585 3.071406
-5.029250 -15.275390 -0.977463
-6.063550 -17.015243 0.725959
-14.948934 -27.437121 5.385196
-6.575781 -12.905525 0.806857
-25.245334 -26.297229 9.557870
-15.418362 -26.363829 4.367826
-17.754221 -11.598289 5.617499
-19.492959 -11.577457 1.270524
-42.134025 -39.560390 13.398152
-14.533788 -21.233132 2.551054
-35.160729 -31.294445 12.129268
-39.357922 -101.676318 4.538747
-29.306636 -42.235964 10.533725
-36.650666 -49.699931 12.826898
-8.753978 -20.884718 -1.231325
-35.240574 -70.756961 8.617740
-47.571900 -75.344244 1.667036
-4.648874 -13.686080 1.124432
-16.202586 -32.565335 4.119200
-40.887606 -65.884023 4.216351
-2.019214 -3.147203 0.503651
-12.265749 -20.023747 2.235072
-29.937585 -41.564890 10.218746
-39.580498 -61.840330 0.967275
-34.700866 -55.196986 9.019524
-27.225379 -46.025556 0.123796
-23.634607 -40.951130 1.908948
-36.085491 -30.548579 10.350402
-40.647172 -35.619433 13.406149
-24.865381 -49.268417 3.112842
-41.147042 -71.823001 -3.906728
-26.128768 -50.237715 3.691422
-52.750386 -80.322526 14.817517
-6.820702 -17.627031 0.636463
-46.650519 -84.501813 6.422432
-45.529901 -84.699418 2.641490
-30.678827 -47.797364 8.793515
-11.661088 -19.648363 3.010824
-39.942929 -69.154176 9.671441
-42.776963 -80.202732 1.579560
-14.189525 -31.727271 -0.019125
-43.317194 -69.164775 1.166880
-4.962873 -15.052104 -1.253957
-45.199334 -81.353288 6.950635
-21.199694 -28.098550 6.886592
-11.002447 -25.998995 -0.885431
-25.398838 -51.454741 0.404502
-16.633735 -32.711376 4.557802
-21.257212 -37.202294 8.325627
-15.638721 -25.439476 6.984312
-17.699128 -9.800439 5.276893
-8.019613 -20.777659 0.693508
-25.331840 -49.730998 3.449854
-10.899001 -12.230094 2.815779
-28.783117 -25.550514 11.108280
-16.717311 -12.199239 6.014348
-17.256814 -19.190789 7.030600
-40.287273 -61.914353 13.195361
-59.799191 -104.823255 -10.005961
-25.942308 -57.375748 6.711504
-7.226797 -23.216984 0.654886
-25.244749 -50.480739 0.935905
-46.612502 -57.504243 0.560045
-28.746940 -30.026350 8.855182
-5.717200 -17.610885 -1.330632
-5.601437 -19.648856 1.156468
-43.417960 -77.804429 5.262571
-14.863234 -10.371943 5.521342
-22.878735 -55.884330 2.428515
-37.039281 -86.251284 0.679151
-34.707659 -32.166696 13.384895
-35.641917 -32.661065 10.206431
-58.554819 -88.517670 8.334972
-17.763791 -39.188075 0.637863
-42.651839 -51.315582 14.405303
-25.617619 -44.831122 4.208638
-29.220345 -43.505230 8.262427
-15.923737 -36.068028 -0.560106
-18.052961 -40.913912 6.407959
-31.565968 -50.067642 4.120949
-35.184225 -80.276329 -4.801671
-22.687580 -52.919592 5.406981
-18.913208 -34.410818 0.887925
-11.237323 -23.066602 0.808834
-30.687063 -59.163456 -3.378406
-31.285317 -61.537782 -0.347843
-17.994665 -38.213267 0.280994
-35.555635 -46.438064 12.634383
-2.170252 -8.855630 0.462213
-34.307179 -64.563797 5.497664
-46.669417 -86.932211 4.113723
-39.369582 -71.954475 6.805229
-2.085537 -2.804777 0.479796
-7.658499 -14.503319 1.245028
-31.898393 -43.983245 5.829394
-29.656583 -58.105360 2.240083
-37.928994 -53.739042 0.042622
-25.148183 -22.190197 8.717193
-5.496031 -16.170769 -1.051925
-37.903864 -72.152135 3.522366
-42.444838 -69.859542 7.882886
-40.023427 -41.483194 12.905664
-37.181486 -32.263960 9.691210
-4.433606 -15.313408 1.683482
-5.729410 -14.164868 0.759579
-18.932262 -32.281627 3.741901
-9.023708 -22.556610 0.701591
-18.497764 -27.675198 7.520563
-12.535216 -19.391245 2.022253
-14.194895 -30.077158 1.991749
-10.977838 -17.046359 1.498996
-47.651140 -88.811974 2.453402
-40.645223 -74.467490 1.368331
-40.742856 -42.675838 12.217054
-34.314427 -40.851455 12.327978
-13.131687 -25.396686 0.895936
-30.253745 -25.067634 9.563014
-43.808327 -77.511807 7.454258
-24.159110 -44.830593 -0.792529
-21.383015 -41.819125 -3.567504
-22.225522 -43.082857 4.550085
-26.167125 -44.282216 -0.664220
-23.423245 -40.709869 -2.478930
-38.563378 -67.018596 7.193836
-12.050331 -27.706158 1.009521
-33.174397 -64.959310 -0.543559
-21.564499 -40.853385 -5.188669
-21.647463 -16.627127 2.182742
-13.150609 -21.464243 2.305645
-32.925257 -58.386389 8.112328
-14.258560 -26.358519 1.095660
-13.786410 -25.496549 2.201623
-29.387811 -40.367287 -0.232683
-24.516652 -46.036655 -4.573162
-44.530982 -71.214830 4.445063
-18.843364 -26.041463 7.746924
-23.189233 -46.717149 2.770235
-41.112933 -67.371965 11.462158
-37.351271 -66.058737 6.898515
-17.910033 -32.690672 6.947511
-18.558692 -36.195207 3.080424
-17.360869 -29.518671 2.789067
-24.218951 -57.472607 4.115638
-60.928149 -83.840549 13.899850
-3.844965 -15.799185 0.867437
-14.510692 -29.752428 2.131691
-6.999265 -18.383231 -1.966411
-10.890418 -26.334687 -1.834037
-36.173621 -62.488360 7.822362
-9.600253 -28.291846 0.662043
-57.628890 -103.875715 6.323726
-21.436302 -47.065084 -5.952627
-53.918025 -76.959823 7.099973
-37.197496 -97.826672 3.691985
-14.123399 -23.683934 0.527792
-44.079793 -68.305601 13.244445
-24.919321 -24.380986 6.130812
-15.105305 -32.445921 0.922820
-32.364501 -32.968711 11.394916
-24.051364 -43.377682 4.162388
-40.656554 -67.718072 -0.706407
-17.532781 -22.911075 7.552561
-30.288655 -28.815760 9.979717
-12.707862 -29.019547 -0.641308
-11.784369 -27.182495 1.321467
-46.952646 -80.110886 4.097290
-41.953387 -80.057506 -2.541512
-36.083860 -75.801372 -5.489433
-3.110453 -14.384800 0.617269
-50.571699 -62.458353 8.133004
-42.059635 -49.161945 14.574790
-23.825300 -22.155752 3.915432
-16.097216 -32.980184 1.970543
-9.483175 -23.224786 -0.762347
-29.971583 -59.061624 8.296012
-30.908397 -69.629560 1.994150
-29.251173 -39.478283 10.242627
-5.550252 -16.481910 -0.455962
-10.989712 -26.129533 -0.071825
-35.311463 -53.659793 7.148307
-38.100714 -51.511546 11.182214
-2.136492 -8.778042 0.636305
-34.031655 -42.578216 12.190612
-3.903399 -1.274854 0.134877
-1.763218 -6.879666 1.308079
-57.327033 -82.182784 10.788476
-2.410965 -10.782607 0.350625
-33.867021 -68.934806 6.990412
-20.838394 -37.030707 -6.086105
-13.128572 -21.537283 5.819161
-3.317959 -12.501854 0.487072
-29.739733 -57.763519 1.027828
-35.063342 -67.970923 1.785502
-7.008228 -16.663521 1.089341
-18.410977 -25.429259 6.877501
-14.222909 -26.256951 1.015120
-40.100827 -73.115622 6.942287
-13.422070 -30.320654 -1.688756
-67.144076 -89.587325 17.847120
-29.841000 -14.720463 4.735168
-41.285692 -77.255636 -6.661899
-28.055010 -53.948099 -0.659310
-41.525560 -78.933227 2.493582
-6.422220 -20.803341 -1.883172
-6.402801 -19.053384 -0.897718
-32.965988 -58.677310 9.595656
-16.445351 -33.728287 1.949437
-26.181705 -52.889848 0.132708
-5.788950 -11.481509 1.839741
-15.000759 -37.073338 0.412036
-29.262212 -32.493705 8.841094
-30.162202 -30.709320 9.907615
-12.273521 -26.758286 0.362008
-15.402870 -7.237794 1.688062
-39.345644 -75.843601 0.034322
-2.585804 -11.063564 0.236873
-15.701673 -32.791196 1.422263
-28.796852 -19.818427 9.451732
-32.334095 -51.404337 15.699808
-19.924042 -32.858563 -0.360689
-31.792431 -69.770582 3.148484
-12.794646 -8.900460 5.097819
-30.767292 -59.714763 0.620358
-29.429644 -53.812274 9.365213
-13.457967 -16.976421 2.560848
-8.786867 -18.810025 1.072311
-17.939608 -35.190077 0.819550
-36.201686 -62.049741 6.048777
-45.298228 -81.806908 8.010690
-25.536518 -42.988597 3.435583
-9.566983 -17.643140 3.238490
-9.481709 -13.830334 2.842814
-21.329786 -43.020680 1.726998
-48.708089 -90.008198 4.814890
-18.457330 -11.787819 0.589981
-20.283144 -9.128869 0.419389
-51.026953 -73.429327 7.781897
-3.340705 -15.088749 0.365036
-45.617684 -71.483303 4.995255
-41.498170 -92.250681 2.611821
-11.771460 -20.426727 2.850428
-5.534887 -21.599931 -0.353523
-31.518360 -58.688398 10.287286
-46.583654 -85.144287 -0.036407
-31.217902 -62.908926 0.329670
-31.259967 -44.863910 10.575670
-64.391488 -87.826827 16.318192
-11.011849 -25.796505 1.347201
-26.962415 -47.737981 7.112083
-14.887245 -8.043789 0.273075
-16.887674 -30.940544 4.292360
-14.552253 -30.865737 3.043272
-36.737378 -43.719683 -0.501521
-29.305785 -30.154000 8.054168
-24.636908 -42.271925 1.743047
-33.124867 -65.460764 10.197160
-19.170006 -38.122347 -0.720979
-3.423916 -6.257204 0.230425
-12.869240 -19.871506 3.160493
-7.433213 -18.834892 0.510907
-36.666466 -61.144196 0.626232
-48.711763 -89.096745 5.885463
-11.731315 -16.522989 5.865949
-26.612321 -46.186062 2.981335
-32.126604 -72.269615 -0.089732
-20.422561 -23.185366 8.947804
-30.872341 -30.494531 10.855273
-26.788869 -54.805522 1.799163
-60.968494 -94.395061 13.660870
-10.753465 -19.194328 2.880287
-55.096067 -82.643802 18.739207
-36.461525 -71.014759 -3.173802
-19.447117 -15.264955 6.951382
-35.390477 -15.848759 6.189665
-3.989331 -1.484488 -0.039861
-1.521823 -9.167922 -0.561484
-16.504889 -32.463819 4.589081
-13.813605 -25.437149 6.742933
-45.203331 -84.013869 5.067361
-5.097271 -2.732180 2.876792
-9.507178 -23.877327 0.276209
-22.915685 -53.422427 -1.631820
-47.426717 -59.559303 -2.882421
-6.480339 -9.369379 1.496021
-31.067225 -69.593667 6.132658
-3.441002 -8.956271 0.903495
-5.383499 -15.993531 -0.281550
-3.662500 -1.302352 0.416343
-2.108545 -9.593879 1.395426
-31.723217 -47.981202 6.596761
-8.189498 -7.392425 2.722149
-18.186235 -36.829873 -0.846715
-4.245814 -8.316383 0.986287
-30.806148 -55.189179 8.315803
-0.628824 -8.961773 -0.618337
-5.562585 -4.010109 0.852168
-28.917520 -52.794255 7.108200
-21.614960 -60.861175 0.318703
-38.266572 -72.633347 -1.033042
-39.800783 -76.633146 1.326673
-37.177914 -81.666504 4.016324
-10.438567 -15.903134 1.199296
-38.574708 -72.622043 3.973265
-13.975417 -28.835353 4.575207
-8.465145 -21.556583 0.698717
-40.301500 -74.621671 5.323788
-6.864892 -22.162744 -0.655910
-32.742569 -53.640431 -1.611941
-15.611760 -29.272754 1.304370
-32.531464 -54.927890 11.998899
-5.991855 -17.212434 -0.233413
-30.117201 -58.686784 1.409073
-35.730687 -35.534755 13.464620
-35.442027 -36.673402 11.833760
-3.041066 -2.873058 0.629639
-38.543351 -68.272336 6.501075
-47.577937 -88.344833 3.161430
-60.378063 -94.343634 1.254912
-23.310458 -51.661254 -5.273473
-1.271204 -4.204279 -0.372747
-52.783315 -95.433973 8.029342
-33.731296 -77.339170 4.939050
-10.228684 -10.529318 2.611799
-3.172635 -11.716679 -0.762711
-52.553179 -87.146396 10.995365
-17.739394 -11.625537 2.149322
-7.159264 -17.837712 0.226266
-6.708256 -2.554120 2.779622
-8.437072 -19.622003 2.364971
-27.053008 -35.877440 2.297856
-46.715008 -75.181749 -3.674820
-Inf -Inf Inf
-Inf -Inf Inf
-Inf -Inf -Inf
-Inf -Inf Inf
-Inf -Inf Inf
-Inf -Inf Inf
-Inf -Inf Inf
-Inf -Inf Inf
-Inf -Inf Inf
-Inf -Inf Inf
-Inf -Inf Inf
-Inf -Inf Inf
-Inf -Inf -Inf
-Inf -Inf Inf
-Inf -Inf Inf
-Inf -Inf -Inf
-Inf -Inf Inf
-Inf -Inf Inf
-Inf -Inf Inf
-Inf -Inf -Inf
-Inf -Inf Inf
-Inf -Inf Inf
-Inf -Inf Inf
-Inf -Inf Inf
-Inf -Inf Inf
-Inf -Inf -Inf
-Inf -Inf Inf
-Inf -Inf Inf
-Inf -Inf Inf
-Inf -Inf Inf
-Inf -Inf Inf
-Inf -Inf -Inf
-Inf -Inf Inf
-Inf -Inf Inf
-Inf -Inf -Inf
-Inf -Inf Inf
-Inf -Inf Inf
-Inf -Inf Inf
-Inf -Inf Inf
-Inf -Inf Inf
-Inf -Inf Inf
-Inf -Inf Inf
-Inf -Inf Inf
-Inf -Inf Inf
-Inf -Inf Inf
-Inf -Inf Inf
-Inf -Inf -Inf
-Inf -Inf Inf
-Inf -Inf Inf
-Inf -Inf -Inf
-Inf -Inf -Inf
-Inf -Inf -Inf
Inf -Inf Inf
-Inf -Inf Inf
-Inf -Inf -Inf
-Inf -Inf Inf
-Inf -Inf Inf
-Inf -Inf Inf
-Inf -Inf -Inf
-Inf -Inf Inf
-Inf -Inf Inf
-Inf -Inf Inf
-Inf -Inf Inf
-Inf -Inf Inf
-Inf -Inf -Inf
-Inf -Inf Inf
-Inf -Inf Inf
-Inf -Inf Inf
-Inf -Inf Inf
-Inf -Inf -Inf
-Inf -Inf -Inf
-Inf -Inf Inf
-Inf -Inf Inf
-Inf -Inf Inf
-Inf -Inf Inf
-Inf -Inf -Inf
-Inf -Inf Inf
-Inf -Inf Inf
-Inf -Inf Inf
-Inf -Inf Inf
-Inf -Inf Inf
-Inf -Inf Inf
-Inf -Inf -Inf
-Inf -Inf Inf
-Inf -Inf Inf
-Inf -Inf Inf
-Inf -Inf Inf
-Inf -Inf Inf
-Inf -Inf -Inf
-Inf -Inf Inf
-Inf -Inf Inf
-Inf -Inf Inf
-Inf -Inf -Inf
-Inf -Inf Inf
-Inf -Inf Inf
-Inf -Inf -Inf
-Inf -Inf -Inf
-Inf -Inf Inf
-Inf -Inf -Inf
-Inf -Inf Inf
-Inf -Inf Inf
-Inf -Inf Inf
-Inf -Inf -Inf
-Inf -Inf -Inf
-Inf -Inf Inf
-Inf -Inf Inf
-Inf -Inf -Inf
-Inf -Inf Inf
-Inf -Inf Inf
-Inf -Inf Inf
-Inf -Inf -Inf
-Inf -Inf Inf
-Inf -Inf -Inf
-Inf -Inf Inf
-Inf -Inf Inf
-Inf -Inf Inf
-Inf -Inf Inf
-Inf -Inf Inf
-Inf -Inf Inf
-Inf -Inf Inf
-Inf -Inf Inf
-Inf -Inf Inf
-Inf -Inf -Inf
-Inf -Inf Inf
-Inf -Inf -Inf
-Inf -Inf Inf
-Inf -Inf Inf
-Inf -Inf Inf
-Inf -Inf Inf
-Inf -Inf Inf
-Inf -Inf Inf
-Inf -Inf -Inf
-Inf -Inf Inf
-Inf -Inf -Inf
-Inf -Inf Inf
-Inf -Inf -Inf
-Inf -Inf Inf
-Inf -Inf Inf
-Inf -Inf Inf
-Inf -Inf -Inf
-Inf -Inf Inf
Inf -Inf Inf
-Inf -Inf Inf
-Inf -Inf Inf
-Inf -Inf -Inf
-Inf -Inf Inf
-Inf -Inf -Inf
-Inf -Inf Inf
-Inf -Inf -Inf
-Inf -Inf Inf
-Inf -Inf Inf
Inf -Inf Inf
-Inf -Inf -Inf
-Inf -Inf Inf
-Inf -Inf Inf
-Inf -Inf Inf
-Inf -Inf Inf
-Inf -Inf -Inf
-Inf -Inf -Inf
-Inf -Inf -Inf
-Inf -Inf -Inf
-Inf -Inf Inf
-Inf -Inf Inf
-Inf -Inf Inf
-Inf -Inf Inf
-Inf -Inf Inf
-Inf -Inf -Inf
-Inf -Inf Inf
-Inf -Inf Inf
-Inf -Inf Inf
-Inf -Inf Inf
-Inf -Inf Inf
-Inf -Inf Inf
-Inf -Inf Inf
-Inf -Inf -Inf
-Inf -Inf -Inf
-Inf -Inf Inf
-Inf -Inf -Inf
-Inf -Inf Inf
-Inf -Inf Inf
-Inf -Inf -Inf
Inf -Inf Inf
-Inf -Inf -Inf
Inf -Inf Inf
-Inf -Inf Inf
-Inf -Inf Inf
-Inf -Inf Inf
-Inf -Inf -Inf
Inf -Inf Inf
-Inf -Inf Inf
-Inf -Inf Inf
-Inf -Inf Inf
-Inf -Inf -Inf
-Inf -Inf Inf
-Inf -Inf Inf
-Inf -Inf -Inf
-Inf -Inf Inf
-Inf -Inf Inf
-Inf -Inf Inf
-Inf -Inf -Inf
-Inf -Inf Inf
-Inf -Inf Inf
-Inf -Inf Inf
-Inf -Inf Inf
-Inf -Inf Inf
-Inf -Inf Inf
-Inf -Inf Inf
-Inf -Inf Inf
-Inf -Inf Inf
-Inf -Inf Inf
-Inf -Inf Inf
-Inf -Inf Inf
-Inf -Inf Inf
-Inf -Inf -Inf
-Inf -Inf -Inf
-Inf -Inf Inf
-Inf -Inf Inf
-Inf -Inf Inf
-Inf -Inf Inf
-Inf -Inf Inf
-Inf -Inf Inf
-Inf -Inf Inf
-Inf -Inf Inf
-Inf -Inf Inf
-Inf -Inf Inf
-Inf -Inf Inf
-Inf -Inf Inf
-Inf -Inf Inf
Inf -Inf -Inf
-Inf -Inf Inf
-Inf -Inf Inf
-Inf -Inf -Inf
-Inf -Inf Inf
-Inf -Inf Inf
-Inf -Inf Inf
-Inf -Inf Inf
-Inf -Inf Inf
-Inf -Inf Inf
-Inf -Inf Inf
-Inf -Inf -Inf
-Inf -Inf Inf
-Inf -Inf Inf
-Inf -Inf Inf
-Inf -Inf -Inf
-Inf -Inf Inf
-Inf -Inf Inf
-Inf -Inf -Inf
-Inf -Inf -Inf
-Inf -Inf Inf
-Inf -Inf -Inf
-Inf -Inf -Inf
-Inf -Inf -Inf
-Inf -Inf -Inf
-Inf -Inf -Inf
-Inf -Inf -Inf
-Inf -Inf Inf
-Inf -Inf Inf
-Inf -Inf Inf
-Inf -Inf -Inf
-Inf -Inf -Inf
-Inf -Inf Inf
-Inf -Inf Inf
-Inf -Inf Inf
-Inf -Inf Inf
-Inf -Inf -Inf
-Inf -Inf Inf
-Inf -Inf -Inf
-Inf -Inf Inf
-Inf -Inf -Inf
-Inf -Inf -Inf
-Inf -Inf -Inf
-Inf -Inf Inf
-Inf -Inf Inf
-Inf -Inf Inf
-Inf -Inf Inf
-Inf -Inf Inf
-Inf -Inf Inf
-Inf -Inf -Inf
-Inf -Inf Inf
-Inf -Inf Inf
-Inf -Inf Inf
-Inf -Inf Inf
-Inf -Inf Inf
-Inf -Inf -Inf
-Inf -Inf Inf
-Inf -Inf Inf
-Inf -Inf Inf
-Inf -Inf Inf
-Inf -Inf Inf
-Inf -Inf Inf
-Inf -Inf Inf
-Inf -Inf Inf
Inf -Inf Inf
-Inf -Inf -Inf
Inf -Inf Inf
-Inf -Inf -Inf
-Inf -Inf Inf
-Inf -Inf -Inf
-Inf -Inf -Inf
-Inf -Inf Inf
-Inf -Inf Inf
-Inf -Inf Inf
-Inf -Inf Inf
-Inf -Inf Inf
-Inf -Inf Inf
-Inf -Inf Inf
-Inf -Inf Inf
-Inf -Inf Inf
-Inf -Inf Inf
-Inf -Inf Inf
-Inf -Inf -Inf
-Inf -Inf -Inf
-Inf -Inf Inf
-Inf -Inf Inf
-Inf -Inf -Inf
-Inf -Inf Inf
-Inf -Inf Inf
-Inf -Inf Inf
-Inf -Inf Inf
Inf -Inf -Inf
-Inf -Inf -Inf
-Inf -Inf Inf
-Inf -Inf Inf
-Inf -Inf Inf
-Inf -Inf Inf
-Inf -Inf Inf
-Inf -Inf Inf
-Inf -Inf -Inf
-Inf -Inf Inf
-Inf -Inf Inf
-Inf -Inf Inf
-Inf -Inf -Inf
-Inf -Inf Inf
-Inf -Inf Inf
-Inf -Inf Inf
-Inf -Inf -Inf
-Inf -Inf -Inf
-Inf -Inf Inf
-Inf -Inf -Inf
-Inf -Inf Inf
-Inf -Inf Inf
-Inf -Inf Inf
-Inf -Inf -Inf
-Inf -Inf -Inf
-Inf -Inf -Inf
-Inf -Inf Inf
-Inf -Inf -Inf
-Inf -Inf Inf
-Inf -Inf -Inf
-Inf -Inf Inf
-Inf -Inf -Inf
-Inf -Inf Inf
-Inf -Inf Inf
-Inf -Inf Inf
-Inf -Inf -Inf
-Inf -Inf Inf
-Inf -Inf -Inf
-Inf -Inf Inf
-Inf -Inf Inf
-Inf -Inf Inf
-Inf -Inf -Inf
-Inf -Inf -Inf
-Inf -Inf Inf
-Inf -Inf Inf
Inf -Inf Inf
-Inf -Inf -Inf
-Inf -Inf Inf
-Inf -Inf -Inf
-Inf -Inf Inf
-Inf -Inf Inf
-Inf -Inf Inf
-Inf -Inf Inf
-Inf -Inf Inf
-Inf -Inf -Inf
-Inf -Inf Inf
-Inf -Inf Inf
-Inf -Inf Inf
-Inf -Inf Inf
-Inf -Inf -Inf
-Inf -Inf Inf
-Inf -Inf Inf
-Inf -Inf Inf
Inf -Inf Inf
-Inf -Inf Inf
-Inf -Inf -Inf
-Inf -Inf -Inf
-Inf -Inf Inf
-Inf -Inf Inf
-Inf -Inf Inf
-Inf -Inf Inf
-Inf -Inf Inf
-Inf -Inf -Inf
-Inf -Inf Inf
Inf -Inf -Inf
-Inf -Inf Inf
-Inf -Inf Inf
-Inf -Inf Inf
-Inf -Inf Inf
-Inf -Inf Inf
-Inf -Inf Inf
-Inf -Inf -Inf
-Inf -Inf -Inf
-Inf -Inf Inf
-Inf -Inf Inf
-Inf -Inf -Inf
-Inf -Inf -Inf
-Inf -Inf Inf
-Inf -Inf Inf
-Inf -Inf Inf
-Inf -Inf -Inf
-Inf -Inf -Inf
-Inf -Inf -Inf
-Inf -Inf Inf
-Inf -Inf -Inf
-Inf -Inf Inf
-Inf -Inf Inf
-Inf -Inf Inf
-Inf -Inf -Inf
-Inf -Inf Inf
-Inf -Inf Inf
-Inf -Inf Inf
-Inf -Inf Inf
-Inf -Inf Inf
-Inf -Inf Inf
-Inf -Inf Inf
-Inf -Inf Inf
-Inf -Inf Inf
-Inf -Inf Inf
-Inf -Inf Inf
-Inf -Inf Inf
-Inf -Inf Inf
-Inf -Inf Inf
-Inf -Inf -Inf
-Inf -Inf Inf
-Inf -Inf Inf
Inf -Inf Inf
-Inf -Inf Inf
-Inf -Inf Inf
-Inf -Inf Inf
-Inf -Inf Inf
-Inf -Inf -Inf
Inf -Inf Inf
-Inf -Inf -Inf
-Inf -Inf Inf
-Inf -Inf Inf
-Inf -Inf -Inf
-Inf -Inf Inf
-Inf -Inf Inf
-Inf -Inf Inf
-Inf -Inf Inf
-Inf -Inf Inf
-Inf -Inf -Inf
-Inf -Inf Inf
-Inf -Inf Inf
-Inf -Inf -Inf
-Inf -Inf Inf
-Inf -Inf -Inf
-Inf -Inf Inf
-Inf -Inf Inf
-Inf -Inf Inf
-Inf -Inf Inf
-Inf -Inf Inf
-Inf -Inf -Inf
-Inf -Inf Inf
-Inf -Inf Inf
-Inf -Inf -Inf
-Inf -Inf Inf
-Inf -Inf Inf
-Inf -Inf -Inf
-Inf -Inf Inf
-Inf -Inf -Inf
-Inf -Inf Inf
-Inf -Inf Inf
-Inf -Inf Inf
Inf -Inf -Inf
-Inf -Inf Inf
-Inf -Inf Inf
-Inf -Inf Inf
-Inf -Inf Inf
-Inf -Inf Inf
-Inf -Inf Inf
Inf -Inf Inf
-Inf -Inf Inf
-Inf -Inf -Inf
-Inf -Inf Inf
-Inf -Inf -Inf
-Inf -Inf Inf
-Inf -Inf -Inf
-Inf -Inf Inf
-Inf -Inf -Inf
-Inf -Inf -Inf
-Inf -Inf Inf
-Inf -Inf Inf
-Inf -Inf -Inf
-Inf -Inf Inf
-Inf -Inf -Inf
-Inf -Inf Inf
-Inf -Inf Inf
-Inf -Inf Inf
Inf -Inf -Inf
-Inf -Inf -Inf
-Inf -Inf Inf
-Inf -Inf -Inf
-Inf -Inf -Inf
-Inf -Inf Inf
-Inf -Inf Inf
-Inf -Inf -Inf
-Inf -Inf Inf
-Inf -Inf -Inf
-Inf -Inf Inf
-Inf -Inf Inf
-Inf -Inf -Inf
-Inf -Inf Inf
-Inf -Inf Inf
-Inf -Inf Inf
-Inf -Inf -Inf
-Inf -Inf Inf
-Inf -Inf -Inf
-Inf -Inf Inf
-Inf -Inf Inf
-Inf -Inf Inf
-Inf -Inf Inf
-Inf -Inf Inf
-Inf -Inf Inf
-Inf -Inf -Inf
-Inf -Inf Inf
-Inf -Inf -Inf
-Inf -Inf Inf
-Inf -Inf -Inf
-Inf -Inf Inf
-Inf -Inf Inf
-Inf -Inf -Inf
-Inf -Inf Inf
-Inf -Inf Inf
-Inf -Inf Inf
-Inf -Inf -Inf
-Inf -Inf Inf
-Inf -Inf Inf
-Inf -Inf Inf
-Inf -Inf Inf
-Inf -Inf Inf
-Inf -Inf Inf
-Inf -Inf Inf
-Inf -Inf Inf
-Inf -Inf Inf
Inf -Inf Inf
-Inf -Inf Inf
-Inf -Inf Inf
-Inf -Inf Inf
-Inf -Inf Inf
-Inf -Inf Inf
-Inf -Inf Inf
-Inf -Inf Inf
-Inf -Inf Inf
-Inf -Inf Inf
-Inf -Inf Inf
-Inf -Inf Inf
-Inf -Inf Inf
-Inf -Inf -Inf
-Inf -Inf Inf
-Inf -Inf Inf
-Inf -Inf Inf
-Inf -Inf Inf
Inf -Inf -Inf
-Inf -Inf -Inf
-Inf -Inf Inf
-Inf -Inf -Inf
-Inf -Inf Inf
-Inf -Inf -Inf
-Inf -Inf Inf
-Inf -Inf Inf
-Inf -Inf Inf
-Inf -Inf Inf
Inf -Inf -Inf
-Inf -Inf Inf
-Inf -Inf Inf
-Inf -Inf Inf
Inf -Inf Inf
-Inf -Inf -Inf
-Inf -Inf -Inf
-Inf -Inf -Inf
-Inf -Inf Inf
-Inf -Inf -Inf
-Inf -Inf Inf
-Inf -Inf Inf
-Inf -Inf Inf
-Inf -Inf Inf
-Inf -Inf -Inf
Inf -Inf Inf
-Inf -Inf Inf
Inf -Inf Inf
-Inf -Inf Inf
-Inf -Inf Inf
-Inf -Inf Inf
-Inf -Inf Inf
-Inf -Inf Inf
-Inf -Inf -Inf
-Inf -Inf Inf
-Inf -Inf Inf
-Inf -Inf -Inf
-Inf -Inf Inf
-Inf -Inf Inf
-Inf -Inf -Inf
-Inf -Inf Inf
Inf -Inf Inf
-Inf -Inf Inf
-Inf -Inf Inf
-Inf -Inf -Inf
-Inf -Inf Inf
-Inf -Inf -Inf
-Inf -Inf -Inf
-Inf -Inf Inf
-Inf -Inf Inf
-Inf -Inf -Inf
-Inf -Inf Inf
-Inf -Inf -Inf
-Inf -Inf Inf
-Inf -Inf Inf
-Inf -Inf Inf
-Inf -Inf Inf
-Inf -Inf Inf
-Inf -Inf Inf
-Inf -Inf Inf
-Inf -Inf Inf
-Inf -Inf Inf
-Inf -Inf Inf
-Inf -Inf Inf
-Inf -Inf Inf
-Inf -Inf Inf
-Inf -Inf Inf
-Inf -Inf Inf
-Inf -Inf -Inf
-Inf -Inf -Inf
-Inf -Inf Inf
-Inf -Inf Inf
-Inf -Inf Inf
-Inf -Inf Inf
-Inf -Inf Inf
-Inf -Inf Inf
-Inf -Inf Inf
-Inf -Inf Inf
-Inf -Inf Inf
-Inf -Inf -Inf
-Inf -Inf -Inf
-Inf -Inf Inf
-Inf -Inf Inf
-Inf -Inf Inf
-Inf -Inf Inf
-Inf -Inf Inf
-Inf -Inf Inf
-Inf -Inf Inf
-Inf -Inf -Inf
-Inf -Inf Inf
-Inf -Inf Inf
-Inf -Inf Inf
-Inf -Inf Inf
-Inf -Inf Inf
-Inf -Inf -Inf
-Inf -Inf -Inf
-Inf -Inf -Inf
-Inf -Inf Inf
-Inf -Inf Inf
-Inf -Inf -Inf
-Inf -Inf Inf
-Inf -Inf Inf
-Inf -Inf Inf
-Inf -Inf Inf
Inf -Inf Inf
-Inf -Inf Inf
-Inf -Inf Inf
-Inf -Inf Inf
-Inf -Inf Inf
-Inf -Inf Inf
-Inf -Inf Inf
-Inf -Inf Inf
-Inf -Inf Inf
-Inf -Inf Inf
-Inf -Inf -Inf
Inf -Inf Inf
-Inf -Inf Inf
-Inf -Inf Inf
-Inf -Inf Inf
-Inf -Inf Inf
-Inf -Inf Inf
-Inf -Inf Inf
-Inf -Inf Inf
-Inf -Inf -Inf
-Inf -Inf -Inf
-Inf -Inf -Inf
-Inf -Inf Inf
-Inf -Inf Inf
-Inf -Inf Inf
-Inf -Inf Inf
Inf -Inf Inf
-Inf -Inf Inf
-Inf -Inf Inf
-Inf -Inf Inf
-Inf -Inf Inf
-Inf -Inf Inf
-Inf -Inf Inf
Inf -Inf Inf
-Inf -Inf Inf
-Inf -Inf Inf
-Inf -Inf -Inf
-Inf -Inf Inf
-Inf -Inf -Inf
-Inf -Inf Inf
-Inf -Inf Inf
-Inf -Inf Inf
-Inf -Inf Inf
-Inf -Inf Inf
-Inf -Inf -Inf
-Inf -Inf Inf
-Inf -Inf Inf
-Inf -Inf Inf
-Inf -Inf Inf
-Inf -Inf Inf
-Inf -Inf -Inf
-Inf -Inf Inf
-Inf -Inf Inf
-Inf -Inf Inf
-Inf -Inf Inf
-Inf -Inf Inf
-Inf -Inf -Inf
-Inf -Inf Inf
-Inf -Inf -Inf
-Inf -Inf Inf
-Inf -Inf Inf
-Inf -Inf Inf
-Inf -Inf Inf
-Inf -Inf Inf
-Inf -Inf Inf
-Inf -Inf Inf
-Inf -Inf Inf
-Inf -Inf Inf
-Inf -Inf Inf
-Inf -Inf Inf
-Inf -Inf Inf
-Inf -Inf Inf
-Inf -Inf Inf
-Inf -Inf Inf
-Inf -Inf Inf
-Inf -Inf Inf
-Inf -Inf Inf
-Inf -Inf Inf
-Inf -Inf Inf
-Inf -Inf Inf
-Inf -Inf Inf
-Inf -Inf Inf
-Inf -Inf -Inf
-Inf -Inf Inf
-Inf -Inf -Inf
-Inf -Inf Inf
-Inf -Inf Inf
-Inf -Inf Inf
-Inf -Inf Inf
-Inf -Inf -Inf
-Inf -Inf Inf
-Inf -Inf Inf
-Inf -Inf Inf
-Inf -Inf Inf
-Inf -Inf -Inf
-Inf -Inf Inf
-Inf -Inf Inf
-Inf -Inf Inf
-Inf -Inf Inf
-Inf -Inf Inf
-Inf -Inf Inf
-Inf -Inf -Inf
-Inf -Inf Inf
-Inf -Inf Inf
-Inf -Inf -Inf
-Inf -Inf Inf
-Inf -Inf -Inf
-Inf -Inf Inf
-Inf -Inf -Inf
-Inf -Inf Inf
-Inf -Inf -Inf
-Inf -Inf Inf
-Inf -Inf -Inf
-Inf -Inf Inf
-Inf -Inf Inf
-Inf -Inf -Inf
-Inf -Inf Inf
-Inf -Inf -Inf
-Inf -Inf Inf
-Inf -Inf Inf
-Inf -Inf Inf
-Inf -Inf Inf
-Inf -Inf Inf
-Inf -Inf Inf
-Inf -Inf Inf
-Inf -Inf -Inf
-Inf -Inf Inf
-Inf -Inf Inf
-Inf -Inf -Inf
-Inf -Inf Inf
-Inf -Inf Inf
-Inf -Inf Inf
-Inf -Inf Inf
-Inf -Inf Inf
-Inf -Inf Inf
-Inf -Inf Inf
-Inf -Inf Inf
-Inf -Inf Inf
-Inf -Inf Inf
-Inf -Inf Inf
-Inf -Inf Inf
-Inf -Inf Inf
-Inf -Inf Inf
-Inf -Inf Inf
-Inf -Inf -Inf
-Inf -Inf Inf
-Inf -Inf -Inf
-Inf -Inf Inf
-Inf -Inf -Inf
-Inf -Inf -Inf
-Inf -Inf -Inf
-Inf -Inf -Inf
-Inf -Inf Inf
-Inf -Inf -Inf
-Inf -Inf Inf
-Inf -Inf Inf
-Inf -Inf -Inf
-Inf -Inf Inf
-Inf -Inf -Inf
-Inf -Inf -Inf
-Inf -Inf Inf
-Inf -Inf Inf
-Inf -Inf Inf
-Inf -Inf -Inf
-Inf -Inf Inf
-Inf -Inf Inf
-Inf -Inf Inf
-Inf -Inf Inf
-Inf -Inf Inf
-Inf -Inf Inf
-Inf -Inf -Inf
-Inf -Inf Inf
-Inf -Inf Inf
-Inf -Inf Inf
-Inf -Inf Inf
-Inf -Inf Inf
-Inf -Inf Inf
-Inf -Inf -Inf
-Inf -Inf Inf
-Inf -Inf -Inf
-Inf -Inf Inf
-Inf -Inf -Inf
-Inf -Inf Inf
-Inf -Inf Inf
-Inf -Inf Inf
-Inf -Inf -Inf
-Inf -Inf -Inf
-Inf -Inf Inf
-Inf -Inf Inf
-Inf -Inf Inf
-Inf -Inf Inf
-Inf -Inf Inf
-Inf -Inf -Inf
-Inf -Inf Inf
-Inf -Inf Inf
-Inf -Inf Inf
-Inf -Inf Inf
-Inf -Inf Inf
-Inf -Inf Inf
-Inf -Inf -Inf
-Inf -Inf Inf
-Inf -Inf Inf
-Inf -Inf Inf
Inf -Inf -Inf
-Inf -Inf -Inf
-Inf -Inf Inf
-Inf -Inf Inf
-Inf -Inf Inf
-Inf -Inf Inf
-Inf -Inf -Inf
-Inf -Inf Inf
-Inf -Inf Inf
-Inf -Inf Inf
-Inf -Inf -Inf
-Inf -Inf -Inf
-Inf -Inf Inf
-Inf -Inf -Inf
-Inf -Inf Inf
-Inf -Inf Inf
-Inf -Inf Inf
-Inf -Inf -Inf
-Inf -Inf Inf
-Inf -Inf Inf
-Inf -Inf Inf
-Inf -Inf Inf
-Inf -Inf Inf
-Inf -Inf Inf
-Inf -Inf Inf
-Inf -Inf -Inf
-Inf -Inf -Inf
-Inf -Inf Inf
-Inf -Inf -Inf
-Inf -Inf Inf
-Inf -Inf Inf
-Inf -Inf Inf
-Inf -Inf Inf
-Inf -Inf Inf
-Inf -Inf Inf
-Inf -Inf Inf
-Inf -Inf Inf
Inf -Inf Inf
-Inf -Inf Inf
-Inf -Inf Inf
-Inf -Inf Inf
-Inf -Inf -Inf
-Inf -Inf Inf
-Inf -Inf -Inf
-Inf -Inf Inf
-Inf -Inf Inf
-Inf -Inf -Inf
-Inf -Inf Inf
-Inf -Inf Inf
-Inf -Inf Inf
-Inf -Inf Inf
-Inf -Inf -Inf
-Inf -Inf -Inf
-Inf -Inf Inf
-Inf -Inf Inf
-Inf -Inf Inf
-Inf -Inf Inf
-Inf -Inf Inf
-Inf -Inf Inf
-Inf -Inf Inf
-Inf -Inf Inf
-Inf -Inf Inf
-Inf -Inf Inf
-Inf -Inf Inf
-Inf -Inf Inf
-Inf -Inf Inf
-Inf -Inf Inf
-Inf -Inf Inf
-Inf -Inf Inf
-Inf -Inf Inf
-Inf -Inf Inf
-Inf -Inf Inf
-Inf -Inf Inf
-Inf -Inf Inf
-Inf -Inf -Inf
-Inf -Inf Inf
-Inf -Inf -Inf
-Inf -Inf Inf
-Inf -Inf Inf
-Inf -Inf Inf
-Inf -Inf Inf
-Inf -Inf Inf
-Inf -Inf -Inf
-Inf -Inf Inf
-Inf -Inf Inf
-Inf -Inf Inf
-Inf -Inf -Inf
-Inf -Inf Inf
-Inf -Inf Inf
-Inf -Inf Inf
-Inf -Inf -Inf
-Inf -Inf -Inf
-Inf -Inf Inf
-Inf -Inf -Inf
-Inf -Inf Inf
-Inf -Inf Inf
-Inf -Inf Inf
-Inf -Inf Inf
-Inf -Inf Inf
-Inf -Inf Inf
-Inf -Inf Inf
-Inf -Inf Inf
-Inf -Inf Inf
-Inf -Inf -Inf
-Inf -Inf Inf
-Inf -Inf Inf
-Inf -Inf Inf
-Inf -Inf Inf
-Inf -Inf Inf
Inf -Inf -Inf
-Inf -Inf Inf
-Inf -Inf Inf
-Inf -Inf Inf
-Inf -Inf -Inf
-Inf -Inf -Inf
-Inf -Inf Inf
-Inf -Inf -Inf
-Inf -Inf -Inf
-Inf -Inf -Inf
-Inf -Inf -Inf
-Inf -Inf Inf
-Inf -Inf Inf
-Inf -Inf Inf
-Inf -Inf Inf
-Inf -Inf Inf
Inf -Inf -Inf
-Inf -Inf Inf
-Inf -Inf Inf
-Inf -Inf Inf
-Inf -Inf Inf
-Inf -Inf -Inf
-Inf -Inf Inf
-Inf -Inf Inf
-Inf -Inf -Inf
-Inf -Inf Inf
-Inf -Inf -Inf
-Inf -Inf Inf
-Inf -Inf Inf
-Inf -Inf Inf
-Inf -Inf Inf
Inf -Inf -Inf
-Inf -Inf -Inf
-Inf -Inf -Inf
-Inf -Inf Inf
-Inf -Inf Inf
-Inf -Inf Inf
-Inf -Inf Inf
-Inf -Inf Inf
Inf -Inf -Inf
-Inf -Inf -Inf
-Inf -Inf Inf
-Inf -Inf -Inf
Inf -Inf -Inf
Inf -Inf -Inf
-Inf -Inf -Inf
-Inf -Inf Inf
-Inf -Inf Inf
-Inf -Inf Inf
-Inf -Inf -Inf
-Inf -Inf -Inf
-Inf -Inf Inf
-Inf -Inf -Inf
-Inf -Inf Inf
-Inf -Inf Inf
-Inf -Inf Inf
-Inf -Inf -Inf
-Inf -Inf Inf
-Inf -Inf -Inf
-Inf -Inf -Inf
-Inf -Inf Inf
-Inf -Inf Inf
-Inf -Inf -Inf
-Inf -Inf Inf
-Inf -Inf Inf
-Inf -Inf -Inf
-Inf -Inf Inf
Inf -Inf Inf
-Inf -Inf Inf
-Inf -Inf Inf
-Inf -Inf Inf
-Inf -Inf Inf
-Inf -Inf Inf
-Inf -Inf -Inf
-Inf -Inf Inf
-Inf -Inf Inf
-Inf -Inf Inf
-Inf -Inf Inf
-Inf -Inf Inf
-Inf -Inf Inf
-Inf -Inf Inf
-Inf -Inf Inf
-Inf -Inf -Inf
-Inf -Inf Inf
-Inf -Inf -Inf
-Inf -Inf Inf
-Inf -Inf Inf
-Inf -Inf Inf
-Inf -Inf Inf
-Inf -Inf Inf
-Inf -Inf -Inf
-Inf -Inf -Inf
-Inf -Inf -Inf
-Inf -Inf Inf
-Inf -Inf Inf
-Inf -Inf Inf
-Inf -Inf Inf
-Inf -Inf Inf
-Inf -Inf Inf
-Inf -Inf Inf
-Inf -Inf -Inf
-Inf -Inf -Inf
-Inf -Inf Inf
-Inf -Inf Inf
-Inf -Inf Inf
-Inf -Inf Inf
-Inf -Inf -Inf
-Inf -Inf Inf
-Inf -Inf -Inf
-Inf -Inf Inf
-Inf -Inf Inf
-Inf -Inf Inf
-Inf -Inf Inf
-Inf -Inf -Inf
-Inf -Inf Inf
-Inf -Inf Inf
-Inf -Inf Inf
-Inf -Inf Inf
-Inf -Inf Inf
-Inf -Inf -Inf
-Inf -Inf Inf
-Inf -Inf Inf
-Inf -Inf Inf
-Inf -Inf Inf
-Inf -Inf Inf
-Inf -Inf Inf
-Inf -Inf Inf
-Inf -Inf Inf
-Inf -Inf Inf
-Inf -Inf Inf
-Inf -Inf -Inf
-Inf -Inf Inf
-Inf -Inf Inf
-Inf -Inf Inf
-Inf -Inf Inf
-Inf -Inf Inf
-Inf -Inf Inf
-Inf -Inf Inf
-Inf -Inf Inf
-Inf -Inf Inf
-Inf -Inf Inf
-Inf -Inf Inf
-Inf -Inf Inf
-Inf -Inf -Inf
-Inf -Inf Inf
-Inf -Inf -Inf
-Inf -Inf -Inf
Inf -Inf -Inf
-Inf -Inf Inf
-Inf -Inf Inf
-Inf -Inf Inf
-Inf -Inf Inf
-Inf -Inf Inf
-Inf -Inf Inf
-Inf -Inf Inf
-Inf -Inf -Inf
-Inf -Inf Inf
-Inf -Inf Inf
-Inf -Inf -Inf
-Inf -Inf Inf
Inf -Inf Inf
-Inf -Inf -Inf
-Inf -Inf Inf
-Inf -Inf Inf
-Inf -Inf Inf
-Inf -Inf -Inf
-Inf -Inf Inf
-Inf -Inf Inf
-Inf -Inf Inf
-Inf -Inf Inf
-Inf -Inf Inf
-Inf -Inf Inf
-Inf -Inf Inf
-Inf -Inf Inf
-Inf -Inf Inf
-Inf -Inf -Inf
-Inf -Inf -Inf
-Inf -Inf Inf
-Inf -Inf Inf
-Inf -Inf Inf
-Inf -Inf -Inf
-Inf -Inf Inf
-Inf -Inf Inf
-Inf -Inf -Inf
-Inf -Inf Inf
-Inf -Inf Inf
-Inf -Inf Inf
-Inf -Inf Inf
-Inf -Inf Inf
-Inf -Inf Inf
-Inf -Inf Inf
-Inf -Inf Inf
-Inf -Inf -Inf
-Inf -Inf Inf
-Inf -Inf Inf
-Inf -Inf Inf
-Inf -Inf Inf
-Inf -Inf Inf
-Inf -Inf Inf
-Inf -Inf Inf
-Inf -Inf -Inf
-Inf -Inf Inf
-Inf -Inf Inf
-Inf -Inf Inf
-Inf -Inf -Inf
-Inf -Inf Inf
-Inf -Inf Inf
-Inf -Inf Inf
-Inf -Inf -Inf
-Inf -Inf -Inf
-Inf -Inf Inf
-Inf -Inf Inf
-Inf -Inf Inf
-Inf -Inf -Inf
-Inf -Inf -Inf
-Inf -Inf Inf
-Inf -Inf -Inf
-Inf -Inf Inf
-Inf -Inf Inf
-Inf -Inf Inf
-Inf -Inf -Inf
-Inf -Inf Inf
-Inf -Inf Inf
-Inf -Inf Inf
-Inf -Inf -Inf
-Inf -Inf Inf
-Inf -Inf Inf
-Inf -Inf Inf
-Inf -Inf Inf
-Inf -Inf Inf
-Inf -Inf Inf
-Inf -Inf -Inf
-Inf -Inf Inf
-Inf -Inf Inf
-Inf -Inf Inf
-Inf -Inf -Inf
-Inf -Inf Inf
-Inf -Inf Inf
-Inf -Inf -Inf
-Inf -Inf -Inf
-Inf -Inf Inf
Inf -Inf Inf
-Inf -Inf Inf
-Inf -Inf Inf
-Inf -Inf Inf
-Inf -Inf -Inf
-Inf -Inf -Inf
-Inf -Inf -Inf
-Inf -Inf Inf
-Inf -Inf Inf
-Inf -Inf Inf
-Inf -Inf -Inf
Inf -Inf -Inf
-Inf -Inf Inf
-Inf -Inf -Inf
-Inf -Inf Inf
-Inf -Inf Inf
-Inf -Inf -Inf
-Inf -Inf Inf
-Inf -Inf Inf
-Inf -Inf Inf
-Inf -Inf Inf
-Inf -Inf Inf
-Inf -Inf Inf
-Inf -Inf Inf
-Inf -Inf Inf
-Inf -Inf -Inf
-Inf -Inf Inf
-Inf -Inf Inf
-Inf -Inf -Inf
-Inf -Inf Inf
-Inf -Inf Inf
-Inf -Inf -Inf
-Inf -Inf Inf
-Inf -Inf Inf
-Inf -Inf -Inf
-Inf -Inf Inf
-Inf -Inf Inf
-Inf -Inf -Inf
Inf -Inf -Inf
-Inf -Inf Inf
-Inf -Inf Inf
Inf -Inf Inf
-Inf -Inf Inf
-Inf -Inf -Inf
-Inf -Inf -Inf
-Inf -Inf Inf
-Inf -Inf Inf
-Inf -Inf Inf
-Inf -Inf Inf
-Inf -Inf Inf
-Inf -Inf -Inf
-Inf -Inf Inf
-Inf -Inf Inf
-Inf -Inf Inf
-Inf -Inf -Inf
-Inf -Inf Inf
-Inf -Inf Inf
-Inf -Inf Inf
-Inf -Inf Inf
-Inf -Inf -Inf
-Inf -Inf Inf
-Inf -Inf -Inf
-Inf -Inf Inf
-Inf -Inf Inf
-Inf -Inf -Inf
-Inf -Inf Inf
-Inf -Inf Inf
-Inf -Inf -Inf
-Inf -Inf Inf
Inf -Inf -Inf
-Inf -Inf -Inf
-Inf -Inf Inf
-Inf -Inf Inf
-Inf -Inf Inf
-Inf -Inf -Inf
-Inf -Inf -Inf
-Inf -Inf Inf
-Inf -Inf Inf
-Inf -Inf Inf
-Inf -Inf Inf
-Inf -Inf Inf
-Inf -Inf Inf
-Inf -Inf Inf
-Inf -Inf Inf
-Inf -Inf Inf
-Inf -Inf Inf
-Inf -Inf Inf
-Inf -Inf Inf
-Inf -Inf Inf
-Inf -Inf Inf
-Inf -Inf -Inf
-Inf -Inf Inf
-Inf -Inf Inf
-Inf -Inf -Inf
-Inf -Inf -Inf
-Inf -Inf Inf
-Inf -Inf Inf
-Inf -Inf -Inf
-Inf -Inf Inf
-Inf -Inf -Inf
-Inf -Inf Inf
-Inf -Inf Inf
-Inf -Inf Inf
-Inf -Inf Inf
Inf -Inf Inf
-Inf -Inf Inf
-Inf -Inf Inf
-Inf -Inf Inf
-Inf -Inf Inf
-Inf -Inf Inf
-Inf -Inf Inf
Inf -Inf Inf
-Inf -Inf Inf
-Inf -Inf Inf
-Inf -Inf Inf
-Inf -Inf Inf
-Inf -Inf Inf
Inf -Inf Inf
-Inf -Inf Inf
-Inf -Inf Inf
-Inf -Inf Inf
-Inf -Inf Inf
-Inf -Inf Inf
-Inf -Inf Inf
-Inf -Inf -Inf
-Inf -Inf Inf
-Inf -Inf Inf
-Inf -Inf -Inf
-Inf -Inf -Inf
-Inf -Inf Inf
-Inf -Inf Inf
-Inf -Inf Inf
-Inf -Inf Inf
-Inf -Inf Inf
-Inf -Inf Inf
-Inf -Inf Inf
-Inf -Inf -Inf
-Inf -Inf Inf
-Inf -Inf Inf
-Inf -Inf Inf
-Inf -Inf Inf
-Inf -Inf Inf
-Inf -Inf Inf
-Inf -Inf -Inf
-Inf -Inf Inf
Inf -Inf Inf
-Inf -Inf Inf
-Inf -Inf Inf
-Inf -Inf Inf
-Inf -Inf Inf
-Inf -Inf Inf
-Inf -Inf Inf
-Inf -Inf -Inf
-Inf -Inf Inf
-Inf -Inf Inf
-Inf -Inf -Inf
-Inf -Inf Inf
-Inf -Inf Inf
-Inf -Inf Inf
-Inf -Inf -Inf
-Inf -Inf Inf
-Inf -Inf Inf
-Inf -Inf -Inf
Inf -Inf -Inf
-Inf -Inf Inf
-Inf -Inf Inf
-Inf -Inf Inf
-Inf -Inf Inf
-Inf -Inf Inf
-Inf -Inf Inf
-Inf -Inf -Inf
-Inf -Inf Inf
-Inf -Inf Inf
-Inf -Inf Inf
-Inf -Inf Inf
-Inf -Inf Inf
-Inf -Inf Inf
-Inf -Inf Inf
-Inf -Inf Inf
-Inf -Inf Inf
-Inf -Inf Inf
-Inf -Inf Inf
-Inf -Inf Inf
-Inf -Inf Inf
-Inf -Inf Inf
-Inf -Inf Inf
-Inf -Inf Inf
-Inf -Inf Inf
-Inf -Inf Inf
-Inf -Inf -Inf
-Inf -Inf Inf
-Inf -Inf -Inf
-Inf -Inf Inf
Inf -Inf -Inf
-Inf -Inf Inf
-Inf -Inf Inf
-Inf -Inf Inf
-Inf -Inf Inf
-Inf -Inf Inf
-Inf -Inf Inf
-Inf -Inf Inf
-Inf -Inf -Inf
-Inf -Inf -Inf
-Inf -Inf Inf
Inf -Inf -Inf
-Inf -Inf -Inf
Inf -Inf Inf
-Inf -Inf -Inf
-Inf -Inf Inf
-Inf -Inf Inf
-Inf -Inf Inf
-Inf -Inf Inf
-Inf -Inf Inf
-Inf -Inf Inf
-Inf -Inf -Inf
-Inf -Inf -Inf
-Inf -Inf -Inf
-Inf -Inf Inf
-Inf -Inf Inf
-Inf -Inf -Inf
-Inf -Inf -Inf
-Inf -Inf -Inf
-Inf -Inf Inf
-Inf -Inf -Inf
-Inf -Inf Inf
-Inf -Inf Inf
-Inf -Inf -Inf
-Inf -Inf Inf
-Inf -Inf Inf
-Inf -Inf Inf
-Inf -Inf Inf
-Inf -Inf -Inf
-Inf -Inf Inf
-Inf -Inf Inf
-Inf -Inf -Inf
-Inf -Inf Inf
-Inf -Inf Inf
-Inf -Inf -Inf
-Inf -Inf Inf
-Inf -Inf -Inf
-Inf -Inf Inf
-Inf -Inf Inf
-Inf -Inf Inf
-Inf -Inf -Inf
-Inf -Inf -Inf
-Inf -Inf -Inf
-Inf -Inf Inf
-Inf -Inf -Inf
-Inf -Inf Inf
-Inf -Inf Inf
-Inf -Inf Inf
-Inf -Inf -Inf
-Inf -Inf -Inf
-Inf -Inf Inf
-Inf -Inf -Inf
-Inf -Inf -Inf
-Inf -Inf Inf
-Inf -Inf Inf
-Inf -Inf Inf
-Inf -Inf Inf
-Inf -Inf Inf
-Inf -Inf -Inf
-Inf -Inf Inf
-Inf -Inf Inf
-Inf -Inf Inf
-Inf -Inf Inf
-Inf -Inf Inf
-Inf -Inf Inf
-Inf -Inf Inf
-Inf -Inf -Inf
-Inf -Inf Inf
-Inf -Inf -Inf
-Inf -Inf Inf
-Inf -Inf -Inf
-Inf -Inf -Inf
-Inf -Inf Inf
-Inf -Inf Inf
-Inf -Inf Inf
-Inf -Inf -Inf
-Inf -Inf Inf
-Inf -Inf Inf
Inf -Inf -Inf
-Inf -Inf -Inf
-Inf -Inf -Inf
-Inf -Inf Inf
-Inf -Inf Inf
Inf -Inf Inf
-Inf -Inf Inf
-Inf -Inf Inf
-Inf -Inf -Inf
-Inf -Inf Inf
-Inf -Inf Inf
-Inf -Inf Inf
-Inf -Inf Inf
-Inf -Inf Inf
-Inf -Inf Inf
-Inf -Inf Inf
-Inf -Inf Inf
-Inf -Inf Inf
-Inf -Inf Inf
-Inf -Inf Inf
-Inf -Inf Inf
-Inf -Inf Inf
-Inf -Inf Inf
-Inf -Inf Inf
-Inf -Inf -Inf
-Inf -Inf Inf
-Inf -Inf Inf
-Inf -Inf Inf
-Inf -Inf Inf
-Inf -Inf Inf
-Inf -Inf Inf
-Inf -Inf -Inf
-Inf -Inf Inf
-Inf -Inf -Inf
-Inf -Inf Inf
-Inf -Inf Inf
-Inf -Inf -Inf
-Inf -Inf -Inf
-Inf -Inf Inf
-Inf -Inf Inf
-Inf -Inf Inf
-Inf -Inf Inf
-Inf -Inf Inf
-Inf -Inf -Inf
-Inf -Inf Inf
-Inf -Inf Inf
-Inf -Inf -Inf
-Inf -Inf Inf
-Inf -Inf Inf
-Inf -Inf -Inf
-Inf -Inf Inf
-Inf -Inf Inf
-Inf -Inf Inf
-Inf -Inf Inf
-Inf -Inf Inf
-Inf -Inf Inf
-Inf -Inf -Inf
-Inf -Inf -Inf
-Inf -Inf Inf
-Inf -Inf -Inf
-Inf -Inf -Inf
-Inf -Inf Inf
-Inf -Inf Inf
-Inf -Inf Inf
-Inf -Inf Inf
-Inf -Inf Inf
-Inf -Inf Inf
-Inf -Inf Inf
Inf -Inf -Inf
-Inf -Inf -Inf
-Inf -Inf Inf
-Inf -Inf Inf
-Inf -Inf Inf
-Inf -Inf Inf
-Inf -Inf Inf
-Inf -Inf -Inf
-Inf -Inf Inf
-Inf -Inf Inf
-Inf -Inf Inf
-Inf -Inf -Inf
-Inf -Inf Inf
-Inf -Inf Inf
-Inf -Inf -Inf
-Inf -Inf Inf
-Inf -Inf -Inf
-Inf -Inf Inf
-Inf -Inf Inf
-Inf -Inf Inf
-Inf -Inf Inf
-Inf -Inf Inf
-Inf -Inf Inf
-Inf -Inf -Inf
-Inf -Inf Inf
-Inf -Inf Inf
-Inf -Inf Inf
-Inf -Inf Inf
-Inf -Inf Inf
-Inf -Inf -Inf
-Inf -Inf Inf
-Inf -Inf -Inf
-Inf -Inf -Inf
-Inf -Inf Inf
-Inf -Inf Inf
-Inf -Inf Inf
-Inf -Inf -Inf
-Inf -Inf Inf
-Inf -Inf Inf
-Inf -Inf Inf
-Inf -Inf Inf
-Inf -Inf Inf
-Inf -Inf Inf
Inf -Inf -Inf
-Inf -Inf Inf
-Inf -Inf -Inf
-Inf -Inf -Inf
-Inf -Inf Inf
-Inf -Inf Inf
-Inf -Inf Inf
-Inf -Inf Inf
-Inf -Inf Inf
-Inf -Inf Inf
-Inf -Inf Inf
-Inf -Inf Inf
-Inf -Inf Inf
-Inf -Inf Inf
-Inf -Inf Inf
-Inf -Inf -Inf
-Inf -Inf Inf
-Inf -Inf Inf
-Inf -Inf Inf
-Inf -Inf Inf
-Inf -Inf Inf
-Inf -Inf Inf
-Inf -Inf -Inf
Inf -Inf -Inf
-Inf -Inf Inf
-Inf -Inf Inf
-Inf -Inf -Inf
-Inf -Inf Inf
-Inf -Inf Inf
-Inf -Inf Inf
-Inf -Inf Inf
-Inf -Inf Inf
-Inf -Inf -Inf
-Inf -Inf Inf
-Inf -Inf -Inf
-Inf -Inf Inf
-Inf -Inf Inf
-Inf -Inf Inf
-Inf -Inf Inf
-Inf -Inf -Inf
-Inf -Inf -Inf
-Inf -Inf Inf
-Inf -Inf -Inf
Inf -Inf -Inf
-Inf -Inf Inf
-Inf -Inf -Inf
-Inf -Inf Inf
-Inf -Inf -Inf
-Inf -Inf -Inf
-Inf -Inf Inf
-Inf -Inf Inf
-Inf -Inf Inf
-Inf -Inf Inf
-Inf -Inf Inf
-Inf -Inf -Inf
-Inf -Inf Inf
-Inf -Inf Inf
-Inf -Inf Inf
-Inf -Inf Inf
-Inf -Inf Inf
-Inf -Inf Inf
-Inf -Inf Inf
-Inf -Inf Inf
-Inf -Inf Inf
-Inf -Inf Inf
-Inf -Inf -Inf
-Inf -Inf Inf
-Inf -Inf -Inf
-Inf -Inf Inf
-Inf -Inf -Inf
-Inf -Inf Inf
-Inf -Inf Inf
-Inf -Inf -Inf
-Inf -Inf Inf
-Inf -Inf Inf
-Inf -Inf Inf
-Inf -Inf Inf
-Inf -Inf -Inf
-Inf -Inf -Inf
-Inf -Inf Inf
-Inf -Inf Inf
-Inf -Inf Inf
-Inf -Inf Inf
-Inf -Inf Inf
-Inf -Inf Inf
Inf -Inf -Inf
-Inf -Inf Inf
-Inf -Inf Inf
-Inf -Inf -Inf
-Inf -Inf -Inf
-Inf -Inf -Inf
-Inf -Inf Inf
-Inf -Inf Inf
-Inf -Inf Inf
-Inf -Inf -Inf
-Inf -Inf -Inf
-Inf -Inf Inf
-Inf -Inf Inf
-Inf -Inf -Inf
-Inf -Inf Inf
-Inf -Inf -Inf
-Inf -Inf -Inf
-Inf -Inf Inf
-Inf -Inf Inf
-Inf -Inf -Inf
-Inf -Inf Inf
-Inf -Inf Inf
-Inf -Inf -Inf
-Inf -Inf -Inf
-Inf -Inf Inf
-Inf -Inf Inf
-Inf -Inf Inf
Inf -Inf Inf
-Inf -Inf Inf
-Inf -Inf Inf
-Inf -Inf Inf
-Inf -Inf Inf
-Inf -Inf -Inf
-Inf -Inf Inf
-Inf -Inf Inf
-Inf -Inf -Inf
-Inf -Inf Inf
-Inf -Inf Inf
-Inf -Inf Inf
-Inf -Inf -Inf
-Inf -Inf Inf
-Inf -Inf Inf
-Inf -Inf Inf
-Inf -Inf -Inf
-Inf -Inf Inf
-Inf -Inf Inf
-Inf -Inf -Inf
-Inf -Inf Inf
-Inf -Inf -Inf
-Inf -Inf Inf
-Inf -Inf Inf
-Inf -Inf Inf
-Inf -Inf Inf
-Inf -Inf Inf
-Inf -Inf Inf
-Inf -Inf -Inf
-Inf -Inf -Inf
-Inf -Inf Inf
-Inf -Inf Inf
-Inf -Inf Inf
-Inf -Inf Inf
-Inf -Inf -Inf
-Inf -Inf -Inf
-Inf -Inf Inf
-Inf -Inf Inf
-Inf -Inf Inf
-Inf -Inf Inf
-Inf -Inf Inf
-Inf -Inf Inf
-Inf -Inf Inf
-Inf -Inf Inf
-Inf -Inf Inf
-Inf -Inf Inf
-Inf -Inf Inf
-Inf -Inf -Inf
-Inf -Inf Inf
-Inf -Inf Inf
-Inf -Inf Inf
-Inf -Inf -Inf
-Inf -Inf Inf
-Inf -Inf Inf
-Inf -Inf Inf
-Inf -Inf Inf
-Inf -Inf -Inf
-Inf -Inf Inf
-Inf -Inf Inf
-Inf -Inf Inf
-Inf -Inf Inf
-Inf -Inf Inf
-Inf -Inf Inf
-Inf -Inf Inf
-Inf -Inf Inf
-Inf -Inf Inf
-Inf -Inf -Inf
-Inf -Inf Inf
-Inf -Inf Inf
-Inf -Inf Inf
-Inf -Inf Inf
-Inf -Inf Inf
-Inf -Inf Inf
-Inf -Inf Inf
-Inf -Inf Inf
-Inf -Inf -Inf
-Inf -Inf Inf
-Inf -Inf Inf
-Inf -Inf Inf
-Inf -Inf Inf
-Inf -Inf -Inf
-Inf -Inf Inf
-Inf -Inf Inf
-Inf -Inf -Inf
-Inf -Inf Inf
-Inf -Inf -Inf
-Inf -Inf Inf
-Inf -Inf Inf
-Inf -Inf -Inf
-Inf -Inf Inf
-Inf -Inf -Inf
-Inf -Inf Inf
-Inf -Inf Inf
-Inf -Inf Inf
-Inf -Inf Inf
-Inf -Inf Inf
-Inf -Inf -Inf
Inf -Inf Inf
-Inf -Inf Inf
-Inf -Inf -Inf
-Inf -Inf Inf
-Inf -Inf -Inf
-Inf -Inf Inf
-Inf -Inf Inf
-Inf -Inf Inf
-Inf -Inf Inf
-Inf -Inf -Inf
-Inf -Inf Inf
-Inf -Inf Inf
-Inf -Inf Inf
-Inf -Inf Inf
-Inf -Inf Inf
-Inf -Inf Inf
-Inf -Inf Inf
-Inf -Inf -Inf
-Inf -Inf Inf
-Inf -Inf -Inf
-Inf -Inf Inf
-Inf -Inf Inf
-Inf -Inf -Inf
-Inf -Inf Inf
-Inf -Inf -Inf
-Inf -Inf Inf
-Inf -Inf Inf
-Inf -Inf -Inf
-Inf -Inf Inf
-Inf -Inf Inf
-Inf -Inf Inf
-Inf -Inf Inf
-Inf -Inf -Inf
-Inf -Inf Inf
-Inf -Inf Inf
-Inf -Inf Inf
-Inf -Inf -Inf
-Inf -Inf -Inf
-Inf -Inf Inf
-Inf -Inf Inf
-Inf -Inf Inf
-Inf -Inf Inf
-Inf -Inf Inf
-Inf -Inf Inf
-Inf -Inf Inf
-Inf -Inf Inf
-Inf -Inf -Inf
-Inf -Inf Inf
-Inf -Inf Inf
-Inf -Inf -Inf
-Inf -Inf -Inf
-Inf -Inf Inf
-Inf -Inf -Inf
-Inf -Inf Inf
-Inf -Inf Inf
-Inf -Inf Inf
-Inf -Inf Inf
-Inf -Inf Inf
-Inf -Inf Inf
-Inf -Inf Inf
-Inf -Inf Inf
-Inf -Inf Inf
-Inf -Inf Inf
-Inf -Inf Inf
-Inf -Inf Inf
-Inf -Inf -Inf
-Inf -Inf Inf
-Inf -Inf Inf
-Inf -Inf -Inf
-Inf -Inf Inf
-Inf -Inf -Inf
-Inf -Inf Inf
-Inf -Inf Inf
-Inf -Inf Inf
-Inf -Inf Inf
-Inf -Inf Inf
-Inf -Inf Inf
-Inf -Inf Inf
-Inf -Inf Inf
-Inf -Inf Inf
-Inf -Inf Inf
-Inf -Inf Inf
-Inf -Inf Inf
-Inf -Inf Inf
Inf -Inf -Inf
-Inf -Inf Inf
Inf -Inf -Inf
-Inf -Inf Inf
-Inf -Inf Inf
-Inf -Inf Inf
-Inf -Inf -Inf
-Inf -Inf Inf
-Inf -Inf Inf
-Inf -Inf -Inf
-Inf -Inf Inf
-Inf -Inf -Inf
-Inf -Inf Inf
Inf -Inf -Inf
-Inf -Inf -Inf
-Inf -Inf -Inf
-Inf -Inf Inf
-Inf -Inf Inf
-Inf -Inf -Inf
-Inf -Inf -Inf
-Inf -Inf Inf
-Inf -Inf -Inf
-Inf -Inf Inf
-Inf -Inf -Inf
-Inf -Inf Inf
-Inf -Inf Inf
-Inf -Inf Inf
-Inf -Inf Inf
-Inf -Inf Inf
-Inf -Inf -Inf
-Inf -Inf Inf
-Inf -Inf Inf
-Inf -Inf Inf
-Inf -Inf Inf
-Inf -Inf Inf
-Inf -Inf Inf
-Inf -Inf Inf
-Inf -Inf Inf
-Inf -Inf -Inf
-Inf -Inf Inf
-Inf -Inf Inf
-Inf -Inf Inf
-Inf -Inf -Inf
-Inf -Inf Inf
-Inf -Inf Inf
-Inf -Inf Inf
-Inf -Inf Inf
-Inf -Inf Inf
-Inf -Inf Inf
-Inf -Inf -Inf
-Inf -Inf Inf
-Inf -Inf Inf
-Inf -Inf Inf
-Inf -Inf Inf
-Inf -Inf Inf
-Inf -Inf Inf
-Inf -Inf -Inf
-Inf -Inf Inf
-Inf -Inf -Inf
-Inf -Inf Inf
-Inf -Inf Inf
-Inf -Inf -Inf
-Inf -Inf Inf
-Inf -Inf Inf
-Inf -Inf Inf
-Inf -Inf Inf
-Inf -Inf Inf
-Inf -Inf Inf
-Inf -Inf Inf
-Inf -Inf -Inf
-Inf -Inf Inf
-Inf -Inf Inf
-Inf -Inf Inf
-Inf -Inf Inf
-Inf -Inf -Inf
-Inf -Inf Inf
-Inf -Inf Inf
-Inf -Inf -Inf
-Inf -Inf Inf
-Inf -Inf Inf
-Inf -Inf Inf
-Inf -Inf Inf
-Inf -Inf Inf
-Inf -Inf Inf
-Inf -Inf -Inf
-Inf -Inf Inf
-Inf -Inf -Inf
-Inf -Inf -Inf
-Inf -Inf Inf
-Inf -Inf -Inf
-Inf -Inf Inf
-Inf -Inf -Inf
-Inf -Inf -Inf
-Inf -Inf -Inf
Inf -Inf -Inf
-Inf -Inf Inf
-Inf -Inf Inf
-Inf -Inf Inf
-Inf -Inf Inf
-Inf -Inf Inf
-Inf -Inf Inf
-Inf -Inf Inf
-Inf -Inf Inf
-Inf -Inf -Inf
-Inf -Inf -Inf
-Inf -Inf -Inf
-Inf -Inf -Inf
-Inf -Inf -Inf
-Inf -Inf Inf
-Inf -Inf -Inf
-Inf -Inf Inf
-Inf -Inf -Inf
-Inf -Inf Inf
-Inf -Inf Inf
-Inf -Inf -Inf
-Inf -Inf -Inf
-Inf -Inf -Inf
-Inf -Inf Inf
-Inf -Inf -Inf
-Inf -Inf Inf
-Inf -Inf Inf
-Inf -Inf Inf
-Inf -Inf Inf
-Inf -Inf Inf
-Inf -Inf -Inf
-Inf -Inf Inf
-Inf -Inf Inf
-Inf -Inf -Inf
-Inf -Inf Inf
-Inf -Inf Inf
-Inf -Inf Inf
-Inf -Inf Inf
-Inf -Inf Inf
-Inf -Inf -Inf
-Inf -Inf Inf
-Inf -Inf Inf
-Inf -Inf -Inf
-Inf -Inf Inf
-Inf -Inf Inf
-Inf -Inf -Inf
-Inf -Inf Inf
-Inf -Inf Inf
-Inf -Inf Inf
-Inf -Inf Inf
-Inf -Inf -Inf
-Inf -Inf Inf
-Inf -Inf -Inf
-Inf -Inf Inf
-Inf -Inf Inf
-Inf -Inf -Inf
-Inf -Inf Inf
-Inf -Inf Inf
-Inf -Inf Inf
-Inf -Inf Inf
-Inf -Inf -Inf
-Inf -Inf Inf
-Inf -Inf Inf
-Inf -Inf -Inf
-Inf -Inf Inf
-Inf -Inf -Inf
-Inf -Inf -Inf
-Inf -Inf Inf
-Inf -Inf Inf
-Inf -Inf Inf
-Inf -Inf -Inf
-Inf -Inf Inf
-Inf -Inf -Inf
-Inf -Inf Inf
-Inf -Inf -Inf
-Inf -Inf Inf
-Inf -Inf -Inf
-Inf -Inf Inf
-Inf -Inf Inf
-Inf -Inf -Inf
-Inf -Inf -Inf
-Inf -Inf Inf
-Inf -Inf -Inf
-Inf -Inf -Inf
-Inf -Inf Inf
-Inf -Inf Inf
-Inf -Inf -Inf
-Inf -Inf Inf
-Inf -Inf Inf
-Inf -Inf -Inf
-Inf -Inf -Inf
-Inf -Inf Inf
-Inf -Inf Inf
-Inf -Inf -Inf
-Inf -Inf Inf
-Inf -Inf -Inf
-Inf -Inf Inf
-Inf -Inf Inf
-Inf -Inf Inf
-Inf -Inf Inf
-Inf -Inf Inf
-Inf -Inf Inf
-Inf -Inf Inf
-Inf -Inf Inf
-Inf -Inf Inf
-Inf -Inf Inf
-Inf -Inf Inf
-Inf -Inf Inf
-Inf -Inf Inf
-Inf -Inf Inf
-Inf -Inf Inf
-Inf -Inf -Inf
-Inf -Inf Inf
-Inf -Inf Inf
-Inf -Inf Inf
-Inf -Inf Inf
-Inf -Inf Inf
-Inf -Inf -Inf
-Inf -Inf -Inf
-Inf -Inf -Inf
-Inf -Inf Inf
-Inf -Inf Inf
-Inf -Inf Inf
-Inf -Inf Inf
-Inf -Inf Inf
-Inf -Inf Inf
-Inf -Inf -Inf
-Inf -Inf Inf
-Inf -Inf Inf
-Inf -Inf -Inf
-Inf -Inf -Inf
-Inf -Inf Inf
-Inf -Inf -Inf
-Inf -Inf Inf
-Inf -Inf -Inf
-Inf -Inf Inf
-Inf -Inf Inf
-Inf -Inf Inf
-Inf -Inf -Inf
-Inf -Inf Inf
-Inf -Inf Inf
-Inf -Inf Inf
-Inf -Inf Inf
-Inf -Inf Inf
-Inf -Inf Inf
-Inf -Inf Inf
-Inf -Inf Inf
-Inf -Inf Inf
-Inf -Inf Inf
-Inf -Inf -Inf
-Inf -Inf Inf
Inf -Inf Inf
-Inf -Inf Inf
-Inf -Inf Inf
-Inf -Inf Inf
-Inf -Inf Inf
-Inf -Inf -Inf
-Inf -Inf Inf
-Inf -Inf Inf
-Inf -Inf Inf
-Inf -Inf Inf
-Inf -Inf Inf
-Inf -Inf Inf
-Inf -Inf Inf
-Inf -Inf Inf
-Inf -Inf -Inf
-Inf -Inf Inf
-Inf -Inf Inf
-Inf -Inf Inf
-Inf -Inf Inf
-Inf -Inf Inf
-Inf -Inf -Inf
-Inf -Inf -Inf
-Inf -Inf Inf
-Inf -Inf -Inf
-Inf -Inf Inf
-Inf -Inf Inf
-Inf -Inf -Inf
-Inf -Inf Inf
-Inf -Inf Inf
-Inf -Inf Inf
-Inf -Inf Inf
-Inf -Inf Inf
-Inf -Inf Inf
-Inf -Inf Inf
-Inf -Inf Inf
-Inf -Inf Inf
-Inf -Inf Inf
-Inf -Inf Inf
-Inf -Inf -Inf
-Inf -Inf -Inf
-Inf -Inf -Inf
-Inf -Inf Inf
-Inf -Inf -Inf
-Inf -Inf -Inf
-Inf -Inf Inf
-Inf -Inf Inf
-Inf -Inf Inf
-Inf -Inf Inf
-Inf -Inf Inf
-Inf -Inf Inf
-Inf -Inf Inf
-Inf -Inf Inf
-Inf -Inf Inf
-Inf -Inf Inf
-Inf -Inf Inf
-Inf -Inf Inf
-Inf -Inf -Inf
-Inf -Inf Inf
-Inf -Inf Inf
-Inf -Inf Inf
-Inf -Inf Inf
-Inf -Inf Inf
-Inf -Inf Inf
-Inf -Inf Inf
-Inf -Inf -Inf
-Inf -Inf Inf
-Inf -Inf -Inf
-Inf -Inf Inf
-Inf -Inf Inf
-Inf -Inf -Inf
-Inf -Inf -Inf
-Inf -Inf Inf
-Inf -Inf -Inf
-Inf -Inf Inf
-Inf -Inf -Inf
-Inf -Inf Inf
-Inf -Inf -Inf
-Inf -Inf Inf
-Inf -Inf -Inf
-Inf -Inf -Inf
-Inf -Inf Inf
-Inf -Inf -Inf
-Inf -Inf -Inf
-Inf -Inf Inf
-Inf -Inf Inf
-Inf -Inf Inf
-Inf -Inf Inf
-Inf -Inf Inf
-Inf -Inf Inf
-Inf -Inf -Inf
-Inf -Inf -Inf
-Inf -Inf -Inf
-Inf -Inf Inf
-Inf -Inf Inf
-Inf -Inf Inf
-Inf -Inf Inf
-Inf -Inf Inf
-Inf -Inf Inf
-Inf -Inf Inf
-Inf -Inf Inf
-Inf -Inf Inf
-Inf -Inf Inf
-Inf -Inf -Inf
-Inf -Inf Inf
-Inf -Inf -Inf
-Inf -Inf Inf
-Inf -Inf Inf
-Inf -Inf Inf
-Inf -Inf -Inf
-Inf -Inf Inf
-Inf -Inf Inf
-Inf -Inf Inf
-Inf -Inf Inf
-Inf -Inf -Inf
-Inf -Inf Inf
-Inf -Inf Inf
-Inf -Inf Inf
-Inf -Inf Inf
-Inf -Inf Inf
Inf -Inf Inf
-Inf -Inf Inf
-Inf -Inf Inf
-Inf -Inf Inf
-Inf -Inf Inf
-Inf -Inf -Inf
-Inf -Inf Inf
-Inf -Inf -Inf
-Inf -Inf Inf
-Inf -Inf -Inf
-Inf -Inf Inf
-Inf -Inf Inf
-Inf -Inf Inf
-Inf -Inf Inf
-Inf -Inf Inf
-Inf -Inf Inf
-Inf -Inf Inf
-Inf -Inf Inf
-Inf -Inf -Inf
-Inf -Inf Inf
-Inf -Inf -Inf
-Inf -Inf Inf
-Inf -Inf Inf
-Inf -Inf Inf
-Inf -Inf Inf
-Inf -Inf Inf
-Inf -Inf -Inf
-Inf -Inf -Inf
-Inf -Inf Inf
-Inf -Inf -Inf
-Inf -Inf -Inf
-Inf -Inf -Inf
-Inf -Inf Inf
-Inf -Inf Inf
-Inf -Inf Inf
-Inf -Inf -Inf
-Inf -Inf -Inf
-Inf -Inf -Inf
-Inf -Inf Inf
-Inf -Inf Inf
-Inf -Inf Inf
-Inf -Inf -Inf
-Inf -Inf Inf
-Inf -Inf Inf
-Inf -Inf Inf
-Inf -Inf Inf
-Inf -Inf Inf
-Inf -Inf -Inf
-Inf -Inf Inf
-Inf -Inf Inf
-Inf -Inf Inf
-Inf -Inf Inf
-Inf -Inf Inf
Inf -Inf -Inf
-Inf -Inf Inf
-Inf -Inf -Inf
-Inf -Inf Inf
-Inf -Inf -Inf
-Inf -Inf -Inf
-Inf -Inf Inf
-Inf -Inf Inf
-Inf -Inf -Inf
-Inf -Inf -Inf
-Inf -Inf Inf
-Inf -Inf Inf
-Inf -Inf -Inf
-Inf -Inf Inf
-Inf -Inf Inf
-Inf -Inf Inf
Inf -Inf Inf
-Inf -Inf Inf
-Inf -Inf Inf
-Inf -Inf -Inf
-Inf -Inf -Inf
-Inf -Inf -Inf
-Inf -Inf Inf
-Inf -Inf Inf
-Inf -Inf Inf
-Inf -Inf -Inf
-Inf -Inf Inf
-Inf -Inf Inf
-Inf -Inf -Inf
-Inf -Inf -Inf
-Inf -Inf -Inf
-Inf -Inf Inf
-Inf -Inf Inf
-Inf -Inf Inf
-Inf -Inf Inf
-Inf -Inf -Inf
-Inf -Inf Inf
-Inf -Inf Inf
-Inf -Inf Inf
-Inf -Inf Inf
-Inf -Inf Inf
-Inf -Inf Inf
-Inf -Inf Inf
-Inf -Inf Inf
-Inf -Inf Inf
-Inf -Inf Inf
-Inf -Inf Inf
-Inf -Inf Inf
-Inf -Inf Inf
-Inf -Inf Inf
-Inf -Inf Inf
-Inf -Inf -Inf
-Inf -Inf Inf
-Inf -Inf Inf
-Inf -Inf Inf
-Inf -Inf Inf
-Inf -Inf Inf
-Inf -Inf Inf
-Inf -Inf Inf
-Inf -Inf Inf
-Inf -Inf Inf
-Inf -Inf Inf
-Inf -Inf Inf
-Inf -Inf Inf
-Inf -Inf Inf
-Inf -Inf Inf
-Inf -Inf Inf
-Inf -Inf Inf
-Inf -Inf -Inf
-Inf -Inf Inf
-Inf -Inf Inf
-Inf -Inf Inf
-Inf -Inf Inf
-Inf -Inf Inf
-Inf -Inf Inf
-Inf -Inf Inf
-Inf -Inf Inf
-Inf -Inf Inf
-Inf -Inf Inf
-Inf -Inf Inf
-Inf -Inf Inf
-Inf -Inf -Inf
-Inf -Inf Inf
-Inf -Inf Inf
-Inf -Inf -Inf
-Inf -Inf Inf
-Inf -Inf Inf
-Inf -Inf Inf
-Inf -Inf Inf
-Inf -Inf Inf
-Inf -Inf -Inf
-Inf -Inf Inf
-Inf -Inf -Inf
-Inf -Inf -Inf
-Inf -Inf -Inf
-Inf -Inf Inf
-Inf -Inf Inf
-Inf -Inf Inf
-Inf -Inf Inf
-Inf -Inf Inf
-Inf -Inf Inf
-Inf -Inf Inf
-Inf -Inf Inf
-Inf -Inf -Inf
-Inf -Inf -Inf
-Inf -Inf Inf
-Inf -Inf Inf
-Inf -Inf Inf
-Inf -Inf Inf
-Inf -Inf Inf
-Inf -Inf Inf
-Inf -Inf Inf
-Inf -Inf Inf
-Inf -Inf Inf
-Inf -Inf Inf
-Inf -Inf Inf
-Inf -Inf Inf
-Inf -Inf Inf
-Inf -Inf Inf
-Inf -Inf Inf
-Inf -Inf Inf
-Inf -Inf Inf
-Inf -Inf -Inf
-Inf -Inf Inf
-Inf -Inf Inf
-Inf -Inf Inf
-Inf -Inf Inf
-Inf -Inf -Inf
-Inf -Inf Inf
-Inf -Inf Inf
-Inf -Inf Inf
-Inf -Inf -Inf
-Inf -Inf Inf
-Inf -Inf -Inf
-Inf -Inf Inf
-Inf -Inf Inf
-Inf -Inf Inf
-Inf -Inf Inf
-Inf -Inf Inf
-Inf -Inf Inf
-Inf -Inf Inf
-Inf -Inf Inf
-Inf -Inf Inf
-Inf -Inf Inf
-Inf -Inf -Inf
-Inf -Inf -Inf
-Inf -Inf Inf
-Inf -Inf Inf
-Inf -Inf Inf
-Inf -Inf Inf
-Inf -Inf Inf
-Inf -Inf Inf
-Inf -Inf -Inf
-Inf -Inf Inf
-Inf -Inf -Inf
-Inf -Inf Inf
-Inf -Inf Inf
-Inf -Inf Inf
-Inf -Inf Inf
-Inf -Inf Inf
-Inf -Inf Inf
-Inf -Inf Inf
-Inf -Inf Inf
-Inf -Inf Inf
-Inf -Inf Inf
-Inf -Inf Inf
-Inf -Inf Inf
-Inf -Inf Inf
-Inf -Inf -Inf
-Inf -Inf Inf
-Inf -Inf Inf
-Inf -Inf Inf
-Inf -Inf Inf
-Inf -Inf Inf
-Inf -Inf Inf
-Inf -Inf Inf
-Inf -Inf -Inf
-Inf -Inf Inf
-Inf -Inf Inf
-Inf -Inf Inf
-Inf -Inf -Inf
-Inf -Inf Inf
-Inf -Inf Inf
-Inf -Inf Inf
-Inf -Inf Inf
-Inf -Inf -Inf
-Inf -Inf Inf
-Inf -Inf -Inf
-Inf -Inf -Inf
-Inf -Inf Inf
-Inf -Inf Inf
-Inf -Inf Inf
-Inf -Inf Inf
-Inf -Inf Inf
-Inf -Inf Inf
-Inf -Inf Inf
-Inf -Inf Inf
-Inf -Inf Inf
-Inf -Inf Inf
-Inf -Inf Inf
-Inf -Inf Inf
-Inf -Inf -Inf
-Inf -Inf Inf
-Inf -Inf Inf
-Inf -Inf Inf
-Inf -Inf Inf
-Inf -Inf Inf
-Inf -Inf Inf
-Inf -Inf -Inf
-Inf -Inf Inf
-Inf -Inf Inf
-Inf -Inf Inf
-Inf -Inf Inf
-Inf -Inf -Inf
-Inf -Inf Inf
-Inf -Inf Inf
-Inf -Inf Inf
-Inf -Inf Inf
-Inf -Inf Inf
-Inf -Inf Inf
-Inf -Inf -Inf
-Inf -Inf -Inf
-Inf -Inf Inf
-Inf -Inf Inf
-Inf -Inf Inf
-Inf -Inf Inf
-Inf -Inf Inf
-Inf -Inf Inf
-Inf -Inf Inf
-Inf -Inf Inf
-Inf -Inf Inf
-Inf -Inf Inf
-Inf -Inf Inf
-Inf -Inf Inf
-Inf -Inf Inf
-Inf -Inf Inf
-Inf -Inf Inf
-Inf -Inf Inf
-Inf -Inf Inf
-Inf -Inf Inf
-Inf -Inf Inf
-Inf -Inf Inf
-Inf -Inf -Inf
-Inf -Inf Inf
-Inf -Inf Inf
-Inf -Inf Inf
-Inf -Inf -Inf
-Inf -Inf -Inf
-Inf -Inf -Inf
-Inf -Inf Inf
-Inf -Inf Inf
-Inf -Inf Inf
-Inf -Inf -Inf
-Inf -Inf Inf
-Inf -Inf -Inf
-Inf -Inf Inf
-Inf -Inf Inf
-Inf -Inf -Inf
-Inf -Inf Inf
-Inf -Inf Inf
-Inf -Inf Inf
-Inf -Inf Inf
-Inf -Inf Inf
-Inf -Inf Inf
-Inf -Inf -Inf
-Inf -Inf Inf
-Inf -Inf Inf
-Inf -Inf Inf
-Inf -Inf Inf
-Inf -Inf -Inf
-Inf -Inf Inf
-Inf -Inf Inf
-Inf -Inf Inf
-Inf -Inf -Inf
-Inf -Inf -Inf
-Inf -Inf -Inf
-Inf -Inf -Inf
-Inf -Inf Inf
-Inf -Inf Inf
-Inf -Inf Inf
-Inf -Inf Inf
-Inf -Inf Inf
-Inf -Inf Inf
-Inf -Inf -Inf
-Inf -Inf Inf
-Inf -Inf -Inf
-Inf -Inf Inf
-Inf -Inf Inf
-Inf -Inf Inf
-Inf -Inf Inf
-Inf -Inf Inf
-Inf -Inf Inf
-Inf -Inf Inf
-Inf -Inf Inf
-Inf -Inf Inf
-Inf -Inf Inf
-Inf -Inf -Inf
-Inf -Inf Inf
-Inf -Inf -Inf
-Inf -Inf Inf
-Inf -Inf Inf
-Inf -Inf -Inf
-Inf -Inf -Inf
-Inf -Inf Inf
-Inf -Inf Inf
-Inf -Inf Inf
-Inf -Inf Inf
-Inf -Inf Inf
-Inf -Inf Inf
-Inf -Inf Inf
Inf -Inf Inf
-Inf -Inf Inf
-Inf -Inf -Inf
-Inf -Inf Inf
-Inf -Inf -Inf
-Inf -Inf Inf
-Inf -Inf Inf
-Inf -Inf Inf
-Inf -Inf Inf
-Inf -Inf Inf
-Inf -Inf -Inf
-Inf -Inf -Inf
-Inf -Inf Inf
-Inf -Inf -Inf
-Inf -Inf Inf
-Inf -Inf -Inf
-Inf -Inf -Inf
-Inf -Inf Inf
-Inf -Inf Inf
-Inf -Inf Inf
-Inf -Inf Inf
-Inf -Inf -Inf
-Inf -Inf Inf
-Inf -Inf Inf
-Inf -Inf -Inf
-Inf -Inf Inf
-Inf -Inf Inf
-Inf -Inf Inf
-Inf -Inf -Inf
-Inf -Inf Inf
-Inf -Inf Inf
-Inf -Inf Inf
-Inf -Inf -Inf
-Inf -Inf Inf
-Inf -Inf Inf
-Inf -Inf Inf
-Inf -Inf -Inf
-Inf -Inf Inf
-Inf -Inf Inf
-Inf -Inf -Inf
-Inf -Inf Inf
-Inf -Inf Inf
-Inf -Inf Inf
-Inf -Inf Inf
-Inf -Inf Inf
-Inf -Inf Inf
-Inf -Inf Inf
-Inf -Inf Inf
-Inf -Inf Inf
-Inf -Inf Inf
-Inf -Inf Inf
-Inf -Inf Inf
-Inf -Inf Inf
-Inf -Inf Inf
-Inf -Inf Inf
-Inf -Inf Inf
-Inf -Inf Inf
-Inf -Inf Inf
-Inf -Inf Inf
-Inf -Inf Inf
-Inf -Inf Inf
-Inf -Inf Inf
-Inf -Inf Inf
-Inf -Inf Inf
-Inf -Inf -Inf
-Inf -Inf Inf
-Inf -Inf Inf
-Inf -Inf -Inf
-Inf -Inf -Inf
Inf -Inf Inf
-Inf -Inf Inf
-Inf -Inf Inf
-Inf -Inf Inf
-Inf -Inf Inf
-Inf -Inf Inf
-Inf -Inf Inf
-Inf -Inf Inf
-Inf -Inf -Inf
-Inf -Inf -Inf
-Inf -Inf -Inf
-Inf -Inf -Inf
-Inf -Inf Inf
-Inf -Inf Inf
-Inf -Inf Inf
-Inf -Inf Inf
-Inf -Inf Inf
-Inf -Inf Inf
-Inf -Inf Inf
-Inf -Inf Inf
-Inf -Inf Inf
-Inf -Inf -Inf
-Inf -Inf Inf
-Inf -Inf Inf
-Inf -Inf Inf
-Inf -Inf Inf
-Inf -Inf -Inf
-Inf -Inf -Inf
-Inf -Inf Inf
Inf -Inf Inf
-Inf -Inf Inf
-Inf -Inf Inf
-Inf -Inf -Inf
-Inf -Inf Inf
-Inf -Inf Inf
-Inf -Inf Inf
-Inf -Inf Inf
-Inf -Inf Inf
-Inf -Inf Inf
-Inf -Inf Inf
-Inf -Inf -Inf
-Inf -Inf -Inf
-Inf -Inf Inf
-Inf -Inf Inf
-Inf -Inf -Inf
-Inf -Inf -Inf
-Inf -Inf Inf
Inf -Inf Inf
-Inf -Inf Inf
-Inf -Inf Inf
-Inf -Inf Inf
-Inf -Inf Inf
-Inf -Inf -Inf
Inf -Inf Inf
-Inf -Inf -Inf
-Inf -Inf -Inf
-Inf -Inf Inf
-Inf -Inf Inf
-Inf -Inf -Inf
-Inf -Inf -Inf
-Inf -Inf -Inf
-Inf -Inf -Inf
-Inf -Inf -Inf
-Inf -Inf Inf
-Inf -Inf -Inf
Inf -Inf Inf
-Inf -Inf Inf
-Inf -Inf Inf
-Inf -Inf Inf
-Inf -Inf Inf
-Inf -Inf Inf
-Inf -Inf -Inf
-Inf -Inf Inf
-Inf -Inf Inf
-Inf -Inf Inf
-Inf -Inf Inf
Inf -Inf Inf
-Inf -Inf Inf
-Inf -Inf Inf
-Inf -Inf Inf
-Inf -Inf Inf
-Inf -Inf Inf
-Inf -Inf -Inf
-Inf -Inf -Inf
-Inf -Inf Inf
-Inf -Inf Inf
-Inf -Inf Inf
-Inf -Inf Inf
-Inf -Inf Inf
-Inf -Inf -Inf
-Inf -Inf Inf
-Inf -Inf Inf
-Inf -Inf Inf
-Inf -Inf Inf
-Inf -Inf Inf
-Inf -Inf Inf
-Inf -Inf Inf
-Inf -Inf Inf
-Inf -Inf -Inf
-Inf -Inf -Inf
-Inf -Inf Inf
-Inf -Inf Inf
-Inf -Inf Inf
-Inf -Inf -Inf
-Inf -Inf Inf
-Inf -Inf -Inf
-Inf -Inf Inf
-Inf -Inf Inf
-Inf -Inf Inf
-Inf -Inf Inf
-Inf -Inf -Inf
-Inf -Inf Inf
-Inf -Inf Inf
-Inf -Inf Inf
-Inf -Inf Inf
-Inf -Inf -Inf
-Inf -Inf Inf
-Inf -Inf Inf
-Inf -Inf Inf
-Inf -Inf -Inf
-Inf -Inf Inf
-Inf -Inf Inf
Inf -Inf -Inf
-Inf -Inf Inf
-Inf -Inf Inf
-Inf -Inf -Inf
-Inf -Inf Inf
-Inf -Inf Inf
-Inf -Inf Inf
-Inf -Inf Inf
-Inf -Inf Inf
Inf -Inf Inf
-Inf -Inf Inf
-Inf -Inf -Inf
-Inf -Inf Inf
-Inf -Inf -Inf
-Inf -Inf Inf
-Inf -Inf Inf
-Inf -Inf -Inf
-Inf -Inf Inf
-Inf -Inf -Inf
-Inf -Inf Inf
-Inf -Inf Inf
-Inf -Inf -Inf
-Inf -Inf Inf
-Inf -Inf Inf
-Inf -Inf Inf
-Inf -Inf Inf
-Inf -Inf -Inf
-Inf -Inf Inf
-Inf -Inf Inf
-Inf -Inf -Inf
-Inf -Inf Inf
-Inf -Inf Inf
-Inf -Inf Inf
-Inf -Inf Inf
-Inf -Inf Inf
-Inf -Inf Inf
-Inf -Inf Inf
-Inf -Inf Inf
-Inf -Inf -Inf
-Inf -Inf -Inf
-Inf -Inf -Inf
-Inf -Inf Inf
-Inf -Inf -Inf
-Inf -Inf Inf
-Inf -Inf -Inf
-Inf -Inf -Inf
-Inf -Inf Inf
-Inf -Inf -Inf
-Inf -Inf Inf
-Inf -Inf -Inf
-Inf -Inf Inf
-Inf -Inf Inf
-Inf -Inf Inf
-Inf -Inf -Inf
-Inf -Inf -Inf
-Inf -Inf -Inf
-Inf -Inf Inf
-Inf -Inf Inf
-Inf -Inf Inf
-Inf -Inf Inf
-Inf -Inf Inf
-Inf -Inf Inf
-Inf -Inf Inf
-Inf -Inf -Inf
-Inf -Inf Inf
-Inf -Inf -Inf
-Inf -Inf Inf
-Inf -Inf Inf
-Inf -Inf -Inf
-Inf -Inf Inf
-Inf -Inf Inf
-Inf -Inf Inf
-Inf -Inf Inf
-Inf -Inf Inf
-Inf -Inf Inf
-Inf -Inf Inf
-Inf -Inf Inf
Inf -Inf -Inf
-Inf -Inf -Inf
-Inf -Inf Inf
-Inf -Inf Inf
-Inf -Inf Inf
-Inf -Inf Inf
-Inf -Inf -Inf
-Inf -Inf -Inf
-Inf -Inf Inf
-Inf -Inf -Inf
-Inf -Inf Inf
-Inf -Inf -Inf
-Inf -Inf -Inf
-Inf -Inf Inf
-Inf -Inf Inf
-Inf -Inf Inf
-Inf -Inf -Inf
-Inf -Inf Inf
Inf -Inf Inf
-Inf -Inf -Inf
-Inf -Inf Inf
-Inf -Inf -Inf
-Inf -Inf Inf
-Inf -Inf Inf
-Inf -Inf -Inf
-Inf -Inf -Inf
-Inf -Inf Inf
-Inf -Inf Inf
-Inf -Inf Inf
-Inf -Inf Inf
-Inf -Inf Inf
Inf -Inf Inf
-Inf -Inf Inf
-Inf -Inf Inf
-Inf -Inf Inf
-Inf -Inf Inf
-Inf -Inf -Inf
-Inf -Inf Inf
-Inf -Inf Inf
-Inf -Inf Inf
-Inf -Inf Inf
-Inf -Inf Inf
-Inf -Inf Inf
-Inf -Inf -Inf
-Inf -Inf Inf
-Inf -Inf Inf
-Inf -Inf Inf
-Inf -Inf Inf
-Inf -Inf Inf
-Inf -Inf -Inf
-Inf -Inf Inf
-Inf -Inf -Inf
-Inf -Inf Inf
-Inf -Inf Inf
-Inf -Inf Inf
-Inf -Inf -Inf
-Inf -Inf Inf
-Inf -Inf Inf
-Inf -Inf Inf
-Inf -Inf Inf
-Inf -Inf Inf
Inf -Inf -Inf
-Inf -Inf Inf
-Inf -Inf Inf
-Inf -Inf -Inf
-Inf -Inf Inf
-Inf -Inf Inf
-Inf -Inf Inf
-Inf -Inf Inf
-Inf -Inf -Inf
Inf -Inf Inf
Inf -Inf -Inf
-Inf -Inf -Inf
-Inf -Inf Inf
-Inf -Inf Inf
-Inf -Inf -Inf
-Inf -Inf Inf
-Inf -Inf Inf
-Inf -Inf Inf
-Inf -Inf Inf
-Inf -Inf Inf
-Inf -Inf Inf
-Inf -Inf Inf
-Inf -Inf Inf
-Inf -Inf -Inf
-Inf -Inf Inf
-Inf -Inf Inf
-Inf -Inf Inf
-Inf -Inf -Inf
-Inf -Inf -Inf
-Inf -Inf Inf
-Inf -Inf Inf
-Inf -Inf Inf
-Inf -Inf Inf
-Inf -Inf Inf
Inf -Inf Inf
-Inf -Inf Inf
-Inf -Inf Inf
-Inf -Inf Inf
-Inf -Inf -Inf
-Inf -Inf -Inf
-Inf -Inf -Inf
-Inf -Inf Inf
-Inf -Inf Inf
-Inf -Inf -Inf
-Inf -Inf Inf
-Inf -Inf Inf
-Inf -Inf Inf
-Inf -Inf Inf
-Inf -Inf Inf
-Inf -Inf Inf
-Inf -Inf -Inf
-Inf -Inf Inf
-Inf -Inf Inf
-Inf -Inf Inf
-Inf -Inf Inf
-Inf -Inf Inf
-Inf -Inf -Inf
-Inf -Inf Inf
-Inf -Inf Inf
-Inf -Inf Inf
Inf -Inf Inf
-Inf -Inf Inf
-Inf -Inf Inf
-Inf -Inf -Inf
Inf -Inf -Inf
-Inf -Inf Inf
-Inf -Inf Inf
-Inf -Inf Inf
Inf -Inf Inf
-Inf -Inf Inf
-Inf -Inf -Inf
-Inf -Inf Inf
-Inf -Inf Inf
-Inf -Inf Inf
-Inf -Inf Inf
-Inf -Inf Inf
-Inf -Inf -Inf
-Inf -Inf Inf
-Inf -Inf Inf
Inf -Inf Inf
-Inf -Inf Inf
-Inf -Inf Inf
-Inf -Inf Inf
-Inf -Inf Inf
-Inf -Inf Inf
-Inf -Inf -Inf
-Inf -Inf -Inf
-Inf -Inf -Inf
-Inf -Inf -Inf
-Inf -Inf Inf
-Inf -Inf -Inf
Inf -Inf -Inf
-Inf -Inf Inf
-Inf -Inf -Inf
Inf -Inf Inf
Inf -Inf -Inf
-Inf -Inf -Inf
Inf -Inf -Inf
-Inf -Inf -Inf
-Inf -Inf Inf
-Inf -Inf Inf
-Inf -Inf Inf
Inf -Inf Inf
-Inf -Inf -Inf
-Inf -Inf Inf
-Inf -Inf Inf
-Inf -Inf Inf
-Inf -Inf Inf
-Inf -Inf Inf
-Inf -Inf Inf
-Inf -Inf Inf
-Inf -Inf Inf
-Inf -Inf -Inf
-Inf -Inf Inf
-Inf -Inf -Inf
-Inf -Inf Inf
-Inf -Inf Inf
Inf -Inf Inf
-Inf -Inf Inf
-Inf -Inf Inf
Inf -Inf Inf
-Inf -Inf Inf
-Inf -Inf Inf
-Inf -Inf Inf
Inf -Inf -Inf
-Inf -Inf Inf
-Inf -Inf Inf
-Inf -Inf Inf
-Inf -Inf Inf
-Inf -Inf -Inf
-Inf -Inf Inf
-Inf -Inf Inf
-Inf -Inf Inf
-Inf -Inf Inf
-Inf -Inf Inf
-Inf -Inf Inf
-Inf -Inf Inf
-Inf -Inf Inf
-Inf -Inf Inf
-Inf -Inf -Inf
-Inf -Inf Inf
-Inf -Inf Inf
-Inf -Inf Inf
-Inf -Inf Inf
-Inf -Inf -Inf
-Inf -Inf Inf
-Inf -Inf Inf
-Inf -Inf Inf
-Inf -Inf Inf
-Inf -Inf -Inf
-Inf -Inf Inf
-Inf -Inf Inf
-Inf -Inf Inf
-Inf -Inf Inf
-Inf -Inf Inf
-Inf -Inf Inf
-Inf -Inf Inf
-Inf -Inf Inf
-Inf -Inf Inf
-Inf -Inf Inf
-Inf -Inf Inf
-Inf -Inf Inf
-Inf -Inf Inf
-Inf -Inf -Inf
-Inf -Inf Inf
-Inf -Inf Inf
-Inf -Inf Inf
-Inf -Inf Inf
-Inf -Inf Inf
-Inf -Inf Inf
-Inf -Inf Inf
-Inf -Inf Inf
-Inf -Inf Inf
-Inf -Inf Inf
-Inf -Inf Inf
-Inf -Inf Inf
-Inf -Inf Inf
-Inf -Inf Inf
-Inf -Inf Inf
-Inf -Inf Inf
-Inf -Inf Inf
-Inf -Inf -Inf
-Inf -Inf -Inf
-Inf -Inf Inf
-Inf -Inf -Inf
Inf -Inf -Inf
-Inf -Inf Inf
-Inf -Inf Inf
-Inf -Inf Inf
-Inf -Inf -Inf
-Inf -Inf -Inf
-Inf -Inf Inf
-Inf -Inf Inf
-Inf -Inf Inf
-Inf -Inf Inf
-Inf -Inf Inf
-Inf -Inf Inf
-Inf -Inf Inf
-Inf -Inf Inf
-Inf -Inf Inf
-Inf -Inf Inf
-Inf -Inf Inf
-Inf -Inf -Inf
-Inf -Inf Inf
-Inf -Inf Inf
-Inf -Inf Inf
-Inf -Inf Inf
-Inf -Inf Inf
-Inf -Inf -Inf
-Inf -Inf -Inf
-Inf -Inf Inf
-Inf -Inf -Inf
-Inf -Inf -Inf
-Inf -Inf Inf
-Inf -Inf Inf
-Inf -Inf -Inf
-Inf -Inf Inf
-Inf -Inf -Inf
-Inf -Inf Inf
-Inf -Inf Inf
-Inf -Inf Inf
-Inf -Inf -Inf
-Inf -Inf -Inf
-Inf -Inf Inf
-Inf -Inf Inf
-Inf -Inf Inf
-Inf -Inf Inf
-Inf -Inf -Inf
-Inf -Inf Inf
-Inf -Inf Inf
-Inf -Inf Inf
-Inf -Inf Inf
-Inf -Inf Inf
-Inf -Inf -Inf
-Inf -Inf -Inf
-Inf -Inf Inf
Inf -Inf -Inf
-Inf -Inf -Inf
-Inf -Inf Inf
-Inf -Inf -Inf
-Inf -Inf Inf
-Inf -Inf Inf
-Inf -Inf Inf
-Inf -Inf Inf
-Inf -Inf Inf
-Inf -Inf Inf
-Inf -Inf Inf
-Inf -Inf Inf
-Inf -Inf Inf
-Inf -Inf -Inf
-Inf -Inf Inf
-Inf -Inf Inf
-Inf -Inf Inf
-Inf -Inf Inf
-Inf -Inf Inf
-Inf -Inf Inf
-Inf -Inf Inf
-Inf -Inf Inf
-Inf -Inf Inf
-Inf -Inf Inf
-Inf -Inf -Inf
-Inf -Inf Inf
-Inf -Inf Inf
-Inf -Inf Inf
-Inf -Inf Inf
-Inf -Inf Inf
-Inf -Inf Inf
-Inf -Inf -Inf
-Inf -Inf Inf
-Inf -Inf -Inf
-Inf -Inf Inf
-Inf -Inf -Inf
-Inf -Inf Inf
-Inf -Inf Inf
-Inf -Inf Inf
-Inf -Inf Inf
-Inf -Inf Inf
Inf -Inf Inf
-Inf -Inf -Inf
-Inf -Inf -Inf
-Inf -Inf Inf
-Inf -Inf Inf
-Inf -Inf Inf
-Inf -Inf Inf
-Inf -Inf -Inf
-Inf -Inf Inf
-Inf -Inf Inf
-Inf -Inf Inf
-Inf -Inf Inf
-Inf -Inf Inf
-Inf -Inf Inf
-Inf -Inf -Inf
-Inf -Inf Inf
-Inf -Inf Inf
-Inf -Inf -Inf
-Inf -Inf Inf
-Inf -Inf -Inf
-Inf -Inf Inf
-Inf -Inf Inf
-Inf -Inf Inf
-Inf -Inf Inf
-Inf -Inf Inf
-Inf -Inf -Inf
-Inf -Inf Inf
-Inf -Inf Inf
-Inf -Inf Inf
-Inf -Inf Inf
-Inf -Inf -Inf
-Inf -Inf Inf
-Inf -Inf Inf
-Inf -Inf -Inf
-Inf -Inf Inf
-Inf -Inf Inf
-Inf -Inf Inf
-Inf -Inf Inf
-Inf -Inf Inf
-Inf -Inf -Inf
-Inf -Inf Inf
-Inf -Inf Inf
-Inf -Inf Inf
Inf -Inf Inf
-Inf -Inf Inf
-Inf -Inf -Inf
-Inf -Inf Inf
-Inf -Inf Inf
-Inf -Inf Inf
-Inf -Inf Inf
-Inf -Inf Inf
-Inf -Inf Inf
-Inf -Inf Inf
-Inf -Inf Inf
-Inf -Inf Inf
-Inf -Inf Inf
-Inf -Inf Inf
-Inf -Inf Inf
-Inf -Inf Inf
-Inf -Inf -Inf
-Inf -Inf Inf
-Inf -Inf Inf
-Inf -Inf Inf
-Inf -Inf Inf
-Inf -Inf -Inf
-Inf -Inf Inf
-Inf -Inf Inf
-Inf -Inf Inf
-Inf -Inf -Inf
Inf -Inf -Inf
-Inf -Inf Inf
-Inf -Inf -Inf
-Inf -Inf Inf
-Inf -Inf Inf
-Inf -Inf Inf
-Inf -Inf Inf
-Inf -Inf Inf
-Inf -Inf -Inf
-Inf -Inf Inf
-Inf -Inf Inf
-Inf -Inf Inf
-Inf -Inf -Inf
-Inf -Inf -Inf
-Inf -Inf Inf
-Inf -Inf Inf
-Inf -Inf Inf
-Inf -Inf Inf
-Inf -Inf -Inf
-Inf -Inf Inf
-Inf -Inf Inf
-Inf -Inf Inf
-Inf -Inf -Inf
-Inf -Inf -Inf
-Inf -Inf Inf
-Inf -Inf Inf
-Inf -Inf Inf
-Inf -Inf -Inf
-Inf -Inf Inf
-Inf -Inf -Inf
-Inf -Inf Inf
-Inf -Inf Inf
-Inf -Inf Inf
-Inf -Inf Inf
-Inf -Inf Inf
-Inf -Inf Inf
-Inf -Inf Inf
-Inf -Inf -Inf
-Inf -Inf -Inf
-Inf -Inf Inf
-Inf -Inf -Inf
-Inf -Inf -Inf
-Inf -Inf -Inf
-Inf -Inf -Inf
-Inf -Inf Inf
-Inf -Inf -Inf
-Inf -Inf -Inf
-Inf -Inf -Inf
-Inf -Inf -Inf
-Inf -Inf -Inf
-Inf -Inf Inf
-Inf -Inf Inf
-Inf -Inf Inf
-Inf -Inf Inf
-Inf -Inf Inf
-Inf -Inf Inf
-Inf -Inf Inf
-Inf -Inf Inf
-Inf -Inf Inf
-Inf -Inf Inf
-Inf -Inf Inf
-Inf -Inf -Inf
-Inf -Inf -Inf
-Inf -Inf -Inf
-Inf -Inf Inf
-Inf -Inf -Inf
-Inf -Inf Inf
-Inf -Inf Inf
-Inf -Inf Inf
-Inf -Inf Inf
-Inf -Inf Inf
-Inf -Inf Inf
-Inf -Inf Inf
-Inf -Inf Inf
-Inf -Inf Inf
-Inf -Inf Inf
-Inf -Inf Inf
-Inf -Inf Inf
-Inf -Inf Inf
-Inf -Inf Inf
-Inf -Inf Inf
-Inf -Inf Inf
-Inf -Inf Inf
-Inf -Inf Inf
-Inf -Inf Inf
-Inf -Inf -Inf
-Inf -Inf Inf
-Inf -Inf Inf
-Inf -Inf Inf
-Inf -Inf -Inf
-Inf -Inf Inf
-Inf -Inf -Inf
-Inf -Inf Inf
-Inf -Inf Inf
-Inf -Inf Inf
-Inf -Inf Inf
-Inf -Inf Inf
-Inf -Inf -Inf
-Inf -Inf Inf
-Inf -Inf Inf
-Inf -Inf Inf
-Inf -Inf Inf
Inf -Inf Inf
-Inf -Inf Inf
-Inf -Inf Inf
-Inf -Inf Inf
-Inf -Inf Inf
-Inf -Inf Inf
-Inf -Inf -Inf
-Inf -Inf Inf
-Inf -Inf -Inf
-Inf -Inf Inf
-Inf -Inf Inf
-Inf -Inf Inf
-Inf -Inf Inf
-Inf -Inf -Inf
-Inf -Inf -Inf
Inf -Inf -Inf
-Inf -Inf Inf
-Inf -Inf -Inf
-Inf -Inf Inf
-Inf -Inf Inf
-Inf -Inf -Inf
-Inf -Inf Inf
-Inf -Inf Inf
-Inf -Inf Inf
-Inf -Inf -Inf
-Inf -Inf Inf
-Inf -Inf Inf
-Inf -Inf Inf
-Inf -Inf Inf
-Inf -Inf Inf
-Inf -Inf -Inf
-Inf -Inf -Inf
-Inf -Inf Inf
-Inf -Inf Inf
-Inf -Inf Inf
-Inf -Inf -Inf
-Inf -Inf Inf
-Inf -Inf -Inf
-Inf -Inf Inf
-Inf -Inf Inf
-Inf -Inf Inf
-Inf -Inf Inf
-Inf -Inf Inf
-Inf -Inf -Inf
-Inf -Inf Inf
-Inf -Inf Inf
-Inf -Inf Inf
-Inf -Inf Inf
-Inf -Inf Inf
-Inf -Inf Inf
-Inf -Inf Inf
-Inf -Inf -Inf
-Inf -Inf Inf
-Inf -Inf Inf
-Inf -Inf Inf
-Inf -Inf Inf
-Inf -Inf Inf
-Inf -Inf -Inf
-Inf -Inf Inf
-Inf -Inf Inf
-Inf -Inf Inf
-Inf -Inf Inf
-Inf -Inf Inf
-Inf -Inf Inf
-Inf -Inf Inf
-Inf -Inf Inf
-Inf -Inf -Inf
-Inf -Inf -Inf
-Inf -Inf Inf
-Inf -Inf Inf
-Inf -Inf Inf
-Inf -Inf Inf
Inf -Inf Inf
-Inf -Inf Inf
-Inf -Inf Inf
-Inf -Inf Inf
-Inf -Inf Inf
-Inf -Inf Inf
-Inf -Inf Inf
-Inf -Inf Inf
Inf -Inf -Inf
-Inf -Inf Inf
-Inf -Inf Inf
-Inf -Inf Inf
-Inf -Inf Inf
-Inf -Inf Inf
-Inf -Inf Inf
-Inf -Inf Inf
-Inf -Inf -Inf
-Inf -Inf -Inf
-Inf -Inf -Inf
-Inf -Inf Inf
-Inf -Inf Inf
-Inf -Inf Inf
-Inf -Inf Inf
-Inf -Inf Inf
-Inf -Inf Inf
-Inf -Inf Inf
-Inf -Inf Inf
-Inf -Inf Inf
-Inf -Inf Inf
-Inf -Inf Inf
-Inf -Inf Inf
Inf -Inf -Inf
-Inf -Inf Inf
-Inf -Inf Inf
-Inf -Inf Inf
-Inf -Inf -Inf
-Inf -Inf Inf
-Inf -Inf Inf
-Inf -Inf Inf
Inf -Inf Inf
-Inf -Inf -Inf
-Inf -Inf -Inf
-Inf -Inf -Inf
-Inf -Inf Inf
-Inf -Inf Inf
-Inf -Inf Inf
-Inf -Inf Inf
-Inf -Inf Inf
-Inf -Inf Inf
-Inf -Inf Inf
-Inf -Inf -Inf
-Inf -Inf -Inf
-Inf -Inf Inf
-Inf -Inf Inf
-Inf -Inf -Inf
-Inf -Inf Inf
-Inf -Inf Inf
-Inf -Inf -Inf
-Inf -Inf -Inf
-Inf -Inf Inf
-Inf -Inf Inf
-Inf -Inf -Inf
-Inf -Inf Inf
-Inf -Inf -Inf
-Inf -Inf Inf
-Inf -Inf Inf
-Inf -Inf Inf
-Inf -Inf Inf
-Inf -Inf Inf
-Inf -Inf Inf
-Inf -Inf Inf
-Inf -Inf -Inf
-Inf -Inf -Inf
Inf -Inf -Inf
-Inf -Inf Inf
-Inf -Inf -Inf
-Inf -Inf -Inf
-Inf -Inf Inf
-Inf -Inf Inf
-Inf -Inf Inf
-Inf -Inf Inf
-Inf -Inf Inf
-Inf -Inf Inf
-Inf -Inf Inf
-Inf -Inf Inf
-Inf -Inf Inf
-Inf -Inf Inf
-Inf -Inf -Inf
-Inf -Inf Inf
-Inf -Inf Inf
-Inf -Inf Inf
-Inf -Inf Inf
-Inf -Inf Inf
-Inf -Inf Inf
-Inf -Inf Inf
-Inf -Inf Inf
-Inf -Inf Inf
-Inf -Inf Inf
Inf -Inf Inf
-Inf -Inf Inf
-Inf -Inf -Inf
-Inf -Inf -Inf
-Inf -Inf -Inf
-Inf -Inf Inf
-Inf -Inf Inf
-Inf -Inf Inf
-Inf -Inf -Inf
-Inf -Inf Inf
-Inf -Inf Inf
-Inf -Inf Inf
-Inf -Inf -Inf
-Inf -Inf Inf
-Inf -Inf Inf
-Inf -Inf Inf
Inf -Inf -Inf
-Inf -Inf -Inf
-Inf -Inf Inf
-Inf -Inf Inf
-Inf -Inf -Inf
-Inf -Inf Inf
-Inf -Inf Inf
-Inf -Inf Inf
-Inf -Inf Inf
-Inf -Inf Inf
-Inf -Inf Inf
-Inf -Inf Inf
-Inf -Inf Inf
-Inf -Inf Inf
-Inf -Inf Inf
-Inf -Inf Inf
-Inf -Inf Inf
-Inf -Inf Inf
-Inf -Inf -Inf
-Inf -Inf Inf
-Inf -Inf Inf
-Inf -Inf -Inf
-Inf -Inf Inf
-Inf -Inf Inf
-Inf -Inf Inf
-Inf -Inf Inf
-Inf -Inf Inf
-Inf -Inf Inf
-Inf -Inf Inf
-Inf -Inf Inf
-Inf -Inf Inf
-Inf -Inf -Inf
-Inf -Inf Inf
-Inf -Inf Inf
-Inf -Inf Inf
-Inf -Inf Inf
-Inf -Inf Inf
-Inf -Inf Inf
-Inf -Inf Inf
-Inf -Inf Inf
-Inf -Inf Inf
-Inf -Inf Inf
-Inf -Inf Inf
-Inf -Inf -Inf
-Inf -Inf -Inf
-Inf -Inf Inf
-Inf -Inf Inf
-Inf -Inf Inf
-Inf -Inf -Inf
-Inf -Inf Inf
-Inf -Inf Inf
-Inf -Inf Inf
-Inf -Inf Inf
-Inf -Inf -Inf
-Inf -Inf Inf
-Inf -Inf -Inf
-Inf -Inf Inf
-Inf -Inf Inf
-Inf -Inf Inf
-Inf -Inf Inf
-Inf -Inf -Inf
-Inf -Inf -Inf
-Inf -Inf Inf
-Inf -Inf -Inf
-Inf -Inf Inf
-Inf -Inf Inf
-Inf -Inf -Inf
-Inf -Inf -Inf
-Inf -Inf Inf
-Inf -Inf Inf
-Inf -Inf Inf
-Inf -Inf Inf
-Inf -Inf Inf
-Inf -Inf Inf
-Inf -Inf Inf
-Inf -Inf -Inf
-Inf -Inf Inf
-Inf -Inf Inf
-Inf -Inf Inf
-Inf -Inf Inf
-Inf -Inf Inf
-Inf -Inf -Inf
-Inf -Inf Inf
-Inf -Inf Inf
-Inf -Inf -Inf
-Inf -Inf Inf
-Inf -Inf Inf
-Inf -Inf -Inf
-Inf -Inf -Inf
-Inf -Inf Inf
-Inf -Inf Inf
-Inf -Inf Inf
-Inf -Inf Inf
-Inf -Inf Inf
-Inf -Inf Inf
-Inf -Inf Inf
-Inf -Inf Inf
-Inf -Inf Inf
-Inf -Inf Inf
-Inf -Inf -Inf
-Inf -Inf -Inf
-Inf -Inf -Inf
-Inf -Inf Inf
-Inf -Inf Inf
-Inf -Inf Inf
-Inf -Inf Inf
-Inf -Inf Inf
-Inf -Inf Inf
-Inf -Inf Inf
-Inf -Inf Inf
-Inf -Inf -Inf
-Inf -Inf -Inf
-Inf -Inf Inf
-Inf -Inf -Inf
Inf -Inf -Inf
-Inf -Inf Inf
-Inf -Inf Inf
-Inf -Inf Inf
-Inf -Inf -Inf
-Inf -Inf Inf
-Inf -Inf Inf
-Inf -Inf Inf
-Inf -Inf Inf
-Inf -Inf -Inf
-Inf -Inf Inf
-Inf -Inf -Inf
-Inf -Inf Inf
-Inf -Inf Inf
-Inf -Inf Inf
-Inf -Inf -Inf
-Inf -Inf Inf
-Inf -Inf Inf
-Inf -Inf Inf
-Inf -Inf -Inf
-Inf -Inf Inf
-Inf -Inf Inf
-Inf -Inf Inf
-Inf -Inf Inf
-Inf -Inf Inf
-Inf -Inf Inf
-Inf -Inf Inf
-Inf -Inf Inf
-Inf -Inf Inf
-Inf -Inf Inf
-Inf -Inf -Inf
-Inf -Inf Inf
-Inf -Inf -Inf
-Inf -Inf -Inf
-Inf -Inf -Inf
-Inf -Inf Inf
-Inf -Inf Inf
-Inf -Inf -Inf
-Inf -Inf -Inf
-Inf -Inf Inf
-Inf -Inf -Inf
-Inf -Inf Inf
-Inf -Inf Inf
-Inf -Inf Inf
-Inf -Inf Inf
-Inf -Inf Inf
-Inf -Inf Inf
-Inf -Inf Inf
-Inf -Inf Inf
-Inf -Inf Inf
-Inf -Inf -Inf
-Inf -Inf Inf
-Inf -Inf -Inf
-Inf -Inf -Inf
-Inf -Inf Inf
-Inf -Inf Inf
Inf -Inf -Inf
-Inf -Inf Inf
-Inf -Inf Inf
-Inf -Inf Inf
-Inf -Inf Inf
-Inf -Inf -Inf
-Inf -Inf Inf
-Inf -Inf Inf
-Inf -Inf -Inf
-Inf -Inf -Inf
-Inf -Inf Inf
-Inf -Inf Inf
-Inf -Inf Inf
-Inf -Inf Inf
-Inf -Inf Inf
-Inf -Inf -Inf
-Inf -Inf Inf
-Inf -Inf -Inf
-Inf -Inf Inf
-Inf -Inf -Inf
-Inf -Inf -Inf
-Inf -Inf Inf
-Inf -Inf -Inf
-Inf -Inf -Inf
-Inf -Inf Inf
-Inf -Inf -Inf
-Inf -Inf Inf
-Inf -Inf Inf
-Inf -Inf Inf
-Inf -Inf -Inf
-Inf -Inf Inf
-Inf -Inf Inf
-Inf -Inf -Inf
-Inf -Inf -Inf
-Inf -Inf Inf
-Inf -Inf Inf
-Inf -Inf -Inf
-Inf -Inf Inf
-Inf -Inf Inf
-Inf -Inf -Inf
-Inf -Inf Inf
-Inf -Inf Inf
-Inf -Inf -Inf
-Inf -Inf -Inf
-Inf -Inf Inf
-Inf -Inf Inf
-Inf -Inf Inf
-Inf -Inf Inf
-Inf -Inf Inf
-Inf -Inf Inf
-Inf -Inf -Inf
-Inf -Inf Inf
-Inf -Inf Inf
-Inf -Inf Inf
-Inf -Inf Inf
-Inf -Inf Inf
-Inf -Inf Inf
-Inf -Inf Inf
-Inf -Inf Inf
-Inf -Inf -Inf
-Inf -Inf Inf
-Inf -Inf -Inf
-Inf -Inf -Inf
-Inf -Inf Inf
-Inf -Inf Inf
-Inf -Inf -Inf
-Inf -Inf -Inf
-Inf -Inf -Inf
-Inf -Inf Inf
-Inf -Inf Inf
-Inf -Inf -Inf
-Inf -Inf Inf
-Inf -Inf -Inf
-Inf -Inf Inf
-Inf -Inf Inf
-Inf -Inf Inf
-Inf -Inf -Inf
-Inf -Inf -Inf
-Inf -Inf Inf
-Inf -Inf Inf
-Inf -Inf -Inf
-Inf -Inf Inf
-Inf -Inf -Inf
-Inf -Inf Inf
-Inf -Inf -Inf
-Inf -Inf Inf
-Inf -Inf -Inf
-Inf -Inf Inf
-Inf -Inf Inf
-Inf -Inf Inf
-Inf -Inf Inf
-Inf -Inf Inf
-Inf -Inf -Inf
-Inf -Inf Inf
-Inf -Inf -Inf
-Inf -Inf Inf
-Inf -Inf -Inf
-Inf -Inf Inf
-Inf -Inf Inf
-Inf -Inf -Inf
-Inf -Inf -Inf
-Inf -Inf -Inf
-Inf -Inf Inf
-Inf -Inf Inf
Inf -Inf -Inf
-Inf -Inf Inf
-Inf -Inf -Inf
-Inf -Inf Inf
-Inf -Inf Inf
-Inf -Inf Inf
-Inf -Inf -Inf
-Inf -Inf -Inf
-Inf -Inf Inf
-Inf -Inf -Inf
-Inf -Inf -Inf
-Inf -Inf -Inf
-Inf -Inf Inf
-Inf -Inf Inf
-Inf -Inf Inf
-Inf -Inf Inf
-Inf -Inf Inf
-Inf -Inf Inf
-Inf -Inf Inf
-Inf -Inf -Inf
-Inf -Inf Inf
-Inf -Inf -Inf
-Inf -Inf Inf
-Inf -Inf Inf
-Inf -Inf -Inf
-Inf -Inf Inf
-Inf -Inf Inf
-Inf -Inf Inf
-Inf -Inf -Inf
-Inf -Inf Inf
-Inf -Inf Inf
-Inf -Inf Inf
-Inf -Inf Inf
-Inf -Inf Inf
-Inf -Inf Inf
-Inf -Inf Inf
-Inf -Inf Inf
-Inf -Inf -Inf
-Inf -Inf Inf
-Inf -Inf -Inf
-Inf -Inf Inf
-Inf -Inf Inf
-Inf -Inf Inf
-Inf -Inf -Inf
-Inf -Inf Inf
-Inf -Inf -Inf
-Inf -Inf Inf
-Inf -Inf -Inf
-Inf -Inf Inf
-Inf -Inf -Inf
-Inf -Inf Inf
-Inf -Inf Inf
-Inf -Inf Inf
-Inf -Inf Inf
-Inf -Inf Inf
-Inf -Inf Inf
-Inf -Inf Inf
-Inf -Inf Inf
-Inf -Inf Inf
-Inf -Inf -Inf
-Inf -Inf Inf
-Inf -Inf Inf
-Inf -Inf Inf
-Inf -Inf -Inf
-Inf -Inf -Inf
-Inf -Inf -Inf
-Inf -Inf Inf
-Inf -Inf Inf
-Inf -Inf Inf
-Inf -Inf Inf
-Inf -Inf Inf
-Inf -Inf Inf
-Inf -Inf -Inf
-Inf -Inf Inf
-Inf -Inf Inf
-Inf -Inf Inf
-Inf -Inf Inf
-Inf -Inf Inf
-Inf -Inf Inf
-Inf -Inf Inf
-Inf -Inf -Inf
-Inf -Inf Inf
-Inf -Inf -Inf
-Inf -Inf Inf
-Inf -Inf -Inf
-Inf -Inf -Inf
-Inf -Inf -Inf
-Inf -Inf Inf
-Inf -Inf Inf
-Inf -Inf Inf
-Inf -Inf Inf
-Inf -Inf -Inf
-Inf -Inf Inf
-Inf -Inf Inf
-Inf -Inf Inf
-Inf -Inf Inf
-Inf -Inf Inf
-Inf -Inf -Inf
-Inf -Inf Inf
-Inf -Inf -Inf
-Inf -Inf Inf
-Inf -Inf -Inf
-Inf -Inf -Inf
-Inf -Inf Inf
-Inf -Inf -Inf
-Inf -Inf -Inf
-Inf -Inf Inf
-Inf -Inf -Inf
-Inf -Inf -Inf
-Inf -Inf Inf
-Inf -Inf Inf
-Inf -Inf Inf
-Inf -Inf Inf
-Inf -Inf Inf
-Inf -Inf Inf
-Inf -Inf Inf
-Inf -Inf Inf
-Inf -Inf Inf
-Inf -Inf Inf
-Inf -Inf -Inf
-Inf -Inf Inf
-Inf -Inf -Inf
-Inf -Inf Inf
-Inf -Inf Inf
-Inf -Inf -Inf
-Inf -Inf Inf
-Inf -Inf Inf
-Inf -Inf Inf
-Inf -Inf Inf
-Inf -Inf Inf
-Inf -Inf Inf
-Inf -Inf -Inf
-Inf -Inf Inf
-Inf -Inf Inf
-Inf -Inf -Inf
-Inf -Inf -Inf
-Inf -Inf -Inf
-Inf -Inf Inf
-Inf -Inf Inf
-Inf -Inf Inf
Inf -Inf -Inf
-Inf -Inf Inf
-Inf -Inf -Inf
-Inf -Inf Inf
-Inf -Inf Inf
Inf -Inf -Inf
-Inf -Inf Inf
-Inf -Inf Inf
-Inf -Inf -Inf
-Inf -Inf -Inf
-Inf -Inf Inf
-Inf -Inf Inf
-Inf -Inf -Inf
-Inf -Inf -Inf
-Inf -Inf Inf
-Inf -Inf Inf
-Inf -Inf Inf
-Inf -Inf Inf
-Inf -Inf Inf
Inf -Inf -Inf
-Inf -Inf Inf
-Inf -Inf Inf
-Inf -Inf -Inf
-Inf -Inf Inf
-Inf -Inf Inf
-Inf -Inf Inf
-Inf -Inf Inf
-Inf -Inf Inf
-Inf -Inf -Inf
-Inf -Inf Inf
Inf -Inf -Inf
-Inf -Inf Inf
-Inf -Inf Inf
-Inf -Inf Inf
-Inf -Inf -Inf
-Inf -Inf Inf
-Inf -Inf Inf
-Inf -Inf -Inf
-Inf -Inf Inf
-Inf -Inf Inf
-Inf -Inf Inf
-Inf -Inf -Inf
-Inf -Inf Inf
-Inf -Inf -Inf
-Inf -Inf -Inf
-Inf -Inf -Inf
-Inf -Inf Inf
-Inf -Inf Inf
-Inf -Inf Inf
-Inf -Inf Inf
-Inf -Inf Inf
-Inf -Inf Inf
-Inf -Inf Inf
-Inf -Inf -Inf
-Inf -Inf -Inf
-Inf -Inf Inf
-Inf -Inf Inf
-Inf -Inf -Inf
-Inf -Inf Inf
-Inf -Inf -Inf
-Inf -Inf Inf
-Inf -Inf Inf
-Inf -Inf Inf
-Inf -Inf Inf
-Inf -Inf Inf
-Inf -Inf -Inf
-Inf -Inf Inf
-Inf -Inf Inf
-Inf -Inf Inf
-Inf -Inf Inf
-Inf -Inf Inf
-Inf -Inf -Inf
-Inf -Inf Inf
-Inf -Inf Inf
-Inf -Inf Inf
-Inf -Inf Inf
-Inf -Inf Inf
-Inf -Inf Inf
-Inf -Inf Inf
-Inf -Inf Inf
-Inf -Inf -Inf
-Inf -Inf Inf
-Inf -Inf Inf
-Inf -Inf Inf
-Inf -Inf Inf
-Inf -Inf Inf
-Inf -Inf Inf
-Inf -Inf Inf
-Inf -Inf Inf
-Inf -Inf -Inf
-Inf -Inf Inf
-Inf -Inf Inf
-Inf -Inf -Inf
-Inf -Inf Inf
-Inf -Inf Inf
-Inf -Inf -Inf
-Inf -Inf Inf
-Inf -Inf Inf
-Inf -Inf Inf
-Inf -Inf Inf
-Inf -Inf Inf
-Inf -Inf -Inf
-Inf -Inf Inf
-Inf -Inf Inf
-Inf -Inf Inf
-Inf -Inf Inf
-Inf -Inf Inf
-Inf -Inf -Inf
-Inf -Inf -Inf
-Inf -Inf Inf
-Inf -Inf Inf
-Inf -Inf Inf
-Inf -Inf Inf
-Inf -Inf Inf
-Inf -Inf Inf
-Inf -Inf -Inf
-Inf -Inf Inf
-Inf -Inf Inf
-Inf -Inf Inf
-Inf -Inf Inf
-Inf -Inf Inf
-Inf -Inf -Inf
-Inf -Inf Inf
-Inf -Inf Inf
Inf -Inf -Inf
-Inf -Inf Inf
-Inf -Inf Inf
-Inf -Inf Inf
-Inf -Inf Inf
-Inf -Inf Inf
-Inf -Inf Inf
-Inf -Inf -Inf
-Inf -Inf Inf
-Inf -Inf -Inf
-Inf -Inf Inf
-Inf -Inf Inf
-Inf -Inf Inf
-Inf -Inf -Inf
-Inf -Inf Inf
-Inf -Inf Inf
-Inf -Inf Inf
-Inf -Inf -Inf
-Inf -Inf Inf
-Inf -Inf Inf
-Inf -Inf -Inf
-Inf -Inf -Inf
-Inf -Inf -Inf
-Inf -Inf Inf
-Inf -Inf Inf
-Inf -Inf -Inf
-Inf -Inf Inf
-Inf -Inf Inf
-Inf -Inf -Inf
-Inf -Inf Inf
-Inf -Inf -Inf
-Inf -Inf Inf
-Inf -Inf Inf
-Inf -Inf Inf
-Inf -Inf Inf
-Inf -Inf Inf
-Inf -Inf Inf
-Inf -Inf Inf
-Inf -Inf Inf
-Inf -Inf Inf
-Inf -Inf -Inf
-Inf -Inf Inf
-Inf -Inf -Inf
-Inf -Inf Inf
-Inf -Inf Inf
-Inf -Inf -Inf
-Inf -Inf Inf
-Inf -Inf -Inf
-Inf -Inf Inf
-Inf -Inf -Inf
-Inf -Inf Inf
-Inf -Inf Inf
-Inf -Inf -Inf
-Inf -Inf Inf
-Inf -Inf Inf
-Inf -Inf Inf
-Inf -Inf Inf
-Inf -Inf -Inf
-Inf -Inf Inf
-Inf -Inf Inf
-Inf -Inf Inf
-Inf -Inf Inf
-Inf -Inf Inf
-Inf -Inf Inf
-Inf -Inf Inf
-Inf -Inf Inf
-Inf -Inf -Inf
-Inf -Inf -Inf
-Inf -Inf Inf
-Inf -Inf Inf
-Inf -Inf Inf
-Inf -Inf Inf
-Inf -Inf Inf
-Inf -Inf Inf
-Inf -Inf -Inf
-Inf -Inf Inf
-Inf -Inf Inf
-Inf -Inf -Inf
-Inf -Inf -Inf
-Inf -Inf -Inf
-Inf -Inf Inf
-Inf -Inf Inf
-Inf -Inf -Inf
-Inf -Inf Inf
-Inf -Inf Inf
-Inf -Inf Inf
-Inf -Inf Inf
-Inf -Inf Inf
-Inf -Inf Inf
-Inf -Inf -Inf
-Inf -Inf Inf
-Inf -Inf -Inf
-Inf -Inf Inf
-Inf -Inf -Inf
-Inf -Inf -Inf
-Inf -Inf Inf
-Inf -Inf Inf
-Inf -Inf -Inf
-Inf -Inf -Inf
-Inf -Inf Inf
Inf -Inf -Inf
-Inf -Inf Inf
-Inf -Inf Inf
-Inf -Inf -Inf
-Inf -Inf Inf
-Inf -Inf Inf
-Inf -Inf Inf
-Inf -Inf Inf
-Inf -Inf Inf
-Inf -Inf Inf
-Inf -Inf -Inf
-Inf -Inf Inf
-Inf -Inf -Inf
-Inf -Inf Inf
-Inf -Inf Inf
-Inf -Inf Inf
-Inf -Inf Inf
-Inf -Inf Inf
-Inf -Inf Inf
-Inf -Inf Inf
-Inf -Inf -Inf
-Inf -Inf Inf
-Inf -Inf Inf
-Inf -Inf Inf
-Inf -Inf Inf
-Inf -Inf Inf
-Inf -Inf Inf
-Inf -Inf Inf
-Inf -Inf Inf
-Inf -Inf Inf
-Inf -Inf Inf
-Inf -Inf Inf
Inf -Inf Inf
-Inf -Inf Inf
-Inf -Inf Inf
-Inf -Inf Inf
-Inf -Inf Inf
-Inf -Inf Inf
-Inf -Inf Inf
-Inf -Inf -Inf
-Inf -Inf Inf
-Inf -Inf Inf
-Inf -Inf Inf
-Inf -Inf Inf
-Inf -Inf Inf
-Inf -Inf Inf
-Inf -Inf Inf
-Inf -Inf Inf
-Inf -Inf -Inf
-Inf -Inf -Inf
-Inf -Inf -Inf
-Inf -Inf Inf
-Inf -Inf Inf
-Inf -Inf Inf
-Inf -Inf Inf
-Inf -Inf Inf
-Inf -Inf Inf
-Inf -Inf Inf
-Inf -Inf Inf
-Inf -Inf -Inf
-Inf -Inf Inf
-Inf -Inf Inf
-Inf -Inf Inf
-Inf -Inf -Inf
-Inf -Inf -Inf
-Inf -Inf Inf
-Inf -Inf -Inf
-Inf -Inf Inf
-Inf -Inf Inf
-Inf -Inf -Inf
-Inf -Inf -Inf
-Inf -Inf -Inf
-Inf -Inf Inf
-Inf -Inf Inf
-Inf -Inf -Inf
-Inf -Inf Inf
-Inf -Inf Inf
-Inf -Inf Inf
-Inf -Inf -Inf
-Inf -Inf Inf
-Inf -Inf Inf
-Inf -Inf Inf
-Inf -Inf Inf
-Inf -Inf Inf
-Inf -Inf Inf
-Inf -Inf -Inf
-Inf -Inf Inf
-Inf -Inf -Inf
-Inf -Inf Inf
-Inf -Inf Inf
-Inf -Inf Inf
-Inf -Inf Inf
-Inf -Inf -Inf
-Inf -Inf Inf
-Inf -Inf Inf
-Inf -Inf Inf
-Inf -Inf -Inf
-Inf -Inf Inf
-Inf -Inf Inf
-Inf -Inf -Inf
-Inf -Inf -Inf
-Inf -Inf -Inf
-Inf -Inf Inf
-Inf -Inf Inf
-Inf -Inf Inf
-Inf -Inf Inf
-Inf -Inf -Inf
-Inf -Inf Inf
-Inf -Inf Inf
-Inf -Inf -Inf
-Inf -Inf Inf
-Inf -Inf -Inf
-Inf -Inf Inf
-Inf -Inf Inf
-Inf -Inf Inf
-Inf -Inf Inf
-Inf -Inf Inf
-Inf -Inf Inf
-Inf -Inf Inf
-Inf -Inf Inf
-Inf -Inf -Inf
Inf -Inf -Inf
-Inf -Inf Inf
-Inf -Inf Inf
-Inf -Inf -Inf
-Inf -Inf Inf
-Inf -Inf Inf
-Inf -Inf Inf
-Inf -Inf -Inf
-Inf -Inf -Inf
-Inf -Inf Inf
-Inf -Inf -Inf
-Inf -Inf Inf
-Inf -Inf Inf
-Inf -Inf Inf
-Inf -Inf Inf
-Inf -Inf Inf
-Inf -Inf Inf
-Inf -Inf -Inf
-Inf -Inf Inf
-Inf -Inf Inf
-Inf -Inf -Inf
-Inf -Inf Inf
-Inf -Inf Inf
-Inf -Inf Inf
-Inf -Inf Inf
-Inf -Inf Inf
-Inf -Inf Inf
-Inf -Inf Inf
-Inf -Inf Inf
-Inf -Inf -Inf
-Inf -Inf Inf
-Inf -Inf Inf
-Inf -Inf Inf
-Inf -Inf Inf
-Inf -Inf Inf
-Inf -Inf Inf
-Inf -Inf Inf
-Inf -Inf Inf
-Inf -Inf Inf
Inf -Inf -Inf
-Inf -Inf Inf
Inf -Inf -Inf
-Inf -Inf Inf
-Inf -Inf Inf
-Inf -Inf Inf
-Inf -Inf -Inf
-Inf -Inf Inf
-Inf -Inf Inf
-Inf -Inf Inf
-Inf -Inf Inf
-Inf -Inf -Inf
-Inf -Inf Inf
-Inf -Inf Inf
-Inf -Inf -Inf
-Inf -Inf Inf
-Inf -Inf Inf
-Inf -Inf -Inf
-Inf -Inf Inf
-Inf -Inf Inf
-Inf -Inf Inf
-Inf -Inf Inf
-Inf -Inf Inf
-Inf -Inf Inf
-Inf -Inf Inf
-Inf -Inf Inf
-Inf -Inf Inf
-Inf -Inf Inf
-Inf -Inf Inf
-Inf -Inf Inf
-Inf -Inf Inf
-Inf -Inf Inf
-Inf -Inf Inf
-Inf -Inf Inf
-Inf -Inf Inf
-Inf -Inf Inf
-Inf -Inf -Inf
-Inf -Inf Inf
-Inf -Inf Inf
-Inf -Inf Inf
-Inf -Inf -Inf
-Inf -Inf Inf
-Inf -Inf Inf
-Inf -Inf Inf
-Inf -Inf Inf
-Inf -Inf Inf
-Inf -Inf -Inf
-Inf -Inf Inf
-Inf -Inf Inf
-Inf -Inf -Inf
-Inf -Inf Inf
-Inf -Inf Inf
-Inf -Inf Inf
-Inf -Inf Inf
-Inf -Inf Inf
-Inf -Inf -Inf
-Inf -Inf Inf
-Inf -Inf Inf
-Inf -Inf Inf
-Inf -Inf Inf
-Inf -Inf Inf
-Inf -Inf Inf
-Inf -Inf Inf
-Inf -Inf Inf
-Inf -Inf -Inf
-Inf -Inf Inf
-Inf -Inf Inf
-Inf -Inf Inf
-Inf -Inf Inf
-Inf -Inf -Inf
-Inf -Inf Inf
-Inf -Inf Inf
-Inf -Inf Inf
-Inf -Inf Inf
-Inf -Inf -Inf
-Inf -Inf Inf
-Inf -Inf Inf
-Inf -Inf Inf
-Inf -Inf -Inf
-Inf -Inf Inf
-Inf -Inf Inf
-Inf -Inf Inf
-Inf -Inf Inf
-Inf -Inf Inf
-Inf -Inf Inf
-Inf -Inf Inf
-Inf -Inf Inf
-Inf -Inf Inf
-Inf -Inf Inf
-Inf -Inf Inf
-Inf -Inf -Inf
-Inf -Inf -Inf
-Inf -Inf Inf
-Inf -Inf Inf
-Inf -Inf Inf
-Inf -Inf Inf
-Inf -Inf Inf
-Inf -Inf Inf
-Inf -Inf Inf
-Inf -Inf Inf
-Inf -Inf -Inf
-Inf -Inf Inf
-Inf -Inf Inf
-Inf -Inf Inf
-Inf -Inf Inf
-Inf -Inf Inf
-Inf -Inf Inf
-Inf -Inf Inf
-Inf -Inf Inf
-Inf -Inf Inf
-Inf -Inf Inf
-Inf -Inf -Inf
-Inf -Inf Inf
-Inf -Inf -Inf
-Inf -Inf -Inf
-Inf -Inf -Inf
-Inf -Inf Inf
-Inf -Inf Inf
-Inf -Inf -Inf
-Inf -Inf -Inf
-Inf -Inf Inf
-Inf -Inf Inf
-Inf -Inf Inf
-Inf -Inf Inf
-Inf -Inf Inf
-Inf -Inf Inf
-Inf -Inf Inf
-Inf -Inf Inf
-Inf -Inf Inf
-Inf -Inf Inf
-Inf -Inf Inf
-Inf -Inf -Inf
-Inf -Inf Inf
-Inf -Inf Inf
-Inf -Inf Inf
-Inf -Inf Inf
-Inf -Inf -Inf
-Inf -Inf -Inf
-Inf -Inf -Inf
-Inf -Inf Inf
-Inf -Inf Inf
-Inf -Inf Inf
-Inf -Inf Inf
-Inf -Inf Inf
-Inf -Inf Inf
-Inf -Inf Inf
-Inf -Inf Inf
-Inf -Inf Inf
-Inf -Inf Inf
-Inf -Inf -Inf
-Inf -Inf Inf
-Inf -Inf Inf
-Inf -Inf Inf
-Inf -Inf Inf
-Inf -Inf Inf
-Inf -Inf Inf
-Inf -Inf Inf
-Inf -Inf Inf
-Inf -Inf -Inf
-Inf -Inf Inf
-Inf -Inf Inf
-Inf -Inf Inf
-Inf -Inf -Inf
-Inf -Inf Inf
-Inf -Inf Inf
-Inf -Inf Inf
-Inf -Inf Inf
-Inf -Inf Inf
-Inf -Inf Inf
-Inf -Inf Inf
-Inf -Inf Inf
-Inf -Inf Inf
-Inf -Inf Inf
-Inf -Inf Inf
-Inf -Inf Inf
-Inf -Inf Inf
-Inf -Inf Inf
-Inf -Inf -Inf
-Inf -Inf Inf
-Inf -Inf Inf
-Inf -Inf Inf
-Inf -Inf -Inf
-Inf -Inf Inf
-Inf -Inf Inf
-Inf -Inf Inf
-Inf -Inf Inf
-Inf -Inf Inf
-Inf -Inf Inf
-Inf -Inf Inf
-Inf -Inf Inf
-Inf -Inf -Inf
-Inf -Inf Inf
-Inf -Inf Inf
-Inf -Inf Inf
-Inf -Inf Inf
-Inf -Inf -Inf
-Inf -Inf -Inf
-Inf -Inf Inf
-Inf -Inf -Inf
-Inf -Inf Inf
-Inf -Inf Inf
-Inf -Inf Inf
-Inf -Inf Inf
-Inf -Inf Inf
-Inf -Inf Inf
-Inf -Inf Inf
-Inf -Inf Inf
-Inf -Inf Inf
-Inf -Inf Inf
-Inf -Inf Inf
-Inf -Inf Inf
-Inf -Inf -Inf
-Inf -Inf Inf
-Inf -Inf -Inf
-Inf -Inf Inf
-Inf -Inf Inf
-Inf -Inf Inf
-Inf -Inf Inf
-Inf -Inf Inf
-Inf -Inf Inf
-Inf -Inf Inf
-Inf -Inf -Inf
-Inf -Inf Inf
-Inf -Inf Inf
-Inf -Inf Inf
-Inf -Inf Inf
-Inf -Inf Inf
-Inf -Inf Inf
-Inf -Inf -Inf
-Inf -Inf Inf
-Inf -Inf Inf
-Inf -Inf Inf
-Inf -Inf Inf
-Inf -Inf Inf
-Inf -Inf -Inf
-Inf -Inf Inf
-Inf -Inf Inf
-Inf -Inf Inf
-Inf -Inf -Inf
-Inf -Inf -Inf
-Inf -Inf -Inf
-Inf -Inf Inf
-Inf -Inf -Inf
-Inf -Inf Inf
-Inf -Inf Inf
-Inf -Inf Inf
-Inf -Inf -Inf
-Inf -Inf Inf
Inf -Inf Inf
-Inf -Inf Inf
-Inf -Inf Inf
-Inf -Inf Inf
-Inf -Inf Inf
-Inf -Inf Inf
-Inf -Inf Inf
-Inf -Inf Inf
-Inf -Inf Inf
-Inf -Inf Inf
Inf -Inf Inf
-Inf -Inf -Inf
-Inf -Inf -Inf
-Inf -Inf Inf
-Inf -Inf Inf
-Inf -Inf -Inf
-Inf -Inf Inf
-Inf -Inf -Inf
-Inf -Inf Inf
-Inf -Inf Inf
-Inf -Inf -Inf
-Inf -Inf -Inf
-Inf -Inf Inf
-Inf -Inf -Inf
-Inf -Inf Inf
-Inf -Inf -Inf
-Inf -Inf Inf
-Inf -Inf Inf
-Inf -Inf -Inf
-Inf -Inf -Inf
-Inf -Inf Inf
-Inf -Inf Inf
-Inf -Inf Inf
-Inf -Inf -Inf
-Inf -Inf -Inf
-Inf -Inf Inf
-Inf -Inf Inf
-Inf -Inf Inf
-Inf -Inf Inf
-Inf -Inf -Inf
-Inf -Inf Inf
-Inf -Inf -Inf
-Inf -Inf Inf
-Inf -Inf Inf
-Inf -Inf Inf
-Inf -Inf Inf
-Inf -Inf -Inf
-Inf -Inf Inf
-Inf -Inf Inf
-Inf -Inf Inf
-Inf -Inf Inf
-Inf -Inf Inf
-Inf -Inf -Inf
-Inf -Inf Inf
-Inf -Inf -Inf
-Inf -Inf Inf
-Inf -Inf Inf
-Inf -Inf Inf
-Inf -Inf Inf
-Inf -Inf Inf
-Inf -Inf Inf
-Inf -Inf Inf
-Inf -Inf Inf
-Inf -Inf Inf
-Inf -Inf -Inf
-Inf -Inf Inf
-Inf -Inf Inf
-Inf -Inf -Inf
-Inf -Inf Inf
-Inf -Inf Inf
Inf -Inf Inf
-Inf -Inf Inf
-Inf -Inf Inf
-Inf -Inf Inf
-Inf -Inf Inf
-Inf -Inf Inf
-Inf -Inf -Inf
-Inf -Inf -Inf
-Inf -Inf -Inf
-Inf -Inf Inf
-Inf -Inf Inf
-Inf -Inf Inf
-Inf -Inf Inf
-Inf -Inf Inf
-Inf -Inf -Inf
-Inf -Inf Inf
-Inf -Inf Inf
-Inf -Inf Inf
-Inf -Inf -Inf
-Inf -Inf -Inf
-Inf -Inf Inf
-Inf -Inf -Inf
-Inf -Inf Inf
-Inf -Inf Inf
-Inf -Inf Inf
-Inf -Inf Inf
-Inf -Inf Inf
-Inf -Inf Inf
-Inf -Inf Inf
-Inf -Inf -Inf
-Inf -Inf Inf
-Inf -Inf -Inf
-Inf -Inf Inf
Inf -Inf Inf
-Inf -Inf Inf
-Inf -Inf Inf
-Inf -Inf Inf
-Inf -Inf -Inf
-Inf -Inf Inf
-Inf -Inf Inf
-Inf -Inf -Inf
-Inf -Inf Inf
-Inf -Inf -Inf
-Inf -Inf -Inf
-Inf -Inf Inf
-Inf -Inf -Inf
-Inf -Inf Inf
-Inf -Inf -Inf
-Inf -Inf -Inf
-Inf -Inf -Inf
-Inf -Inf Inf
-Inf -Inf Inf
-Inf -Inf Inf
-Inf -Inf -Inf
-Inf -Inf -Inf
-Inf -Inf Inf
-Inf -Inf Inf
-Inf -Inf Inf
-Inf -Inf Inf
-Inf -Inf -Inf
-Inf -Inf -Inf
-Inf -Inf Inf
-Inf -Inf Inf
-Inf -Inf Inf
Inf -Inf Inf
-Inf -Inf Inf
-Inf -Inf Inf
-Inf -Inf -Inf
-Inf -Inf Inf
-Inf -Inf Inf
-Inf -Inf Inf
-Inf -Inf Inf
-Inf -Inf Inf
-Inf -Inf Inf
-Inf -Inf -Inf
-Inf -Inf -Inf
-Inf -Inf Inf
-Inf -Inf -Inf
-Inf -Inf Inf
-Inf -Inf Inf
-Inf -Inf -Inf
Inf -Inf Inf
-Inf -Inf Inf
-Inf -Inf Inf
-Inf -Inf Inf
-Inf -Inf -Inf
-Inf -Inf Inf
-Inf -Inf -Inf
-Inf -Inf Inf
-Inf -Inf Inf
-Inf -Inf Inf
-Inf -Inf Inf
-Inf -Inf Inf
-Inf -Inf -Inf
-Inf -Inf Inf
-Inf -Inf Inf
-Inf -Inf Inf
-Inf -Inf Inf
-Inf -Inf Inf
-Inf -Inf Inf
-Inf -Inf -Inf
-Inf -Inf Inf
-Inf -Inf Inf
-Inf -Inf Inf
-Inf -Inf Inf
-Inf -Inf Inf
-Inf -Inf Inf
-Inf -Inf Inf
-Inf -Inf Inf
-Inf -Inf Inf
Inf -Inf Inf
-Inf -Inf -Inf
-Inf -Inf Inf
-Inf -Inf -Inf
-Inf -Inf Inf
-Inf -Inf Inf
-Inf -Inf Inf
-Inf -Inf Inf
-Inf -Inf Inf
-Inf -Inf -Inf
Inf -Inf -Inf
-Inf -Inf Inf
-Inf -Inf Inf
-Inf -Inf Inf
-Inf -Inf -Inf
-Inf -Inf Inf
-Inf -Inf Inf
-Inf -Inf Inf
-Inf -Inf Inf
-Inf -Inf Inf
-Inf -Inf -Inf
-Inf -Inf -Inf
-Inf -Inf Inf
-Inf -Inf Inf
Inf -Inf Inf
-Inf -Inf Inf
-Inf -Inf Inf
-Inf -Inf Inf
-Inf -Inf Inf
-Inf -Inf Inf
-Inf -Inf -Inf
-Inf -Inf Inf
-Inf -Inf Inf
-Inf -Inf Inf
-Inf -Inf Inf
-Inf -Inf -Inf
-Inf -Inf Inf
-Inf -Inf Inf
-Inf -Inf Inf
-Inf -Inf Inf
-Inf -Inf Inf
-Inf -Inf Inf
-Inf -Inf Inf
-Inf -Inf Inf
-Inf -Inf Inf
-Inf -Inf Inf
-Inf -Inf Inf
-Inf -Inf Inf
-Inf -Inf -Inf
-Inf -Inf Inf
-Inf -Inf Inf
-Inf -Inf Inf
-Inf -Inf -Inf
-Inf -Inf Inf
-Inf -Inf -Inf
-Inf -Inf Inf
-Inf -Inf Inf
-Inf -Inf Inf
-Inf -Inf Inf
-Inf -Inf -Inf
-Inf -Inf Inf
-Inf -Inf -Inf
-Inf -Inf Inf
-Inf -Inf Inf
-Inf -Inf Inf
-Inf -Inf Inf
-Inf -Inf Inf
-Inf -Inf Inf
-Inf -Inf Inf
-Inf -Inf -Inf
-Inf -Inf -Inf
-Inf -Inf -Inf
-Inf -Inf -Inf
-Inf -Inf Inf
-Inf -Inf Inf
-Inf -Inf Inf
-Inf -Inf -Inf
-Inf -Inf -Inf
-Inf -Inf Inf
-Inf -Inf Inf
-Inf -Inf -Inf
-Inf -Inf Inf
-Inf -Inf Inf
-Inf -Inf -Inf
-Inf -Inf Inf
-Inf -Inf Inf
Inf -Inf -Inf
-Inf -Inf Inf
-Inf -Inf Inf
-Inf -Inf Inf
-Inf -Inf Inf
-Inf -Inf Inf
-Inf -Inf -Inf
-Inf -Inf -Inf
-Inf -Inf Inf
-Inf -Inf Inf
Inf -Inf Inf
-Inf -Inf Inf
-Inf -Inf -Inf
-Inf -Inf Inf
-Inf -Inf Inf
-Inf -Inf Inf
-Inf -Inf Inf
-Inf -Inf Inf
-Inf -Inf -Inf
-Inf -Inf -Inf
-Inf -Inf -Inf
-Inf -Inf Inf
-Inf -Inf -Inf
-Inf -Inf Inf
-Inf -Inf Inf
-Inf -Inf Inf
-Inf -Inf -Inf
-Inf -Inf -Inf
-Inf -Inf Inf
Inf -Inf -Inf
-Inf -Inf Inf
-Inf -Inf Inf
-Inf -Inf -Inf
-Inf -Inf -Inf
-Inf -Inf Inf
-Inf -Inf -Inf
-Inf -Inf Inf
-Inf -Inf Inf
-Inf -Inf Inf
-Inf -Inf Inf
-Inf -Inf Inf
-Inf -Inf -Inf
-Inf -Inf -Inf
-Inf -Inf Inf
-Inf -Inf Inf
-Inf -Inf Inf
-Inf -Inf -Inf
-Inf -Inf Inf
-Inf -Inf Inf
-Inf -Inf Inf
-Inf -Inf -Inf
-Inf -Inf Inf
-Inf -Inf Inf
-Inf -Inf -Inf
-Inf -Inf Inf
-Inf -Inf Inf
-Inf -Inf Inf
-Inf -Inf Inf
-Inf -Inf Inf
-Inf -Inf Inf
-Inf -Inf Inf
-Inf -Inf Inf
-Inf -Inf Inf
-Inf -Inf Inf
-Inf -Inf Inf
-Inf -Inf Inf
-Inf -Inf Inf
-Inf -Inf -Inf
-Inf -Inf Inf
-Inf -Inf Inf
-Inf -Inf Inf
-Inf -Inf Inf
-Inf -Inf Inf
-Inf -Inf Inf
-Inf -Inf Inf
-Inf -Inf Inf
Inf -Inf -Inf
-Inf -Inf Inf
-Inf -Inf Inf
-Inf -Inf Inf
-Inf -Inf -Inf
-Inf -Inf -Inf
-Inf -Inf -Inf
-Inf -Inf -Inf
-Inf -Inf Inf
-Inf -Inf -Inf
-Inf -Inf Inf
-Inf -Inf Inf
-Inf -Inf -Inf
-Inf -Inf Inf
-Inf -Inf Inf
-Inf -Inf -Inf
-Inf -Inf Inf
-Inf -Inf Inf
-Inf -Inf -Inf
-Inf -Inf Inf
-Inf -Inf Inf
-Inf -Inf Inf
-Inf -Inf -Inf
-Inf -Inf Inf
-Inf -Inf Inf
-Inf -Inf Inf
-Inf -Inf Inf
-Inf -Inf Inf
-Inf -Inf Inf
-Inf -Inf Inf
-Inf -Inf Inf
-Inf -Inf Inf
-Inf -Inf Inf
-Inf -Inf Inf
-Inf -Inf Inf
-Inf -Inf -Inf
-Inf -Inf Inf
-Inf -Inf Inf
-Inf -Inf -Inf
-Inf -Inf Inf
-Inf -Inf Inf
-Inf -Inf -Inf
-Inf -Inf Inf
-Inf -Inf Inf
Inf -Inf Inf
-Inf -Inf -Inf
-Inf -Inf Inf
-Inf -Inf Inf
-Inf -Inf Inf
-Inf -Inf Inf
-Inf -Inf Inf
-Inf -Inf Inf
-Inf -Inf Inf
-Inf -Inf Inf
-Inf -Inf Inf
-Inf -Inf Inf
-Inf -Inf Inf
-Inf -Inf Inf
-Inf -Inf Inf
-Inf -Inf Inf
-Inf -Inf Inf
-Inf -Inf -Inf
-Inf -Inf Inf
-Inf -Inf Inf
-Inf -Inf Inf
-Inf -Inf Inf
-Inf -Inf -Inf
-Inf -Inf -Inf
-Inf -Inf Inf
-Inf -Inf Inf
-Inf -Inf Inf
-Inf -Inf -Inf
-Inf -Inf -Inf
-Inf -Inf Inf
-Inf -Inf Inf
-Inf -Inf Inf
-Inf -Inf Inf
-Inf -Inf Inf
-Inf -Inf Inf
-Inf -Inf Inf
-Inf -Inf Inf
-Inf -Inf Inf
-Inf -Inf Inf
-Inf -Inf Inf
-Inf -Inf -Inf
-Inf -Inf Inf
-Inf -Inf Inf
-Inf -Inf Inf
-Inf -Inf -Inf
-Inf -Inf Inf
-Inf -Inf Inf
-Inf -Inf Inf
-Inf -Inf Inf
-Inf -Inf Inf
-Inf -Inf -Inf
-Inf -Inf Inf
-Inf -Inf -Inf
-Inf -Inf -Inf
-Inf -Inf Inf
-Inf -Inf Inf
-Inf -Inf Inf
-Inf -Inf Inf
-Inf -Inf -Inf
-Inf -Inf Inf
-Inf -Inf Inf
-Inf -Inf Inf
-Inf -Inf -Inf
-Inf -Inf Inf
-Inf -Inf Inf
-Inf -Inf Inf
-Inf -Inf Inf
-Inf -Inf -Inf
-Inf -Inf Inf
-Inf -Inf -Inf
-Inf -Inf Inf
-Inf -Inf Inf
-Inf -Inf Inf
-Inf -Inf Inf
-Inf -Inf Inf
-Inf -Inf Inf
-Inf -Inf Inf
-Inf -Inf -Inf
-Inf -Inf Inf
-Inf -Inf Inf
-Inf -Inf Inf
-Inf -Inf Inf
-Inf -Inf Inf
-Inf -Inf Inf
-Inf -Inf Inf
-Inf -Inf Inf
-Inf -Inf Inf
Inf -Inf -Inf
-Inf -Inf Inf
-Inf -Inf Inf
-Inf -Inf Inf
-Inf -Inf Inf
-Inf -Inf Inf
-Inf -Inf Inf
-Inf -Inf Inf
-Inf -Inf Inf
-Inf -Inf -Inf
-Inf -Inf Inf
-Inf -Inf Inf
-Inf -Inf Inf
-Inf -Inf Inf
-Inf -Inf Inf
-Inf -Inf -Inf
-Inf -Inf -Inf
-Inf -Inf Inf
-Inf -Inf Inf
-Inf -Inf Inf
-Inf -Inf Inf
-Inf -Inf Inf
-Inf -Inf Inf
-Inf -Inf Inf
-Inf -Inf Inf
-Inf -Inf Inf
-Inf -Inf Inf
-Inf -Inf -Inf
-Inf -Inf Inf
-Inf -Inf Inf
-Inf -Inf Inf
-Inf -Inf -Inf
-Inf -Inf -Inf
-Inf -Inf Inf
-Inf -Inf Inf
-Inf -Inf Inf
-Inf -Inf Inf
-Inf -Inf Inf
-Inf -Inf Inf
-Inf -Inf Inf
-Inf -Inf Inf
-Inf -Inf Inf
-Inf -Inf -Inf
-Inf -Inf -Inf
-Inf -Inf Inf
-Inf -Inf Inf
-Inf -Inf -Inf
-Inf -Inf Inf
-Inf -Inf Inf
-Inf -Inf Inf
-Inf -Inf Inf
-Inf -Inf -Inf
-Inf -Inf -Inf
-Inf -Inf Inf
-Inf -Inf Inf
-Inf -Inf Inf
-Inf -Inf Inf
-Inf -Inf Inf
-Inf -Inf Inf
-Inf -Inf Inf
-Inf -Inf Inf
-Inf -Inf Inf
-Inf -Inf Inf
-Inf -Inf -Inf
-Inf -Inf Inf
-Inf -Inf Inf
-Inf -Inf Inf
-Inf -Inf Inf
-Inf -Inf -Inf
-Inf -Inf Inf
-Inf -Inf Inf
-Inf -Inf Inf
-Inf -Inf -Inf
-Inf -Inf Inf
-Inf -Inf Inf
-Inf -Inf Inf
-Inf -Inf Inf
-Inf -Inf Inf
-Inf -Inf Inf
-Inf -Inf Inf
-Inf -Inf -Inf
-Inf -Inf -Inf
-Inf -Inf Inf
-Inf -Inf -Inf
-Inf -Inf Inf
-Inf -Inf Inf
-Inf -Inf -Inf
-Inf -Inf Inf
-Inf -Inf -Inf
-Inf -Inf Inf
-Inf -Inf Inf
-Inf -Inf Inf
-Inf -Inf Inf
-Inf -Inf Inf
-Inf -Inf Inf
-Inf -Inf Inf
-Inf -Inf Inf
-Inf -Inf Inf
-Inf -Inf Inf
-Inf -Inf Inf
-Inf -Inf Inf
-Inf -Inf -Inf
-Inf -Inf Inf
-Inf -Inf -Inf
-Inf -Inf -Inf
-Inf -Inf -Inf
Inf -Inf -Inf
-Inf -Inf Inf
-Inf -Inf Inf
-Inf -Inf Inf
-Inf -Inf Inf
-Inf -Inf -Inf
-Inf -Inf Inf
-Inf -Inf Inf
-Inf -Inf Inf
-Inf -Inf Inf
-Inf -Inf Inf
-Inf -Inf Inf
-Inf -Inf -Inf
-Inf -Inf -Inf
-Inf -Inf Inf
-Inf -Inf Inf
-Inf -Inf Inf
-Inf -Inf Inf
-Inf -Inf Inf
Inf -Inf Inf
-Inf -Inf -Inf
-Inf -Inf Inf
-Inf -Inf Inf
-Inf -Inf Inf
-Inf -Inf Inf
Inf -Inf Inf
-Inf -Inf Inf
-Inf -Inf Inf
-Inf -Inf Inf
-Inf -Inf Inf
-Inf -Inf Inf
-Inf -Inf Inf
-Inf -Inf Inf
-Inf -Inf Inf
-Inf -Inf Inf
-Inf -Inf -Inf
-Inf -Inf Inf
-Inf -Inf Inf
-Inf -Inf -Inf
-Inf -Inf Inf
-Inf -Inf Inf
-Inf -Inf Inf
-Inf -Inf Inf
-Inf -Inf -Inf
-Inf -Inf -Inf
-Inf -Inf Inf
-Inf -Inf Inf
-Inf -Inf Inf
-Inf -Inf -Inf
-Inf -Inf Inf
-Inf -Inf Inf
-Inf -Inf Inf
-Inf -Inf Inf
-Inf -Inf Inf
-Inf -Inf Inf
-Inf -Inf Inf
-Inf -Inf Inf
-Inf -Inf Inf
-Inf -Inf Inf
-Inf -Inf Inf
-Inf -Inf -Inf
-Inf -Inf Inf
-Inf -Inf Inf
-Inf -Inf -Inf
-Inf -Inf -Inf
-Inf -Inf Inf
-Inf -Inf Inf
-Inf -Inf Inf
-Inf -Inf Inf
-Inf -Inf Inf
-Inf -Inf Inf
-Inf -Inf Inf
-Inf -Inf Inf
-Inf -Inf Inf
-Inf -Inf -Inf
-Inf -Inf -Inf
-Inf -Inf Inf
-Inf -Inf Inf
-Inf -Inf -Inf
-Inf -Inf Inf
-Inf -Inf -Inf
-Inf -Inf Inf
-Inf -Inf Inf
-Inf -Inf Inf
-Inf -Inf Inf
-Inf -Inf Inf
-Inf -Inf Inf
-Inf -Inf Inf
-Inf -Inf Inf
-Inf -Inf Inf
-Inf -Inf -Inf
-Inf -Inf Inf
-Inf -Inf Inf
-Inf -Inf -Inf
-Inf -Inf -Inf
-Inf -Inf Inf
-Inf -Inf Inf
-Inf -Inf Inf
-Inf -Inf Inf
-Inf -Inf Inf
-Inf -Inf Inf
-Inf -Inf Inf
-Inf -Inf -Inf
-Inf -Inf -Inf
-Inf -Inf Inf
-Inf -Inf Inf
-Inf -Inf Inf
-Inf -Inf Inf
-Inf -Inf Inf
-Inf -Inf -Inf
-Inf -Inf Inf
-Inf -Inf Inf
-Inf -Inf Inf
-Inf -Inf Inf
-Inf -Inf Inf
-Inf -Inf Inf
-Inf -Inf -Inf
-Inf -Inf Inf
-Inf -Inf Inf
-Inf -Inf Inf
-Inf -Inf Inf
-Inf -Inf Inf
-Inf -Inf Inf
-Inf -Inf Inf
-Inf -Inf Inf
-Inf -Inf -Inf
-Inf -Inf Inf
-Inf -Inf -Inf
-Inf -Inf Inf
-Inf -Inf -Inf
-Inf -Inf -Inf
-Inf -Inf Inf
-Inf -Inf Inf
-Inf -Inf Inf
-Inf -Inf Inf
-Inf -Inf -Inf
-Inf -Inf -Inf
-Inf -Inf Inf
-Inf -Inf -Inf
-Inf -Inf Inf
-Inf -Inf -Inf
-Inf -Inf Inf
-Inf -Inf Inf
-Inf -Inf Inf
-Inf -Inf Inf
-Inf -Inf -Inf
-Inf -Inf Inf
-Inf -Inf -Inf
-Inf -Inf Inf
-Inf -Inf -Inf
-Inf -Inf Inf
-Inf -Inf -Inf
-Inf -Inf Inf
-Inf -Inf Inf
-Inf -Inf Inf
-Inf -Inf Inf
-Inf -Inf Inf
-Inf -Inf Inf
-Inf -Inf Inf
-Inf -Inf -Inf
-Inf -Inf Inf
-Inf -Inf Inf
-Inf -Inf -Inf
-Inf -Inf Inf
-Inf -Inf Inf
-Inf -Inf Inf
-Inf -Inf Inf
-Inf -Inf Inf
-Inf -Inf -Inf
-Inf -Inf Inf
-Inf -Inf Inf
-Inf -Inf Inf
-Inf -Inf Inf
-Inf -Inf Inf
-Inf -Inf Inf
-Inf -Inf -Inf
-Inf -Inf Inf
-Inf -Inf Inf
-Inf -Inf -Inf
-Inf -Inf Inf
-Inf -Inf Inf
-Inf -Inf Inf
-Inf -Inf Inf
-Inf -Inf Inf
-Inf -Inf Inf
-Inf -Inf Inf
-Inf -Inf Inf
-Inf -Inf Inf
-Inf -Inf -Inf
-Inf -Inf Inf
-Inf -Inf Inf
-Inf -Inf Inf
-Inf -Inf -Inf
-Inf -Inf -Inf
-Inf -Inf Inf
-Inf -Inf Inf
-Inf -Inf Inf
-Inf -Inf Inf
Inf -Inf -Inf
-Inf -Inf -Inf
-Inf -Inf Inf
-Inf -Inf Inf
-Inf -Inf Inf
-Inf -Inf -Inf
-Inf -Inf -Inf
-Inf -Inf Inf
-Inf -Inf Inf
-Inf -Inf Inf
-Inf -Inf -Inf
-Inf -Inf Inf
-Inf -Inf -Inf
-Inf -Inf Inf
-Inf -Inf -Inf
-Inf -Inf Inf
-Inf -Inf Inf
-Inf -Inf -Inf
-Inf -Inf Inf
-Inf -Inf Inf
-Inf -Inf Inf
-Inf -Inf Inf
-Inf -Inf -Inf
Inf -Inf Inf
-Inf -Inf Inf
-Inf -Inf Inf
-Inf -Inf -Inf
-Inf -Inf Inf
-Inf -Inf -Inf
-Inf -Inf Inf
-Inf -Inf Inf
-Inf -Inf Inf
-Inf -Inf -Inf
-Inf -Inf Inf
-Inf -Inf Inf
-Inf -Inf Inf
-Inf -Inf Inf
-Inf -Inf Inf
-Inf -Inf Inf
-Inf -Inf Inf
-Inf -Inf -Inf
-Inf -Inf Inf
-Inf -Inf -Inf
-Inf -Inf Inf
-Inf -Inf Inf
-Inf -Inf Inf
-Inf -Inf Inf
Inf -Inf -Inf
-Inf -Inf Inf
-Inf -Inf Inf
-Inf -Inf Inf
-Inf -Inf Inf
-Inf -Inf Inf
-Inf -Inf Inf
-Inf -Inf -Inf
-Inf -Inf Inf
Inf -Inf Inf
-Inf -Inf -Inf
-Inf -Inf Inf
-Inf -Inf Inf
-Inf -Inf Inf
-Inf -Inf Inf
-Inf -Inf -Inf
-Inf -Inf -Inf
-Inf -Inf -Inf
-Inf -Inf Inf
-Inf -Inf Inf
-Inf -Inf Inf
-Inf -Inf Inf
-Inf -Inf Inf
-Inf -Inf -Inf
-Inf -Inf -Inf
-Inf -Inf Inf
-Inf -Inf Inf
-Inf -Inf Inf
-Inf -Inf -Inf
-Inf -Inf Inf
-Inf -Inf -Inf
-Inf -Inf Inf
-Inf -Inf -Inf
-Inf -Inf Inf
-Inf -Inf Inf
-Inf -Inf Inf
-Inf -Inf Inf
-Inf -Inf -Inf
-Inf -Inf Inf
-Inf -Inf -Inf
-Inf -Inf -Inf
-Inf -Inf Inf
-Inf -Inf Inf
-Inf -Inf Inf
-Inf -Inf -Inf
-Inf -Inf Inf
-Inf -Inf Inf
-Inf -Inf Inf
-Inf -Inf -Inf
-Inf -Inf -Inf
-Inf -Inf Inf
-Inf -Inf Inf
-Inf -Inf -Inf
-Inf -Inf Inf
-Inf -Inf Inf
-Inf -Inf -Inf
-Inf -Inf Inf
-Inf -Inf Inf
-Inf -Inf Inf
-Inf -Inf Inf
-Inf -Inf Inf
-Inf -Inf -Inf
-Inf -Inf -Inf
-Inf -Inf Inf
-Inf -Inf Inf
-Inf -Inf Inf
-Inf -Inf Inf
-Inf -Inf -Inf
-Inf -Inf -Inf
-Inf -Inf Inf
-Inf -Inf Inf
-Inf -Inf -Inf
-Inf -Inf Inf
-Inf -Inf Inf
-Inf -Inf Inf
-Inf -Inf Inf
-Inf -Inf -Inf
-Inf -Inf Inf
-Inf -Inf Inf
-Inf -Inf Inf
-Inf -Inf Inf
-Inf -Inf Inf
-Inf -Inf Inf
-Inf -Inf -Inf
-Inf -Inf Inf
-Inf -Inf Inf
-Inf -Inf Inf
-Inf -Inf -Inf
-Inf -Inf Inf
-Inf -Inf Inf
-Inf -Inf -Inf
Inf -Inf Inf
-Inf -Inf Inf
-Inf -Inf Inf
-Inf -Inf -Inf
-Inf -Inf Inf
-Inf -Inf Inf
-Inf -Inf Inf
-Inf -Inf Inf
-Inf -Inf Inf
-Inf -Inf Inf
-Inf -Inf Inf
-Inf -Inf -Inf
-Inf -Inf -Inf
-Inf -Inf Inf
-Inf -Inf -Inf
-Inf -Inf -Inf
-Inf -Inf Inf
-Inf -Inf Inf
-Inf -Inf Inf
-Inf -Inf -Inf
-Inf -Inf -Inf
-Inf -Inf Inf
-Inf -Inf Inf
-Inf -Inf Inf
-Inf -Inf -Inf
-Inf -Inf -Inf
-Inf -Inf Inf
-Inf -Inf Inf
Inf -Inf Inf
-Inf -Inf Inf
-Inf -Inf Inf
-Inf -Inf -Inf
-Inf -Inf Inf
-Inf -Inf Inf
-Inf -Inf -Inf
-Inf -Inf Inf
-Inf -Inf Inf
-Inf -Inf -Inf
-Inf -Inf Inf
-Inf -Inf -Inf
-Inf -Inf Inf
Inf -Inf -Inf
-Inf -Inf Inf
-Inf -Inf Inf
-Inf -Inf Inf
-Inf -Inf -Inf
-Inf -Inf Inf
-Inf -Inf Inf
-Inf -Inf Inf
-Inf -Inf -Inf
-Inf -Inf -Inf
-Inf -Inf Inf
-Inf -Inf -Inf
-Inf -Inf Inf
-Inf -Inf Inf
-Inf -Inf -Inf
-Inf -Inf Inf
-Inf -Inf Inf
-Inf -Inf Inf
-Inf -Inf Inf
Inf -Inf -Inf
-Inf -Inf Inf
Inf -Inf Inf
-Inf -Inf Inf
-Inf -Inf -Inf
-Inf -Inf Inf
-Inf -Inf -Inf
-Inf -Inf Inf
-Inf -Inf -Inf
-Inf -Inf -Inf
-Inf -Inf -Inf
-Inf -Inf Inf
-Inf -Inf -Inf
-Inf -Inf -Inf
-Inf -Inf Inf
-Inf -Inf Inf
-Inf -Inf -Inf
-Inf -Inf Inf
-Inf -Inf -Inf
-Inf -Inf Inf
-Inf -Inf Inf
-Inf -Inf Inf
-Inf -Inf -Inf
-Inf -Inf Inf
-Inf -Inf Inf
-Inf -Inf Inf
-Inf -Inf Inf
-Inf -Inf Inf
-Inf -Inf Inf
-Inf -Inf Inf
-Inf -Inf Inf
-Inf -Inf -Inf
-Inf -Inf -Inf
-Inf -Inf Inf
-Inf -Inf Inf
-Inf -Inf Inf
-Inf -Inf Inf
-Inf -Inf Inf
-Inf -Inf Inf
-Inf -Inf Inf
-Inf -Inf Inf
-Inf -Inf -Inf
-Inf -Inf -Inf
-Inf -Inf -Inf
-Inf -Inf Inf
-Inf -Inf Inf
-Inf -Inf Inf
-Inf -Inf Inf
-Inf -Inf Inf
-Inf -Inf Inf
-Inf -Inf Inf
-Inf -Inf -Inf
-Inf -Inf -Inf
-Inf -Inf Inf
-Inf -Inf Inf
-Inf -Inf Inf
-Inf -Inf -Inf
-Inf -Inf Inf
-Inf -Inf Inf
-Inf -Inf Inf
-Inf -Inf Inf
-Inf -Inf Inf
-Inf -Inf Inf
-Inf -Inf Inf
-Inf -Inf Inf
-Inf -Inf Inf
-Inf -Inf Inf
-Inf -Inf -Inf
-Inf -Inf Inf
-Inf -Inf Inf
-Inf -Inf Inf
-Inf -Inf Inf
-Inf -Inf Inf
-Inf -Inf Inf
-Inf -Inf -Inf
-Inf -Inf Inf
-Inf -Inf Inf
-Inf -Inf -Inf
Inf -Inf -Inf
-Inf -Inf Inf
-Inf -Inf Inf
-Inf -Inf Inf
-Inf -Inf Inf
-Inf -Inf Inf
-Inf -Inf -Inf
Inf -Inf -Inf
-Inf -Inf Inf
-Inf -Inf Inf
-Inf -Inf Inf
-Inf -Inf Inf
-Inf -Inf Inf
-Inf -Inf Inf
-Inf -Inf Inf
-Inf -Inf Inf
-Inf -Inf Inf
-Inf -Inf Inf
-Inf -Inf Inf
-Inf -Inf -Inf
-Inf -Inf Inf
-Inf -Inf Inf
-Inf -Inf Inf
-Inf -Inf Inf
-Inf -Inf -Inf
-Inf -Inf -Inf
-Inf -Inf Inf
-Inf -Inf Inf
-Inf -Inf -Inf
-Inf -Inf -Inf
-Inf -Inf Inf
-Inf -Inf Inf
-Inf -Inf -Inf
-Inf -Inf -Inf
-Inf -Inf Inf
-Inf -Inf -Inf
-Inf -Inf -Inf
-Inf -Inf Inf
-Inf -Inf Inf
-Inf -Inf Inf
-Inf -Inf -Inf
-Inf -Inf Inf
-Inf -Inf Inf
-Inf -Inf Inf
-Inf -Inf Inf
-Inf -Inf Inf
-Inf -Inf Inf
-Inf -Inf -Inf
-Inf -Inf -Inf
-Inf -Inf -Inf
-Inf -Inf Inf
-Inf -Inf Inf
-Inf -Inf Inf
-Inf -Inf Inf
-Inf -Inf Inf
-Inf -Inf Inf
-Inf -Inf Inf
-Inf -Inf -Inf
-Inf -Inf Inf
-Inf -Inf -Inf
-Inf -Inf Inf
-Inf -Inf -Inf
-Inf -Inf -Inf
-Inf -Inf -Inf
-Inf -Inf Inf
-Inf -Inf Inf
-Inf -Inf Inf
-Inf -Inf Inf
-Inf -Inf Inf
-Inf -Inf Inf
-Inf -Inf Inf
-Inf -Inf Inf
-Inf -Inf Inf
-Inf -Inf Inf
-Inf -Inf -Inf
-Inf -Inf Inf
-Inf -Inf -Inf
-Inf -Inf Inf
-Inf -Inf -Inf
-Inf -Inf Inf
-Inf -Inf Inf
-Inf -Inf -Inf
-Inf -Inf -Inf
-Inf -Inf Inf
-Inf -Inf Inf
-Inf -Inf -Inf
-Inf -Inf -Inf
-Inf -Inf Inf
-Inf -Inf Inf
-Inf -Inf Inf
-Inf -Inf Inf
-Inf -Inf Inf
-Inf -Inf -Inf
-Inf -Inf Inf
-Inf -Inf Inf
-Inf -Inf Inf
-Inf -Inf Inf
-Inf -Inf Inf
-Inf -Inf Inf
-Inf -Inf Inf
-Inf -Inf Inf
-Inf -Inf Inf
-Inf -Inf -Inf
-Inf -Inf Inf
-Inf -Inf -Inf
-Inf -Inf Inf
-Inf -Inf Inf
-Inf -Inf -Inf
-Inf -Inf -Inf
-Inf -Inf -Inf
-Inf -Inf Inf
-Inf -Inf Inf
-Inf -Inf Inf
Inf -Inf -Inf
-Inf -Inf Inf
-Inf -Inf Inf
-Inf -Inf Inf
-Inf -Inf Inf
-Inf -Inf -Inf
-Inf -Inf Inf
-Inf -Inf Inf
-Inf -Inf Inf
-Inf -Inf Inf
-Inf -Inf Inf
-Inf -Inf Inf
-Inf -Inf -Inf
-Inf -Inf -Inf
-Inf -Inf Inf
-Inf -Inf Inf
-Inf -Inf -Inf
-Inf -Inf Inf
-Inf -Inf Inf
-Inf -Inf Inf
-Inf -Inf Inf
-Inf -Inf Inf
-Inf -Inf Inf
-Inf -Inf Inf
-Inf -Inf Inf
-Inf -Inf -Inf
-Inf -Inf Inf
-Inf -Inf Inf
-Inf -Inf Inf
-Inf -Inf Inf
-Inf -Inf -Inf
-Inf -Inf Inf
Inf -Inf -Inf
-Inf -Inf Inf
-Inf -Inf Inf
-Inf -Inf -Inf
-Inf -Inf Inf
-Inf -Inf Inf
-Inf -Inf Inf
-Inf -Inf Inf
Inf -Inf -Inf
-Inf -Inf Inf
-Inf -Inf -Inf
-Inf -Inf Inf
-Inf -Inf Inf
-Inf -Inf Inf
-Inf -Inf Inf
-Inf -Inf Inf
-Inf -Inf -Inf
-Inf -Inf Inf
-Inf -Inf Inf
-Inf -Inf Inf
-Inf -Inf Inf
-Inf -Inf Inf
-Inf -Inf -Inf
-Inf -Inf Inf
-Inf -Inf Inf
-Inf -Inf Inf
-Inf -Inf Inf
-Inf -Inf Inf
-Inf -Inf Inf
-Inf -Inf Inf
-Inf -Inf Inf
-Inf -Inf Inf
-Inf -Inf Inf
-Inf -Inf Inf
-Inf -Inf -Inf
-Inf -Inf -Inf
-Inf -Inf Inf
-Inf -Inf Inf
-Inf -Inf Inf
-Inf -Inf Inf
-Inf -Inf Inf
-Inf -Inf -Inf
-Inf -Inf Inf
-Inf -Inf Inf
-Inf -Inf Inf
-Inf -Inf Inf
-Inf -Inf Inf
-Inf -Inf Inf
-Inf -Inf -Inf
-Inf -Inf Inf
-Inf -Inf Inf
-Inf -Inf Inf
-Inf -Inf Inf
-Inf -Inf Inf
-Inf -Inf Inf
-Inf -Inf -Inf
-Inf -Inf Inf
-Inf -Inf Inf
-Inf -Inf Inf
-Inf -Inf -Inf
-Inf -Inf Inf
-Inf -Inf Inf
-Inf -Inf Inf
-Inf -Inf Inf
-Inf -Inf Inf
-Inf -Inf Inf
-Inf -Inf Inf
-Inf -Inf Inf
-Inf -Inf Inf
-Inf -Inf Inf
-Inf -Inf Inf
-Inf -Inf Inf
-Inf -Inf Inf
-Inf -Inf Inf
-Inf -Inf Inf
-Inf -Inf Inf
-Inf -Inf Inf
-Inf -Inf Inf
-Inf -Inf Inf
-Inf -Inf Inf
-Inf -Inf Inf
-Inf -Inf Inf
-Inf -Inf -Inf
-Inf -Inf Inf
-Inf -Inf -Inf
-Inf -Inf Inf
-Inf -Inf -Inf
-Inf -Inf Inf
-Inf -Inf Inf
-Inf -Inf Inf
-Inf -Inf -Inf
-Inf -Inf Inf
-Inf -Inf -Inf
-Inf -Inf Inf
-Inf -Inf Inf
-Inf -Inf Inf
-Inf -Inf Inf
-Inf -Inf Inf
-Inf -Inf -Inf
-Inf -Inf -Inf
-Inf -Inf -Inf
-Inf -Inf Inf
-Inf -Inf Inf
-Inf -Inf Inf
-Inf -Inf -Inf
-Inf -Inf Inf
-Inf -Inf Inf
-Inf -Inf Inf
-Inf -Inf Inf
-Inf -Inf Inf
-Inf -Inf Inf
-Inf -Inf Inf
-Inf -Inf -Inf
-Inf -Inf -Inf
-Inf -Inf Inf
-Inf -Inf Inf
-Inf -Inf Inf
-Inf -Inf -Inf
-Inf -Inf Inf
-Inf -Inf Inf
-Inf -Inf Inf
-Inf -Inf Inf
-Inf -Inf Inf
-Inf -Inf Inf
-Inf -Inf Inf
-Inf -Inf -Inf
-Inf -Inf -Inf
-Inf -Inf Inf
-Inf -Inf Inf
-Inf -Inf Inf
-Inf -Inf Inf
-Inf -Inf Inf
-Inf -Inf Inf
-Inf -Inf -Inf
-Inf -Inf Inf
-Inf -Inf Inf
-Inf -Inf Inf
-Inf -Inf Inf
-Inf -Inf Inf
-Inf -Inf Inf
-Inf -Inf Inf
-Inf -Inf Inf
-Inf -Inf Inf
-Inf -Inf Inf
-Inf -Inf Inf
-Inf -Inf -Inf
-Inf -Inf Inf
-Inf -Inf Inf
-Inf -Inf Inf
-Inf -Inf Inf
-Inf -Inf Inf
-Inf -Inf Inf
-Inf -Inf Inf
-Inf -Inf Inf
-Inf -Inf -Inf
-Inf -Inf Inf
-Inf -Inf Inf
-Inf -Inf -Inf
-Inf -Inf Inf
-Inf -Inf Inf
-Inf -Inf Inf
-Inf -Inf Inf
-Inf -Inf Inf
-Inf -Inf Inf
-Inf -Inf Inf
-Inf -Inf -Inf
-Inf -Inf -Inf
-Inf -Inf Inf
-Inf -Inf Inf
-Inf -Inf Inf
-Inf -Inf Inf
-Inf -Inf Inf
-Inf -Inf Inf
-Inf -Inf Inf
-Inf -Inf Inf
-Inf -Inf Inf
-Inf -Inf Inf
-Inf -Inf -Inf
-Inf -Inf -Inf
-Inf -Inf Inf
-Inf -Inf Inf
-Inf -Inf Inf
-Inf -Inf Inf
-Inf -Inf -Inf
-Inf -Inf Inf
-Inf -Inf Inf
-Inf -Inf -Inf
-Inf -Inf Inf
-Inf -Inf Inf
-Inf -Inf Inf
-Inf -Inf -Inf
-Inf -Inf -Inf
-Inf -Inf Inf
-Inf -Inf -Inf
-Inf -Inf Inf
-Inf -Inf Inf
-Inf -Inf -Inf
-Inf -Inf Inf
-Inf -Inf Inf
-Inf -Inf -Inf
-Inf -Inf Inf
-Inf -Inf Inf
-Inf -Inf Inf
-Inf -Inf Inf
-Inf -Inf -Inf
-Inf -Inf Inf
-Inf -Inf Inf
-Inf -Inf Inf
-Inf -Inf Inf
-Inf -Inf Inf
-Inf -Inf -Inf
-Inf -Inf Inf
-Inf -Inf Inf
-Inf -Inf Inf
-Inf -Inf Inf
-Inf -Inf Inf
-Inf -Inf -Inf
-Inf -Inf Inf
-Inf -Inf Inf
-Inf -Inf Inf
-Inf -Inf Inf
-Inf -Inf Inf
-Inf -Inf Inf
-Inf -Inf -Inf
-Inf -Inf -Inf
-Inf -Inf Inf
-Inf -Inf Inf
-Inf -Inf -Inf
-Inf -Inf Inf
-Inf -Inf -Inf
-Inf -Inf -Inf
-Inf -Inf Inf
-Inf -Inf -Inf
-Inf -Inf -Inf
-Inf -Inf Inf
-Inf -Inf Inf
-Inf -Inf Inf
-Inf -Inf Inf
-Inf -Inf Inf
-Inf -Inf Inf
-Inf -Inf Inf
-Inf -Inf Inf
-Inf -Inf Inf
-Inf -Inf Inf
-Inf -Inf -Inf
-Inf -Inf Inf
-Inf -Inf Inf
-Inf -Inf Inf
-Inf -Inf Inf
-Inf -Inf Inf
-Inf -Inf Inf
-Inf -Inf Inf
-Inf -Inf Inf
-Inf -Inf Inf
-Inf -Inf -Inf
-Inf -Inf Inf
-Inf -Inf Inf
-Inf -Inf Inf
-Inf -Inf Inf
-Inf -Inf Inf
-Inf -Inf Inf
-Inf -Inf Inf
-Inf -Inf Inf
-Inf -Inf Inf
-Inf -Inf -Inf
-Inf -Inf Inf
-Inf -Inf Inf
-Inf -Inf Inf
-Inf -Inf Inf
-Inf -Inf Inf
-Inf -Inf Inf
-Inf -Inf -Inf
-Inf -Inf -Inf
-Inf -Inf -Inf
-Inf -Inf Inf
-Inf -Inf Inf
-Inf -Inf -Inf
-Inf -Inf Inf
-Inf -Inf Inf
-Inf -Inf Inf
-Inf -Inf Inf
-Inf -Inf Inf
-Inf -Inf -Inf
-Inf -Inf Inf
-Inf -Inf Inf
-Inf -Inf Inf
-Inf -Inf Inf
Inf -Inf Inf
-Inf -Inf Inf
-Inf -Inf Inf
-Inf -Inf Inf
-Inf -Inf Inf
-Inf -Inf Inf
-Inf -Inf Inf
-Inf -Inf Inf
-Inf -Inf Inf
-Inf -Inf -Inf
-Inf -Inf Inf
-Inf -Inf Inf
-Inf -Inf Inf
-Inf -Inf Inf
-Inf -Inf Inf
-Inf -Inf Inf
-Inf -Inf Inf
-Inf -Inf Inf
-Inf -Inf -Inf
-Inf -Inf Inf
-Inf -Inf Inf
-Inf -Inf Inf
-Inf -Inf Inf
-Inf -Inf Inf
-Inf -Inf Inf
-Inf -Inf Inf
-Inf -Inf -Inf
-Inf -Inf Inf
-Inf -Inf Inf
-Inf -Inf -Inf
-Inf -Inf Inf
-Inf -Inf Inf
-Inf -Inf Inf
-Inf -Inf Inf
-Inf -Inf -Inf
-Inf -Inf -Inf
-Inf -Inf -Inf
-Inf -Inf -Inf
-Inf -Inf Inf
-Inf -Inf Inf
-Inf -Inf Inf
-Inf -Inf Inf
-Inf -Inf Inf
-Inf -Inf -Inf
-Inf -Inf Inf
-Inf -Inf Inf
-Inf -Inf Inf
-Inf -Inf -Inf
-Inf -Inf Inf
-Inf -Inf Inf
-Inf -Inf Inf
-Inf -Inf Inf
-Inf -Inf -Inf
-Inf -Inf Inf
-Inf -Inf Inf
-Inf -Inf -Inf
-Inf -Inf Inf
-Inf -Inf Inf
-Inf -Inf Inf
-Inf -Inf Inf
-Inf -Inf Inf
-Inf -Inf Inf
-Inf -Inf -Inf
-Inf -Inf Inf
-Inf -Inf Inf
-Inf -Inf -Inf
-Inf -Inf Inf
-Inf -Inf -Inf
-Inf -Inf Inf
-Inf -Inf Inf
-Inf -Inf Inf
-Inf -Inf Inf
-Inf -Inf Inf
-Inf -Inf -Inf
-Inf -Inf -Inf
-Inf -Inf Inf
-Inf -Inf Inf
-Inf -Inf Inf
-Inf -Inf Inf
-Inf -Inf -Inf
-Inf -Inf Inf
-Inf -Inf Inf
-Inf -Inf -Inf
-Inf -Inf Inf
-Inf -Inf Inf
-Inf -Inf Inf
-Inf -Inf Inf
-Inf -Inf Inf
-Inf -Inf Inf
-Inf -Inf -Inf
-Inf -Inf -Inf
-Inf -Inf Inf
-Inf -Inf Inf
-Inf -Inf Inf
-Inf -Inf Inf
-Inf -Inf Inf
-Inf -Inf -Inf
-Inf -Inf Inf
-Inf -Inf Inf
-Inf -Inf Inf
-Inf -Inf Inf
-Inf -Inf Inf
-Inf -Inf Inf
-Inf -Inf Inf
-Inf -Inf Inf
-Inf -Inf -Inf
-Inf -Inf Inf
-Inf -Inf Inf
Inf -Inf -Inf
-Inf -Inf Inf
-Inf -Inf Inf
-Inf -Inf Inf
-Inf -Inf Inf
-Inf -Inf Inf
-Inf -Inf Inf
-Inf -Inf Inf
-Inf -Inf Inf
-Inf -Inf Inf
-Inf -Inf Inf
-Inf -Inf Inf
-Inf -Inf Inf
-Inf -Inf Inf
-Inf -Inf Inf
-Inf -Inf Inf
-Inf -Inf Inf
-Inf -Inf Inf
-Inf -Inf Inf
-Inf -Inf Inf
-Inf -Inf Inf
-Inf -Inf Inf
-Inf -Inf Inf
-Inf -Inf Inf
-Inf -Inf Inf
-Inf -Inf Inf
-Inf -Inf Inf
-Inf -Inf Inf
-Inf -Inf Inf
-Inf -Inf Inf
-Inf -Inf Inf
-Inf -Inf Inf
-Inf -Inf -Inf
-Inf -Inf -Inf
-Inf -Inf Inf
-Inf -Inf -Inf
-Inf -Inf Inf
-Inf -Inf Inf
-Inf -Inf -Inf
-Inf -Inf -Inf
-Inf -Inf Inf
-Inf -Inf Inf
-Inf -Inf -Inf
-Inf -Inf -Inf
-Inf -Inf -Inf
-Inf -Inf -Inf
-Inf -Inf Inf
-Inf -Inf Inf
-Inf -Inf Inf
-Inf -Inf Inf
-Inf -Inf Inf
-Inf -Inf Inf
-Inf -Inf -Inf
-Inf -Inf Inf
-Inf -Inf Inf
-Inf -Inf -Inf
-Inf -Inf Inf
-Inf -Inf Inf
-Inf -Inf Inf
-Inf -Inf Inf
-Inf -Inf -Inf
-Inf -Inf Inf
-Inf -Inf Inf
-Inf -Inf Inf
-Inf -Inf Inf
-Inf -Inf -Inf
-Inf -Inf Inf
-Inf -Inf Inf
-Inf -Inf Inf
-Inf -Inf Inf
-Inf -Inf Inf
-Inf -Inf Inf
-Inf -Inf Inf
-Inf -Inf Inf
-Inf -Inf Inf
-Inf -Inf Inf
-Inf -Inf Inf
-Inf -Inf Inf
-Inf -Inf -Inf
-Inf -Inf -Inf
-Inf -Inf Inf
-Inf -Inf -Inf
-Inf -Inf Inf
-Inf -Inf Inf
-Inf -Inf -Inf
-Inf -Inf -Inf
-Inf -Inf -Inf
Inf -Inf -Inf
-Inf -Inf Inf
-Inf -Inf -Inf
-Inf -Inf Inf
-Inf -Inf Inf
-Inf -Inf Inf
-Inf -Inf Inf
-Inf -Inf Inf
-Inf -Inf Inf
-Inf -Inf Inf
-Inf -Inf Inf
-Inf -Inf Inf
-Inf -Inf -Inf
-Inf -Inf Inf
-Inf -Inf Inf
-Inf -Inf Inf
-Inf -Inf Inf
-Inf -Inf Inf
-Inf -Inf Inf
-Inf -Inf Inf
-Inf -Inf -Inf
Inf -Inf Inf
-Inf -Inf -Inf
-Inf -Inf Inf
-Inf -Inf -Inf
-Inf -Inf Inf
-Inf -Inf Inf
-Inf -Inf Inf
-Inf -Inf Inf
-Inf -Inf Inf
-Inf -Inf Inf
-Inf -Inf Inf
-Inf -Inf -Inf
-Inf -Inf Inf
-Inf -Inf -Inf
-Inf -Inf -Inf
-Inf -Inf Inf
-Inf -Inf Inf
-Inf -Inf Inf
-Inf -Inf Inf
-Inf -Inf -Inf
-Inf -Inf Inf
-Inf -Inf -Inf
-Inf -Inf Inf
-Inf -Inf -Inf
-Inf -Inf Inf
-Inf -Inf Inf
-Inf -Inf Inf
-Inf -Inf Inf
-Inf -Inf Inf
-Inf -Inf Inf
-Inf -Inf -Inf
-Inf -Inf Inf
Inf -Inf -Inf
-Inf -Inf Inf
-Inf -Inf -Inf
-Inf -Inf -Inf
-Inf -Inf Inf
-Inf -Inf Inf
-Inf -Inf -Inf
-Inf -Inf -Inf
-Inf -Inf Inf
-Inf -Inf Inf
Inf -Inf -Inf
-Inf -Inf -Inf
-Inf -Inf Inf
-Inf -Inf Inf
-Inf -Inf Inf
Inf -Inf Inf
-Inf -Inf Inf
-Inf -Inf Inf
-Inf -Inf Inf
-Inf -Inf Inf
-Inf -Inf Inf
-Inf -Inf -Inf
-Inf -Inf Inf
-Inf -Inf Inf
-Inf -Inf Inf
-Inf -Inf -Inf
-Inf -Inf Inf
-Inf -Inf Inf
-Inf -Inf -Inf
-Inf -Inf -Inf
-Inf -Inf Inf
-Inf -Inf Inf
-Inf -Inf Inf
-Inf -Inf Inf
-Inf -Inf -Inf
-Inf -Inf Inf
-Inf -Inf -Inf
-Inf -Inf Inf
-Inf -Inf Inf
-Inf -Inf Inf
-Inf -Inf -Inf
-Inf -Inf Inf
-Inf -Inf -Inf
Inf -Inf Inf
-Inf -Inf -Inf
-Inf -Inf Inf
-Inf -Inf Inf
-Inf -Inf -Inf
Inf -Inf -Inf
-Inf -Inf -Inf
-Inf -Inf Inf
-Inf -Inf -Inf
-Inf -Inf Inf
-Inf -Inf Inf
-Inf -Inf Inf
-Inf -Inf Inf
-Inf -Inf Inf
-Inf -Inf Inf
-Inf -Inf Inf
-Inf -Inf -Inf
-Inf -Inf Inf
-Inf -Inf Inf
-Inf -Inf Inf
-Inf -Inf Inf
-Inf -Inf Inf
-Inf -Inf Inf
-Inf -Inf -Inf
-Inf -Inf Inf
-Inf -Inf Inf
-Inf -Inf Inf
-Inf -Inf Inf
-Inf -Inf -Inf
Inf -Inf Inf
-Inf -Inf Inf
-Inf -Inf Inf
-Inf -Inf Inf
-Inf -Inf -Inf
-Inf -Inf Inf
-Inf -Inf -Inf
-Inf -Inf Inf
-Inf -Inf -Inf
-Inf -Inf Inf
-Inf -Inf -Inf
-Inf -Inf Inf
-Inf -Inf Inf
-Inf -Inf -Inf
-Inf -Inf Inf
-Inf -Inf Inf
-Inf -Inf -Inf
-Inf -Inf -Inf
-Inf -Inf Inf
-Inf -Inf -Inf
-Inf -Inf Inf
-Inf -Inf Inf
-Inf -Inf Inf
-Inf -Inf Inf
-Inf -Inf Inf
-Inf -Inf Inf
-Inf -Inf Inf
-Inf -Inf Inf
-Inf -Inf Inf
-Inf -Inf Inf
-Inf -Inf -Inf
-Inf -Inf -Inf
-Inf -Inf Inf
-Inf -Inf Inf
-Inf -Inf Inf
-Inf -Inf Inf
-Inf -Inf -Inf
-Inf -Inf -Inf
-Inf -Inf Inf
-Inf -Inf Inf
-Inf -Inf Inf
-Inf -Inf -Inf
-Inf -Inf Inf
-Inf -Inf Inf
-Inf -Inf Inf
-Inf -Inf Inf
-Inf -Inf Inf
-Inf -Inf -Inf
-Inf -Inf Inf
-Inf -Inf -Inf
-Inf -Inf Inf
-Inf -Inf Inf
-Inf -Inf Inf
-Inf -Inf Inf
-Inf -Inf Inf
-Inf -Inf Inf
-Inf -Inf -Inf
-Inf -Inf Inf
-Inf -Inf -Inf
-Inf -Inf Inf
-Inf -Inf Inf
-Inf -Inf Inf
-Inf -Inf Inf
-Inf -Inf Inf
-Inf -Inf Inf
-Inf -Inf Inf
-Inf -Inf Inf
-Inf -Inf Inf
-Inf -Inf Inf
-Inf -Inf -Inf
-Inf -Inf Inf
-Inf -Inf Inf
-Inf -Inf -Inf
-Inf -Inf Inf
-Inf -Inf Inf
-Inf -Inf -Inf
-Inf -Inf Inf
-Inf -Inf Inf
-Inf -Inf -Inf
-Inf -Inf -Inf
-Inf -Inf -Inf
-Inf -Inf Inf
-Inf -Inf Inf
-Inf -Inf Inf
-Inf -Inf Inf
-Inf -Inf Inf
-Inf -Inf Inf
-Inf -Inf Inf
-Inf -Inf Inf
-Inf -Inf Inf
-Inf -Inf Inf
-Inf -Inf Inf
-Inf -Inf Inf
-Inf -Inf -Inf
-Inf -Inf -Inf
-Inf -Inf -Inf
-Inf -Inf Inf
-Inf -Inf Inf
-Inf -Inf Inf
-Inf -Inf Inf
-Inf -Inf -Inf
-Inf -Inf -Inf
-Inf -Inf Inf
-Inf -Inf -Inf
-Inf -Inf Inf
-Inf -Inf Inf
-Inf -Inf Inf
-Inf -Inf -Inf
-Inf -Inf Inf
-Inf -Inf Inf
-Inf -Inf Inf
-Inf -Inf -Inf
-Inf -Inf -Inf
-Inf -Inf Inf
-Inf -Inf Inf
-Inf -Inf Inf
-Inf -Inf Inf
-Inf -Inf Inf
-Inf -Inf Inf
-Inf -Inf Inf
-Inf -Inf Inf
-Inf -Inf Inf
-Inf -Inf Inf
-Inf -Inf -Inf
-Inf -Inf Inf
-Inf -Inf -Inf
-Inf -Inf Inf
-Inf -Inf -Inf
-Inf -Inf -Inf
-Inf -Inf Inf
-Inf -Inf -Inf
-Inf -Inf Inf
-Inf -Inf -Inf
-Inf -Inf Inf
-Inf -Inf Inf
-Inf -Inf Inf
-Inf -Inf -Inf
-Inf -Inf Inf
-Inf -Inf Inf
Inf -Inf Inf
-Inf -Inf Inf
-Inf -Inf -Inf
-Inf -Inf Inf
-Inf -Inf Inf
-Inf -Inf -Inf
-Inf -Inf Inf
-Inf -Inf Inf
-Inf -Inf -Inf
-Inf -Inf -Inf
-Inf -Inf Inf
-Inf -Inf Inf
-Inf -Inf Inf
-Inf -Inf Inf
-Inf -Inf Inf
-Inf -Inf -Inf
-Inf -Inf Inf
-Inf -Inf Inf
-Inf -Inf -Inf
-Inf -Inf Inf
-Inf -Inf Inf
-Inf -Inf Inf
-Inf -Inf Inf
-Inf -Inf Inf
-Inf -Inf Inf
-Inf -Inf Inf
-Inf -Inf Inf
-Inf -Inf Inf
-Inf -Inf Inf
-Inf -Inf -Inf
-Inf -Inf Inf
-Inf -Inf -Inf
-Inf -Inf Inf
-Inf -Inf -Inf
-Inf -Inf Inf
-Inf -Inf Inf
-Inf -Inf Inf
-Inf -Inf Inf
-Inf -Inf -Inf
-Inf -Inf Inf
-Inf -Inf Inf
-Inf -Inf Inf
-Inf -Inf -Inf
-Inf -Inf Inf
-Inf -Inf Inf
-Inf -Inf -Inf
-Inf -Inf Inf
-Inf -Inf Inf
-Inf -Inf Inf
-Inf -Inf Inf
-Inf -Inf Inf
-Inf -Inf -Inf
-Inf -Inf Inf
-Inf -Inf Inf
-Inf -Inf Inf
-Inf -Inf Inf
-Inf -Inf Inf
-Inf -Inf Inf
-Inf -Inf Inf
-Inf -Inf Inf
-Inf -Inf Inf
-Inf -Inf -Inf
-Inf -Inf Inf
-Inf -Inf Inf
-Inf -Inf -Inf
-Inf -Inf Inf
-Inf -Inf Inf
-Inf -Inf -Inf
-Inf -Inf Inf
-Inf -Inf -Inf
-Inf -Inf Inf
-Inf -Inf Inf
-Inf -Inf Inf
Inf -Inf -Inf
-Inf -Inf Inf
-Inf -Inf Inf
-Inf -Inf -Inf
-Inf -Inf Inf
-Inf -Inf -Inf
-Inf -Inf Inf
-Inf -Inf -Inf
-Inf -Inf Inf
-Inf -Inf Inf
-Inf -Inf -Inf
-Inf -Inf Inf
-Inf -Inf Inf
-Inf -Inf -Inf
-Inf -Inf -Inf
-Inf -Inf Inf
-Inf -Inf Inf
-Inf -Inf Inf
-Inf -Inf -Inf
-Inf -Inf Inf
-Inf -Inf -Inf
-Inf -Inf Inf
Inf -Inf -Inf
-Inf -Inf Inf
-Inf -Inf Inf
-Inf -Inf Inf
-Inf -Inf Inf
-Inf -Inf Inf
-Inf -Inf Inf
-Inf -Inf Inf
Inf -Inf -Inf
-Inf -Inf -Inf
-Inf -Inf Inf
-Inf -Inf -Inf
-Inf -Inf Inf
-Inf -Inf Inf
-Inf -Inf -Inf
-Inf -Inf -Inf
-Inf -Inf Inf
-Inf -Inf -Inf
-Inf -Inf Inf
-Inf -Inf -Inf
-Inf -Inf Inf
-Inf -Inf Inf
-Inf -Inf -Inf
-Inf -Inf -Inf
-Inf -Inf Inf
-Inf -Inf -Inf
-Inf -Inf Inf
-Inf -Inf -Inf
-Inf -Inf -Inf
-Inf -Inf Inf
-Inf -Inf Inf
-Inf -Inf Inf
-Inf -Inf -Inf
-Inf -Inf Inf
-Inf -Inf Inf
-Inf -Inf -Inf
-Inf -Inf Inf
-Inf -Inf Inf
-Inf -Inf Inf
-Inf -Inf Inf
-Inf -Inf Inf
-Inf -Inf Inf
-Inf -Inf Inf
-Inf -Inf Inf
-Inf -Inf -Inf
-Inf -Inf -Inf
-Inf -Inf -Inf
-Inf -Inf Inf
-Inf -Inf -Inf
-Inf -Inf -Inf
-Inf -Inf Inf
-Inf -Inf -Inf
-Inf -Inf Inf
-Inf -Inf Inf
-Inf -Inf -Inf
-Inf -Inf -Inf
-Inf -Inf Inf
-Inf -Inf Inf
-Inf -Inf -Inf
-Inf -Inf Inf
-Inf -Inf Inf
-Inf -Inf Inf
-Inf -Inf Inf
-Inf -Inf -Inf
-Inf -Inf -Inf
-Inf -Inf Inf
-Inf -Inf Inf
-Inf -Inf Inf
-Inf -Inf Inf
-Inf -Inf Inf
-Inf -Inf Inf
-Inf -Inf Inf
-Inf -Inf Inf
-Inf -Inf Inf
-Inf -Inf Inf
-Inf -Inf Inf
-Inf -Inf Inf
-Inf -Inf Inf
-Inf -Inf Inf
-Inf -Inf Inf
-Inf -Inf -Inf
-Inf -Inf Inf
-Inf -Inf Inf
-Inf -Inf Inf
-Inf -Inf Inf
Inf -Inf -Inf
-Inf -Inf Inf
-Inf -Inf Inf
-Inf -Inf -Inf
-Inf -Inf Inf
-Inf -Inf Inf
-Inf -Inf Inf
-Inf -Inf -Inf
-Inf -Inf -Inf
-Inf -Inf Inf
-Inf -Inf Inf
-Inf -Inf Inf
-Inf -Inf Inf
-Inf -Inf Inf
-Inf -Inf Inf
-Inf -Inf -Inf
-Inf -Inf -Inf
-Inf -Inf Inf
-Inf -Inf Inf
-Inf -Inf Inf
-Inf -Inf Inf
-Inf -Inf Inf
-Inf -Inf Inf
-Inf -Inf Inf
-Inf -Inf Inf
-Inf -Inf Inf
-Inf -Inf Inf
-Inf -Inf Inf
-Inf -Inf Inf
-Inf -Inf Inf
-Inf -Inf Inf
-Inf -Inf Inf
-Inf -Inf Inf
-Inf -Inf Inf
-Inf -Inf Inf
-Inf -Inf Inf
-Inf -Inf Inf
-Inf -Inf Inf
-Inf -Inf Inf
-Inf -Inf -Inf
-Inf -Inf -Inf
-Inf -Inf Inf
-Inf -Inf Inf
-Inf -Inf Inf
-Inf -Inf Inf
-Inf -Inf Inf
-Inf -Inf Inf
-Inf -Inf Inf
-Inf -Inf Inf
-Inf -Inf Inf
-Inf -Inf Inf
-Inf -Inf Inf
-Inf -Inf Inf
-Inf -Inf -Inf
-Inf -Inf Inf
-Inf -Inf Inf
-Inf -Inf -Inf
-Inf -Inf -Inf
-Inf -Inf Inf
-Inf -Inf -Inf
-Inf -Inf Inf
-Inf -Inf Inf
-Inf -Inf Inf
-Inf -Inf Inf
-Inf -Inf Inf
-Inf -Inf Inf
-Inf -Inf Inf
-Inf -Inf Inf
-Inf -Inf Inf
-Inf -Inf Inf
-Inf -Inf -Inf
-Inf -Inf Inf
-Inf -Inf -Inf
-Inf -Inf -Inf
-Inf -Inf -Inf
-Inf -Inf -Inf
-Inf -Inf Inf
-Inf -Inf Inf
-Inf -Inf Inf
-Inf -Inf Inf
-Inf -Inf Inf
-Inf -Inf -Inf
-Inf -Inf Inf
-Inf -Inf Inf
-Inf -Inf -Inf
-Inf -Inf Inf
-Inf -Inf Inf
-Inf -Inf Inf
-Inf -Inf Inf
-Inf -Inf Inf
-Inf -Inf Inf
-Inf -Inf Inf
-Inf -Inf Inf
-Inf -Inf Inf
-Inf -Inf Inf
-Inf -Inf Inf
-Inf -Inf Inf
-Inf -Inf Inf
-Inf -Inf -Inf
-Inf -Inf Inf
-Inf -Inf Inf
-Inf -Inf Inf
-Inf -Inf -Inf
-Inf -Inf Inf
-Inf -Inf Inf
-Inf -Inf Inf
-Inf -Inf -Inf
-Inf -Inf -Inf
-Inf -Inf Inf
-Inf -Inf Inf
-Inf -Inf Inf
-Inf -Inf Inf
-Inf -Inf Inf
-Inf -Inf Inf
-Inf -Inf Inf
-Inf -Inf Inf
-Inf -Inf Inf
-Inf -Inf Inf
-Inf -Inf Inf
-Inf -Inf Inf
-Inf -Inf Inf
-Inf -Inf Inf
-Inf -Inf Inf
-Inf -Inf Inf
-Inf -Inf Inf
-Inf -Inf Inf
-Inf -Inf Inf
-Inf -Inf Inf
-Inf -Inf Inf
-Inf -Inf Inf
-Inf -Inf Inf
-Inf -Inf Inf
-Inf -Inf -Inf
-Inf -Inf Inf
-Inf -Inf Inf
-Inf -Inf Inf
-Inf -Inf -Inf
-Inf -Inf Inf
-Inf -Inf -Inf
-Inf -Inf -Inf
-Inf -Inf Inf
-Inf -Inf -Inf
-Inf -Inf Inf
-Inf -Inf Inf
-Inf -Inf Inf
-Inf -Inf Inf
-Inf -Inf Inf
-Inf -Inf -Inf
-Inf -Inf Inf
-Inf -Inf -Inf
-Inf -Inf Inf
-Inf -Inf Inf
-Inf -Inf Inf
-Inf -Inf Inf
-Inf -Inf Inf
-Inf -Inf Inf
-Inf -Inf -Inf
-Inf -Inf Inf
-Inf -Inf Inf
-Inf -Inf -Inf
-Inf -Inf Inf
-Inf -Inf Inf
-Inf -Inf Inf
-Inf -Inf Inf
-Inf -Inf Inf
-Inf -Inf Inf
-Inf -Inf -Inf
-Inf -Inf -Inf
-Inf -Inf Inf
-Inf -Inf Inf
-Inf -Inf Inf
-Inf -Inf Inf
-Inf -Inf Inf
-Inf -Inf Inf
-Inf -Inf Inf
-Inf -Inf Inf
-Inf -Inf -Inf
-Inf -Inf Inf
-Inf -Inf Inf
-Inf -Inf -Inf
-Inf -Inf Inf
-Inf -Inf Inf
-Inf -Inf Inf
-Inf -Inf Inf
-Inf -Inf Inf
-Inf -Inf Inf
-Inf -Inf Inf
-Inf -Inf Inf
-Inf -Inf -Inf
-Inf -Inf Inf
-Inf -Inf Inf
-Inf -Inf Inf
-Inf -Inf Inf
-Inf -Inf Inf
-Inf -Inf Inf
-Inf -Inf Inf
-Inf -Inf Inf
-Inf -Inf Inf
-Inf -Inf Inf
-Inf -Inf Inf
-Inf -Inf -Inf
-Inf -Inf Inf
-Inf -Inf Inf
-Inf -Inf Inf
-Inf -Inf -Inf
-Inf -Inf Inf
-Inf -Inf Inf
-Inf -Inf Inf
-Inf -Inf Inf
-Inf -Inf Inf
-Inf -Inf Inf
-Inf -Inf Inf
-Inf -Inf Inf
-Inf -Inf -Inf
-Inf -Inf Inf
-Inf -Inf -Inf
-Inf -Inf Inf
-Inf -Inf Inf
-Inf -Inf Inf
-Inf -Inf -Inf
-Inf -Inf Inf
-Inf -Inf Inf
-Inf -Inf Inf
-Inf -Inf Inf
-Inf -Inf Inf
-Inf -Inf Inf
-Inf -Inf Inf
-Inf -Inf Inf
-Inf -Inf Inf
-Inf -Inf Inf
-Inf -Inf -Inf
-Inf -Inf Inf
-Inf -Inf Inf
-Inf -Inf Inf
-Inf -Inf Inf
-Inf -Inf Inf
-Inf -Inf Inf
-Inf -Inf Inf
-Inf -Inf Inf
-Inf -Inf Inf
-Inf -Inf Inf
-Inf -Inf Inf
-Inf -Inf Inf
-Inf -Inf Inf
-Inf -Inf Inf
-Inf -Inf Inf
-Inf -Inf Inf
-Inf -Inf -Inf
-Inf -Inf Inf
-Inf -Inf -Inf
-Inf -Inf Inf
-Inf -Inf Inf
-Inf -Inf Inf
-Inf -Inf -Inf
-Inf -Inf Inf
-Inf -Inf Inf
-Inf -Inf Inf
-Inf -Inf Inf
-Inf -Inf Inf
-Inf -Inf Inf
-Inf -Inf Inf
-Inf -Inf Inf
-Inf -Inf Inf
-Inf -Inf Inf
-Inf -Inf Inf
-Inf -Inf -Inf
-Inf -Inf Inf
-Inf -Inf Inf
-Inf -Inf Inf
-Inf -Inf Inf
-Inf -Inf Inf
-Inf -Inf Inf
-Inf -Inf Inf
-Inf -Inf -Inf
-Inf -Inf Inf
-Inf -Inf Inf
-Inf -Inf -Inf
-Inf -Inf Inf
-Inf -Inf Inf
-Inf -Inf Inf
-Inf -Inf Inf
-Inf -Inf Inf
-Inf -Inf Inf
-Inf -Inf Inf
-Inf -Inf Inf
-Inf -Inf Inf
-Inf -Inf Inf
-Inf -Inf Inf
-Inf -Inf Inf
-Inf -Inf Inf
-Inf -Inf Inf
-Inf -Inf Inf
-Inf -Inf Inf
-Inf -Inf Inf
-Inf -Inf Inf
-Inf -Inf Inf
-Inf -Inf Inf
-Inf -Inf -Inf
-Inf -Inf Inf
-Inf -Inf Inf
-Inf -Inf Inf
-Inf -Inf Inf
-Inf -Inf Inf
-Inf -Inf Inf
-Inf -Inf Inf
-Inf -Inf Inf
-Inf -Inf Inf
-Inf -Inf -Inf
-Inf -Inf Inf
-Inf -Inf Inf
-Inf -Inf Inf
-Inf -Inf -Inf
-Inf -Inf Inf
-Inf -Inf Inf
-Inf -Inf Inf
-Inf -Inf Inf
-Inf -Inf Inf
-Inf -Inf Inf
-Inf -Inf -Inf
-Inf -Inf Inf
-Inf -Inf Inf
-Inf -Inf Inf
-Inf -Inf Inf
-Inf -Inf Inf
-Inf -Inf -Inf
-Inf -Inf -Inf
-Inf -Inf Inf
-Inf -Inf Inf
-Inf -Inf Inf
-Inf -Inf Inf
-Inf -Inf Inf
-Inf -Inf Inf
-Inf -Inf Inf
-Inf -Inf -Inf
-Inf -Inf -Inf
-Inf -Inf Inf
-Inf -Inf Inf
-Inf -Inf Inf
-Inf -Inf -Inf
-Inf -Inf Inf
Inf -Inf Inf
-Inf -Inf Inf
-Inf -Inf Inf
-Inf -Inf Inf
-Inf -Inf Inf
-Inf -Inf Inf
-Inf -Inf Inf
-Inf -Inf -Inf
-Inf -Inf Inf
-Inf -Inf Inf
-Inf -Inf Inf
-Inf -Inf Inf
-Inf -Inf Inf
-Inf -Inf Inf
-Inf -Inf Inf
-Inf -Inf Inf
-Inf -Inf Inf
-Inf -Inf -Inf
-Inf -Inf Inf
-Inf -Inf Inf
-Inf -Inf -Inf
-Inf -Inf Inf
-Inf -Inf -Inf
-Inf -Inf Inf
-Inf -Inf Inf
-Inf -Inf Inf
-Inf -Inf Inf
-Inf -Inf -Inf
-Inf -Inf Inf
-Inf -Inf Inf
-Inf -Inf Inf
-Inf -Inf Inf
-Inf -Inf Inf
-Inf -Inf Inf
-Inf -Inf Inf
-Inf -Inf -Inf
-Inf -Inf -Inf
-Inf -Inf Inf
-Inf -Inf Inf
-Inf -Inf Inf
-Inf -Inf Inf
-Inf -Inf Inf
-Inf -Inf Inf
-Inf -Inf Inf
-Inf -Inf -Inf
-Inf -Inf Inf
-Inf -Inf Inf
-Inf -Inf Inf
-Inf -Inf Inf
-Inf -Inf Inf
Inf -Inf -Inf
-Inf -Inf Inf
-Inf -Inf -Inf
-Inf -Inf -Inf
-Inf -Inf Inf
-Inf -Inf Inf
-Inf -Inf Inf
-Inf -Inf -Inf
-Inf -Inf -Inf
-Inf -Inf Inf
-Inf -Inf Inf
-Inf -Inf Inf
-Inf -Inf Inf
-Inf -Inf -Inf
-Inf -Inf Inf
-Inf -Inf -Inf
-Inf -Inf Inf
-Inf -Inf Inf
-Inf -Inf Inf
-Inf -Inf Inf
-Inf -Inf Inf
-Inf -Inf Inf
-Inf -Inf Inf
-Inf -Inf Inf
-Inf -Inf -Inf
-Inf -Inf -Inf
-Inf -Inf -Inf
-Inf -Inf Inf
-Inf -Inf -Inf
-Inf -Inf Inf
-Inf -Inf Inf
-Inf -Inf Inf
-Inf -Inf Inf
-Inf -Inf -Inf
-Inf -Inf -Inf
-Inf -Inf -Inf
-Inf -Inf Inf
-Inf -Inf -Inf
-Inf -Inf Inf
-Inf -Inf Inf
-Inf -Inf Inf
-Inf -Inf Inf
-Inf -Inf Inf
-Inf -Inf Inf
-Inf -Inf Inf
-Inf -Inf -Inf
-Inf -Inf Inf
-Inf -Inf Inf
-Inf -Inf Inf
-Inf -Inf Inf
-Inf -Inf Inf
-Inf -Inf Inf
-Inf -Inf Inf
-Inf -Inf Inf
-Inf -Inf Inf
-Inf -Inf Inf
-Inf -Inf Inf
-Inf -Inf -Inf
-Inf -Inf Inf
-Inf -Inf Inf
-Inf -Inf Inf
-Inf -Inf -Inf
-Inf -Inf Inf
-Inf -Inf -Inf
-Inf -Inf Inf
-Inf -Inf Inf
-Inf -Inf Inf
-Inf -Inf Inf
-Inf -Inf Inf
-Inf -Inf Inf
-Inf -Inf Inf
-Inf -Inf Inf
-Inf -Inf Inf
-Inf -Inf -Inf
-Inf -Inf Inf
-Inf -Inf -Inf
-Inf -Inf Inf
-Inf -Inf Inf
-Inf -Inf Inf
-Inf -Inf Inf
-Inf -Inf Inf
-Inf -Inf Inf
-Inf -Inf Inf
-Inf -Inf Inf
-Inf -Inf Inf
-Inf -Inf Inf
-Inf -Inf Inf
-Inf -Inf Inf
-Inf -Inf Inf
-Inf -Inf Inf
-Inf -Inf Inf
-Inf -Inf Inf
-Inf -Inf Inf
-Inf -Inf Inf
-Inf -Inf Inf
-Inf -Inf Inf
-Inf -Inf -Inf
-Inf -Inf -Inf
-Inf -Inf Inf
-Inf -Inf Inf
-Inf -Inf Inf
-Inf -Inf -Inf
-Inf -Inf -Inf
-Inf -Inf Inf
-Inf -Inf -Inf
-Inf -Inf Inf
-Inf -Inf Inf
-Inf -Inf Inf
-Inf -Inf -Inf
Inf -Inf Inf
-Inf -Inf Inf
-Inf -Inf Inf
-Inf -Inf -Inf
-Inf -Inf Inf
-Inf -Inf -Inf
-Inf -Inf Inf
-Inf -Inf -Inf
-Inf -Inf Inf
-Inf -Inf Inf
-Inf -Inf Inf
-Inf -Inf -Inf
-Inf -Inf -Inf
-Inf -Inf Inf
-Inf -Inf Inf
-Inf -Inf Inf
-Inf -Inf Inf
-Inf -Inf Inf
-Inf -Inf Inf
-Inf -Inf Inf
-Inf -Inf Inf
-Inf -Inf -Inf
-Inf -Inf -Inf
-Inf -Inf Inf
-Inf -Inf Inf
-Inf -Inf Inf
-Inf -Inf Inf
-Inf -Inf -Inf
-Inf -Inf -Inf
-Inf -Inf -Inf
-Inf -Inf Inf
-Inf -Inf Inf
-Inf -Inf Inf
-Inf -Inf Inf
-Inf -Inf Inf
-Inf -Inf Inf
-Inf -Inf Inf
-Inf -Inf Inf
-Inf -Inf -Inf
-Inf -Inf -Inf
-Inf -Inf Inf
-Inf -Inf Inf
-Inf -Inf Inf
-Inf -Inf Inf
Inf -Inf -Inf
-Inf -Inf Inf
-Inf -Inf Inf
-Inf -Inf Inf
-Inf -Inf Inf
-Inf -Inf Inf
-Inf -Inf Inf
-Inf -Inf Inf
-Inf -Inf -Inf
-Inf -Inf -Inf
-Inf -Inf Inf
-Inf -Inf Inf
-Inf -Inf Inf
-Inf -Inf Inf
-Inf -Inf Inf
-Inf -Inf Inf
-Inf -Inf Inf
-Inf -Inf Inf
-Inf -Inf Inf
-Inf -Inf Inf
-Inf -Inf Inf
-Inf -Inf -Inf
-Inf -Inf -Inf
-Inf -Inf Inf
-Inf -Inf Inf
-Inf -Inf Inf
-Inf -Inf -Inf
-Inf -Inf Inf
-Inf -Inf Inf
-Inf -Inf Inf
-Inf -Inf Inf
-Inf -Inf Inf
-Inf -Inf Inf
-Inf -Inf Inf
-Inf -Inf Inf
-Inf -Inf -Inf
-Inf -Inf Inf
-Inf -Inf Inf
-Inf -Inf Inf
-Inf -Inf Inf
-Inf -Inf -Inf
-Inf -Inf Inf
-Inf -Inf Inf
-Inf -Inf Inf
-Inf -Inf -Inf
-Inf -Inf Inf
-Inf -Inf -Inf
-Inf -Inf Inf
-Inf -Inf Inf
-Inf -Inf Inf
-Inf -Inf Inf
-Inf -Inf Inf
-Inf -Inf Inf
-Inf -Inf Inf
-Inf -Inf Inf
-Inf -Inf -Inf
-Inf -Inf Inf
-Inf -Inf -Inf
-Inf -Inf Inf
-Inf -Inf Inf
-Inf -Inf Inf
-Inf -Inf Inf
-Inf -Inf Inf
-Inf -Inf Inf
-Inf -Inf -Inf
-Inf -Inf Inf
-Inf -Inf Inf
-Inf -Inf -Inf
-Inf -Inf Inf
-Inf -Inf Inf
-Inf -Inf Inf
-Inf -Inf Inf
-Inf -Inf -Inf
-Inf -Inf -Inf
-Inf -Inf -Inf
-Inf -Inf Inf
-Inf -Inf Inf
-Inf -Inf Inf
-Inf -Inf Inf
-Inf -Inf -Inf
-Inf -Inf Inf
-Inf -Inf -Inf
-Inf -Inf Inf
-Inf -Inf Inf
-Inf -Inf Inf
-Inf -Inf Inf
-Inf -Inf Inf
-Inf -Inf Inf
-Inf -Inf Inf
-Inf -Inf Inf
-Inf -Inf Inf
-Inf -Inf Inf
-Inf -Inf -Inf
-Inf -Inf Inf
-Inf -Inf Inf
-Inf -Inf -Inf
-Inf -Inf Inf
-Inf -Inf Inf
-Inf -Inf Inf
-Inf -Inf -Inf
-Inf -Inf -Inf
-Inf -Inf Inf
-Inf -Inf Inf
-Inf -Inf Inf
-Inf -Inf Inf
-Inf -Inf Inf
-Inf -Inf Inf
-Inf -Inf Inf
-Inf -Inf -Inf
-Inf -Inf Inf
-Inf -Inf Inf
-Inf -Inf Inf
-Inf -Inf Inf
-Inf -Inf Inf
-Inf -Inf -Inf
-Inf -Inf Inf
-Inf -Inf -Inf
-Inf -Inf Inf
-Inf -Inf Inf
-Inf -Inf Inf
-Inf -Inf Inf
-Inf -Inf Inf
-Inf -Inf Inf
-Inf -Inf -Inf
-Inf -Inf Inf
-Inf -Inf Inf
-Inf -Inf Inf
-Inf -Inf -Inf
-Inf -Inf Inf
-Inf -Inf Inf
-Inf -Inf Inf
-Inf -Inf Inf
-Inf -Inf Inf
-Inf -Inf Inf
-Inf -Inf Inf
-Inf -Inf Inf
-Inf -Inf Inf
-Inf -Inf Inf
-Inf -Inf Inf
-Inf -Inf Inf
-Inf -Inf Inf
-Inf -Inf -Inf
-Inf -Inf -Inf
-Inf -Inf Inf
-Inf -Inf -Inf
-Inf -Inf Inf
-Inf -Inf Inf
-Inf -Inf Inf
-Inf -Inf Inf
-Inf -Inf Inf
-Inf -Inf Inf
-Inf -Inf Inf
-Inf -Inf Inf
-Inf -Inf Inf
-Inf -Inf Inf
-Inf -Inf -Inf
-Inf -Inf -Inf
-Inf -Inf Inf
-Inf -Inf Inf
-Inf -Inf Inf
-Inf -Inf Inf
-Inf -Inf Inf
-Inf -Inf Inf
-Inf -Inf Inf
-Inf -Inf Inf
-Inf -Inf -Inf
-Inf -Inf Inf
-Inf -Inf Inf
-Inf -Inf -Inf
-Inf -Inf -Inf
-Inf -Inf Inf
-Inf -Inf Inf
-Inf -Inf Inf
-Inf -Inf -Inf
-Inf -Inf Inf
-Inf -Inf Inf
-Inf -Inf -Inf
-Inf -Inf Inf
-Inf -Inf Inf
-Inf -Inf Inf
-Inf -Inf -Inf
-Inf -Inf Inf
-Inf -Inf Inf
-Inf -Inf Inf
-Inf -Inf Inf
-Inf -Inf -Inf
-Inf -Inf Inf
-Inf -Inf Inf
-Inf -Inf -Inf
-Inf -Inf -Inf
-Inf -Inf Inf
-Inf -Inf Inf
-Inf -Inf Inf
-Inf -Inf Inf
-Inf -Inf Inf
-Inf -Inf Inf
-Inf -Inf Inf
-Inf -Inf Inf
-Inf -Inf -Inf
-Inf -Inf -Inf
-Inf -Inf Inf
-Inf -Inf Inf
-Inf -Inf -Inf
-Inf -Inf -Inf
-Inf -Inf Inf
-Inf -Inf Inf
-Inf -Inf Inf
-Inf -Inf Inf
-Inf -Inf Inf
-Inf -Inf Inf
-Inf -Inf Inf
-Inf -Inf Inf
-Inf -Inf Inf
-Inf -Inf Inf
-Inf -Inf Inf
-Inf -Inf Inf
-Inf -Inf Inf
-Inf -Inf Inf
-Inf -Inf Inf
-Inf -Inf Inf
-Inf -Inf Inf
-Inf -Inf Inf
-Inf -Inf Inf
-Inf -Inf -Inf
-Inf -Inf Inf
-Inf -Inf Inf
-Inf -Inf Inf
-Inf -Inf Inf
-Inf -Inf Inf
-Inf -Inf -Inf
-Inf -Inf Inf
-Inf -Inf -Inf
-Inf -Inf Inf
-Inf -Inf -Inf
-Inf -Inf Inf
-Inf -Inf -Inf
-Inf -Inf Inf
-Inf -Inf Inf
-Inf -Inf Inf
-Inf -Inf Inf
-Inf -Inf Inf
-Inf -Inf Inf
-Inf -Inf Inf
-Inf -Inf Inf
-Inf -Inf Inf
-Inf -Inf Inf
-Inf -Inf Inf
-Inf -Inf Inf
-Inf -Inf -Inf
-Inf -Inf Inf
-Inf -Inf Inf
-Inf -Inf Inf
-Inf -Inf Inf
-Inf -Inf -Inf
-Inf -Inf Inf
-Inf -Inf Inf
-Inf -Inf Inf
-Inf -Inf Inf
-Inf -Inf Inf
-Inf -Inf Inf
-Inf -Inf Inf
-Inf -Inf -Inf
-Inf -Inf Inf
-Inf -Inf Inf
-Inf -Inf -Inf
-Inf -Inf Inf
-Inf -Inf Inf
-Inf -Inf Inf
-Inf -Inf Inf
-Inf -Inf Inf
-Inf -Inf -Inf
-Inf -Inf Inf
-Inf -Inf Inf
-Inf -Inf Inf
-Inf -Inf Inf
-Inf -Inf Inf
-Inf -Inf Inf
-Inf -Inf Inf
-Inf -Inf Inf
-Inf -Inf Inf
-Inf -Inf Inf
-Inf -Inf Inf
-Inf -Inf Inf
-Inf -Inf Inf
-Inf -Inf Inf
-Inf -Inf Inf
-Inf -Inf Inf
-Inf -Inf Inf
-Inf -Inf Inf
-Inf -Inf Inf
-Inf -Inf Inf
-Inf -Inf Inf
-Inf -Inf -Inf
-Inf -Inf Inf
-Inf -Inf Inf
-Inf -Inf Inf
-Inf -Inf Inf
-Inf -Inf -Inf
-Inf -Inf Inf
-Inf -Inf Inf
-Inf -Inf Inf
-Inf -Inf Inf
-Inf -Inf Inf
-Inf -Inf Inf
-Inf -Inf Inf
-Inf -Inf Inf
-Inf -Inf Inf
-Inf -Inf -Inf
-Inf -Inf Inf
-Inf -Inf Inf
-Inf -Inf Inf
-Inf -Inf Inf
-Inf -Inf Inf
-Inf -Inf Inf
-Inf -Inf Inf
-Inf -Inf Inf
-Inf -Inf Inf
-Inf -Inf -Inf
-Inf -Inf Inf
-Inf -Inf Inf
-Inf -Inf Inf
-Inf -Inf Inf
-Inf -Inf Inf
-Inf -Inf -Inf
-Inf -Inf Inf
-Inf -Inf -Inf
-Inf -Inf Inf
-Inf -Inf Inf
-Inf -Inf Inf
-Inf -Inf Inf
-Inf -Inf Inf
-Inf -Inf Inf
-Inf -Inf -Inf
-Inf -Inf Inf
-Inf -Inf Inf
-Inf -Inf Inf
-Inf -Inf Inf
-Inf -Inf Inf
-Inf -Inf Inf
-Inf -Inf Inf
-Inf -Inf Inf
-Inf -Inf -Inf
-Inf -Inf Inf
-Inf -Inf Inf
-Inf -Inf Inf
-Inf -Inf Inf
-Inf -Inf -Inf
-Inf -Inf Inf
-Inf -Inf -Inf
-Inf -Inf -Inf
-Inf -Inf Inf
-Inf -Inf Inf
-Inf -Inf -Inf
-Inf -Inf Inf
-Inf -Inf Inf
-Inf -Inf Inf
-Inf -Inf Inf
-Inf -Inf Inf
-Inf -Inf Inf
-Inf -Inf Inf
-Inf -Inf Inf
-Inf -Inf Inf
-Inf -Inf Inf
-Inf -Inf Inf
-Inf -Inf Inf
-Inf -Inf Inf
-Inf -Inf Inf
-Inf -Inf -Inf
-Inf -Inf Inf
-Inf -Inf Inf
-Inf -Inf Inf
-Inf -Inf Inf
-Inf -Inf Inf
-Inf -Inf -Inf
-Inf -Inf -Inf
-Inf -Inf -Inf
-Inf -Inf Inf
-Inf -Inf Inf
-Inf -Inf -Inf
-Inf -Inf Inf
-Inf -Inf Inf
-Inf -Inf Inf
-Inf -Inf -Inf
-Inf -Inf Inf
Inf -Inf -Inf
-Inf -Inf Inf
-Inf -Inf Inf
-Inf -Inf -Inf
-Inf -Inf Inf
-Inf -Inf -Inf
-Inf -Inf Inf
-Inf -Inf Inf
-Inf -Inf Inf
-Inf -Inf Inf
-Inf -Inf Inf
-Inf -Inf -Inf
-Inf -Inf Inf
-Inf -Inf Inf
-Inf -Inf Inf
-Inf -Inf Inf
-Inf -Inf Inf
-Inf -Inf Inf
-Inf -Inf -Inf
-Inf -Inf Inf
-Inf -Inf Inf
-Inf -Inf Inf
-Inf -Inf Inf
-Inf -Inf Inf
-Inf -Inf -Inf
-Inf -Inf Inf
-Inf -Inf Inf
-Inf -Inf Inf
-Inf -Inf -Inf
-Inf -Inf Inf
-Inf -Inf Inf
-Inf -Inf Inf
-Inf -Inf Inf
-Inf -Inf -Inf
-Inf -Inf Inf
-Inf -Inf Inf
-Inf -Inf Inf
-Inf -Inf Inf
-Inf -Inf -Inf
-Inf -Inf Inf
-Inf -Inf Inf
-Inf -Inf Inf
-Inf -Inf Inf
-Inf -Inf Inf
-Inf -Inf -Inf
-Inf -Inf Inf
-Inf -Inf Inf
-Inf -Inf Inf
-Inf -Inf Inf
-Inf -Inf Inf
-Inf -Inf Inf
-Inf -Inf Inf
-Inf -Inf Inf
-Inf -Inf Inf
-Inf -Inf Inf
-Inf -Inf Inf
-Inf -Inf Inf
-Inf -Inf -Inf
-Inf -Inf Inf
-Inf -Inf -Inf
-Inf -Inf -Inf
-Inf -Inf Inf
-Inf -Inf Inf
-Inf -Inf Inf
-Inf -Inf Inf
-Inf -Inf Inf
-Inf -Inf Inf
-Inf -Inf Inf
-Inf -Inf Inf
-Inf -Inf -Inf
-Inf -Inf Inf
-Inf -Inf Inf
-Inf -Inf Inf
-Inf -Inf Inf
-Inf -Inf Inf
-Inf -Inf Inf
-Inf -Inf -Inf
-Inf -Inf Inf
-Inf -Inf Inf
-Inf -Inf Inf
-Inf -Inf Inf
-Inf -Inf Inf
-Inf -Inf Inf
-Inf -Inf Inf
-Inf -Inf Inf
-Inf -Inf -Inf
-Inf -Inf Inf
-Inf -Inf Inf
-Inf -Inf Inf
-Inf -Inf Inf
Inf -Inf Inf
-Inf -Inf Inf
-Inf -Inf Inf
-Inf -Inf Inf
-Inf -Inf -Inf
-Inf -Inf Inf
-Inf -Inf Inf
-Inf -Inf Inf
-Inf -Inf Inf
-Inf -Inf Inf
-Inf -Inf Inf
-Inf -Inf Inf
-Inf -Inf Inf
-Inf -Inf Inf
-Inf -Inf -Inf
-Inf -Inf -Inf
-Inf -Inf Inf
-Inf -Inf Inf
-Inf -Inf Inf
-Inf -Inf -Inf
-Inf -Inf Inf
-Inf -Inf -Inf
-Inf -Inf -Inf
-Inf -Inf Inf
-Inf -Inf -Inf
-Inf -Inf Inf
-Inf -Inf Inf
-Inf -Inf -Inf
-Inf -Inf -Inf
-Inf -Inf Inf
-Inf -Inf -Inf
-Inf -Inf Inf
-Inf -Inf Inf
-Inf -Inf Inf
-Inf -Inf Inf
-Inf -Inf Inf
-Inf -Inf Inf
-Inf -Inf Inf
-Inf -Inf Inf
-Inf -Inf Inf
-Inf -Inf Inf
-Inf -Inf -Inf
-Inf -Inf Inf
-Inf -Inf -Inf
-Inf -Inf Inf
-Inf -Inf -Inf
-Inf -Inf Inf
-Inf -Inf Inf
-Inf -Inf Inf
-Inf -Inf Inf
-Inf -Inf Inf
-Inf -Inf Inf
-Inf -Inf Inf
-Inf -Inf Inf
-Inf -Inf Inf
-Inf -Inf Inf
-Inf -Inf Inf
-Inf -Inf Inf
-Inf -Inf Inf
-Inf -Inf Inf
-Inf -Inf Inf
-Inf -Inf -Inf
-Inf -Inf Inf
-Inf -Inf Inf
-Inf -Inf Inf
-Inf -Inf Inf
-Inf -Inf -Inf
-Inf -Inf Inf
-Inf -Inf Inf
-Inf -Inf Inf
-Inf -Inf Inf
-Inf -Inf Inf
-Inf -Inf Inf
-Inf -Inf -Inf
-Inf -Inf Inf
-Inf -Inf -Inf
-Inf -Inf Inf
-Inf -Inf Inf
-Inf -Inf Inf
-Inf -Inf Inf
-Inf -Inf Inf
-Inf -Inf -Inf
-Inf -Inf Inf
-Inf -Inf -Inf
-Inf -Inf Inf
-Inf -Inf -Inf
-Inf -Inf Inf
-Inf -Inf Inf
-Inf -Inf Inf
-Inf -Inf Inf
-Inf -Inf Inf
-Inf -Inf Inf
-Inf -Inf -Inf
-Inf -Inf Inf
-Inf -Inf Inf
-Inf -Inf -Inf
-Inf -Inf -Inf
-Inf -Inf Inf
-Inf -Inf Inf
-Inf -Inf Inf
-Inf -Inf Inf
-Inf -Inf Inf
-Inf -Inf Inf
-Inf -Inf -Inf
-Inf -Inf -Inf
-Inf -Inf Inf
-Inf -Inf Inf
-Inf -Inf Inf
-Inf -Inf Inf
-Inf -Inf Inf
-Inf -Inf Inf
-Inf -Inf -Inf
-Inf -Inf Inf
-Inf -Inf Inf
-Inf -Inf Inf
-Inf -Inf Inf
-Inf -Inf Inf
-Inf -Inf -Inf
-Inf -Inf -Inf
-Inf -Inf Inf
-Inf -Inf Inf
-Inf -Inf Inf
-Inf -Inf Inf
-Inf -Inf Inf
-Inf -Inf Inf
-Inf -Inf -Inf
-Inf -Inf -Inf
-Inf -Inf Inf
-Inf -Inf Inf
-Inf -Inf Inf
-Inf -Inf Inf
-Inf -Inf Inf
-Inf -Inf -Inf
-Inf -Inf Inf
-Inf -Inf Inf
-Inf -Inf Inf
-Inf -Inf Inf
-Inf -Inf Inf
-Inf -Inf Inf
-Inf -Inf -Inf
-Inf -Inf Inf
-Inf -Inf Inf
-Inf -Inf -Inf
-Inf -Inf -Inf
-Inf -Inf Inf
-Inf -Inf Inf
-Inf -Inf Inf
-Inf -Inf Inf
-Inf -Inf Inf
-Inf -Inf Inf
-Inf -Inf Inf
-Inf -Inf -Inf
-Inf -Inf Inf
-Inf -Inf -Inf
-Inf -Inf Inf
-Inf -Inf Inf
-Inf -Inf Inf
-Inf -Inf Inf
-Inf -Inf Inf
-Inf -Inf Inf
-Inf -Inf Inf
-Inf -Inf -Inf
-Inf -Inf Inf
-Inf -Inf -Inf
-Inf -Inf Inf
-Inf -Inf Inf
-Inf -Inf Inf
-Inf -Inf Inf
-Inf -Inf Inf
-Inf -Inf Inf
-Inf -Inf Inf
-Inf -Inf Inf
-Inf -Inf Inf
-Inf -Inf Inf
-Inf -Inf Inf
-Inf -Inf Inf
-Inf -Inf Inf
-Inf -Inf Inf
-Inf -Inf Inf
-Inf -Inf Inf
-Inf -Inf -Inf
-Inf -Inf Inf
-Inf -Inf -Inf
-Inf -Inf Inf
-Inf -Inf -Inf
-Inf -Inf Inf
-Inf -Inf Inf
-Inf -Inf Inf
-Inf -Inf Inf
-Inf -Inf -Inf
-Inf -Inf Inf
-Inf -Inf Inf
-Inf -Inf Inf
-Inf -Inf -Inf
-Inf -Inf Inf
-Inf -Inf Inf
-Inf -Inf Inf
-Inf -Inf Inf
-Inf -Inf -Inf
-Inf -Inf Inf
-Inf -Inf Inf
-Inf -Inf -Inf
-Inf -Inf Inf
-Inf -Inf Inf
-Inf -Inf Inf
-Inf -Inf Inf
-Inf -Inf Inf
-Inf -Inf Inf
-Inf -Inf Inf
-Inf -Inf Inf
-Inf -Inf Inf
-Inf -Inf Inf
-Inf -Inf Inf
-Inf -Inf -Inf
-Inf -Inf -Inf
-Inf -Inf -Inf
-Inf -Inf Inf
-Inf -Inf Inf
-Inf -Inf -Inf
-Inf -Inf -Inf
-Inf -Inf -Inf
-Inf -Inf Inf
-Inf -Inf Inf
-Inf -Inf -Inf
-Inf -Inf Inf
-Inf -Inf Inf
-Inf -Inf Inf
-Inf -Inf Inf
-Inf -Inf Inf
-Inf -Inf Inf
-Inf -Inf Inf
-Inf -Inf Inf
-Inf -Inf -Inf
-Inf -Inf -Inf
-Inf -Inf Inf
-Inf -Inf Inf
-Inf -Inf Inf
-Inf -Inf Inf
-Inf -Inf -Inf
-Inf -Inf Inf
-Inf -Inf Inf
-Inf -Inf Inf
-Inf -Inf Inf
-Inf -Inf Inf
-Inf -Inf -Inf
-Inf -Inf Inf
-Inf -Inf Inf
-Inf -Inf Inf
-Inf -Inf Inf
-Inf -Inf Inf
-Inf -Inf Inf
-Inf -Inf Inf
-Inf -Inf -Inf
-Inf -Inf -Inf
-Inf -Inf Inf
-Inf -Inf Inf
-Inf -Inf Inf
-Inf -Inf Inf
-Inf -Inf Inf
-Inf -Inf Inf
-Inf -Inf Inf
-Inf -Inf Inf
-Inf -Inf Inf
-Inf -Inf Inf
-Inf -Inf Inf
-Inf -Inf Inf
-Inf -Inf Inf
-Inf -Inf Inf
-Inf -Inf Inf
-Inf -Inf Inf
-Inf -Inf -Inf
-Inf -Inf Inf
-Inf -Inf Inf
-Inf -Inf Inf
-Inf -Inf Inf
-Inf -Inf Inf
-Inf -Inf -Inf
-Inf -Inf Inf
-Inf -Inf -Inf
-Inf -Inf Inf
-Inf -Inf Inf
-Inf -Inf Inf
-Inf -Inf Inf
-Inf -Inf Inf
-Inf -Inf -Inf
-Inf -Inf Inf
-Inf -Inf Inf
-Inf -Inf Inf
-Inf -Inf Inf
-Inf -Inf Inf
-Inf -Inf Inf
-Inf -Inf -Inf
-Inf -Inf Inf
-Inf -Inf Inf
-Inf -Inf Inf
-Inf -Inf Inf
-Inf -Inf Inf
-Inf -Inf Inf
-Inf -Inf Inf
-Inf -Inf Inf
-Inf -Inf Inf
-Inf -Inf Inf
-Inf -Inf Inf
-Inf -Inf -Inf
-Inf -Inf Inf
-Inf -Inf Inf
-Inf -Inf Inf
-Inf -Inf Inf
-Inf -Inf Inf
-Inf -Inf Inf
-Inf -Inf Inf
-Inf -Inf Inf
-Inf -Inf Inf
-Inf -Inf -Inf
-Inf -Inf Inf
-Inf -Inf Inf
-Inf -Inf Inf
-Inf -Inf Inf
-Inf -Inf -Inf
-Inf -Inf Inf
-Inf -Inf Inf
-Inf -Inf Inf
-Inf -Inf -Inf
-Inf -Inf Inf
-Inf -Inf -Inf
-Inf -Inf Inf
-Inf -Inf Inf
-Inf -Inf Inf
-Inf -Inf Inf
-Inf -Inf Inf
-Inf -Inf -Inf
-Inf -Inf Inf
-Inf -Inf Inf
-Inf -Inf Inf
-Inf -Inf Inf
-Inf -Inf -Inf
-Inf -Inf Inf
-Inf -Inf -Inf
-Inf -Inf -Inf
-Inf -Inf -Inf
-Inf -Inf Inf
-Inf -Inf Inf
-Inf -Inf Inf
-Inf -Inf Inf
-Inf -Inf Inf
-Inf -Inf Inf
-Inf -Inf Inf
-Inf -Inf Inf
-Inf -Inf -Inf
-Inf -Inf Inf
-Inf -Inf Inf
-Inf -Inf Inf
-Inf -Inf Inf
-Inf -Inf Inf
-Inf -Inf Inf
-Inf -Inf Inf
-Inf -Inf Inf
-Inf -Inf Inf
-Inf -Inf Inf
-Inf -Inf Inf
-Inf -Inf Inf
-Inf -Inf Inf
-Inf -Inf Inf
-Inf -Inf Inf
-Inf -Inf Inf
-Inf -Inf Inf
-Inf -Inf Inf
-Inf -Inf Inf
-Inf -Inf Inf
-Inf -Inf Inf
-Inf -Inf -Inf
-Inf -Inf Inf
-Inf -Inf Inf
-Inf -Inf Inf
-Inf -Inf Inf
-Inf -Inf Inf
-Inf -Inf Inf
-Inf -Inf -Inf
-Inf -Inf Inf
-Inf -Inf Inf
-Inf -Inf -Inf
-Inf -Inf Inf
-Inf -Inf Inf
-Inf -Inf Inf
-Inf -Inf Inf
-Inf -Inf -Inf
-Inf -Inf Inf
-Inf -Inf Inf
-Inf -Inf Inf
-Inf -Inf Inf
-Inf -Inf -Inf
-Inf -Inf -Inf
-Inf -Inf Inf
-Inf -Inf -Inf
-Inf -Inf Inf
-Inf -Inf -Inf
-Inf -Inf Inf
-Inf -Inf Inf
-Inf -Inf Inf
-Inf -Inf Inf
-Inf -Inf Inf
-Inf -Inf Inf
-Inf -Inf -Inf
-Inf -Inf Inf
-Inf -Inf Inf
-Inf -Inf Inf
-Inf -Inf Inf
-Inf -Inf Inf
-Inf -Inf -Inf
-Inf -Inf Inf
-Inf -Inf Inf
-Inf -Inf Inf
-Inf -Inf Inf
-Inf -Inf Inf
-Inf -Inf Inf
-Inf -Inf Inf
-Inf -Inf Inf
-Inf -Inf Inf
-Inf -Inf Inf
-Inf -Inf Inf
-Inf -Inf Inf
-Inf -Inf Inf
-Inf -Inf Inf
-Inf -Inf Inf
-Inf -Inf Inf
-Inf -Inf Inf
-Inf -Inf Inf
-Inf -Inf -Inf
-Inf -Inf Inf
-Inf -Inf Inf
-Inf -Inf Inf
-Inf -Inf Inf
-Inf -Inf Inf
-Inf -Inf Inf
-Inf -Inf -Inf
-Inf -Inf Inf
-Inf -Inf Inf
-Inf -Inf Inf
-Inf -Inf Inf
-Inf -Inf Inf
-Inf -Inf Inf
-Inf -Inf Inf
-Inf -Inf -Inf
-Inf -Inf Inf
-Inf -Inf -Inf
-Inf -Inf Inf
-Inf -Inf -Inf
-Inf -Inf Inf
-Inf -Inf Inf
-Inf -Inf -Inf
-Inf -Inf Inf
-Inf -Inf Inf
-Inf -Inf Inf
-Inf -Inf Inf
-Inf -Inf Inf
-Inf -Inf Inf
-Inf -Inf Inf
-Inf -Inf Inf
-Inf -Inf -Inf
-Inf -Inf Inf
-Inf -Inf Inf
-Inf -Inf -Inf
-Inf -Inf Inf
-Inf -Inf Inf
-Inf -Inf -Inf
-Inf -Inf Inf
-Inf -Inf Inf
-Inf -Inf -Inf
-Inf -Inf -Inf
-Inf -Inf Inf
-Inf -Inf Inf
-Inf -Inf Inf
-Inf -Inf Inf
-Inf -Inf Inf
-Inf -Inf Inf
-Inf -Inf Inf
-Inf -Inf Inf
-Inf -Inf Inf
-Inf -Inf Inf
-Inf -Inf Inf
-Inf -Inf Inf
-Inf -Inf Inf
-Inf -Inf Inf
-Inf -Inf Inf
-Inf -Inf -Inf
-Inf -Inf -Inf
-Inf -Inf Inf
-Inf -Inf Inf
-Inf -Inf Inf
-Inf -Inf Inf
-Inf -Inf -Inf
-Inf -Inf Inf
-Inf -Inf Inf
-Inf -Inf Inf
-Inf -Inf Inf
-Inf -Inf Inf
-Inf -Inf -Inf
-Inf -Inf Inf
-Inf -Inf Inf
-Inf -Inf Inf
-Inf -Inf -Inf
-Inf -Inf Inf
-Inf -Inf Inf
-Inf -Inf Inf
-Inf -Inf Inf
-Inf -Inf Inf
-Inf -Inf Inf
-Inf -Inf Inf
-Inf -Inf Inf
-Inf -Inf Inf
-Inf -Inf Inf
-Inf -Inf Inf
-Inf -Inf -Inf
-Inf -Inf Inf
-Inf -Inf -Inf
-Inf -Inf Inf
-Inf -Inf Inf
-Inf -Inf Inf
-Inf -Inf Inf
-Inf -Inf Inf
-Inf -Inf Inf
-Inf -Inf Inf
-Inf -Inf Inf
-Inf -Inf Inf
-Inf -Inf Inf
-Inf -Inf Inf
-Inf -Inf Inf
-Inf -Inf Inf
-Inf -Inf -Inf
-Inf -Inf Inf
-Inf -Inf Inf
-Inf -Inf Inf
-Inf -Inf Inf
-Inf -Inf Inf
-Inf -Inf Inf
-Inf -Inf Inf
-Inf -Inf Inf
-Inf -Inf -Inf
-Inf -Inf Inf
-Inf -Inf -Inf
-Inf -Inf Inf
-Inf -Inf -Inf
-Inf -Inf Inf
-Inf -Inf Inf
-Inf -Inf Inf
-Inf -Inf Inf
-Inf -Inf Inf
-Inf -Inf Inf
-Inf -Inf Inf
-Inf -Inf -Inf
-Inf -Inf Inf
-Inf -Inf Inf
-Inf -Inf Inf
-Inf -Inf Inf
-Inf -Inf Inf
-Inf -Inf Inf
-Inf -Inf Inf
-Inf -Inf Inf
-Inf -Inf -Inf
-Inf -Inf Inf
-Inf -Inf Inf
-Inf -Inf -Inf
-Inf -Inf Inf
-Inf -Inf Inf
-Inf -Inf -Inf
-Inf -Inf -Inf
-Inf -Inf Inf
-Inf -Inf Inf
-Inf -Inf -Inf
-Inf -Inf Inf
-Inf -Inf -Inf
-Inf -Inf -Inf
-Inf -Inf Inf
-Inf -Inf Inf
-Inf -Inf Inf
-Inf -Inf Inf
-Inf -Inf Inf
-Inf -Inf -Inf
-Inf -Inf Inf
-Inf -Inf Inf
-Inf -Inf Inf
-Inf -Inf Inf
-Inf -Inf Inf
-Inf -Inf -Inf
-Inf -Inf Inf
-Inf -Inf Inf
-Inf -Inf Inf
-Inf -Inf Inf
-Inf -Inf Inf
-Inf -Inf Inf
-Inf -Inf Inf
-Inf -Inf Inf
-Inf -Inf -Inf
-Inf -Inf Inf
-Inf -Inf Inf
-Inf -Inf Inf
-Inf -Inf -Inf
-Inf -Inf -Inf
-Inf -Inf Inf
-Inf -Inf Inf
-Inf -Inf Inf
-Inf -Inf Inf
-Inf -Inf Inf
-Inf -Inf -Inf
-Inf -Inf Inf
-Inf -Inf Inf
-Inf -Inf Inf
-Inf -Inf Inf
-Inf -Inf Inf
-Inf -Inf Inf
-Inf -Inf Inf
-Inf -Inf -Inf
-Inf -Inf Inf
-Inf -Inf Inf
-Inf -Inf Inf
-Inf -Inf Inf
-Inf -Inf -Inf
-Inf -Inf -Inf
-Inf -Inf Inf
-Inf -Inf Inf
-Inf -Inf Inf
-Inf -Inf Inf
-Inf -Inf Inf
-Inf -Inf Inf
-Inf -Inf Inf
-Inf -Inf Inf
-Inf -Inf Inf
-Inf -Inf Inf
-Inf -Inf Inf
-Inf -Inf Inf
-Inf -Inf Inf
-Inf -Inf Inf
-Inf -Inf Inf
-Inf -Inf Inf
-Inf -Inf -Inf
-Inf -Inf Inf
-Inf -Inf Inf
-Inf -Inf Inf
-Inf -Inf Inf
-Inf -Inf Inf
-Inf -Inf Inf
-Inf -Inf Inf
-Inf -Inf -Inf
-Inf -Inf Inf
-Inf -Inf Inf
-Inf -Inf -Inf
-Inf -Inf Inf
-Inf -Inf Inf
-Inf -Inf Inf
-Inf -Inf -Inf
-Inf -Inf -Inf
-Inf -Inf Inf
-Inf -Inf -Inf
-Inf -Inf Inf
-Inf -Inf Inf
-Inf -Inf -Inf
-Inf -Inf Inf
-Inf -Inf Inf
-Inf -Inf Inf
-Inf -Inf Inf
-Inf -Inf Inf
-Inf -Inf Inf
-Inf -Inf Inf
-Inf -Inf Inf
-Inf -Inf Inf
-Inf -Inf Inf
-Inf -Inf Inf
-Inf -Inf Inf
-Inf -Inf Inf
-Inf -Inf Inf
-Inf -Inf Inf
-Inf -Inf Inf
-Inf -Inf Inf
-Inf -Inf Inf
-Inf -Inf Inf
-Inf -Inf Inf
-Inf -Inf Inf
-Inf -Inf -Inf
-Inf -Inf Inf
-Inf -Inf Inf
-Inf -Inf -Inf
-Inf -Inf Inf
-Inf -Inf Inf
-Inf -Inf Inf
-Inf -Inf Inf
-Inf -Inf Inf
-Inf -Inf Inf
-Inf -Inf -Inf
-Inf -Inf Inf
-Inf -Inf Inf
-Inf -Inf Inf
-Inf -Inf Inf
-Inf -Inf Inf
-Inf -Inf Inf
-Inf -Inf Inf
-Inf -Inf Inf
-Inf -Inf -Inf
-Inf -Inf Inf
-Inf -Inf Inf
-Inf -Inf Inf
-Inf -Inf Inf
-Inf -Inf Inf
-Inf -Inf Inf
-Inf -Inf Inf
-Inf -Inf Inf
-Inf -Inf Inf
-Inf -Inf Inf
-Inf -Inf -Inf
-Inf -Inf Inf
-Inf -Inf Inf
-Inf -Inf -Inf
-Inf -Inf Inf
-Inf -Inf -Inf
-Inf -Inf Inf
-Inf -Inf -Inf
-Inf -Inf Inf
-Inf -Inf Inf
-Inf -Inf -Inf
-Inf -Inf Inf
-Inf -Inf Inf
-Inf -Inf Inf
-Inf -Inf Inf
-Inf -Inf Inf
-Inf -Inf Inf
-Inf -Inf Inf
-Inf -Inf Inf
-Inf -Inf -Inf
-Inf -Inf Inf
-Inf -Inf Inf
-Inf -Inf Inf
-Inf -Inf Inf
-Inf -Inf Inf
-Inf -Inf Inf
-Inf -Inf Inf
-Inf -Inf Inf
-Inf -Inf Inf
-Inf -Inf Inf
-Inf -Inf Inf
-Inf -Inf Inf
-Inf -Inf Inf
-Inf -Inf Inf
-Inf -Inf Inf
-Inf -Inf Inf
-Inf -Inf Inf
-Inf -Inf Inf
-Inf -Inf Inf
-Inf -Inf Inf
-Inf -Inf Inf
-Inf -Inf Inf
-Inf -Inf -Inf
-Inf -Inf Inf
-Inf -Inf Inf
-Inf -Inf Inf
-Inf -Inf Inf
-Inf -Inf -Inf
-Inf -Inf Inf
-Inf -Inf Inf
-Inf -Inf Inf
-Inf -Inf Inf
-Inf -Inf Inf
-Inf -Inf -Inf
-Inf -Inf Inf
-Inf -Inf Inf
-Inf -Inf Inf
-Inf -Inf Inf
-Inf -Inf -Inf
-Inf -Inf Inf
-Inf -Inf -Inf
-Inf -Inf Inf
-Inf -Inf -Inf
-Inf -Inf Inf
-Inf -Inf Inf
-Inf -Inf Inf
-Inf -Inf Inf
-Inf -Inf Inf
-Inf -Inf -Inf
-Inf -Inf -Inf
-Inf -Inf Inf
-Inf -Inf -Inf
-Inf -Inf Inf
-Inf -Inf -Inf
-Inf -Inf Inf
-Inf -Inf -Inf
-Inf -Inf Inf
-Inf -Inf Inf
-Inf -Inf Inf
-Inf -Inf Inf
-Inf -Inf Inf
-Inf -Inf Inf
-Inf -Inf Inf
-Inf -Inf Inf
-Inf -Inf Inf
-Inf -Inf Inf
-Inf -Inf Inf
-Inf -Inf Inf
-Inf -Inf Inf
-Inf -Inf Inf
-Inf -Inf Inf
-Inf -Inf Inf
-Inf -Inf Inf
-Inf -Inf Inf
-Inf -Inf Inf
-Inf -Inf Inf
-Inf -Inf Inf
-Inf -Inf Inf
-Inf -Inf Inf
-Inf -Inf Inf
-Inf -Inf -Inf
-Inf -Inf Inf
-Inf -Inf Inf
-Inf -Inf Inf
-Inf -Inf Inf
-Inf -Inf -Inf
-Inf -Inf -Inf
-Inf -Inf Inf
-Inf -Inf Inf
-Inf -Inf -Inf
-Inf -Inf -Inf
-Inf -Inf -Inf
-Inf -Inf Inf
-Inf -Inf Inf
-Inf -Inf Inf
-Inf -Inf Inf
-Inf -Inf Inf
-Inf -Inf Inf
-Inf -Inf Inf
-Inf -Inf Inf
-Inf -Inf Inf
-Inf -Inf -Inf
-Inf -Inf Inf
-Inf -Inf Inf
-Inf -Inf Inf
-Inf -Inf Inf
-Inf -Inf Inf
-Inf -Inf Inf
-Inf -Inf -Inf
-Inf -Inf Inf
-Inf -Inf Inf
-Inf -Inf Inf
-Inf -Inf Inf
-Inf -Inf Inf
-Inf -Inf -Inf
-Inf -Inf Inf
-Inf -Inf -Inf
-Inf -Inf Inf
-Inf -Inf Inf
-Inf -Inf Inf
-Inf -Inf Inf
-Inf -Inf Inf
-Inf -Inf Inf
-Inf -Inf Inf
-Inf -Inf Inf
-Inf -Inf Inf
-Inf -Inf Inf
-Inf -Inf Inf
-Inf -Inf Inf
-Inf -Inf Inf
-Inf -Inf Inf
-Inf -Inf Inf
-Inf -Inf Inf
-Inf -Inf -Inf
-Inf -Inf Inf
-Inf -Inf Inf
-Inf -Inf -Inf
-Inf -Inf Inf
-Inf -Inf Inf
-Inf -Inf -Inf
-Inf -Inf Inf
-Inf -Inf -Inf
-Inf -Inf -Inf
-Inf -Inf Inf
-Inf -Inf Inf
-Inf -Inf Inf
-Inf -Inf Inf
-Inf -Inf Inf
-Inf -Inf Inf
-Inf -Inf Inf
-Inf -Inf Inf
-Inf -Inf Inf
-Inf -Inf Inf
-Inf -Inf Inf
-Inf -Inf Inf
-Inf -Inf Inf
-Inf -Inf -Inf
-Inf -Inf Inf
-Inf -Inf Inf
-Inf -Inf Inf
-Inf -Inf Inf
-Inf -Inf Inf
-Inf -Inf Inf
-Inf -Inf Inf
-Inf -Inf Inf
-Inf -Inf Inf
-Inf -Inf Inf
-Inf -Inf Inf
-Inf -Inf Inf
-Inf -Inf -Inf
-Inf -Inf Inf
-Inf -Inf Inf
-Inf -Inf Inf
-Inf -Inf Inf
-Inf -Inf -Inf
-Inf -Inf Inf
-Inf -Inf Inf
-Inf -Inf -Inf
-Inf -Inf Inf
-Inf -Inf Inf
-Inf -Inf Inf
-Inf -Inf Inf
-Inf -Inf Inf
-Inf -Inf Inf
-Inf -Inf Inf
-Inf -Inf -Inf
-Inf -Inf Inf
-Inf -Inf Inf
-Inf -Inf -Inf
-Inf -Inf Inf
-Inf -Inf Inf
-Inf -Inf Inf
-Inf -Inf Inf
-Inf -Inf Inf
-Inf -Inf Inf
-Inf -Inf Inf
-Inf -Inf Inf
-Inf -Inf Inf
-Inf -Inf Inf
-Inf -Inf Inf
-Inf -Inf Inf
-Inf -Inf Inf
-Inf -Inf Inf
-Inf -Inf Inf
-Inf -Inf Inf
-Inf -Inf Inf
-Inf -Inf Inf
-Inf -Inf Inf
-Inf -Inf Inf
-Inf -Inf Inf
-Inf -Inf Inf
-Inf -Inf Inf
-Inf -Inf Inf
-Inf -Inf -Inf
-Inf -Inf Inf
-Inf -Inf Inf
-Inf -Inf Inf
-Inf -Inf Inf
-Inf -Inf Inf
-Inf -Inf Inf
-Inf -Inf Inf
-Inf -Inf -Inf
-Inf -Inf Inf
-Inf -Inf Inf
-Inf -Inf Inf
-Inf -Inf Inf
-Inf -Inf Inf
-Inf -Inf Inf
-Inf -Inf Inf
-Inf -Inf Inf
-Inf -Inf Inf
-Inf -Inf Inf
-Inf -Inf -Inf
-Inf -Inf Inf
-Inf -Inf -Inf
-Inf -Inf Inf
-Inf -Inf Inf
-Inf -Inf Inf
-Inf -Inf Inf
-Inf -Inf Inf
-Inf -Inf Inf
-Inf -Inf Inf
-Inf -Inf Inf
-Inf -Inf Inf
-Inf -Inf Inf
-Inf -Inf Inf
-Inf -Inf Inf
-Inf -Inf Inf
-Inf -Inf Inf
-Inf -Inf Inf
-Inf -Inf Inf
-Inf -Inf Inf
-Inf -Inf Inf
-Inf -Inf Inf
-Inf -Inf Inf
-Inf -Inf Inf
-Inf -Inf Inf
-Inf -Inf Inf
-Inf -Inf Inf
-Inf -Inf Inf
-Inf -Inf Inf
-Inf -Inf Inf
-Inf -Inf Inf
-Inf -Inf Inf
-Inf -Inf Inf
-Inf -Inf -Inf
-Inf -Inf -Inf
-Inf -Inf -Inf
-Inf -Inf Inf
-Inf -Inf Inf
-Inf -Inf Inf
-Inf -Inf Inf
-Inf -Inf Inf
-Inf -Inf Inf
-Inf -Inf -Inf
-Inf -Inf Inf
-Inf -Inf Inf
-Inf -Inf Inf
-Inf -Inf Inf
-Inf -Inf Inf
-Inf -Inf Inf
-Inf -Inf -Inf
-Inf -Inf Inf
-Inf -Inf -Inf
-Inf -Inf Inf
-Inf -Inf -Inf
-Inf -Inf Inf
-Inf -Inf Inf
-Inf -Inf -Inf
-Inf -Inf -Inf
CELL_DATA 22890
SCALARS group float 1
LOOKUP_TABLE table1
1
2
1
1
1
2
1
2
1
2
1
2
2
2
2
2
2
1
1
2
1
1
2
1
2
2
2
2
1
2
1
2
2
1
2
1
2
1
2
1
1
1
2
2
2
1
2
1
1
2
2
2
2
2
2
2
2
1
2
2
2
1
2
2
2
1
2
1
1
2
1
1
2
1
2
1
1
1
2
2
1
2
1
1
1
1
2
2
2
1
2
1
1
2
1
1
1
2
1
1
1
1
1
1
2
1
2
1
1
2
1
1
1
2
2
1
2
2
2
2
2
2
1
2
1
2
2
1
2
2
2
2
1
2
2
1
1
2
1
2
1
2
1
2
2
2
1
2
1
1
2
1
2
2
2
2
2
1
1
1
1
1
1
1
1
2
2
2
1
1
2
1
1
1
2
2
2
2
1
2
1
2
1
1
1
2
1
2
1
2
1
1
1
2
2
1
1
2
1
2
2
2
2
1
1
2
1
2
2
2
2
2
2
2
1
2
2
2
1
1
1
1
1
1
2
2
1
1
2
1
2
1
2
2
1
1
1
2
2
2
1
1
1
1
1
2
2
2
1
2
2
2
2
2
1
1
2
1
1
1
2
1
1
2
2
2
1
2
1
2
1
2
2
2
2
2
1
1
1
1
2
1
1
1
1
1
1
2
2
2
1
2
2
2
2
2
2
1
1
2
1
2
2
1
1
1
1
2
2
2
1
1
2
1
2
2
2
1
1
2
1
2
1
1
2
1
2
2
2
1
2
2
1
1
1
1
1
2
2
2
2
2
2
1
1
1
1
2
1
1
1
1
2
1
2
1
2
2
1
2
1
2
1
1
1
1
1
1
2
2
1
1
1
2
1
2
2
1
2
1
1
2
1
1
1
1
2
1
1
2
2
2
2
1
1
1
1
1
2
2
1
1
1
2
1
1
1
1
1
2
1
1
1
1
1
1
2
2
2
2
1
2
1
1
2
1
1
2
2
2
1
2
1
1
1
1
1
2
1
1
1
1
1
2
2
2
1
2
2
2
2
2
2
1
2
2
2
1
2
2
2
2
1
2
2
2
2
2
1
2
2
1
1
2
2
2
2
2
2
2
2
1
2
2
1
2
2
2
2
2
2
2
2
1
1
2
2
2
2
1
1
1
2
1
1
2
2
2
2
2
2
1
2
2
1
1
1
2
2
1
2
1
1
2
2
2
2
2
2
2
1
2
2
2
2
2
2
1
2
1
2
2
1
1
2
2
2
2
2
2
2
1
2
2
1
2
1
1
1
2
2
1
2
1
1
1
2
2
2
1
1
1
2
1
1
2
2
2
2
2
1
2
2
1
1
1
2
2
2
2
2
2
2
2
2
2
2
1
2
2
1
2
2
1
2
2
2
2
1
1
2
2
1
2
2
2
1
2
2
1
2
1
2
1
2
1
2
2
1
2
1
1
2
1
2
2
2
2
2
1
1
2
1
2
2
1
2
2
1
2
1
1
1
2
2
2
2
2
1
2
2
1
2
1
1
2
1
1
1
1
1
1
2
1
2
1
1
2
1
1
2
2
1
1
1
2
2
1
1
1
1
2
2
1
1
1
1
1
1
1
1
1
2
1
2
1
1
1
1
1
2
2
1
1
2
1
1
1
2
2
1
1
2
2
1
1
1
2
1
1
1
2
2
2
2
2
2
2
2
1
1
1
2
2
2
2
2
2
1
2
1
2
2
2
2
2
2
1
1
1
1
1
1
1
1
2
2
1
2
1
2
2
1
2
1
1
2
2
1
2
1
1
1
1
1
2
1
1
2
2
2
2
2
2
2
1
2
2
2
2
2
2
2
2
2
1
2
1
2
1
1
1
1
2
1
1
2
2
2
2
2
2
2
1
2
1
2
2
1
2
2
2
2
2
2
1
1
1
2
1
2
1
2
1
1
2
1
1
2
1
1
1
1
1
2
1
2
2
2
2
2
1
2
2
1
2
2
2
1
2
1
1
1
2
2
1
2
2
2
1
2
1
1
2
2
1
2
1
1
1
1
1
1
1
2
2
1
1
2
1
2
2
2
2
1
1
2
1
2
1
2
2
2
2
2
2
2
2
1
2
2
1
1
2
1
2
2
1
1
2
2
2
2
2
2
1
1
2
1
2
2
2
1
2
1
1
1
2
1
1
1
2
1
1
1
1
2
2
2
2
1
2
1
2
2
1
2
2
1
2
2
1
1
2
2
1
1
1
1
1
1
1
2
1
1
1
1
1
2
1
2
1
2
1
1
1
1
2
1
1
1
2
1
1
1
2
1
2
2
2
2
1
1
2
2
2
1
2
1
2
2
2
2
2
2
2
1
1
2
1
2
1
1
1
1
1
1
1
2
2
1
1
1
1
1
1
2
1
1
1
1
1
1
1
2
2
1
1
1
1
1
2
2
2
1
2
2
1
1
2
1
1
1
1
1
1
1
1
1
2
1
1
2
2
2
1
1
2
2
1
1
1
2
2
2
2
1
1
1
1
2
1
2
1
2
1
2
2
2
2
2
2
2
2
1
1
2
1
2
1
2
1
1
1
1
2
1
2
2
2
1
1
1
1
2
2
1
2
2
1
2
2
2
2
2
2
2
1
2
1
1
1
1
1
1
1
1
2
1
2
1
2
1
2
2
2
2
2
2
2
1
1
1
2
1
1
1
1
1
2
1
2
1
1
2
2
1
1
1
2
1
1
1
2
1
1
1
1
2
2
1
1
1
1
1
2
2
1
2
2
2
2
1
1
1
2
2
2
2
2
1
1
1
2
2
2
2
2
1
1
2
1
1
1
2
2
2
1
2
2
2
2
1
2
1
1
2
1
2
2
2
2
1
2
2
2
1
2
2
2
2
2
2
2
2
2
2
2
2
1
2
1
1
1
1
2
1
2
1
1
1
2
2
2
2
1
2
1
1
2
2
2
2
1
1
1
2
2
1
1
2
2
2
2
2
1
1
2
2
1
2
1
2
1
2
1
1
1
1
1
1
1
1
1
1
1
1
2
1
1
1
2
1
1
1
1
2
1
2
1
1
1
1
1
1
1
2
2
1
2
1
2
1
1
1
1
1
1
2
1
2
2
2
1
1
2
1
2
2
2
2
1
2
2
1
1
1
1
1
1
1
2
1
1
1
2
1
1
2
1
1
1
1
1
1
2
1
2
1
1
1
2
1
2
2
1
2
2
1
1
1
1
1
1
1
2
1
1
2
2
1
2
1
1
2
1
2
2
2
2
1
2
1
2
1
1
2
2
1
2
2
1
2
1
1
1
2
1
1
2
2
1
1
1
1
2
1
1
1
1
1
1
1
1
2
1
1
2
1
1
1
1
1
1
1
1
1
1
1
2
1
2
1
2
1
1
1
2
2
1
1
2
2
2
1
2
1
2
2
1
1
1
1
2
1
1
1
1
2
1
1
2
2
1
1
2
1
1
1
1
1
1
1
1
1
1
1
2
1
1
1
2
1
2
1
2
2
1
1
2
2
1
1
2
2
1
1
1
2
2
2
2
2
2
2
2
1
1
1
1
1
2
1
1
2
1
1
1
2
1
2
1
1
1
1
1
1
1
1
1
1
1
1
1
1
2
1
2
1
2
2
1
1
1
2
1
1
1
1
1
1
1
2
1
2
2
2
2
2
2
1
1
1
1
1
1
1
2
1
2
1
2
2
2
1
1
1
1
1
1
1
1
1
1
1
1
1
1
1
1
1
1
1
1
1
1
1
1
1
1
1
1
1
1
1
1
1
1
1
1
2
1
2
2
1
1
1
1
1
1
1
1
1
2
1
2
1
2
2
2
2
1
1
2
2
2
2
2
1
1
1
1
1
1
1
1
2
2
1
2
1
1
1
1
1
1
1
1
1
1
1
1
1
1
1
1
1
1
1
1
1
1
1
1
2
1
1
1
2
1
1
1
1
1
1
1
2
1
1
1
1
1
1
1
1
1
1
1
2
1
1
2
1
1
2
2
1
1
1
2
1
2
2
2
1
2
2
1
1
1
1
2
2
1
1
2
1
2
2
1
1
2
2
1
1
1
1
1
2
1
2
1
2
2
2
1
2
1
1
1
1
1
1
2
2
1
1
2
2
2
2
2
2
2
1
2
1
2
2
2
2
2
2
2
2
2
2
1
2
2
1
2
2
2
2
2
2
2
2
2
2
2
2
2
2
2
1
2
2
2
2
2
1
2
2
2
1
1
1
1
1
1
1
1
2
2
2
1
1
1
1
1
1
1
1
2
2
2
2
2
1
2
2
2
2
2
1
1
2
1
2
1
1
1
1
2
1
1
1
1
2
1
1
1
1
1
1
1
1
1
1
1
1
1
1
1
1
1
1
1
1
2
2
2
2
1
2
1
2
2
1
2
2
1
2
1
1
2
1
2
2
2
2
2
2
2
2
2
1
2
1
2
2
2
2
1
1
2
2
1
2
2
2
2
2
2
2
2
2
2
2
2
2
2
2
1
1
1
2
2
2
2
2
2
1
2
2
2
2
2
2
2
2
2
2
2
2
2
2
1
2
2
2
2
2
2
2
2
1
2
1
2
2
2
1
1
1
1
2
2
2
2
2
1
2
2
2
1
1
2
2
2
1
1
1
2
2
2
2
1
2
1
2
2
2
1
1
2
2
2
2
2
2
2
2
2
2
2
2
2
2
2
2
2
2
2
2
2
2
2
2
1
1
1
1
1
1
2
1
2
1
2
2
1
1
2
1
1
2
1
1
1
2
1
2
1
2
2
1
2
1
1
1
2
1
2
1
2
2
2
2
2
2
2
2
2
1
2
2
2
2
2
1
2
1
1
2
1
2
1
1
1
1
2
1
2
1
2
2
2
2
2
2
2
2
2
2
2
2
2
2
2
1
1
1
1
1
1
1
2
2
2
1
2
2
2
2
2
1
2
2
2
2
2
2
2
2
2
2
2
2
2
1
2
1
1
1
1
1
2
2
1
2
1
1
2
1
2
2
2
2
2
2
1
2
1
2
2
2
1
2
2
2
2
1
2
2
2
2
1
2
2
2
2
2
1
2
1
1
2
2
2
2
2
2
2
2
2
2
2
2
2
2
2
2
2
2
2
2
2
2
2
2
1
1
1
1
1
2
1
1
1
1
1
1
1
1
2
2
2
1
1
2
1
1
2
2
1
2
2
1
2
2
2
2
1
1
2
2
2
1
1
1
1
1
1
1
2
1
1
1
1
1
1
2
2
2
1
2
1
1
1
1
1
2
2
2
2
2
1
1
2
2
2
2
2
2
1
2
2
2
2
1
1
2
1
2
2
2
2
2
2
2
2
2
2
1
2
1
1
1
1
1
1
1
1
2
2
2
2
2
2
2
2
2
2
2
1
2
2
2
2
2
2
2
1
1
1
2
1
1
2
2
2
2
2
2
2
2
2
2
2
2
2
2
2
2
2
2
2
2
2
2
2
2
2
2
2
2
2
2
2
2
2
2
2
1
2
2
1
1
1
2
2
2
2
2
2
1
2
1
2
1
2
1
2
2
2
2
2
2
2
2
2
2
1
2
2
2
2
2
1
2
2
2
1
2
1
2
2
2
1
1
1
2
1
1
1
1
1
1
2
1
2
1
2
2
2
1
2
1
2
1
1
1
2
1
2
2
1
1
2
2
2
2
2
2
2
2
2
1
2
1
2
1
1
1
1
2
2
2
2
2
2
1
2
2
2
1
1
1
1
2
2
2
2
2
2
2
2
2
2
2
2
2
2
1
2
2
2
2
2
2
2
2
2
2
1
1
2
2
1
2
2
2
2
2
1
1
2
1
1
1
1
1
2
2
1
1
2
1
2
1
1
2
1
1
1
1
2
2
2
2
2
2
1
2
2
1
2
1
2
2
1
1
2
1
1
1
1
1
1
1
1
1
1
1
1
1
1
1
1
1
2
2
2
2
2
2
2
2
1
1
2
1
2
1
2
2
1
1
1
1
2
2
2
2
2
1
1
1
2
2
1
1
2
1
2
2
2
2
1
2
2
2
2
1
2
2
2
2
1
2
2
2
2
2
1
2
2
2
1
1
1
2
1
1
2
1
1
1
1
1
1
1
1
1
1
1
1
1
1
1
1
1
2
1
2
1
1
1
2
1
2
2
2
1
2
1
1
2
1
1
1
1
1
1
1
1
1
1
2
2
2
2
1
1
2
1
1
2
1
1
2
1
2
1
1
1
2
1
2
2
2
2
2
2
2
1
1
2
2
1
1
2
2
1
2
2
2
2
2
1
2
1
1
1
2
1
2
2
2
2
2
2
2
2
2
2
2
2
2
1
1
2
1
1
2
1
2
2
1
1
1
2
1
1
1
2
1
1
2
2
2
1
2
1
2
1
1
1
1
1
2
1
1
1
1
1
1
1
1
1
1
1
1
1
1
1
1
1
1
1
1
1
1
1
1
1
1
1
1
1
1
1
1
1
1
1
1
1
1
1
1
1
1
1
2
2
1
1
2
1
2
1
2
1
2
2
2
2
1
1
1
2
2
2
1
2
1
1
1
1
1
1
1
1
1
1
1
1
1
2
2
1
2
2
2
1
2
1
1
1
1
1
1
1
1
1
1
1
1
1
2
2
1
1
1
2
2
1
2
2
1
2
2
2
2
1
2
1
2
1
1
1
2
1
1
2
1
1
2
1
1
2
1
2
2
2
2
2
2
2
2
2
2
1
2
1
1
2
1
1
1
2
2
2
2
2
1
2
1
1
2
1
2
1
2
1
1
2
1
1
1
1
1
2
1
1
1
1
2
2
2
2
2
1
1
1
1
1
2
2
1
1
1
1
2
2
2
2
2
2
2
2
2
2
2
2
2
2
2
2
2
1
2
2
2
2
2
2
2
2
1
2
1
2
2
1
2
1
2
1
1
2
1
1
1
2
2
1
2
2
2
2
2
1
2
2
2
2
2
1
2
2
2
2
2
2
1
1
1
1
2
1
1
1
1
2
2
1
1
1
1
1
1
1
1
2
1
1
1
2
2
2
1
1
2
2
1
1
2
1
1
1
1
1
1
1
1
1
1
1
1
1
1
1
1
1
1
2
1
1
1
2
1
2
1
2
1
1
1
2
2
2
1
1
1
1
1
1
2
1
1
1
1
2
1
2
1
1
1
2
1
1
1
1
1
1
1
2
2
1
2
1
1
1
1
1
1
1
1
1
1
1
1
1
1
1
1
2
1
1
1
1
1
1
1
1
1
1
1
1
1
2
2
1
2
1
2
1
2
2
1
2
1
2
1
1
2
1
2
1
2
1
2
1
2
1
1
2
2
1
2
2
1
2
2
2
1
2
2
2
2
1
2
1
1
2
2
2
2
2
2
2
2
2
2
2
2
2
2
2
2
2
2
2
1
2
2
2
2
2
2
1
2
2
2
2
2
2
2
2
2
2
2
2
2
2
2
2
1
2
2
2
2
2
1
2
1
2
1
2
1
2
2
2
2
2
2
2
2
2
2
1
2
2
2
1
1
1
1
1
2
2
2
2
2
2
2
2
2
2
2
2
2
2
2
2
2
1
2
2
2
2
2
2
2
2
2
2
2
2
2
2
2
2
2
2
2
1
2
2
1
1
1
1
1
1
2
1
2
2
1
1
2
2
2
2
1
2
2
1
2
2
2
2
1
1
2
2
1
1
2
1
2
2
2
1
1
2
2
2
2
1
2
1
2
1
1
1
1
1
1
1
1
1
1
2
1
2
1
1
2
1
1
1
1
1
1
2
1
2
1
2
1
2
1
2
2
2
2
1
1
2
2
1
1
1
2
2
2
2
2
2
2
1
2
1
2
2
2
2
1
1
2
2
1
1
2
2
1
1
1
1
1
2
1
2
2
2
2
2
2
1
2
2
2
2
2
2
2
2
2
2
2
2
2
1
1
2
1
1
1
2
1
1
1
1
1
2
2
1
2
1
1
2
1
2
2
2
2
2
1
2
2
2
1
1
2
1
2
2
2
2
2
2
2
1
2
2
2
1
1
1
1
1
2
2
1
2
2
1
1
2
2
2
1
2
1
2
1
2
2
1
2
2
1
2
2
1
1
1
2
1
1
1
2
2
1
2
1
1
2
1
1
2
1
1
1
2
1
1
2
1
1
1
1
1
1
1
2
1
1
1
2
2
2
1
1
2
2
2
1
2
2
2
2
1
2
1
1
2
1
1
1
1
2
2
1
2
1
1
1
1
1
1
2
1
1
2
1
1
1
1
2
1
1
2
2
1
2
2
2
2
2
2
2
2
2
2
2
2
2
2
2
2
2
2
2
2
2
2
2
1
2
2
2
1
1
2
1
1
1
2
1
2
1
2
1
2
2
2
2
2
2
2
2
2
2
2
2
2
2
2
2
2
2
2
2
2
2
2
2
2
1
2
2
2
2
2
2
2
2
2
2
2
2
2
2
2
1
2
1
1
2
2
2
2
1
2
2
2
2
2
2
1
1
1
1
1
1
1
2
1
1
1
1
1
1
2
2
2
2
2
2
2
2
2
2
1
1
1
2
1
1
1
1
1
1
1
1
1
1
2
1
2
2
1
2
2
1
2
2
2
1
2
1
2
2
2
2
2
1
2
1
2
2
2
2
2
2
2
2
2
2
2
2
2
2
2
2
2
2
2
2
2
2
1
2
1
2
2
1
2
2
1
2
1
2
2
2
2
2
2
2
2
2
2
1
1
2
1
1
1
2
2
1
1
1
2
2
2
2
2
1
1
2
2
2
2
1
1
1
2
2
2
1
1
1
1
1
1
1
2
1
1
1
1
1
1
2
1
1
2
2
2
2
2
1
2
2
2
2
2
2
2
1
2
2
2
1
2
2
1
1
1
1
1
2
1
2
2
2
2
2
2
1
1
2
2
1
1
2
1
1
1
1
1
1
1
2
1
1
1
2
2
2
1
2
1
1
1
1
2
2
2
2
1
1
2
1
1
1
1
1
1
1
1
1
1
2
1
1
1
1
1
1
2
1
1
1
1
1
1
1
1
1
1
1
1
1
1
1
1
1
1
1
1
1
1
1
1
1
1
1
1
1
1
1
1
1
1
1
1
1
1
2
1
1
1
1
1
1
1
1
2
1
1
2
1
1
2
1
2
1
2
2
2
1
1
1
2
1
1
1
1
1
1
1
1
1
1
1
2
1
2
2
1
1
1
1
1
1
1
1
1
1
1
1
1
1
1
1
1
1
1
2
2
1
2
2
2
2
1
2
2
1
2
2
2
2
1
1
1
2
1
2
2
1
1
1
2
2
2
2
1
1
1
2
2
2
1
2
2
2
2
2
1
2
2
2
1
2
2
1
1
1
1
1
1
1
2
1
2
2
1
1
1
2
1
1
1
2
1
1
1
1
1
1
1
2
2
2
2
2
2
2
2
1
1
1
1
1
1
2
2
1
2
2
1
2
1
2
2
2
2
2
2
1
2
2
1
1
1
1
1
1
1
1
2
1
1
1
1
1
1
2
1
2
1
1
1
1
1
1
1
1
1
1
1
1
1
1
1
1
1
1
2
1
1
2
1
2
2
2
1
1
2
2
1
1
1
1
1
1
1
1
1
2
2
1
1
1
1
1
1
1
1
1
1
1
1
1
1
1
1
1
1
1
1
2
1
1
1
1
1
1
2
1
2
1
1
1
2
2
2
1
2
2
2
2
1
1
1
1
1
1
1
2
1
1
2
2
1
1
1
1
1
2
2
2
2
2
1
2
1
2
2
2
2
2
2
1
2
2
1
1
2
1
1
2
2
2
1
2
2
1
2
2
1
1
2
1
1
1
1
1
1
1
1
1
1
1
1
1
1
1
1
2
1
1
1
1
1
1
1
1
1
1
1
1
1
2
2
2
2
1
1
2
2
1
1
2
2
1
1
2
2
2
2
2
1
1
1
1
2
1
1
2
1
1
1
2
2
1
2
1
1
1
1
1
1
1
1
1
1
2
1
1
1
1
2
1
2
1
1
1
2
2
2
2
2
1
2
2
2
1
2
2
2
2
2
1
2
2
2
1
1
1
1
1
1
2
1
2
2
2
2
2
1
2
2
2
1
2
2
1
1
2
1
1
1
2
1
2
1
1
1
1
1
1
1
1
2
1
1
2
2
1
1
2
2
2
2
2
2
2
2
2
2
2
2
1
2
1
1
2
2
2
2
2
2
2
1
2
2
2
2
2
1
1
1
2
2
1
1
2
2
2
2
2
2
1
1
2
2
2
1
2
2
2
2
2
1
1
2
1
1
2
1
2
1
2
2
1
2
1
1
1
1
1
1
1
2
1
1
1
1
2
1
1
2
2
2
2
2
2
2
2
1
2
2
2
2
1
1
1
1
1
1
2
1
1
2
2
1
1
1
1
1
1
1
1
1
1
2
2
2
2
2
2
2
1
1
1
2
1
2
1
2
1
2
2
2
2
1
2
2
2
1
2
2
2
2
2
1
1
1
1
1
2
1
1
1
1
2
2
2
2
2
2
2
2
2
2
2
2
1
1
2
2
1
2
2
2
1
1
1
2
2
2
2
2
1
1
1
2
2
2
1
1
1
1
1
1
1
1
2
1
2
2
2
1
1
1
1
1
2
1
1
1
1
1
1
1
2
1
2
1
2
2
1
1
1
2
2
2
2
2
2
2
2
2
2
2
1
2
1
1
1
1
1
1
2
1
2
2
2
2
2
2
2
2
1
1
1
1
2
2
2
1
1
1
2
1
2
2
2
2
1
2
1
2
1
1
1
2
1
1
2
2
2
2
1
1
1
1
2
1
2
2
1
2
1
1
1
2
2
2
2
2
1
2
1
2
2
2
1
2
1
2
2
2
2
2
2
1
1
2
2
1
2
2
2
2
2
2
1
2
2
2
2
2
2
2
2
2
2
2
2
2
2
2
1
1
2
2
1
1
1
2
2
1
2
2
2
2
2
1
2
1
2
1
2
2
2
2
1
2
1
2
1
1
1
2
1
2
1
1
2
2
1
1
2
2
1
1
2
2
2
2
2
2
2
2
2
2
2
2
2
2
2
2
2
2
2
2
2
2
2
1
2
2
2
2
2
2
2
2
2
1
2
2
2
2
2
2
2
2
2
2
2
2
2
2
1
2
2
2
2
2
2
2
2
2
2
2
2
2
2
2
1
2
1
1
2
2
1
2
2
2
2
2
2
2
2
2
2
2
2
2
2
2
1
2
1
2
2
1
1
1
1
1
2
2
1
1
1
1
2
2
2
2
2
2
1
2
2
2
2
2
1
1
2
2
2
2
1
1
2
1
1
1
1
1
1
1
2
2
2
2
1
1
2
2
1
2
2
2
1
2
2
2
2
2
1
1
1
1
1
1
1
2
1
1
1
1
1
2
1
1
2
2
2
2
1
1
2
2
1
2
1
2
2
2
2
2
2
2
2
2
2
2
1
1
2
2
1
2
2
2
2
2
2
2
2
1
2
1
1
2
1
1
2
1
1
2
2
1
2
2
1
2
1
1
1
1
2
2
2
2
2
2
2
2
1
2
2
2
2
2
2
2
1
2
2
1
2
2
2
2
2
2
2
2
2
2
2
2
2
1
2
2
2
2
2
2
2
2
2
2
2
2
2
2
2
2
1
2
2
2
2
2
2
1
1
2
1
2
2
1
2
1
2
2
2
2
2
1
2
2
2
1
2
1
2
1
2
2
2
1
2
2
2
2
1
1
1
1
1
1
1
1
1
2
2
2
1
1
1
1
1
1
1
1
2
1
1
2
2
1
2
1
1
2
2
1
2
1
1
1
1
1
2
2
2
1
2
1
1
1
1
1
1
1
1
2
1
2
2
2
1
2
1
2
2
2
2
2
2
1
1
2
2
1
2
1
1
2
2
2
2
2
2
1
1
1
1
1
1
1
2
1
1
1
1
1
2
1
1
2
2
2
1
2
1
2
1
2
2
2
2
2
2
2
2
2
1
1
1
2
2
1
1
1
2
2
1
1
1
1
1
1
1
1
1
1
2
1
2
1
1
2
1
1
1
1
1
1
1
1
1
1
1
1
1
1
1
1
1
1
1
1
1
1
1
1
1
1
2
1
1
1
2
1
1
1
1
1
1
1
1
1
1
1
1
1
1
1
1
1
1
1
1
1
1
1
1
1
1
1
1
1
1
1
1
1
1
1
1
1
1
1
1
2
1
1
1
2
1
2
1
1
1
1
1
1
1
1
1
1
1
2
2
1
1
1
1
1
1
1
1
1
2
1
1
1
1
1
1
1
2
1
1
1
2
1
1
1
1
1
1
1
1
1
1
2
1
1
1
1
1
2
1
1
2
2
1
1
1
1
1
1
1
2
1
2
2
1
1
1
1
2
2
1
1
1
2
2
2
1
2
1
2
1
2
1
1
1
1
2
1
2
2
2
2
1
2
1
1
2
2
2
1
1
2
2
1
1
1
1
2
2
1
1
1
2
1
1
2
2
1
1
1
2
1
1
2
1
2
1
2
2
2
2
2
2
1
2
1
1
2
2
2
2
2
2
1
1
1
1
2
2
1
2
1
1
2
1
2
2
1
1
1
1
2
2
1
1
1
1
2
2
2
1
2
2
1
1
2
1
1
2
1
2
2
2
1
2
1
2
2
2
1
1
1
1
2
2
1
1
2
2
2
1
1
2
1
1
1
1
1
1
1
1
1
1
1
1
1
1
1
1
2
1
1
1
2
2
1
2
1
1
2
1
1
1
2
1
1
1
1
1
1
1
1
1
1
1
1
1
1
1
1
1
1
1
1
1
1
1
1
1
1
1
1
1
1
2
1
1
2
1
1
1
1
1
1
1
1
1
1
1
1
1
1
1
1
1
1
1
1
1
1
1
1
1
2
1
1
1
1
1
1
2
2
2
2
2
2
2
2
2
2
1
2
2
2
1
2
1
1
1
1
1
2
2
1
1
1
1
1
1
1
1
1
1
1
1
1
1
1
2
1
1
1
1
1
1
1
1
1
1
1
1
1
1
1
1
1
1
1
1
1
1
1
1
1
2
1
2
1
1
1
2
1
1
1
1
2
1
1
1
1
1
1
1
1
1
1
1
1
1
2
1
2
2
2
2
2
2
2
2
2
2
2
2
2
2
1
2
1
1
1
1
1
1
1
2
1
2
2
2
1
1
1
1
1
1
1
1
1
1
2
1
2
1
1
1
1
1
1
1
1
1
2
2
2
1
2
2
1
1
2
2
2
2
2
2
2
2
2
2
2
2
2
2
1
2
1
1
2
2
2
2
2
2
1
2
2
1
2
2
1
1
1
1
2
2
2
2
2
2
2
2
2
2
2
2
2
2
2
1
2
1
1
1
1
1
1
2
1
2
2
1
1
1
1
1
2
2
1
2
2
2
1
1
1
1
1
1
1
1
1
1
1
1
1
1
1
1
1
1
1
1
1
1
1
1
2
1
2
2
2
2
2
2
1
1
1
1
1
1
1
1
1
1
1
2
1
1
1
2
1
1
1
1
1
1
1
1
1
1
1
1
1
1
1
1
1
1
1
1
1
1
1
1
1
1
1
1
1
1
1
1
1
1
1
1
1
1
1
1
1
1
1
1
1
2
1
1
1
1
1
1
1
2
2
2
2
2
2
2
2
2
2
2
2
2
2
2
2
2
1
2
2
2
1
1
2
2
1
1
1
1
1
1
1
1
1
2
2
2
2
1
1
1
2
1
2
1
1
2
2
2
2
2
2
2
2
2
2
2
2
2
2
1
2
2
2
2
2
2
2
1
2
2
2
1
2
2
2
2
2
1
1
1
1
1
1
1
1
1
1
1
1
1
1
1
1
1
1
1
1
1
1
1
1
1
1
1
1
1
1
1
1
1
1
1
1
1
1
1
1
1
1
1
1
1
1
2
1
1
1
1
2
2
2
1
1
1
1
1
1
1
1
1
2
2
2
2
2
2
2
2
2
2
2
2
2
2
1
1
1
1
1
1
1
1
1
1
1
1
1
1
1
1
1
1
1
1
1
1
1
2
2
2
2
2
2
2
1
2
2
2
2
2
2
1
2
1
2
1
2
1
1
2
2
2
2
2
2
2
2
2
2
2
2
2
1
2
2
2
1
2
2
2
2
2
2
2
2
2
2
2
2
2
1
1
2
2
2
1
1
2
2
2
1
1
1
1
2
1
2
2
1
2
2
2
2
1
2
1
1
1
1
1
1
1
1
1
1
1
2
1
1
1
2
1
2
1
1
1
1
1
1
1
2
2
1
1
1
1
1
1
1
1
2
1
1
1
1
1
1
1
2
2
2
2
2
2
2
1
1
1
1
1
1
2
2
1
1
2
1
1
2
1
1
1
1
1
1
1
1
1
1
1
1
1
1
1
1
1
1
1
1
1
1
1
1
1
1
1
1
1
1
1
1
1
1
1
1
1
1
1
1
1
1
1
1
2
1
1
1
2
1
1
1
1
1
1
1
1
1
1
1
1
1
1
1
1
2
1
2
2
2
2
2
1
1
1
2
2
1
1
1
1
1
1
2
2
2
2
2
2
2
2
2
2
2
2
1
1
2
2
1
2
1
2
2
2
2
2
2
2
2
1
1
1
2
2
2
1
1
1
1
1
1
1
1
1
1
1
1
1
1
1
2
2
1
1
1
1
1
1
1
1
1
1
1
1
1
1
1
1
1
1
2
1
1
1
2
2
1
2
1
1
1
1
1
1
1
1
1
1
1
1
1
1
1
1
1
1
1
1
1
1
2
1
2
2
2
2
2
2
1
1
1
2
2
2
2
1
1
1
1
1
1
1
1
1
1
1
1
1
2
1
1
1
1
1
1
1
1
1
2
1
1
2
2
1
2
1
2
1
2
2
1
1
2
2
2
2
2
2
2
2
2
2
1
1
2
1
1
1
1
1
1
1
1
1
1
1
1
1
1
1
1
1
1
1
1
1
1
1
1
1
1
1
1
1
1
1
1
1
1
1
2
1
1
1
2
2
2
2
2
2
1
1
1
2
1
1
1
1
1
1
1
1
1
1
1
1
1
1
1
1
1
1
1
1
1
1
1
1
1
1
1
1
1
1
1
1
1
1
1
1
1
1
1
1
1
1
1
1
1
1
1
1
1
1
1
1
1
1
1
1
1
1
1
1
1
1
1
1
1
1
1
1
1
1
1
1
1
1
1
1
1
1
1
1
1
1
1
1
1
1
1
1
1
1
1
1
1
1
1
1
1
1
1
1
1
1
1
1
1
1
1
1
1
1
1
1
1
1
1
1
1
1
1
1
1
1
1
1
1
1
1
1
1
2
1
1
2
2
1
1
2
1
2
1
1
1
2
1
1
1
1
1
1
1
1
1
1
1
1
1
1
1
1
1
1
1
2
1
2
2
2
2
1
2
1
1
1
1
1
1
1
1
1
1
2
2
2
2
2
2
2
2
2
2
2
2
2
2
2
2
2
2
2
2
2
2
2
1
2
2
2
1
2
2
2
1
2
2
2
2
2
2
2
2
2
2
2
2
1
1
1
1
1
1
2
1
1
2
2
1
2
2
1
1
2
2
1
1
1
2
1
1
1
1
2
2
2
2
2
2
2
2
2
2
2
2
1
2
2
2
1
1
1
1
1
1
1
1
1
1
1
1
1
1
2
2
2
2
2
1
2
2
1
2
1
1
1
1
1
1
1
1
1
1
1
1
1
1
1
1
1
1
1
1
1
1
1
1
1
1
1
1
1
1
1
1
1
1
1
1
1
1
1
1
1
1
1
1
1
1
1
1
1
1
1
1
1
1
1
1
1
1
1
1
1
1
1
1
1
1
1
1
1
1
1
2
2
1
1
1
1
1
1
1
1
1
1
1
1
2
2
2
2
2
2
2
2
1
1
1
1
2
1
1
2
2
2
2
2
2
2
1
1
1
1
1
2
1
1
1
2
1
1
1
2
1
1
1
1
1
1
1
1
1
1
1
2
1
1
1
1
1
2
1
2
1
1
1
1
1
1
1
1
1
1
1
1
1
1
1
1
1
1
1
1
1
1
1
1
1
1
1
1
1
1
1
1
1
1
1
2
1
1
1
2
2
2
1
1
1
2
1
2
2
2
2
2
2
2
1
2
2
2
2
2
1
2
2
1
1
2
2
1
1
1
2
1
2
2
2
2
2
2
2
2
2
2
2
1
1
2
2
2
2
2
2
2
2
2
1
2
2
2
2
2
2
2
2
2
2
2
2
1
1
2
1
1
2
1
1
1
1
1
1
1
2
1
1
1
1
1
1
2
2
2
2
1
1
1
1
1
1
1
2
1
1
1
1
1
1
2
2
2
2
2
2
2
2
2
2
2
2
2
2
2
2
2
2
2
1
2
2
2
2
2
2
2
2
1
2
2
2
2
2
2
2
2
1
2
2
1
1
1
1
2
2
1
1
1
1
1
1
1
1
1
1
1
1
1
1
1
1
1
1
1
1
2
1
2
1
1
2
1
2
1
1
1
1
1
1
1
1
1
2
1
1
1
2
1
2
1
1
1
1
1
1
1
1
1
1
1
1
1
1
1
1
1
2
1
1
1
1
1
1
1
1
2
2
1
2
2
2
2
2
2
2
2
2
2
2
2
2
2
2
2
2
2
2
2
1
2
2
2
2
2
2
2
2
2
2
2
2
2
2
2
2
2
2
2
2
2
2
2
2
2
2
2
2
2
2
2
2
2
1
2
2
2
1
2
2
2
2
1
2
2
2
2
2
2
2
2
2
2
2
2
2
2
2
2
2
2
2
2
2
2
2
2
2
2
2
2
2
2
2
2
2
2
2
2
2
2
2
2
2
2
2
2
2
2
2
2
2
2
2
2
2
2
1
2
2
2
2
2
2
2
1
2
1
2
2
2
2
2
2
2
2
2
2
2
2
2
2
2
2
2
1
2
2
2
2
2
1
2
1
2
2
2
2
2
2
2
2
2
2
2
2
2
2
2
2
2
2
2
2
2
2
2
2
2
2
2
2
2
1
2
2
2
2
2
2
2
2
2
2
2
2
2
2
2
2
2
2
2
2
2
2
2
2
1
1
1
2
1
1
1
1
2
1
1
1
1
2
2
1
1
1
2
1
1
1
1
1
1
1
1
1
1
1
1
1
1
1
1
1
2
2
1
1
2
2
2
1
1
2
1
1
1
1
1
2
2
2
2
2
2
1
2
2
1
1
2
1
2
2
2
1
2
2
2
2
1
2
1
1
2
1
2
1
2
2
2
1
2
2
2
2
2
2
2
2
2
2
2
2
2
2
2
1
2
2
1
1
1
1
1
1
2
2
2
2
1
1
1
1
2
2
2
2
2
2
2
2
1
1
1
1
2
2
1
1
1
1
1
1
1
1
1
1
2
1
1
1
1
1
1
1
2
1
2
2
1
1
2
2
2
2
2
1
2
2
1
2
1
1
1
1
2
1
2
2
1
1
1
1
1
1
1
1
1
1
1
1
1
1
1
1
1
1
1
1
1
1
1
1
1
1
1
1
1
1
1
1
1
1
1
1
1
1
1
1
1
1
1
1
1
1
1
1
1
1
1
1
1
1
1
1
1
1
1
1
1
1
2
1
2
1
1
1
2
2
2
2
2
2
2
2
2
2
1
1
2
1
1
1
1
1
1
1
1
1
2
1
1
1
1
1
2
2
2
2
2
2
2
2
1
1
1
1
2
2
1
1
2
2
2
2
2
2
2
2
2
2
2
2
2
1
2
1
2
2
2
2
2
2
2
2
2
2
2
2
2
2
2
2
2
2
2
2
2
2
1
2
1
2
2
1
1
1
1
1
1
1
1
1
1
1
1
1
1
1
2
1
2
2
2
2
1
1
1
1
1
1
2
1
1
1
1
1
1
1
2
2
2
2
2
2
2
2
2
2
2
2
2
2
2
2
2
2
2
2
2
2
2
2
2
2
2
2
2
2
2
2
2
2
2
2
2
2
2
2
2
2
2
2
2
2
2
2
2
2
2
2
2
2
2
2
2
2
2
2
2
2
2
2
2
2
2
2
1
2
2
2
2
2
2
2
1
1
1
1
1
1
1
2
1
2
2
2
1
2
1
1
1
1
2
1
2
1
1
1
2
1
1
1
1
1
1
1
2
1
1
1
2
1
2
1
2
2
1
2
1
1
1
1
1
1
2
2
2
2
2
2
2
2
2
2
2
2
2
2
2
2
1
2
2
2
2
1
2
2
2
2
2
2
2
2
2
2
2
2
1
2
1
2
1
1
1
2
1
1
1
1
1
2
1
2
1
2
2
2
2
2
2
2
2
2
2
2
2
2
2
2
2
2
2
2
2
2
2
2
2
2
2
2
2
2
2
2
2
2
2
2
2
2
2
2
2
2
2
2
2
2
2
2
2
2
2
2
2
2
2
2
2
2
2
2
2
2
2
2
2
2
2
2
2
2
2
2
2
2
2
2
2
2
2
1
2
1
2
1
1
2
1
2
2
2
2
2
2
2
2
2
2
2
2
2
2
2
2
2
2
2
2
1
1
2
2
2
2
2
1
1
1
1
1
1
1
1
1
2
2
2
2
1
2
1
1
1
2
2
2
2
2
2
2
2
2
2
2
2
2
2
2
2
2
2
2
2
1
2
1
2
1
1
1
1
1
1
1
1
1
1
1
1
1
1
1
1
1
1
1
1
1
1
1
1
1
1
1
2
1
1
1
1
1
1
1
1
2
2
2
2
1
2
1
1
2
2
2
2
2
2
2
2
2
2
2
2
2
2
2
2
2
2
2
2
2
2
2
2
2
2
2
2
2
2
2
2
2
2
2
2
2
2
2
2
2
2
2
2
2
2
2
2
2
2
2
2
2
2
2
2
2
2
2
2
2
2
2
2
2
2
2
2
2
2
2
2
2
2
2
2
2
2
2
2
2
2
2
2
2
2
2
2
2
2
2
2
2
2
2
2
2
2
2
2
2
2
2
2
2
2
2
2
2
2
2
2
2
2
2
2
2
2
2
2
2
2
2
2
2
2
2
2
2
2
2
2
2
2
2
2
2
2
2
2
2
2
2
2
2
2
2
2
2
2
2
2
2
2
2
2
2
2
2
2
2
2
2
1
2
1
2
1
2
2
1
2
2
2
2
2
1
1
1
1
2
2
2
2
1
2
2
1
2
2
2
1
2
1
2
1
1
1
2
2
2
2
2
2
1
1
2
2
2
2
2
2
2
2
2
2
2
2
2
2
2
2
2
2
2
2
2
2
2
2
2
2
2
2
1
2
1
1
1
1
1
1
1
1
2
2
2
2
1
2
1
2
1
1
1
1
1
2
1
2
1
1
1
1
1
1
1
2
2
1
2
2
2
2
2
2
2
2
2
2
2
2
1
2
2
2
2
2
2
2
2
2
2
2
2
2
2
2
2
2
2
2
2
2
2
2
2
2
2
2
2
2
2
2
2
2
2
2
2
2
2
2
2
2
2
2
2
2
2
2
2
2
2
2
2
2
2
1
2
2
2
2
2
2
2
2
2
2
2
2
2
2
2
2
2
1
1
1
1
1
1
2
1
1
1
1
1
2
1
1
1
1
1
2
2
1
1
1
2
1
1
1
1
1
1
1
1
1
1
1
1
1
1
1
1
1
1
1
1
1
1
1
1
1
1
1
1
1
1
1
1
1
1
2
2
2
2
1
2
2
2
2
2
2
2
2
1
1
1
1
1
1
1
1
2
1
2
2
2
2
2
2
2
1
2
2
1
1
1
2
1
1
2
1
2
2
1
1
1
1
2
1
1
1
2
2
2
2
2
1
2
1
1
1
1
2
1
1
1
1
1
1
1
1
1
1
1
1
1
1
1
1
1
2
1
2
1
1
1
2
2
1
2
2
1
2
1
1
2
2
2
2
2
2
2
2
2
2
2
2
2
2
2
2
2
2
2
1
2
2
2
2
2
2
1
1
2
2
1
2
1
1
1
2
1
1
1
2
1
2
2
1
1
1
2
2
1
1
1
1
1
2
2
2
2
2
2
2
2
1
2
2
2
2
2
1
1
1
1
1
1
1
2
1
2
1
1
2
2
1
2
1
2
1
1
2
2
2
2
2
2
2
2
2
2
2
1
1
2
1
2
2
1
2
1
1
2
2
1
2
1
2
2
2
1
2
1
1
1
1
1
1
1
1
2
2
1
1
2
2
2
2
1
1
1
1
1
1
1
1
1
2
1
1
1
1
1
1
2
1
2
2
1
1
2
2
2
2
2
2
2
2
2
2
2
2
2
2
2
2
2
2
2
2
2
2
2
2
2
2
2
2
2
2
2
2
2
2
2
2
2
2
2
2
2
2
2
2
2
2
2
2
2
2
2
2
2
2
2
2
2
2
2
2
2
2
2
2
2
2
2
2
2
2
2
2
2
2
2
2
2
2
2
2
2
2
2
2
2
2
2
2
2
2
2
2
2
2
2
2
2
2
2
2
2
2
2
2
2
2
2
2
2
2
2
2
2
2
2
2
2
2
2
2
2
2
2
2
2
2
2
2
2
2
2
2
2
2
2
2
2
2
2
2
2
2
2
2
2
2
2
2
2
2
2
2
2
2
2
2
2
2
2
2
2
2
2
2
2
2
2
2
2
2
2
2
2
2
2
2
2
2
2
2
2
2
2
2
2
2
2
2
2
2
2
2
2
2
2
2
2
2
2
2
2
2
2
2
2
2
2
2
2
2
2
2
2
2
1
2
1
2
1
2
1
1
1
1
1
1
2
2
2
1
2
2
2
2
2
2
2
1
1
1
1
1
1
1
1
1
1
1
2
1
2
1
2
2
1
1
2
2
2
2
2
2
2
2
2
2
2
2
2
2
2
2
2
2
2
2
2
2
2
2
2
2
2
2
2
2
2
2
2
1
2
1
1
1
2
1
2
2
1
1
1
1
1
1
1
1
1
1
1
1
1
1
2
1
1
1
1
1
1
1
1
1
1
2
1
2
1
1
1
1
2
1
1
1
1
1
1
1
1
1
1
1
1
1
1
1
1
1
1
1
1
1
1
1
1
1
1
1
2
1
2
2
2
2
2
1
1
2
2
2
2
2
2
2
2
2
2
2
2
1
2
2
2
2
2
2
1
2
1
2
1
2
2
1
2
2
2
1
1
1
1
1
1
1
1
1
1
1
1
1
1
1
1
1
1
1
1
1
1
1
1
1
1
1
1
1
1
1
1
1
1
1
2
1
1
1
2
2
2
2
2
1
1
2
2
2
1
1
1
1
1
1
1
2
2
2
2
2
2
1
2
2
2
2
2
2
2
2
2
2
2
2
2
2
2
2
2
2
2
2
2
2
2
2
2
2
2
2
2
2
2
2
2
2
2
2
2
2
2
2
2
2
2
2
2
2
2
2
2
2
2
1
2
2
2
2
1
1
2
1
1
1
1
2
1
1
1
1
1
1
1
1
2
2
2
2
2
2
2
2
2
2
2
2
2
2
2
2
2
2
2
2
2
2
2
2
2
2
2
2
2
2
2
2
2
2
1
2
1
1
2
2
1
1
1
1
1
1
1
1
1
1
1
1
1
1
1
1
1
1
1
1
2
1
1
1
1
1
1
1
1
1
1
1
1
1
1
1
1
2
1
2
2
2
2
2
1
2
2
2
2
2
2
2
2
2
2
2
2
2
2
2
2
2
2
2
2
2
2
2
2
2
2
2
2
2
2
2
2
2
2
2
2
2
2
2
2
2
2
2
2
2
2
2
2
2
2
2
2
2
2
2
2
2
2
2
2
2
2
2
2
2
2
2
2
2
2
2
2
2
2
2
2
2
2
1
2
1
1
1
1
1
1
1
1
2
2
2
2
2
2
1
2
2
1
1
2
1
2
1
1
1
1
1
1
2
1
1
2
2
2
2
1
2
2
2
2
2
2
2
2
2
2
2
2
2
2
2
2
2
2
2
2
2
2
2
2
2
2
2
2
2
2
2
2
2
2
2
2
2
2
2
1
2
2
2
2
2
2
1
1
2
2
1
1
1
2
1
1
2
1
2
1
2
2
2
2
2
2
1
1
2
2
2
1
1
1
1
1
2
2
2
2
1
1
2
2
2
2
2
2
2
2
2
2
2
2
2
2
2
2
2
2
2
2
2
2
2
2
2
2
2
2
2
2
2
2
2
2
2
2
2
2
2
2
2
2
2
2
2
2
2
2
2
2
2
2
2
2
2
2
1
1
2
2
2
2
1
2
2
2
2
2
1
2
1
1
2
1
2
1
2
2
2
2
2
2
2
2
2
1
1
1
2
2
2
2
2
2
2
2
1
2
2
2
2
2
2
2
2
2
2
2
2
2
2
2
1
2
1
2
2
1
1
2
1
1
2
1
2
2
2
2
2
2
2
2
2
2
2
2
2
2
2
2
2
2
2
1
2
2
2
2
2
2
2
2
2
2
2
1
2
2
1
1
1
1
1
1
1
1
1
1
1
1
1
2
1
1
1
1
1
1
2
1
1
1
1
1
2
2
1
1
1
1
1
1
2
1
1
1
2
1
2
2
2
2
2
2
2
1
1
2
1
2
2
1
1
1
1
1
1
1
1
1
1
1
1
1
1
1
1
1
1
1
1
1
1
1
1
2
1
1
1
1
1
1
1
1
1
1
1
1
2
1
1
1
1
2
1
1
1
1
1
2
1
2
2
2
1
2
2
2
2
2
1
1
2
2
2
2
2
2
2
2
2
2
2
2
2
2
2
2
2
2
2
2
2
1
2
1
2
2
2
2
1
1
1
1
1
1
1
1
2
1
1
2
1
2
2
2
2
2
2
2
2
1
1
1
2
1
2
1
1
2
1
2
1
1
2
2
2
2
2
2
2
2
2
2
2
2
2
2
2
2
2
2
2
2
2
2
2
2
2
2
2
2
2
2
2
2
2
2
2
2
2
2
2
2
2
2
2
2
2
2
2
1
2
2
2
2
2
2
2
2
2
2
2
2
2
2
2
2
2
1
2
1
1
2
2
2
2
1
1
1
1
1
1
1
1
1
1
2
1
2
2
1
1
1
1
1
2
1
1
1
1
1
2
1
1
1
1
1
1
1
2
1
2
1
1
1
1
1
1
2
2
1
1
1
2
1
1
1
1
2
2
1
1
2
1
2
2
2
2
2
2
2
2
2
2
1
1
2
2
2
1
2
2
2
2
2
2
2
2
2
2
2
1
2
1
1
1
1
1
1
2
1
1
2
1
2
2
2
2
2
2
2
2
2
2
2
2
2
2
2
2
2
2
2
2
2
2
2
2
2
2
2
2
2
1
2
2
1
2
1
2
2
2
2
2
2
2
2
2
1
2
1
2
1
2
2
2
1
2
2
2
2
2
2
2
2
2
2
2
2
2
2
2
2
2
2
2
2
2
2
2
2
2
2
2
2
2
2
2
1
2
2
1
2
2
2
2
2
2
1
2
1
1
1
1
1
1
1
2
2
1
1
1
1
1
1
2
1
1
1
1
1
1
1
1
2
1
1
1
1
1
1
1
1
1
1
1
1
1
1
1
1
2
2
1
1
1
1
1
1
1
1
2
2
2
2
2
2
2
1
2
2
2
2
1
1
1
1
1
1
1
1
1
1
1
1
1
1
2
2
1
1
2
1
1
1
2
1
1
1
1
1
2
1
2
1
2
2
2
2
2
2
2
2
2
2
2
2
2
2
2
2
2
2
2
2
2
2
2
1
2
2
2
1
1
2
1
2
1
2
1
2
1
2
2
2
1
2
2
1
1
2
2
1
1
1
1
1
1
1
1
1
1
1
1
1
1
1
1
1
1
1
1
1
1
1
1
1
1
1
1
1
1
1
1
1
1
1
1
1
1
1
1
2
1
1
1
1
1
2
1
1
1
1
1
1
1
2
1
1
1
2
2
2
2
2
2
2
2
2
2
2
2
1
1
1
1
1
2
1
1
1
1
2
1
2
2
1
2
2
2
2
2
2
2
2
2
2
2
1
2
2
2
1
2
1
1
1
1
2
1
2
2
2
2
2
2
2
2
2
2
2
2
2
2
2
2
2
2
2
2
2
2
2
2
2
2
2
1
1
1
1
2
1
1
2
2
2
2
1
2
2
2
1
2
1
1
1
1
2
1
1
1
2
2
2
2
2
2
2
2
2
2
2
2
2
2
2
2
2
2
2
2
2
2
2
2
2
2
2
2
2
2
2
2
2
2
2
2
2
2
2
2
2
2
2
2
2
2
2
2
1
1
2
2
2
2
2
2
2
2
2
2
2
1
2
1
2
2
1
2
2
2
2
2
2
2
2
2
2
2
2
2
2
2
2
2
2
2
2
2
2
2
2
1
1
2
1
1
1
1
1
1
2
1
1
2
2
2
2
2
2
2
1
1
2
2
1
1
1
2
1
1
1
1
1
1
1
1
1
1
2
2
1
2
2
2
2
2
2
2
2
2
1
2
1
2
1
1
1
1
1
1
1
1
1
2
1
2
1
1
1
1
1
2
2
1
2
1
1
2
1
1
1
1
2
2
2
2
2
2
2
2
1
1
1
1
1
1
1
1
1
1
2
1
1
1
1
1
1
1
1
1
1
1
1
1
1
1
1
1
1
1
1
1
1
1
1
1
1
1
2
1
2
2
2
1
2
2
2
2
2
1
2
2
2
2
1
2
2
1
1
2
2
2
2
2
2
2
2
2
2
2
2
2
2
2
2
2
1
1
1
1
1
2
1
1
1
1
1
1
1
1
2
1
2
1
1
1
1
1
1
1
1
1
1
1
1
1
1
1
1
1
1
1
1
1
1
1
1
1
1
1
1
1
1
1
1
1
1
1
1
2
1
1
1
1
1
2
1
2
1
1
2
1
1
1
1
2
1
1
1
1
1
1
1
1
1
1
1
1
1
1
1
1
1
1
1
1
1
1
1
1
1
1
1
1
1
1
1
1
1
1
1
1
1
1
1
1
1
1
1
1
1
2
1
2
2
1
1
1
2
2
1
2
1
1
1
1
1
2
1
1
1
2
2
2
2
1
2
2
2
2
2
2
1
2
1
2
2
2
2
2
2
2
2
2
2
2
2
2
2
2
2
2
2
1
1
1
1
1
1
1
1
1
2
1
1
1
1
1
1
1
1
1
2
2
1
1
1
1
1
1
1
1
1
1
2
2
2
1
1
1
1
1
1
2
2
2
2
2
2
2
2
1
1
1
1
1
1
1
1
1
2
2
1
1
2
2
2
2
2
2
2
2
2
2
1
2
1
1
1
2
2
2
1
2
1
1
2
2
2
2
2
2
2
2
2
2
2
2
2
2
2
2
2
2
2
2
2
2
2
2
2
2
2
2
2
2
2
2
2
2
2
2
2
2
2
2
2
2
2
2
2
2
2
2
2
2
1
2
2
2
2
2
2
2
2
2
2
2
2
2
1
2
2
2
2
2
2
2
2
2
2
2
2
2
2
2
2
2
2
2
2
2
2
2
2
2
2
2
2
2
2
2
2
2
2
2
2
2
2
2
2
2
2
2
2
2
1
1
2
2
2
2
2
2
1
1
1
1
1
1
1
1
1
2
1
1
1
1
2
2
1
2
1
2
1
2
1
1
1
1
1
1
1
1
1
1
1
1
2
2
2
1
2
1
2
2
1
1
1
1
2
2
1
1
2
1
1
1
1
1
1
1
1
1
1
1
2
1
2
1
2
2
2
2
2
2
1
2
2
2
1
1
2
1
1
1
1
2
2
2
2
1
2
2
2
2
2
2
2
2
1
1
1
1
1
1
1
1
2
1
2
2
2
1
2
1
2
2
2
1
1
1
1
1
1
1
1
1
1
1
1
1
1
1
1
2
2
2
1
1
1
1
1
1
1
1
1
1
1
1
1
1
1
1
1
1
1
1
1
1
1
1
1
1
1
1
1
1
1
1
1
1
1
1
1
1
1
1
1
1
1
1
1
1
1
1
1
1
1
1
1
1
1
1
1
1
1
1
1
1
1
1
1
1
1
1
1
1
1
1
1
1
1
1
1
1
1
1
1
1
1
1
1
1
1
1
1
1
1
1
1
1
1
1
1
1
1
1
1
1
1
1
1
1
1
1
1
1
1
1
1
1
1
1
1
1
1
1
1
1
1
1
1
1
1
1
1
1
2
1
1
2
2
2
2
1
2
2
1
1
1
1
1
1
1
1
1
1
1
1
1
1
1
1
1
1
2
1
1
1
1
2
2
2
1
1
1
1
1
1
1
1
2
1
1
1
2
2
2
2
2
2
2
2
2
2
2
2
2
2
2
2
2
2
2
2
2
1
2
2
2
1
1
1
1
1
2
1
1
1
1
1
2
2
2
2
2
2
2
2
2
2
2
2
2
1
2
2
2
2
1
1
1
2
2
2
2
1
2
2
2
2
1
1
1
1
1
1
1
1
1
1
1
1
1
1
1
1
1
1
1
1
1
1
1
1
1
1
1
1
1
1
1
1
1
1
1
1
1
1
1
1
1
1
1
1
1
1
1
1
1
1
1
1
1
1
1
1
1
1
1
1
1
1
1
1
1
1
1
1
1
1
1
1
1
1
1
1
1
1
1
1
2
1
1
1
2
1
1
1
1
1
1
1
1
1
1
1
1
1
1
1
1
1
1
1
1
1
1
1
1
1
1
1
1
1
1
1
1
1
1
1
1
1
1
1
1
1
1
1
1
1
1
1
1
1
1
1
1
1
1
1
1
1
1
1
1
1
1
1
1
1
1
1
1
1
2
1
1
1
1
1
1
1
2
2
1
1
1
2
1
2
2
2
2
2
2
2
2
2
1
2
1
2
1
2
2
2
2
2
2
2
2
2
2
1
1
1
2
1
1
1
1
1
1
1
1
1
1
2
1
1
1
1
1
2
1
1
1
2
1
1
1
1
1
1
1
1
1
1
1
1
1
1
2
1
2
1
1
1
1
1
1
1
1
1
1
1
1
1
1
1
2
1
1
1
1
1
1
1
2
1
1
1
2
1
1
2
2
2
2
1
2
1
1
1
2
1
1
2
2
2
2
2
2
2
2
2
2
2
2
2
2
2
1
2
2
2
2
2
2
1
2
1
1
2
2
2
2
2
2
2
2
2
2
1
1
2
1
2
1
2
1
2
2
2
2
2
2
2
2
2
2
2
2
2
2
1
2
1
2
1
1
2
2
2
2
2
2
1
2
1
1
1
1
1
1
1
1
1
1
1
1
1
2
1
1
2
2
2
1
2
2
2
2
2
2
2
2
2
2
2
2
2
2
2
2
2
2
2
2
2
2
2
2
2
2
2
2
2
2
2
1
2
1
1
1
1
1
1
1
1
1
1
1
1
1
1
1
1
1
1
2
2
2
2
2
2
2
2
2
2
2
2
2
2
2
2
2
1
1
2
2
1
1
1
1
2
1
2
2
2
2
2
2
2
2
1
2
1
2
1
1
1
1
1
1
1
1
1
1
1
1
1
1
2
1
2
1
2
2
2
2
2
2
2
2
2
2
1
2
2
1
1
1
1
1
1
1
1
1
1
1
1
1
1
1
1
1
1
1
1
1
1
1
1
1
1
1
2
2
1
1
1
1
1
1
2
1
1
1
2
1
1
1
1
1
1
1
1
1
1
2
1
1
1
1
1
1
1
1
1
1
1
1
1
2
1
1
1
2
1
1
2
2
2
2
2
2
2
2
2
2
2
2
2
2
2
2
2
2
2
2
2
2
2
2
2
2
2
2
2
2
2
2
2
2
2
2
2
2
2
2
2
2
2
2
2
2
2
2
2
2
2
2
2
2
2
2
2
2
2
2
2
2
2
2
2
2
1
1
2
2
1
1
1
1
2
2
2
2
2
2
2
2
2
2
2
2
2
2
2
2
2
2
1
2
2
2
2
2
2
2
2
2
2
1
1
2
2
1
1
1
1
1
1
1
1
1
1
1
2
2
2
2
1
2
1
1
2
1
1
1
1
1
2
1
2
2
1
1
2
2
1
2
2
2
2
2
2
2
1
1
2
1
1
1
2
1
1
1
2
2
2
2
2
2
2
2
2
2
2
2
2
2
2
2
2
2
1
2
2
2
2
2
2
2
2
2
2
2
2
2
2
2
2
2
2
2
2
2
2
2
2
2
2
2
2
2
2
2
2
2
2
2
2
2
2
2
2
2
2
2
2
1
2
2
1
1
1
1
1
1
1
1
2
2
1
2
1
2
2
2
1
1
1
1
1
1
1
1
1
1
1
1
1
1
2
1
2
1
2
2
2
2
1
2
2
2
2
2
1
1
2
1
1
1
1
1
1
1
1
1
1
1
1
1
1
1
1
1
1
1
1
1
1
1
1
1
1
1
1
1
1
1
1
1
1
1
1
1
1
1
1
1
1
2
1
1
1
1
1
1
1
1
1
1
1
1
1
1
1
1
1
1
1
1
1
2
2
2
2
1
1
2
1
1
1
2
1
2
1
2
1
2
1
1
1
1
1
1
2
1
1
1
1
1
1
1
1
1
1
1
1
1
1
1
1
1
1
1
1
1
1
1
1
1
1
1
1
1
1
1
1
1
1
2
1
2
2
2
1
2
2
1
1
1
2
1
1
1
1
2
2
2
2
2
2
2
2
1
2
2
1
2
2
2
2
1
1
2
1
1
1
1
2
1
1
1
1
1
1
1
1
1
1
1
1
1
1
2
2
1
1
2
1
2
2
2
2
2
2
2
1
1
1
1
1
1
1
1
1
1
1
1
2
1
1
1
1
1
2
2
2
1
2
2
2
1
1
2
1
2
2
2
2
2
1
2
1
1
1
2
2
2
2
2
1
2
2
2
2
2
2
2
2
1
1
1
1
1
1
1
1
1
1
1
1
1
1
1
1
1
1
1
1
1
1
1
1
1
1
1
1
1
1
1
1
1
1
1
1
1
1
1
1
1
1
1
1
1
1
1
1
1
1
1
1
1
2
1
1
1
1
1
2
1
1
1
2
1
1
1
1
2
1
2
2
2
2
2
2
2
2
2
2
1
1
1
1
1
1
1
1
1
1
1
2
1
1
1
1
1
1
1
1
1
1
1
1
1
1
1
1
1
1
1
1
1
1
1
1
1
1
1
1
1
1
1
1
1
1
1
1
1
1
1
1
1
1
1
1
1
1
1
1
1
1
1
1
1
1
1
1
1
1
1
1
1
1
1
1
1
2
1
1
2
2
1
1
2
2
2
1
1
1
1
1
1
1
1
1
1
1
2
1
1
1
1
1
1
1
1
1
1
1
1
1
1
1
1
1
1
1
1
1
1
1
1
1
1
1
1
1
1
1
1
1
1
1
1
1
1
1
1
1
1
1
1
1
1
1
1
1
1
1
1
2
1
1
2
2
1
2
1
1
1
1
1
1
2
1
1
2
2
2
2
1
2
2
2
2
2
1
2
1
1
1
2
1
2
1
2
1
1
1
1
1
1
1
1
1
1
1
1
1
1
1
1
2
1
1
2
2
2
1
1
2
2
1
1
1
2
2
1
2
1
1
1
2
1
2
1
1
2
2
2
2
1
1
2
1
2
1
1
1
2
2
2
2
2
2
2
2
1
2
2
1
1
1
1
1
1
2
1
1
1
1
1
2
1
2
2
1
1
1
2
2
2
1
2
2
1
2
2
2
1
1
1
1
2
2
1
2
2
2
2
2
2
2
2
2
2
2
2
2
1
2
2
2
2
2
2
2
2
2
2
2
2
2
2
2
2
2
2
1
2
1
2
2
1
1
2
2
2
2
2
2
2
2
2
2
2
2
2
2
2
2
2
2
2
2
2
2
2
2
2
2
2
2
2
2
2
2
2
2
2
2
2
2
2
2
2
2
2
2
2
2
2
2
2
2
2
2
2
2
1
2
2
2
2
2
2
2
2
2
2
2
2
2
2
2
2
2
2
2
2
2
2
2
2
2
2
2
2
2
2
2
2
2
2
2
2
2
2
2
2
2
2
2
2
2
2
2
2
2
2
2
2
2
2
2
2
2
2
2
2
2
2
2
2
2
2
2
2
2
2
2
2
2
2
2
2
2
2
2
2
2
2
2
2
2
2
2
2
2
2
2
2
2
2
2
2
1
2
2
2
2
2
2
2
2
2
2
2
2
1
2
2
2
1
1
1
1
2
2
1
1
2
2
2
2
2
2
2
2
2
2
1
2
1
1
1
1
1
1
1
2
1
2
1
2
2
2
2
2
2
2
2
2
2
2
2
2
2
2
2
2
1
2
1
2
1
1
1
1
1
1
1
1
1
1
2
1
1
1
1
1
1
1
1
1
1
1
1
1
1
1
1
1
1
1
1
1
1
1
1
1
1
1
1
1
1
1
2
1
1
1
2
2
2
2
2
1
2
1
1
1
1
2
2
2
2
2
2
2
2
2
2
2
2
2
2
2
2
2
2
2
2
2
1
1
1
2
2
2
2
2
2
2
2
2
2
2
1
1
1
2
2
2
1
2
1
2
2
2
2
2
2
2
2
2
2
2
2
2
2
2
2
2
2
2
2
2
2
2
2
2
2
2
2
2
2
2
2
2
2
2
2
2
2
2
2
2
2
2
2
2
2
2
2
2
2
2
2
2
2
2
2
2
1
2
2
2
2
2
2
2
2
2
1
2
2
2
2
2
1
1
2
2
1
2
2
1
1
1
1
1
2
1
2
2
2
2
2
2
2
2
1
1
1
2
1
1
1
1
1
1
1
1
1
1
1
1
1
1
1
1
1
1
1
1
1
1
1
2
1
1
2
2
1
1
1
1
1
1
1
1
1
1
1
1
1
1
1
1
1
1
1
1
1
1
1
2
1
1
1
1
1
1
1
1
1
1
1
1
2
1
1
1
1
1
2
2
2
1
2
2
2
1
1
2
2
2
2
2
1
1
2
1
1
1
1
2
1
1
1
1
1
1
2
1
2
2
2
2
2
2
2
2
2
2
2
2
2
2
2
2
2
2
2
2
2
2
1
2
1
1
1
1
1
1
2
1
2
1
1
1
1
1
1
1
1
1
1
1
1
1
1
2
1
1
1
1
1
2
1
1
2
2
1
2
2
2
2
2
1
1
2
1
1
1
1
1
1
1
2
1
2
1
2
2
1
2
2
2
2
2
2
2
2
2
1
1
1
1
2
2
1
1
1
1
1
2
1
2
2
1
2
1
1
1
2
1
1
1
2
2
2
2
2
2
2
2
2
2
2
1
2
1
1
1
2
1
1
1
1
1
1
2
2
2
2
2
2
2
1
2
2
2
2
1
2
2
2
1
1
2
1
1
1
1
1
1
1
1
2
1
2
2
1
1
1
1
1
1
1
1
1
1
1
1
1
1
1
2
1
1
2
2
1
1
2
2
2
2
2
2
2
2
2
2
2
2
2
1
2
2
2
2
2
2
2
2
2
2
2
2
2
2
2
2
2
2
2
2
2
2
2
2
2
2
2
1
2
1
2
2
1
1
2
2
2
1
2
1
2
2
2
2
2
2
2
2
2
2
1
1
2
2
2
2
2
2
2
2
2
2
2
2
1
2
2
2
2
2
2
2
2
2
1
1
2
2
1
2
1
1
1
1
1
2
1
1
1
2
1
1
2
1
2
2
2
2
1
1
2
2
2
2
2
2
2
2
2
2
2
2
1
2
2
1
1
2
2
1
1
1
2
2
2
1
1
1
1
1
1
2
1
1
2
2
2
2
2
2
1
2
2
2
2
1
2
1
2
2
2
2
2
2
2
2
1
2
2
2
1
1
1
1
2
1
1
1
1
1
2
1
1
2
1
1
1
1
1
1
1
1
2
2
2
2
2
2
2
2
2
2
2
2
2
2
2
2
2
2
2
2
2
2
2
2
2
2
2
2
2
2
2
2
2
2
2
2
2
2
2
2
2
1
2
1
2
2
2
2
2
2
2
2
2
2
2
2
2
2
1
2
1
2
1
1
1
2
1
2
1
1
1
1
1
1
2
2
1
1
1
1
1
1
1
1
1
1
1
1
1
1
1
1
1
1
1
1
1
1
1
1
1
1
1
1
1
1
1
1
1
1
1
1
1
1
1
1
1
1
1
1
1
2
1
1
2
1
2
2
2
2
2
2
2
1
1
1
1
1
1
1
1
1
1
1
1
1
1
1
2
2
1
1
1
1
1
1
1
1
1
1
1
1
1
1
1
1
1
1
1
1
2
2
2
2
2
1
2
1
2
1
1
1
1
1
2
2
2
1
2
2
1
1
2
2
2
2
2
2
2
2
2
2
2
1
1
1
2
2
2
1
2
2
1
1
1
1
1
2
2
2
2
2
1
1
1
1
1
1
1
1
1
2
1
1
1
1
1
1
1
1
1
1
1
1
1
1
2
1
1
2
1
2
1
1
1
1
1
1
1
1
1
1
1
1
1
1
1
2
2
2
1
1
1
1
1
1
2
2
1
1
2
2
1
1
1
1
2
2
1
2
1
1
1
1
1
1
2
1
1
1
2
2
1
1
2
2
2
2
2
2
2
2
2
2
2
2
2
2
2
2
2
1
2
2
2
2
1
1
1
2
1
1
1
2
2
2
1
2
2
2
1
1
2
1
2
1
2
2
2
2
2
1
2
2
2
1
2
2
2
2
1
2
1
2
1
1
1
1
1
1
1
1
2
2
1
2
1
2
1
1
1
1
1
1
1
2
1
1
1
1
1
2
1
1
1
2
2
2
1
1
2
1
2
1
2
2
2
2
2
1
2
1
1
2
1
2
1
1
1
1
1
1
1
1
1
1
1
1
1
1
1
1
2
2
1
2
2
1
2
1
1
1
1
2
1
1
2
1
2
1
2
2
2
2
2
2
2
2
1
1
1
1
1
1
1
1
1
1
1
1
1
1
1
1
1
1
1
1
1
1
1
1
1
1
2
1
1
1
1
2
1
1
1
1
1
1
1
1
1
1
2
2
1
1
1
1
1
1
1
1
1
2
1
1
2
1
1
1
2
1
1
1
1
1
1
2
1
2
2
1
2
2
2
2
2
1
2
2
2
2
1
1
2
2
2
2
2
2
2
2
2
2
2
2
1
1
1
2
1
1
1
1
2
2
2
1
2
1
1
1
1
1
1
1
1
1
1
1
1
1
1
1
1
1
1
1
2
1
1
1
1
1
1
1
2
2
1
1
1
2
1
1
1
1
1
1
1
1
2
2
1
1
1
1
1
1
1
1
1
2
1
1
1
2
1
1
2
1
1
1
1
1
1
1
1
1
1
1
1
1
1
1
2
1
1
1
1
2
1
2
1
2
2
2
2
2
2
2
1
1
2
1
2
2
2
2
2
2
2
2
2
2
2
2
2
2
2
2
1
1
2
2
2
1
2
1
2
2
2
2
2
2
2
2
2
2
2
2
2
2
2
2
2
2
2
2
2
2
2
2
2
2
2
2
2
2
2
2
2
2
2
2
2
2
2
2
2
2
2
2
2
2
2
2
2
2
2
2
2
2
2
2
2
2
2
2
2
2
2
2
2
2
2
2
2
2
2
2
2
2
2
1
2
2
2
1
2
2
2
2
2
2
2
2
2
2
2
2
2
2
1
2
2
1
1
1
2
2
2
2
1
1
1
2
1
1
1
1
1
1
1
1
1
1
1
1
1
1
1
1
1
1
1
1
2
1
1
1
1
1
2
1
1
1
1
1
2
1
1
1
1
1
1
1
2
1
1
1
2
2
2
2
2
2
2
2
2
2
2
2
2
1
1
1
2
1
1
1
1
1
1
1
1
1
1
1
1
1
1
1
1
1
1
2
1
1
1
1
1
1
1
1
1
1
1
1
2
1
2
1
2
2
2
2
2
2
2
2
2
2
2
2
2
2
2
2
2
2
2
2
2
2
2
2
2
2
2
2
2
2
2
2
2
2
2
2
2
2
2
2
2
2
2
2
2
2
2
2
2
2
2
2
2
2
2
2
2
2
2
2
2
2
2
2
2
2
1
2
2
2
2
2
2
1
2
2
2
1
2
1
2
2
1
2
2
2
2
2
2
2
2
2
2
2
2
2
2
2
2
2
2
2
2
2
2
2
2
2
2
2
2
2
2
2
2
1
2
2
2
2
1
1
1
2
2
1
1
2
1
2
1
1
1
2
1
1
1
1
2
1
1
1
1
1
1
1
1
1
1
1
1
1
1
1
1
1
1
1
1
1
1
1
1
1
1
1
1
1
1
1
1
1
1
1
2
2
2
1
2
2
2
2
2
2
2
2
2
2
2
2
2
2
2
2
2
2
2
2
2
1
1
2
1
1
2
2
2
2
2
2
2
2
2
2
2
2
2
2
2
2
2
2
2
2
2
2
2
2
2
2
2
2
2
2
2
2
2
2
2
2
2
2
2
2
2
2
2
2
2
2
2
2
2
2
2
2
2
2
2
2
2
2
2
2
2
2
2
2
2
2
2
2
2
2
2
2
2
2
2
2
2
2
2
2
2
2
2
2
2
2
2
2
2
2
2
2
2
2
2
2
2
2
2
2
2
2
2
2
2
2
2
2
2
2
2
2
2
2
2
2
2
2
2
2
2
2
2
2
2
2
2
2
2
2
2
2
2
2
2
2
2
2
2
2
2
2
2
2
2
2
2
2
2
2
2
2
2
2
2
2
1
2
2
2
1
2
2
2
2
1
2
2
1
1
1
2
1
1
1
2
2
2
1
1
1
1
1
1
1
1
2
2
1
1
1
2
1
2
1
1
1
1
1
1
1
1
1
2
1
2
1
1
1
1
1
1
1
1
1
2
1
1
2
2
2
2
2
2
2
2
2
2
2
2
2
2
2
2
2
2
2
2
2
2
2
2
2
2
2
2
2
2
2
2
2
2
2
2
2
2
2
2
2
2
2
2
2
2
2
2
2
2
2
2
2
2
2
2
2
2
2
2
2
2
2
2
2
1
2
2
1
2
2
2
1
2
2
2
1
1
1
2
1
1
1
1
1
1
1
1
1
1
2
1
1
1
1
1
1
2
2
2
2
2
1
1
1
1
1
1
1
1
2
1
1
1
2
2
2
2
2
2
2
2
2
2
2
2
2
2
2
2
2
2
2
2
2
2
2
2
2
1
2
2
2
1
2
2
2
2
2
2
2
2
2
2
2
2
1
2
1
2
2
2
2
2
2
2
2
1
2
1
2
1
1
1
1
1
1
1
1
1
1
1
1
1
1
1
2
2
1
1
2
2
2
2
1
1
2
1
1
1
1
1
1
1
1
1
1
1
1
1
1
1
1
1
1
1
1
1
1
1
1
1
1
1
1
1
1
2
1
1
1
1
1
1
1
1
1
1
1
1
1
1
2
2
2
2
1
2
1
1
1
1
1
1
1
1
1
1
2
1
1
1
1
1
2
1
1
1
2
2
1
1
2
2
2
1
2
1
2
1
1
1
1
2
1
2
2
1
1
1
1
1
1
1
1
1
2
1
1
2
1
1
2
2
2
2
1
2
1
2
2
2
2
1
2
2
2
2
2
2
2
2
2
2
2
2
2
2
1
1
2
2
2
2
2
2
2
2
2
1
1
1
2
1
2
2
2
2
2
2
1
2
1
2
2
1
2
2
2
2
1
2
2
2
2
2
2
2
2
2
2
2
2
2
2
2
2
2
2
2
2
1
2
2
2
2
2
2
2
2
2
2
2
2
2
2
1
2
2
2
1
2
1
2
2
2
1
2
1
2
2
1
2
2
2
2
2
1
1
1
1
1
1
1
1
1
1
1
1
1
1
1
1
1
1
1
1
1
1
1
1
1
1
1
1
1
1
1
1
1
1
1
1
2
1
2
1
2
1
1
2
2
2
2
2
2
2
1
2
2
2
2
1
2
1
1
2
2
1
2
1
1
2
1
2
1
1
1
1
1
1
1
1
1
1
1
1
1
1
1
1
1
1
1
1
1
2
1
1
1
1
1
1
1
1
1
1
1
1
1
2
1
1
1
1
1
1
1
1
1
1
1
1
1
1
1
1
1
1
1
1
1
2
1
1
1
2
1
1
2
2
2
2
2
2
2
2
2
2
2
2
2
2
2
2
2
2
2
2
2
2
2
2
2
2
2
2
2
2
2
2
2
2
2
2
1
1
1
1
1
2
1
1
1
1
2
1
1
1
2
1
2
2
2
2
2
2
2
2
2
2
2
2
2
2
2
2
2
2
2
2
2
2
2
2
2
2
2
2
2
2
2
2
2
2
2
2
2
2
2
2
2
2
2
2
2
2
2
1
2
2
2
2
2
1
2
2
2
2
2
2
2
2
2
2
2
2
2
2
2
2
2
2
2
1
2
2
2
2
1
2
1
2
1
1
1
2
1
1
1
1
1
1
1
1
1
1
1
1
1
2
1
1
2
1
1
1
1
1
1
1
1
1
1
1
1
1
1
1
1
2
1
2
1
2
2
2
2
2
1
2
2
1
1
2
2
2
2
1
1
1
1
1
1
1
1
2
1
1
1
1
1
1
1
1
1
1
1
1
1
1
1
1
1
1
1
1
1
1
1
1
1
1
1
1
1
1
1
1
1
1
1
1
1
1
1
1
1
1
1
1
1
1
1
1
1
1
1
1
1
1
1
1
1
1
1
1
1
1
1
1
1
1
2
2
2
2
1
1
1
1
1
1
1
1
1
1
2
2
2
1
2
2
1
1
1
1
1
1
1
1
1
1
1
2
1
1
1
1
1
1
1
1
1
1
1
1
1
1
1
1
1
1
2
2
1
2
2
2
1
2
1
1
1
1
1
1
1
2
2
2
2
2
1
2
2
2
1
2
2
2
2
2
1
1
2
2
1
1
1
1
1
1
1
1
1
1
1
1
1
1
1
1
1
1
1
2
1
1
1
1
1
1
1
1
1
1
2
1
1
1
1
1
1
1
2
2
1
2
2
2
2
2
2
2
2
2
1
2
2
1
1
1
2
1
1
1
2
2
2
2
1
2
1
2
1
1
1
1
1
1
1
1
1
1
1
1
1
1
1
1
1
1
2
2
1
1
1
1
1
1
1
1
1
1
1
1
1
1
1
1
1
1
1
1
1
1
1
1
1
1
1
1
2
1
1
1
1
2
1
1
2
2
1
1
2
1
2
1
2
1
2
2
2
2
2
2
2
2
2
2
2
2
2
2
2
2
2
2
1
1
2
1
1
1
1
1
1
1
1
1
1
1
1
1
1
1
1
1
1
1
1
2
1
1
1
2
1
1
1
1
1
1
1
2
1
1
1
1
2
1
2
2
1
1
1
2
2
2
2
2
2
2
2
2
2
2
2
2
1
2
1
2
1
2
1
1
2
2
2
2
2
2
2
2
2
2
1
2
1
2
1
1
1
2
2
2
2
2
2
2
2
1
2
2
2
2
2
2
2
2
2
2
2
2
2
2
2
2
2
2
2
2
2
2
2
2
2
2
2
2
2
1
2
2
2
1
1
2
1
1
1
2
1
1
1
1
2
1
1
1
1
1
2
2
2
2
1
1
1
1
2
1
2
2
2
2
2
2
2
2
2
2
2
1
2
2
2
2
2
2
2
1
2
1
2
2
2
2
1
2
2
2
1
1
1
1
2
2
2
1
1
1
1
1
1
1
1
1
2
1
2
2
2
2
2
2
2
2
2
2
2
2
2
2
1
1
2
2
2
2
1
1
1
2
1
1
1
1
1
1
1
1
1
1
1
1
2
1
1
1
1
1
1
1
1
1
1
1
1
1
1
1
1
1
1
1
1
1
1
2
1
1
1
1
1
1
2
1
1
1
1
1
1
1
1
1
1
1
1
1
1
1
1
1
1
1
1
1
2
2
1
1
2
2
2
2
2
1
2
2
2
2
2
2
1
1
1
1
1
1
1
2
1
2
1
1
2
2
1
2
1
1
2
2
2
2
2
2
2
2
2
2
2
2
2
2
2
2
2
2
2
2
2
2
2
2
2
2
2
2
2
2
2
2
2
2
2
2
2
2
2
2
1
2
2
2
1
1
2
2
2
2
2
2
2
2
2
2
1
2
1
2
1
2
1
1
1
2
1
2
1
2
1
1
1
2
1
1
1
1
1
2
1
2
2
1
1
1
1
1
1
1
1
1
1
1
1
1
1
1
1
1
1
1
1
1
2
2
2
2
2
2
2
2
1
1
1
1
2
1
2
1
1
1
1
1
1
1
2
1
1
1
1
1
1
1
1
2
1
2
1
1
1
1
1
1
1
1
2
1
1
1
1
2
1
1
2
2
2
2
2
2
1
1
1
2
1
2
2
1
1
1
1
1
1
2
2
2
1
2
1
2
1
1
1
1
1
1
1
1
1
1
1
1
1
1
1
1
1
1
1
1
1
1
1
1
1
1
1
1
1
1
1
1
1
1
1
1
2
1
2
1
2
2
2
2
1
2
1
1
1
1
1
1
1
1
2
2
1
1
2
2
2
1
2
2
2
1
2
2
2
2
1
2
2
2
2
1
2
2
2
2
2
2
2
2
2
2
2
2
1
1
2
1
1
2
1
1
1
2
2
2
2
2
2
2
2
2
2
2
2
2
2
2
1
1
2
2
2
1
1
2
1
2
1
1
2
2
1
2
2
2
1
1
2
1
2
2
2
1
2
1
1
2
2
2
1
2
1
1
2
1
1
1
2
2
1
2
1
1
1
1
1
1
1
1
1
1
1
2
1
1
2
2
2
2
2
2
2
1
2
1
2
2
2
2
1
1
2
2
1
1
1
1
1
1
1
1
1
1
1
1
1
1
1
1
1
1
1
1
1
1
1
1
1
1
1
1
1
1
1
1
1
1
1
1
1
1
1
1
1
1
1
1
1
1
1
1
1
1
1
1
1
1
1
1
1
1
1
1
1
1
1
1
1
1
1
1
1
1
1
1
1
1
1
1
1
1
1
1
1
1
1
1
1
1
1
1
1
1
1
1
1
1
1
1
1
1
1
1
1
1
1
1
1
1
1
1
1
1
1
1
1
1
1
1
1
1
1
1
1
1
2
1
1
1
1
1
1
1
1
1
2
1
1
1
1
1
1
1
1
1
1
1
1
1
1
1
1
1
1
1
1
1
1
1
1
1
2
2
2
2
1
1
2
2
1
1
1
1
1
1
2
2
2
2
2
1
2
1
2
1
1
1
1
1
1
1
1
1
1
1
1
1
1
1
1
1
1
1
1
1
1
1
1
1
1
1
1
1
1
1
1
1
1
1
1
1
2
1
1
1
1
1
1
2
1
1
1
1
2
1
1
2
2
1
2
2
2
2
2
2
1
1
2
1
1
1
1
1
1
1
1
2
2
2
2
2
1
2
2
2
2
2
1
2
2
2
1
1
1
1
1
1
2
2
2
2
2
2
1
2
2
1
2
2
2
2
2
2
2
2
2
2
2
2
2
2
2
2
2
2
2
2
2
2
2
2
2
2
2
2
2
2
2
1
1
1
1
2
2
2
2
2
2
2
1
2
2
2
2
1
2
1
2
1
2
2
1
1
1
1
2
2
2
2
2
1
1
2
2
2
2
2
2
2
2
2
2
1
1
1
1
2
2
2
2
2
2
2
2
2
2
2
2
2
2
2
1
1
1
1
1
2
2
2
1
2
2
2
2
2
2
2
2
2
2
1
2
1
1
1
1
1
2
1
1
2
2
1
1
1
2
1
1
1
1
1
1
1
1
1
1
1
1
1
1
1
1
1
1
1
1
1
1
1
1
1
1
1
1
1
1
1
1
1
1
1
1
1
1
1
1
1
1
1
1
1
1
2
2
2
1
2
2
1
2
1
1
1
1
1
2
1
1
1
2
1
1
1
1
1
1
1
1
1
1
1
1
1
1
1
1
1
1
1
1
1
1
1
1
1
1
1
1
1
1
1
1
1
1
1
1
2
1
1
1
1
1
1
1
1
1
1
2
1
1
1
1
1
2
1
1
1
2
1
1
1
1
1
1
1
2
2
2
1
1
2
2
2
2
2
2
2
2
1
1
1
1
1
1
2
2
1
2
1
1
1
1
1
1
1
2
1
2
1
1
2
1
1
1
1
1
1
2
1
2
1
1
1
1
2
2
2
1
1
2
1
2
2
2
1
1
1
1
2
2
1
1
1
1
2
1
1
1
2
2
1
1
1
1
1
1
2
2
1
1
1
1
1
1
1
1
1
1
1
1
1
1
1
1
1
1
1
2
1
1
1
1
1
1
1
1
1
1
1
1
1
1
1
1
1
1
1
1
1
1
1
1
1
1
1
1
1
1
1
1
1
1
1
1
1
1
1
1
1
1
2
1
1
1
1
1
1
1
1
1
1
1
1
1
1
1
1
1
1
1
1
1
1
1
1
1
1
2
1
1
1
1
1
1
1
1
2
1
1
1
2
2
1
2
2
2
2
2
2
2
2
2
2
1
2
2
2
2
2
2
1
1
1
2
2
2
2
1
1
1
2
1
1
1
1
1
1
2
2
2
2
2
2
2
2
1
1
2
2
2
2
2
1
2
1
1
1
2
1
1
2
2
1
1
2
2
2
2
2
2
1
2
1
1
1
1
1
2
2
2
2
2
2
1
1
2
2
2
2
1
2
1
1
1
1
1
1
2
2
1
1
1
1
1
1
1
2
2
2
2
2
2
2
2
2
1
1
2
2
1
1
2
2
2
1
1
1
1
1
2
2
2
2
2
2
2
2
1
1
1
2
1
1
1
1
2
2
2
2
2
2
2
2
2
2
2
2
2
1
1
1
1
1
1
1
1
2
2
2
2
2
1
1
1
1
2
2
2
2
2
2
2
2
2
2
2
2
2
2
2
2
2
2
1
1
2
2
2
2
1
2
1
1
1
1
1
1
1
1
1
1
1
1
1
1
1
1
1
1
1
1
1
1
2
2
1
1
1
1
1
1
1
1
1
1
2
2
1
1
1
1
2
2
1
1
2
1
1
1
1
1
1
1
1
1
1
1
1
1
1
1
1
1
2
1
1
1
1
1
2
2
2
1
2
1
2
2
2
2
2
2
2
2
2
2
2
2
2
2
2
2
2
2
2
2
2
2
2
2
1
1
2
2
2
2
2
2
2
2
2
2
1
1
2
2
2
2
2
2
2
2
1
1
1
2
1
1
1
1
1
1
1
1
1
1
1
1
2
2
1
1
2
2
1
1
1
2
1
1
1
1
1
1
2
1
2
2
2
2
2
2
2
2
2
2
1
1
2
2
2
2
2
2
2
2
2
2
2
2
2
2
2
2
2
2
2
2
2
2
2
2
2
2
1
1
1
1
1
1
1
2
1
1
2
2
2
2
2
2
2
2
1
2
2
1
1
1
1
2
2
2
2
2
2
2
2
2
2
2
2
2
2
2
2
2
2
2
2
2
1
2
2
2
2
2
2
2
1
1
2
2
2
2
2
2
2
2
2
2
2
2
2
2
2
2
2
2
2
2
2
2
2
2
1
2
1
2
2
2
1
1
2
2
2
1
1
1
1
1
1
1
1
1
1
1
1
1
2
2
1
1
1
1
2
2
2
2
2
2
1
1
1
1
1
1
2
2
2
1
2
1
2
1
2
1
1
1
1
2
1
1
2
2
1
2
2
2
1
1
2
1
2
2
2
2
1
1
2
1
2
1
1
1
1
1
1
2
1
1
2
2
2
2
2
2
1
2
1
1
1
1
2
1
1
1
1
1
2
1
1
1
1
1
1
1
2
2
2
2
2
1
2
2
2
2
1
1
1
1
1
1
1
1
1
1
1
1
1
1
2
2
1
2
1
2
2
2
1
1
1
1
2
2
1
1
2
2
2
2
1
2
2
2
2
2
2
1
1
1
1
1
2
2
2
2
1
1
1
1
2
2
2
2
2
2
2
2
2
1
1
1
2
2
2
2
2
2
2
2
2
2
2
2
2
2
1
1
2
2
2
1
2
1
1
1
1
1
1
1
1
1
1
2
1
1
2
1
2
1
1
1
1
1
1
1
1
1
1
1
1
2
2
2
2
1
1
2
1
1
1
1
1
1
2
2
2
2
1
1
2
2
2
2
1
2
2
2
2
2
2
2
2
2
2
2
2
2
1
1
2
2
2
2
2
2
2
2
2
2
2
2
2
2
2
2
2
1
1
2
2
2
1
1
2
2
2
2
1
2
2
2
1
2
1
1
2
2
1
2
2
2
2
2
2
2
2
1
1
1
1
1
1
1
1
2
1
1
1
2
2
2
2
2
2
2
2
2
2
1
1
2
2
1
1
1
1
1
1
1
1
1
1
1
1
1
1
1
1
1
1
2
2
1
1
2
2
1
1
1
1
1
1
2
2
2
2
2
2
1
1
2
2
2
2
2
2
2
2
1
1
1
1
1
2
2
2
2
2
2
2
2
2
2
2
2
2
2
2
2
2
2
1
2
1
2
2
2
1
2
2
2
2
2
2
2
2
2
2
2
2
2
2
2
2
2
2
2
2
2
1
2
2
2
2
2
2
2
2
2
2
2
2
2
2
2
2
1
2
2
1
2
1
2
2
2
2
2
2
1
1
1
1
1
1
2
2
2
2
1
1
1
1
1
1
1
1
2
1
2
2
2
2
2
2
2
2
2
2
2
2
2
2
2
2
2
2
2
2
2
2
1
1
1
1
1
1
1
1
1
2
1
1
1
1
1
1
1
1
1
1
1
1
1
1
1
1
1
1
1
1
1
1
2
1
2
2
2
2
2
2
2
2
1
1
2
2
1
1
1
1
1
1
1
2
2
2
1
2
1
2
1
2
1
1
1
1
1
2
1
1
1
1
1
1
1
1
1
1
1
1
1
1
2
1
1
1
2
2
1
1
2
2
2
2
2
2
1
1
2
1
1
1
1
2
2
2
1
2
2
2
2
2
1
1
1
1
1
2
1
1
1
1
1
1
1
1
1
1
1
1
1
1
1
1
1
1
1
1
1
1
1
1
1
1
1
1
1
1
1
1
1
1
1
1
1
1
2
1
2
1
1
2
1
2
1
1
2
2
2
2
2
2
2
2
2
2
2
1
2
2
1
1
2
2
2
2
2
1
1
1
2
2
2
2
2
2
2
2
1
1
2
1
2
2
2
2
2
2
2
2
2
2
2
2
2
2
2
2
2
2
2
2
2
2
2
2
2
1
2
2
2
1
2
2
2
2
1
1
2
1
1
1
1
1
1
1
1
1
1
1
1
1
2
1
1
1
1
1
1
1
1
1
2
2
2
1
1
2
1
1
1
1
1
1
1
1
1
1
1
1
2
2
1
1
1
1
2
2
2
2
2
2
2
2
2
2
2
2
2
2
2
2
2
2
2
2
2
2
2
2
2
2
2
2
2
2
2
2
2
2
2
2
1
1
1
1
1
1
2
2
1
1
1
1
1
1
1
1
1
1
1
1
1
1
1
1
1
1
1
1
1
1
2
1
1
1
1
1
2
2
1
2
1
1
2
1
1
2
1
1
1
2
1
1
1
2
1
1
1
1
1
1
2
1
1
1
2
2
1
2
1
1
1
1
1
1
1
2
1
1
2
1
2
2
2
2
1
2
1
1
2
2
1
1
1
2
1
1
2
2
2
2
2
2
2
2
2
2
1
1
2
2
2
1
1
1
1
1
1
1
1
1
2
2
2
1
2
2
2
2
2
2
2
2
1
1
2
2
1
1
2
1
2
2
1
1
2
2
2
2
1
2
1
1
2
1
2
1
2
1
1
1
1
2
1
1
1
2
1
1
1
1
1
1
2
1
1
1
1
1
2
2
1
1
1
1
1
1
1
1
2
2
2
2
2
2
2
2
1
2
2
2
1
1
1
2
2
2
2
2
2
2
2
2
2
2
2
2
2
2
2
2
2
2
2
1
2
2
2
2
2
2
2
2
2
2
2
2
2
2
2
2
1
1
2
2
1
2
2
2
2
2
2
2
2
1
1
2
1
1
1
1
2
2
2
2
2
2
2
2
1
2
2
2
2
2
2
1
1
1
2
2
1
1
2
2
2
2
2
2
2
2
2
2
2
2
2
2
2
2
2
2
2
2
2
1
2
2
2
2
2
2
2
2
2
2
2
2
2
2
1
1
2
2
2
2
2
2
1
1
1
1
1
1
1
1
2
2
2
2
1
2
2
2
2
2
2
1
2
2
2
2
1
1
1
1
1
1
1
2
2
2
1
2
1
1
1
1
1
1
1
1
2
2
1
1
1
1
2
2
2
2
1
1
1
1
1
1
2
1
2
2
1
1
1
1
1
2
1
1
2
2
2
2
1
2
2
2
2
1
1
1
1
1
1
1
2
1
1
1
2
2
1
1
1
1
2
1
1
1
1
1
1
1
1
1
1
1
1
1
1
2
2
2
1
1
1
2
1
1
1
1
2
2
2
2
2
2
2
2
2
1
2
2
1
2
1
1
2
1
2
2
2
2
2
2
2
2
1
1
1
1
2
1
2
2
1
1
1
1
1
1
2
2
1
2
1
1
2
2
2
1
2
1
1
1
1
1
1
1
1
1
1
2
2
2
2
1
2
2
2
2
2
2
1
1
1
1
1
1
1
1
1
1
2
1
1
1
2
2
2
2
2
2
2
2
1
2
2
2
2
2
2
2
2
2
2
2
2
2
2
2
1
1
2
2
2
2
2
2
2
2
2
2
2
2
1
2
2
2
2
2
2
2
2
2
2
2
2
2
1
1
2
2
1
2
2
2
2
2
2
2
2
2
2
2
2
2
1
1
2
2
2
2
2
2
2
2
2
2
2
2
2
2
2
2
2
2
2
2
1
1
2
2
2
2
1
1
2
2
2
1
2
2
2
2
2
2
2
2
2
2
1
2
2
2
2
2
2
2
2
2
2
2
2
2
2
2
2
2
2
2
2
2
2
2
2
2
2
2
2
1
2
2
2
2
2
2
2
1
2
1
2
2
2
2
2
2
2
2
1
1
2
2
2
2
2
2
2
1
2
2
2
2
2
2
2
2
2
2
2
2
2
2
2
1
2
2
1
1
2
2
2
2
2
2
2
2
2
2
2
2
2
2
2
2
2
2
2
2
2
2
2
2
2
2
2
1
2
2
2
2
2
2
2
2
2
2
2
2
2
2
2
2
2
2
2
2
2
2
2
2
2
2
2
2
2
2
2
2
2
2
2
2
2
2
2
2
2
2
2
1
2
2
2
2
2
2
2
2
2
2
2
2
2
2
2
2
2
2
2
2
2
2
2
2
2
2
2
2
2
2
2
2
1
2
2
2
1
2
2
2
2
2
1
1
1
1
2
2
2
2
2
2
1
1
1
1
1
1
2
2
1
1
2
2
2
1
2
2
2
2
1
1
2
2
2
2
1
1
2
2
1
1
2
1
1
1
1
1
1
1
1
1
1
1
1
1
1
1
2
1
1
1
1
1
1
1
1
1
1
1
2
2
2
1
2
2
2
2
2
2
2
2
2
2
2
2
1
1
2
2
1
2
1
1
2
2
1
1
1
1
2
2
2
2
1
1
2
2
2
2
1
2
2
2
1
1
1
1
1
1
2
2
2
2
2
2
2
2
2
2
2
2
2
2
2
2
2
2
2
1
2
2
2
2
2
2
2
2
2
2
2
2
2
2
2
2
2
2
2
2
2
2
1
1
2
2
2
2
1
2
1
1
1
1
2
1
1
1
2
2
2
1
2
2
1
1
1
1
1
2
2
2
2
2
2
2
2
2
2
2
2
2
2
2
2
2
2
2
2
2
1
1
1
1
1
1
1
1
1
1
2
1
1
1
2
1
1
1
2
2
2
2
1
1
1
1
1
1
1
1
1
1
1
1
2
1
1
1
2
2
2
2
1
2
2
1
2
2
1
2
1
1
1
2
2
2
2
1
1
1
1
1
2
1
2
2
2
2
1
1
2
2
2
1
1
1
2
1
2
1
1
2
1
1
1
1
1
1
1
1
1
1
1
1
1
1
1
1
2
1
1
1
1
2
1
2
2
1
2
2
1
1
2
1
1
1
1
1
1
1
1
1
1
1
1
1
1
1
1
1
1
1
1
1
1
1
2
2
2
2
2
2
2
2
2
2
2
2
2
2
2
2
2
2
2
2
2
2
2
1
2
2
1
1
1
1
1
2
1
2
1
2
2
2
1
1
2
1
2
2
2
1
1
1
1
1
2
2
2
2
2
2
2
2
2
2
2
2
2
2
2
2
2
2
2
2
2
2
2
2
2
2
2
2
2
2
2
2
2
2
2
2
2
2
2
1
1
1
2
2
2
2
1
1
1
1
1
1
2
2
2
2
2
1
1
1
2
1
1
1
1
1
1
1
2
2
2
2
2
2
2
2
2
2
2
1
2
2
2
2
2
2
1
1
2
1
2
2
2
2
2
2
2
1
1
2
1
1
1
1
1
2
1
2
1
1
1
1
2
1
1
2
2
2
2
2
2
2
2
2
2
2
2
2
2
2
1
2
2
1
1
1
1
1
1
2
2
1
1
2
1
1
2
2
2
2
2
1
2
1
2
2
1
1
1
1
2
1
2
1
2
1
2
2
2
1
2
2
2
2
2
2
2
1
2
1
1
2
1
2
2
2
2
2
1
1
2
2
2
2
1
1
1
2
2
2
1
1
2
2
2
2
2
2
2
2
2
2
2
2
1
1
2
2
1
2
2
1
2
2
1
1
1
2
2
2
2
2
2
2
2
2
2
1
2
2
2
1
2
2
1
1
1
1
2
2
2
2
2
2
2
2
2
2
2
2
2
2
2
2
2
2
2
2
2
2
2
2
2
1
2
1
2
1
1
2
2
2
2
2
2
2
2
2
2
2
2
1
1
1
2
2
2
2
2
2
2
2
2
2
2
2
1
1
2
2
1
2
2
2
1
2
1
1
2
2
2
2
2
2
2
2
2
2
2
2
2
2
2
2
2
2
2
2
1
2
2
2
2
2
1
1
1
1
2
2
2
2
2
2
2
2
2
2
2
2
1
1
1
1
1
1
1
1
1
1
2
2
2
2
2
2
2
2
2
2
2
2
1
2
2
2
1
2
2
2
2
2
2
2
2
2
2
2
2
2
2
2
2
2
2
1
1
2
2
1
2
2
2
2
2
2
2
2
2
2
2
2
2
2
2
2
2
2
2
2
1
1
2
2
1
1
2
2
1
1
2
2
2
2
2
2
2
2
2
2
2
2
2
2
2
1
2
1
2
1
2
2
2
2
2
2
2
2
2
2
2
2
1
1
1
1
1
1
2
2
2
2
2
2
2
2
2
2
2
2
2
1
2
1
2
2
1
1
2
1
1
1
2
2
2
2
2
2
2
2
2
2
2
2
1
1
2
1
2
2
1
1
2
1
2
2
2
2
2
2
2
2
2
2
2
2
1
2
1
2
1
1
1
1
1
1
1
1
1
1
1
1
1
1
2
2
2
2
2
2
2
2
1
1
1
1
1
1
1
1
1
1
1
2
1
2
1
2
1
1
2
1
2
1
1
1
2
1
1
1
1
1
1
1
1
1
1
1
1
1
1
1
1
1
1
2
1
1
1
1
1
1
1
1
1
1
1
1
1
1
1
1
2
2
2
2
1
1
2
2
1
1
1
1
1
2
1
1
1
1
1
1
2
2
2
2
2
2
2
2
2
2
1
2
1
1
1
1
2
2
1
1
1
1
2
2
2
2
1
1
2
2
2
1
1
1
2
2
1
1
2
2
2
2
1
2
1
1
2
2
2
2
2
2
2
2
1
1
2
2
1
1
1
2
2
2
2
2
1
1
1
1
2
2
2
2
2
2
2
2
1
1
1
1
1
1
2
1
1
1
2
2
2
2
2
2
2
2
2
2
2
2
2
2
2
2
2
1
2
2
2
2
2
2
2
2
2
2
2
2
2
2
2
1
2
2
2
2
2
2
2
2
2
2
2
1
1
1
1
2
1
1
2
2
2
2
2
2
2
2
1
1
2
2
2
1
1
2
1
2
1
1
2
1
2
2
2
2
2
2
2
2
1
1
2
2
1
2
1
1
1
1
2
2
2
2
2
2
2
2
2
2
2
2
2
2
2
1
2
2
1
1
2
2
2
2
2
2
2
2
2
2
2
2
1
1
2
2
2
2
1
1
2
2
1
2
1
1
1
1
1
1
1
2
1
2
2
1
1
1
1
1
1
1
1
1
1
1
1
1
1
1
1
1
2
1
1
1
2
1
2
2
2
2
1
1
1
2
1
1
1
1
2
2
2
2
2
2
2
2
2
2
2
2
2
2
2
2
1
1
2
2
2
1
2
2
2
2
2
2
2
2
2
2
2
2
2
2
2
2
1
2
2
2
2
2
1
1
1
1
1
1
1
1
1
1
1
1
2
2
1
2
1
1
1
2
2
2
1
2
1
1
2
1
2
1
2
2
1
1
2
1
1
1
1
1
1
1
1
1
1
1
1
1
1
1
1
1
1
1
2
2
1
1
1
1
2
1
2
2
2
2
2
1
1
2
2
2
2
1
2
1
2
2
2
2
2
2
2
2
2
2
2
2
1
2
2
2
2
2
1
1
1
1
1
1
1
1
1
1
1
1
1
2
1
2
1
1
1
1
1
1
1
1
1
1
1
1
1
1
1
1
1
1
1
1
1
1
1
1
1
1
1
1
1
1
1
1
1
1
1
1
1
1
1
1
1
1
1
1
1
1
1
1
1
1
1
1
1
1
1
1
1
1
1
1
1
1
1
1
1
1
1
1
1
1
1
1
1
1
1
1
1
1
1
1
1
1
1
1
1
1
1
1
1
1
1
1
1
1
1
1
1
1
1
1
1
1
1
1
1
1
2
1
1
1
2
1
2
1
1
1
1
2
1
1
2
2
2
2
1
1
1
2
1
1
1
1
1
1
1
1
1
1
1
1
1
1
1
1
1
1
1
1
1
1
1
1
1
1
1
1
1
1
1
1
1
1
1
2
1
1
1
1
1
1
1
1
1
1
1
1
1
1
1
1
1
1
1
1
1
1
1
1
1
1
1
1
1
1
1
1
1
1
1
1
1
1
1
1
1
1
1
1
1
1
1
1
1
1
1
1
1
1
1
1
1
1
1
1
1
1
1
1
1
1
1
1
1
1
1
1
1
1
1
1
1
2
1
1
1
1
1
1
1
1
1
1
1
1
1
1
1
1
1
1
1
1
1
1
1
1
1
1
1
1
1
1
1
1
1
1
1
1
1
1
1
1
1
1
1
1
1
1
1
1
1
1
1
1
2
1
1
1
1
1
1
1
1
1
1
1
1
1
1
1
1
1
1
2
1
1
1
1
1
2
2
1
2
2
1
2
1
2
2
2
1
1
1
2
1
2
2
1
2
1
1
2
2
2
1
1
1
1
1
1
1
1
1
2
2
1
1
1
1
1
1
1
1
1
1
1
1
1
1
1
1
1
1
1
1
1
1
1
1
1
1
1
1
1
1
1
1
1
1
1
1
1
1
1
1
1
1
1
1
1
1
1
1
1
1
1
1
1
1
1
1
1
1
1
1
1
1
1
1
1
1
2
1
1
1
1
1
1
1
1
1
1
1
1
1
1
1
1
1
1
1
1
2
1
1
1
1
1
2
1
1
1
2
1
1
1
1
1
1
1
1
1
1
1
1
1
1
1
1
1
1
1
1
1
1
2
1
1
1
1
1
1
1
1
1
2
1
1
1
1
1
1
1
1
1
1
2
1
1
1
1
1
1
1
1
1
1
2
1
1
1
1
1
1
1
1
1
1
1
1
2
1
2
1
1
1
1
1
1
1
2
1
2
2
2
1
1
2
1
1
1
1
1
2
1
1
1
1
1
1
2
2
1
1
1
1
1
1
2
1
1
1
1
1
2
1
1
1
2
2
1
1
1
1
2
2
2
2
2
2
2
2
1
1
2
2
1
1
1
1
1
2
1
1
1
1
1
2
2
2
1
2
1
2
2
2
1
1
2
2
1
1
2
2
1
1
1
2
2
2
1
1
2
1
2
2
1
1
1
1
1
1
1
1
2
2
1
1
1
1
1
1
1
1
1
1
1
1
1
1
1
2
2
2
1
1
2
2
2
2
2
1
1
1
2
1
2
2
2
2
2
2
2
2
2
2
2
1
1
1
2
2
2
2
1
1
1
2
2
2
2
1
1
1
1
1
1
1
1
2
1
2
1
1
1
1
1
1
1
1
1
1
2
2
1
1
2
2
1
1
2
2
2
1
2
1
1
2
2
2
2
2
2
2
2
2
2
2
2
2
2
2
2
1
1
2
1
1
1
2
2
2
2
2
2
2
2
2
2
2
2
2
2
2
1
2
1
1
2
2
1
1
1
1
1
1
1
1
1
1
1
1
1
1
1
1
2
2
1
1
1
2
1
1
1
1
1
1
1
1
1
1
1
1
2
2
2
2
1
1
2
2
1
1
1
1
1
1
1
2
1
1
1
2
2
2
2
2
2
2
2
2
2
2
1
1
1
1
2
2
1
1
2
2
2
2
1
1
2
2
2
2
2
2
1
2
2
1
2
2
1
2
1
1
1
1
2
2
1
2
2
2
2
1
2
2
1
2
1
1
2
2
1
1
2
2
2
2
1
1
2
2
1
1
1
1
2
2
2
2
2
2
2
2
2
2
1
1
1
1
1
1
1
1
2
2
2
2
2
2
2
2
1
2
2
2
1
1
1
1
2
2
1
1
1
2
2
1
2
2
1
2
2
2
2
2
2
1
2
2
1
2
2
1
1
1
1
2
1
1
1
1
1
1
1
1
1
1
1
1
1
1
2
1
1
1
1
1
1
1
1
2
2
1
1
1
1
2
1
2
2
1
1
1
2
2
2
2
1
2
2
2
2
2
2
1
2
1
2
2
1
1
1
2
2
2
2
1
2
2
1
1
2
2
2
2
2
2
2
1
1
1
1
1
1
1
1
1
1
1
1
2
2
2
1
1
1
1
2
2
2
2
2
2
2
2
1
2
2
2
2
1
1
1
1
2
1
2
1
1
2
2
2
1
1
1
1
2
2
1
2
2
2
2
2
2
2
2
2
2
2
2
1
2
2
2
1
1
2
2
2
2
2
2
2
2
2
2
2
2
2
1
1
1
1
2
1
2
1
1
1
1
1
1
1
1
1
1
1
1
1
1
1
1
2
1
2
2
1
1
1
1
1
1
1
1
1
1
1
1
1
2
1
2
2
1
1
2
2
2
2
2
2
2
2
2
2
2
2
2
2
2
2
1
2
2
2
2
2
2
2
2
2
2
2
1
2
2
2
2
2
2
2
1
2
1
2
1
2
1
2
2
2
2
1
1
2
2
1
2
1
1
2
1
1
2
1
2
1
1
2
1
1
1
1
1
2
2
1
1
1
1
1
1
1
1
1
1
1
1
1
1
1
1
1
2
1
1
1
1
1
1
1
1
1
1
1
1
1
1
1
1
1
1
2
2
1
1
1
1
2
2
2
2
1
1
1
1
2
2
1
1
1
1
1
1
1
1
1
1
1
1
1
1
1
1
1
1
2
2
2
2
2
2
2
2
2
1
2
1
2
2
1
1
1
1
2
2
1
1
1
1
1
2
1
1
1
1
1
1
1
1
1
1
1
1
1
1
1
1
1
1
1
1
1
1
1
1
1
1
1
1
1
1
1
1
1
1
1
1
1
1
1
1
1
1
1
1
1
1
1
1
1
1
1
1
1
1
1
1
1
1
1
1
1
1
1
1
1
1
1
1
1
1
1
1
1
1
1
1
1
1
1
1
1
1
1
1
1
1
1
1
1
1
1
1
1
1
1
1
1
1
1
1
1
1
1
1
1
1
1
1
1
1
1
1
1
2
1
1
1
1
1
1
1
1
1
1
1
1
1
1
1
1
1
1
1
1
1
1
1
2
SCALARS stress float 4
LOOKUP_TABLE table2
-53.576472 -103.820384 9.017327 -48.566756
-211.308613 -362.261680 33.430818 -205.501808
-117.232370 -205.540985 10.472204 -106.081539
-102.750589 -187.057914 21.671808 -98.757483
-148.696735 -280.188784 -5.847582 -147.378610
-108.129065 -201.510138 -3.174913 -116.730659
-115.839603 -123.464530 12.247945 -71.791240
-155.653814 -240.274901 45.579567 -137.499760
-3.736190 -16.916291 1.577664 -6.195744
-87.817551 -158.263284 21.843107 -83.118322
-90.081036 -86.282448 23.586594 -52.909045
-25.483122 -64.925172 1.173300 -27.122488
-51.599974 -73.685414 22.025977 -38.786579
-101.689807 -84.953551 31.926140 -61.060873
-123.225449 -213.680013 8.465151 -129.908715
-33.457182 -19.122731 2.448309 -15.773974
-36.823050 -73.122852 -1.516395 -32.983771
-3.621160 -5.874299 -0.658302 -2.848638
-49.183877 -20.093469 0.272651 -20.783204
-154.781008 -276.211136 -14.985660 -149.644850
-153.353940 -290.972783 -1.436728 -153.941467
-168.505985 -317.792715 0.252463 -168.505985
-136.807167 -253.271447 11.969018 -149.115236
-127.741612 -229.315067 25.256716 -123.303886
-144.936201 -275.703123 -2.854663 -145.682647
-48.048419 -105.000187 0.812777 -50.144751
-96.893960 -169.732095 15.636579 -96.638264
-191.011512 -313.365565 13.430950 -180.816671
-25.414150 -55.948481 4.880316 -24.408789
-123.006939 -225.252725 20.403065 -134.182801
-40.954812 -88.889865 8.238060 -40.263196
-290.565216 -526.291895 -25.014123 -291.180619
-191.226444 -323.153930 -42.629741 -180.725814
-139.288856 -261.708694 -14.110646 -139.341312
-121.615498 -218.803025 -4.969160 -125.069459
-86.814098 -123.670615 -31.241870 -69.746087
-101.351824 -184.309164 0.053280 -103.459520
-38.416025 -83.887294 -6.371140 -36.741350
-41.808446 -93.209649 0.145954 -43.480246
-2.149425 -19.935148 -1.545791 -6.625372
-20.017025 -15.497722 -4.073208 -10.654424
-32.831176 -64.886263 6.676411 -29.315232
-25.565588 -64.772200 2.713595 -27.101336
-56.586025 -119.397766 1.148955 -57.440474
-57.745753 -121.061652 -5.299754 -58.222502
-95.471770 -122.996011 19.182997 -65.672416
-126.508640 -205.652161 17.726261 -117.219611
-26.734883 -67.106192 1.050627 -28.152323
-0.830688 -19.423928 3.861853 -6.076385
-104.860139 -204.489057 5.385936 -106.973206
-19.321522 -47.797241 4.750607 -20.135629
-64.670838 -132.021732 7.438791 -65.518014
-143.986919 -256.245479 27.714558 -151.504735
-76.861687 -152.863949 9.053383 -77.025956
-138.946560 -261.969533 2.562385 -139.312326
-15.186053 -46.288161 -2.683488 -18.442264
-49.483131 -106.010626 5.493224 -49.904634
-25.766334 -27.274982 -3.055073 -15.912395
-27.071514 -50.616336 -2.638913 -23.306355
-46.481219 -100.839730 -5.054772 -48.742482
-36.079458 -67.197508 14.701395 -30.983090
-103.684940 -174.470300 29.120123 -94.452532
-35.291101 -81.401622 -4.288066 -36.624611
-89.571531 -175.589519 1.219234 -97.157005
-102.228036 -142.467386 16.133996 -76.089433
-115.910431 -210.602209 22.571151 -112.157693
-118.955244 -166.459886 40.368714 -97.195918
-6.098636 -4.433891 3.231143 -3.159758
-27.450303 -10.428221 1.380115 -11.363557
-119.879321 -222.357368 15.996561 -120.773450
-146.638041 -268.361684 21.320568 -143.912170
-34.383489 -32.038599 16.421423 -19.926626
-36.789047 -40.736462 17.895011 -23.257653
-49.750121 -33.711956 12.043074 -25.038623
-113.982165 -106.099355 37.119441 -72.930118
-128.476247 -203.993857 37.624601 -114.307776
-29.098763 -17.982173 2.306137 -14.124281
-23.040318 -23.262976 -1.549339 -13.890988
-38.245437 -65.209590 2.808028 -31.036508
-20.032798 -37.137158 -3.302926 -17.150987
-23.097644 -35.479937 2.765426 -17.573274
-214.896114 -392.989591 -21.078509 -244.588003
-115.151693 -162.145679 -30.535417 -89.049692
-162.702168 -300.417996 -6.867665 -158.925488
-140.657534 -207.982376 8.699014 -107.008195
-141.335622 -201.455280 -14.354239 -105.526466
-200.256797 -371.601801 12.004434 -240.096804
-159.034738 -283.943343 -14.426983 -168.198274
-165.319706 -293.014748 -13.331691 -158.870486
-124.575806 -194.869391 11.936752 -100.826338
-162.476364 -282.826949 -2.010195 -166.595604
-172.526050 -265.269387 -19.232993 -141.146277
-170.874873 -294.175130 33.759546 -160.060189
-145.260665 -263.506360 -15.828848 -163.229212
-145.108391 -274.525715 -9.489467 -146.143243
-148.098278 -271.633244 5.328332 -142.812608
-146.266864 -274.885521 -8.933807 -144.582512
-150.633975 -275.446047 4.592666 -153.138737
-147.342486 -221.587027 32.708929 -121.100104
-91.733620 -175.169570 14.890685 -90.330227
-133.851648 -248.114660 18.868854 -132.406326
-135.975047 -254.971132 14.709174 -135.617885
-152.329252 -266.091625 29.063134 -143.352675
-114.562194 -214.952857 16.725365 -113.245036
-129.506453 -234.531107 18.304400 -128.667184
-139.538805 -238.720454 19.132298 -125.856619
-150.169456 -281.259216 12.433584 -172.051073
-193.382605 -246.931637 42.512242 -141.716814
-140.375186 -206.426965 0.235118 -105.531517
-171.737323 -284.409781 -9.390124 -156.190494
-140.912568 -226.783469 14.653587 -118.563912
-167.394756 -307.723407 -17.271521 -163.992551
-137.894156 -143.910861 14.472546 -84.541505
-189.067559 -327.096089 4.578572 -204.473092
-130.957390 -245.402658 -1.168003 -131.146787
-148.254128 -247.963036 26.374249 -133.180439
-122.035534 -224.393335 19.202965 -121.210516
-139.355959 -257.147349 18.655389 -138.033282
-190.653625 -313.188440 42.515919 -204.294825
-129.798897 -242.626109 5.445650 -138.456493
-139.575887 -245.401035 29.259209 -136.785369
-112.323625 -156.986881 29.742899 -85.937532
-96.756247 -137.608579 34.060861 -78.513777
-85.390036 -169.005598 6.433429 -85.995991
-75.204207 -124.766612 24.587787 -65.617288
-138.741511 -255.077538 7.521208 -149.066644
-105.308906 -189.350890 15.270107 -100.860221
-78.543308 -95.339032 27.286391 -54.739478
-123.294923 -222.613254 8.818298 -119.421208
-46.977508 -100.741346 -6.735483 -47.086348
-114.833862 -207.514178 -3.728567 -118.228221
-103.303633 -199.127105 -0.685057 -103.255704
-129.195256 -239.599474 -2.807862 -124.825290
-149.849709 -281.940715 -7.298254 -155.818347
-181.079586 -332.610522 19.466262 -204.911863
-95.597349 -180.991383 15.841708 -93.893144
-129.774052 -244.837970 -14.175218 -129.620914
-118.368181 -225.943674 11.263278 -129.297776
-128.205120 -197.547778 0.836019 -102.096041
-156.959310 -285.456585 17.709494 -165.639594
-120.235200 -113.452812 -28.892292 -71.860466
-143.713116 -259.681993 1.695089 -139.249056
-86.728641 -129.403936 -30.402700 -71.863368
-138.868565 -262.256272 3.524717 -154.206958
-29.698606 -70.734620 3.869772 -30.129968
-126.347184 -214.015539 -1.550548 -129.842589
-85.803104 -120.885766 -30.788678 -67.291586
-61.302257 -124.137970 5.127060 -61.367928
-91.031232 -107.942953 7.506797 -59.692255
-175.245730 -220.733694 6.110229 -118.793827
-62.289785 -120.117517 -14.515506 -59.701226
-14.023446 -42.470066 4.864075 -16.948054
-109.534023 -187.417139 -1.242294 -107.799096
-33.870083 -79.272538 3.153763 -37.028211
-95.472300 -153.680652 -0.948799 -84.236974
-83.082492 -143.399651 -6.580794 -75.808463
-87.778788 -169.237020 2.470832 -86.738201
-31.486194 -57.773860 -14.307381 -26.778016
-86.603388 -87.147933 -2.387815 -52.125396
7.003473 -7.301654 1.245836 -0.089454
-59.944576 -125.542043 3.049047 -60.672945
0.170069 -18.892808 2.344037 -5.616821
-49.665922 -93.413224 -15.091299 -44.962485
-70.525880 -141.637554 -8.510304 -70.224119
-88.034424 -122.166684 1.227695 -63.060332
-34.990049 -81.324342 -2.543255 -35.425103
-59.880470 -116.519828 -2.480346 -57.015940
-95.449405 -150.046241 -5.282162 -82.455556
-17.762421 -33.310623 6.258672 -15.321913
1.965318 -15.888588 -1.360238 -4.176981
-15.332024 -46.397137 -2.481599 -18.518748
6.944090 -6.533523 -0.509856 0.123170
-3.273372 -18.065199 -2.728543 -6.401571
4.670661 -11.871452 0.120334 -2.160237
-17.580963 -50.796876 1.265379 -20.513352
-18.214698 -51.131280 -3.476349 -20.803793
-11.185173 -37.401823 -3.677692 -14.576099
-75.720912 -131.343430 3.781923 -69.931465
8.153491 -6.105511 -0.405248 0.614394
2.615113 -14.924614 -1.622225 -3.692850
-54.184111 -116.010978 -1.630082 -54.962480
-33.883131 -79.519413 2.509447 -34.357110
-41.456936 -91.913393 -5.236451 -41.606751
-52.325462 -111.580022 -3.099922 -52.741750
-1.492955 -21.809617 -2.710007 -6.990772
-22.784573 -60.230959 0.995797 -24.904660
0.858697 -18.045666 -1.794960 -5.156091
-8.695498 -34.960330 2.439233 -13.096748
2.662411 -7.441722 1.627216 -1.433793
-6.665385 -28.760038 0.518461 -10.627627
-3.465045 -19.757520 4.009367 -6.966770
-1.194920 -1.794584 0.489966 -0.896851
-44.885008 -94.135951 8.360411 -42.995354
-58.193363 -118.162711 5.049594 -57.118927
-25.294118 -64.580767 1.799574 -26.962465
0.373413 -19.235823 -0.869653 -5.658723
-29.114417 -70.741526 3.355113 -29.956783
-7.913622 -31.033616 4.914223 -11.684172
-50.715890 -108.884960 3.892138 -51.239344
-112.495329 -218.405205 -1.213179 -118.993026
-52.020316 -109.219030 4.370242 -59.986506
-31.138331 -75.007388 1.466524 -31.843716
-106.835233 -200.247262 6.728153 -116.758054
-54.770753 -116.470639 -4.215281 -55.324281
-67.878304 -139.359595 -4.984319 -68.488551
-91.668139 -175.868515 9.813404 -90.755240
-75.846015 -131.089866 21.694664 -67.303460
-128.837697 -234.763854 13.810961 -125.089392
-81.632269 -160.487413 10.432955 -82.611342
-123.826319 -234.539192 13.159814 -124.733302
-85.377834 -167.762143 9.678318 -87.047153
-90.469557 -175.384572 4.381831 -90.640707
-38.620144 -84.631150 8.030590 -38.499468
-139.930420 -250.106195 10.884226 -135.316754
-77.748898 -146.632990 14.290597 -73.277994
-130.856996 -211.806745 36.846537 -118.066753
-90.232813 -143.605615 22.709637 -80.626953
-138.929045 -229.101941 36.874628 -127.343443
-75.755147 -144.627970 11.383837 -71.633539
-78.922545 -152.521901 12.403520 -77.205943
-113.224318 -169.530873 37.026348 -96.093167
-89.787241 -152.352850 26.323617 -81.273774
-37.860130 -59.475319 17.735738 -29.200635
-70.961649 -144.485289 7.097998 -71.281215
-90.552624 -131.475825 32.020797 -76.248927
-108.404378 -141.162621 37.167030 -82.679480
-35.192167 -53.529380 17.264811 -26.616464
-84.205276 -150.906022 20.265270 -77.778443
-53.594081 -98.261306 17.461560 -48.341132
-27.418631 -31.061614 12.781302 -17.544073
-75.915091 -110.907059 28.089717 -60.284502
-78.353139 -142.501239 20.223509 -73.515352
-65.586642 -115.360675 13.102029 -57.747697
-77.975642 -134.683725 22.108650 -70.243232
-26.674433 -54.396852 7.131100 -24.321385
-49.278989 -72.828067 17.807833 -36.632117
-29.945251 -72.500042 2.695440 -30.733588
-25.153284 -64.616690 0.456395 -26.930992
-21.979424 -34.944505 13.641222 -17.077179
-48.804279 -53.251684 21.301180 -30.616789
-9.529050 -22.467947 9.818035 -9.599099
-48.624696 -79.136556 19.835108 -39.525900
-14.443260 -20.855437 7.902045 -10.589609
-19.043957 -36.389213 12.106226 -16.629951
-22.547924 -40.033727 6.588337 -18.774495
-26.634945 -50.228545 13.202821 -23.059047
-48.016210 -82.750704 18.558472 -41.763172
-88.929616 -130.803354 23.862152 -70.904215
-23.747276 -15.489790 9.045099 -11.771120
-50.082043 -69.882032 21.746787 -36.819010
-39.990793 -50.067988 19.057844 -27.017634
-79.472960 -110.187210 25.614676 -60.591017
-26.352753 -23.252190 13.949132 -14.881483
-25.439984 -38.126529 14.727252 -19.069954
-24.853013 -49.404890 12.490480 -22.277371
-14.640309 -10.578573 6.862393 -7.565664
-36.777296 -33.224000 10.064650 -21.000389
-17.607597 -18.574460 11.528774 -10.854617
-2.401043 -9.587124 1.829818 -3.596450
-28.530809 -27.252719 14.901809 -16.735058
-39.426034 -54.117986 18.833066 -28.063206
-19.211701 -8.499922 9.768741 -8.313487
-18.103883 -17.623412 8.312392 -10.718189
-49.118554 -53.496950 21.425304 -30.784651
-41.306855 -33.810143 17.221698 -22.535099
-27.604835 -38.520604 7.179048 -19.837632
-7.997899 -10.026082 -1.416551 -5.407194
-48.651977 -64.255817 21.533271 -34.173104
-91.517457 -147.952966 23.988494 -77.399649
-74.568206 -67.368292 26.726008 -46.531699
-26.622094 -27.173890 7.471237 -16.138795
-101.244872 -123.633876 36.805315 -75.035285
-41.706437 -53.467654 19.602304 -29.224521
-119.021078 -199.589005 31.973587 -109.602401
-142.742273 -144.027967 46.000659 -97.018928
-53.231253 -28.375829 6.504926 -24.482124
-34.987228 -14.725473 0.109070 -14.913810
-35.762888 -20.207895 5.026207 -16.791235
-24.958797 -6.319052 0.730669 -9.383355
-1.370567 -2.662824 0.500966 -1.210017
-73.578208 -138.156755 -2.225402 -70.600537
-1.441493 -7.066333 0.595718 -2.552348
-19.697354 -19.023045 -5.092180 -11.616120
-25.005778 -40.725016 -1.350708 -19.719238
-3.512951 -2.309084 -0.904308 -1.746610
-9.640548 -16.867420 0.472751 -7.952391
0.483229 -2.144184 -0.942842 -0.498286
-13.740435 -18.320877 -5.155701 -9.618394
-41.204759 -89.216303 6.785898 -40.738280
-84.604827 -94.021041 31.586927 -58.081284
-33.141397 -38.091312 4.430431 -21.369813
-56.460198 -104.435919 14.005145 -51.345017
-39.398629 -62.315766 4.894265 -30.514319
-45.871813 -83.774977 4.640794 -40.539808
-28.161729 -39.166823 8.798568 -20.198565
-10.004016 -10.852597 1.782962 -6.256984
-28.349054 -43.569971 8.171264 -21.575707
-31.617506 -12.854918 -0.630190 -13.341727
-60.668178 -50.971956 22.174682 -33.720397
-70.913218 -57.227053 9.905538 -38.442081
-42.897096 -36.672653 11.495761 -23.870925
-100.255171 -88.493951 31.414581 -60.417912
-26.947372 -20.863387 13.664697 -14.343228
-44.065397 -18.127760 8.692116 -18.657947
-68.242536 -68.605651 0.484699 -41.054456
-113.459163 -193.242887 29.757930 -104.894853
-143.071885 -263.569435 13.282655 -139.015954
-125.381835 -105.661231 37.553521 -76.736879
-150.944669 -149.599006 48.361378 -102.492582
-139.167294 -129.212336 42.899166 -90.559324
-77.260062 -43.107010 16.812933 -36.850476
-21.172275 -8.752481 -4.591864 -8.977427
-82.464428 -63.327668 25.719187 -46.822619
-37.632630 -19.244201 4.711571 -17.063049
-92.372287 -70.956070 21.300158 -48.998507
-127.666174 -138.298168 41.447321 -90.524399
-113.723546 -141.467058 33.065380 -83.439316
-104.721412 -64.627367 23.143221 -54.512994
-98.339009 -148.364017 33.082514 -82.973219
-140.671075 -218.117104 39.835195 -138.966230
-126.869950 -227.442872 25.395932 -122.305982
-114.560455 -135.909127 33.942566 -80.552378
-84.141480 -90.544479 31.408401 -56.604098
-135.377446 -187.743893 45.007455 -110.872369
-122.117408 -205.069956 32.320623 -113.726982
-76.631556 -117.528909 26.044641 -62.458987
-126.396674 -156.468010 42.572435 -95.602242
-118.149777 -131.312889 39.196614 -83.838091
-104.304480 -86.228616 32.134166 -62.419768
-76.661434 -102.236820 29.281151 -58.243167
-121.507737 -142.989558 41.052518 -89.508132
-61.347099 -56.781215 1.014010 -35.438494
-48.593173 -52.186791 11.734607 -30.233989
-30.208150 -47.814708 13.055602 -23.406858
-54.205059 -72.664004 13.061174 -38.060719
-43.463991 -34.821970 7.202601 -23.485788
-66.632509 -102.571417 24.876652 -54.725075
-59.618808 -102.789893 17.966080 -51.774729
-54.316715 -94.899700 17.899309 -46.537191
-42.348190 -67.746922 -0.162900 -33.028534
-29.693910 -21.545984 3.624434 -15.371968
-46.768902 -89.084187 4.815099 -41.090353
-37.802552 -60.376790 9.174286 -29.453803
-50.665033 -107.745304 2.048263 -49.714831
-24.945801 -53.230630 -4.806631 -23.452929
-48.776489 -104.715324 -3.621089 -48.092151
-135.228634 -258.749069 2.148938 -135.234497
-203.433458 -379.430806 -2.120067 -205.707142
-159.013331 -265.179281 -11.396162 -139.461700
-148.577937 -236.851555 10.271098 -123.381320
-161.926701 -306.010651 -2.139133 -162.885466
-154.240136 -266.800749 33.684638 -146.091427
-201.768241 -366.322959 -3.884337 -199.391483
-153.209770 -281.229326 12.833927 -148.649973
-211.794381 -387.009324 -7.288778 -211.254974
-162.374651 -169.456819 13.816332 -99.639679
-212.290868 -388.674264 20.550724 -212.745306
-136.378127 -253.845586 14.750647 -136.557658
-146.349399 -277.737077 -0.482206 -145.844808
-198.861918 -359.045128 27.240226 -221.878234
-126.492412 -242.652196 6.087322 -127.716545
-210.339632 -366.378273 31.799832 -203.380984
-151.316432 -142.967340 -6.390277 -88.285132
-126.837816 -229.967701 -7.319900 -120.145210
-135.572825 -253.789435 -7.021348 -132.711511
-136.305482 -259.377742 1.589065 -135.690673
-150.244485 -260.758435 -7.724367 -137.976590
-131.097189 -204.128911 7.618973 -105.470124
-139.982979 -241.998022 -21.623946 -144.910948
-151.385136 -261.619812 -7.191731 -143.316818
-133.518267 -246.639748 -17.752507 -130.589554
-125.842416 -132.291832 -15.220237 -77.440274
-154.454744 -222.735361 10.299995 -116.470256
-170.335423 -294.563090 -19.687186 -161.286801
-175.540581 -204.662930 11.195554 -114.689526
-165.333091 -268.018718 -16.340391 -152.811032
-95.341490 -178.187615 -10.493271 -93.384096
-126.601902 -238.992047 -13.977203 -126.418433
-119.325473 -207.558049 -7.529060 -115.140248
-136.474264 -209.597938 5.349850 -107.523078
-146.119655 -270.324257 19.034487 -144.937700
-155.925928 -287.079346 -20.249932 -156.538358
-111.038511 -200.969137 9.553255 -103.026377
-120.855449 -197.043266 30.400200 -106.698128
-137.111921 -197.295377 -9.128878 -102.622006
-146.110962 -234.753678 26.096134 -126.442614
-173.393309 -313.379015 13.323884 -170.364844
-137.626275 -261.923076 7.589430 -138.804729
-101.948055 -141.827065 -11.002134 -73.132536
-169.378222 -301.990321 9.936543 -161.957893
-160.768325 -300.650402 0.437073 -173.430935
-157.209352 -295.200504 11.380416 -172.626986
-205.043876 -374.420600 4.931718 -223.966095
-145.095676 -231.245935 0.978804 -119.548400
-144.842649 -235.607150 -1.919213 -122.032402
-147.122475 -234.179549 13.307357 -122.327708
-152.396309 -289.290837 1.157848 -152.396309
-150.487182 -249.412860 12.512764 -131.320131
-164.347785 -259.184054 -13.176868 -147.102806
-192.950182 -359.785313 8.568970 -194.725347
-135.845875 -85.239906 0.170833 -66.371820
-150.444838 -272.688961 12.736927 -144.031563
-145.064743 -254.577189 7.351267 -133.438128
-154.597949 -282.476638 19.425219 -170.705030
-139.981933 -225.995731 2.442008 -116.611208
-136.726610 -249.426080 22.659669 -133.421648
-151.499920 -287.192036 -4.498307 -152.919255
-158.120782 -298.814039 -5.620973 -158.120782
-133.011281 -250.197304 -14.371563 -132.836976
-180.496912 -323.373348 15.989291 -174.645711
-163.469072 -308.785852 -2.203996 -163.469072
-173.884391 -327.030523 2.842958 -175.811053
-149.730653 -283.781419 5.799689 -151.200043
-128.650308 -194.434692 -13.021832 -100.122445
-165.745786 -312.512352 -4.194384 -167.457794
-237.726527 -386.580311 56.174321 -218.114192
-109.859833 -201.367511 12.986924 -108.026190
-133.029638 -232.004682 23.056362 -128.918404
-165.025621 -293.083799 11.597105 -178.370798
-189.319321 -347.235941 20.639287 -201.723135
-150.503737 -276.272527 16.692334 -146.313860
-188.429104 -321.422354 7.290442 -179.762395
-151.762044 -256.817515 22.527701 -136.980728
-148.558701 -245.397762 12.727863 -128.479959
-177.366117 -298.809200 34.510096 -166.510428
-132.691099 -235.687020 23.919833 -125.196856
-146.244532 -278.167365 -0.138688 -147.082901
-143.662320 -244.590264 34.256991 -134.839729
-149.352524 -222.190016 43.776991 -130.956123
-128.484312 -211.875403 27.193044 -116.706236
-134.001249 -228.401928 32.483364 -124.251460
-166.598737 -266.377016 17.041280 -152.630035
-167.638632 -290.049825 33.024511 -157.667780
-117.839512 -224.308013 -12.380222 -117.861942
-129.133570 -245.902867 9.899673 -129.863767
-176.001498 -168.285547 20.591746 -103.286114
-137.043821 -258.005670 -1.528408 -134.713614
-212.524212 -378.476766 -16.211253 -235.571018
-142.010733 -209.139468 7.184335 -107.493376
-145.450746 -233.293344 -11.138900 -121.487343
-137.424305 -262.576873 3.777411 -138.965430
-132.909223 -246.770592 17.523494 -131.206735
-153.386710 -269.132144 12.379300 -141.866001
-110.403563 -180.696761 31.887618 -109.773858
-98.509437 -160.601085 16.553071 -109.616390
-129.273390 -222.630326 21.759955 -131.117214
-162.574024 -254.404214 46.105966 -145.137388
-141.321625 -259.286112 10.599955 -157.457105
-151.518902 -275.987109 15.778432 -150.772290
-141.101052 -255.662083 6.153519 -139.448585
-165.858030 -300.598572 9.608830 -163.186325
-116.622310 -214.059238 11.586406 -125.622036
-124.306820 -228.351404 19.321625 -138.698878
-123.784625 -235.181220 12.169308 -123.975359
-211.196212 -304.061087 63.111175 -181.137231
-122.825494 -215.780107 24.908144 -139.230067
-160.502373 -257.873822 -1.086244 -160.707527
-141.100653 -268.904039 2.905610 -142.053874
-137.177926 -252.699192 19.999544 -153.802137
-123.973807 -227.947981 20.395809 -134.097989
-161.774750 -291.045359 4.494307 -160.165965
-150.681612 -246.544545 32.637676 -158.900512
-151.132284 -286.884891 3.487128 -152.837265
-139.114142 -244.393188 16.649305 -142.582166
-173.201813 -323.766463 -7.677924 -178.112297
-158.028986 -291.717319 9.479194 -157.418579
-171.937349 -266.296009 9.687800 -170.511932
-158.134688 -292.429101 3.345649 -174.996791
-132.539675 -253.995095 1.069957 -133.997843
-126.005495 -239.291518 9.049281 -142.609250
-90.297582 -141.365929 27.851997 -86.677117
-129.277028 -245.880092 -4.191577 -127.929918
-133.191613 -246.776768 -18.742748 -130.062038
-153.368744 -278.194227 24.522431 -160.780867
-117.218398 -220.231513 0.647944 -117.258836
-89.262983 -177.557300 2.403650 -92.380925
-122.376055 -213.495194 10.523680 -116.463868
-134.029993 -246.297644 20.042798 -132.978231
-83.995698 -166.599489 7.413554 -95.703417
-123.158319 -217.668822 11.568948 -114.920200
-108.517899 -204.575805 -2.298470 -122.265148
-94.541821 -129.757894 -9.440969 -67.289915
-115.006753 -201.750772 23.907551 -111.805945
-90.920951 -176.641951 9.360754 -104.317093
-125.750772 -193.965764 38.674927 -109.653381
-123.625462 -220.195867 15.236033 -132.587549
-146.901127 -264.873782 18.705484 -143.268888
-111.676050 -203.448015 19.872167 -110.294828
-117.697886 -195.735739 24.824937 -108.716996
-120.009197 -221.441368 17.191922 -119.799591
-144.259982 -243.259275 24.628223 -136.341331
-146.455047 -269.592821 8.170838 -163.533443
-139.363427 -244.906363 8.158074 -142.644378
-117.190405 -180.626794 36.182562 -101.516280
-126.722217 -154.763329 23.785424 -84.445664
-149.511036 -283.837887 3.855543 -151.296430
-122.997348 -210.110600 30.891246 -127.054543
-140.357576 -254.107795 23.908606 -137.132354
-164.393937 -223.819887 33.325787 -123.791341
-113.107957 -183.710353 33.169314 -101.255314
-104.554417 -141.271746 8.160020 -73.747849
-109.997100 -156.975237 37.510324 -90.395989
-61.656699 -128.759648 1.460046 -63.398078
-96.665538 -183.926186 14.937127 -95.423796
-102.836451 -141.960010 -3.841923 -73.829379
-109.136804 -206.549650 -14.868434 -114.018188
-76.143580 -110.572314 27.722708 -73.457254
-58.377455 -119.123315 7.373139 -60.011895
-113.868821 -211.731096 1.851106 -124.988520
-103.529903 -195.098336 12.017972 -101.740401
-67.674578 -139.201291 2.805118 -68.669422
-89.507921 -160.547116 21.601182 -83.066047
-165.356191 -299.264342 15.444865 -178.196786
-98.676315 -163.129714 29.313073 -93.117469
-96.339763 -146.045809 -14.860550 -73.870033
-99.630003 -188.231190 16.146795 -98.044448
-73.125545 -147.089659 5.076346 -72.780333
-58.471899 -104.269230 16.194627 -55.998589
-73.700792 -137.702755 11.868450 -75.201069
-67.662560 -138.224966 6.285379 -68.051936
-134.773798 -232.666091 31.418634 -127.094101
-74.484761 -151.248536 3.517091 -75.343367
-77.605749 -157.282480 -0.908362 -78.652453
-89.359448 -162.235582 17.426682 -88.327376
-101.761601 -198.234732 7.453735 -102.801794
-113.366294 -202.158663 20.125161 -120.472311
-107.387450 -202.071392 7.939132 -107.026957
-132.758766 -235.750782 3.313353 -127.228332
-110.274049 -207.958623 9.211086 -120.202992
-121.678830 -218.025776 8.896882 -130.042939
-110.356923 -189.947078 28.334988 -102.583054
-87.289464 -166.796124 12.565235 -95.983029
-96.617107 -185.489815 13.112836 -97.903906
-95.391343 -183.392322 12.958385 -94.769717
-129.953331 -241.498378 10.060701 -129.155314
-84.262911 -165.025478 10.696616 -100.362336
-103.679176 -189.478274 12.660771 -108.234727
-104.837969 -122.207825 8.804317 -68.113738
-121.447230 -209.758282 13.364923 -111.090073
-109.420043 -149.653185 14.808104 -77.721969
-111.393612 -212.039496 13.331583 -117.422097
-83.637157 -163.604554 11.106078 -84.661500
-94.742692 -106.825199 4.083291 -60.470368
-119.817490 -82.115162 -10.544686 -60.579796
-110.133919 -195.407578 7.902050 -103.561350
-81.146604 -131.864916 -26.600692 -72.807502
-133.203032 -239.706602 -19.197722 -136.171996
-93.700778 -151.321956 -2.072184 -81.969334
-113.460258 -198.481850 -8.933559 -112.715973
-107.841018 -209.785174 4.758864 -109.102936
-118.498856 -219.852072 -5.268406 -124.334360
-100.722444 -94.485929 -9.071805 -58.562512
-124.381657 -214.782008 -10.577502 -113.437032
-138.657117 -264.535316 -4.757988 -143.244647
-89.831027 -96.924646 -11.077402 -56.026702
-120.724008 -202.292399 -5.021615 -116.247974
-115.981976 -195.472623 29.782638 -104.935984
-126.513974 -162.092260 3.112293 -86.581870
-96.960495 -159.160605 -4.250508 -78.920303
-140.214135 -246.962476 28.273800 -144.300676
-81.426917 -156.296083 2.930877 -89.613474
-140.332951 -223.507518 21.609115 -118.841496
-156.046578 -226.714675 -16.208009 -129.713963
-115.957716 -215.750267 -18.623068 -112.782020
-140.800402 -261.800088 17.705064 -139.926016
-119.800163 -191.330109 14.471794 -99.141473
-174.546267 -321.394063 19.532531 -173.982387
-119.279404 -218.041610 -15.535757 -132.384407
-117.211785 -201.600019 -2.039283 -116.015325
-142.705765 -179.496104 1.061077 -96.660561
-112.870516 -219.381226 1.455761 -114.246519
-107.239708 -209.272616 -2.875439 -108.504933
-141.840029 -270.385844 -3.226117 -144.557479
-110.115225 -146.492979 16.656798 -77.188612
-97.134971 -183.153243 14.840653 -93.755097
-136.604311 -244.468539 -6.204704 -132.026266
-128.034920 -225.015105 -2.319530 -123.335230
-153.943397 -287.850606 8.957922 -153.237302
-122.691932 -232.358373 -4.070551 -122.552755
-152.988267 -278.159031 -15.780521 -169.350798
-136.216779 -207.473817 6.529565 -107.096555
-116.327756 -205.210858 2.050515 -112.353820
-153.557531 -236.956744 -21.471127 -130.408574
-143.697295 -198.710168 -4.104034 -103.275399
-119.697434 -88.916031 3.878636 -62.584039
-133.098089 -243.205220 -18.930254 -128.144452
-104.155387 -202.917662 2.275349 -105.024275
-128.261390 -223.358290 -5.564328 -134.561358
-179.459307 -317.303889 25.780362 -197.169910
-117.539378 -202.042969 -4.712592 -110.396855
-117.409716 -202.400538 -2.956744 -118.713423
-125.604344 -238.625435 2.711195 -133.948386
-119.227415 -229.421910 5.726748 -120.177235
-115.051840 -195.609768 -5.717008 -115.166721
-120.963957 -221.442293 -3.638380 -127.635852
-119.978834 -205.768027 -3.471928 -111.772316
-120.072468 -203.409920 -4.526130 -120.145449
-89.843258 -111.909303 -33.258811 -66.555882
-120.271022 -201.885582 -5.432537 -119.438845
-119.335453 -206.771577 -3.350420 -123.216262
-84.282884 -167.828497 -5.658253 -84.855546
-95.705197 -184.679275 -6.367977 -106.654525
-98.866554 -162.845430 -4.930869 -90.093855
-123.059768 -103.124850 -3.525102 -67.855385
-118.401481 -210.815278 -0.563792 -122.735998
-59.957993 -120.004607 0.357065 -59.368741
-105.557087 -186.574669 -0.076554 -108.118864
-113.198657 -189.913207 -7.139771 -112.457958
-79.670255 -159.482560 6.041611 -80.262610
-96.553443 -101.548715 6.681902 -59.430647
-95.510887 -182.669656 -8.046922 -94.526689
-110.369802 -206.279361 4.034914 -117.691135
-89.429650 -124.416000 3.240832 -64.153695
-67.848571 -138.588160 4.937022 -69.536723
-96.410264 -190.232463 -0.814530 -97.597825
-97.595271 -191.068421 -3.586264 -107.504938
-50.557206 -107.987574 5.265498 -50.849216
-88.856339 -140.146935 -2.797128 -75.773067
-87.649868 -150.389285 -7.174500 -81.638519
-57.984066 -68.784696 -21.749486 -38.030628
-100.084800 -193.489813 1.072159 -107.456120
-54.916584 -89.769150 20.975774 -45.375449
-98.599972 -157.394806 -1.413732 -82.932666
-75.451704 -152.808891 3.707592 -76.300653
-117.605701 -207.151506 -10.685372 -116.654519
-78.520608 -156.375479 -7.542865 -78.730910
-76.455220 -150.930643 3.025114 -76.703481
-123.741653 -235.783630 8.775403 -122.648105
-75.983868 -114.938369 9.415468 -57.276671
-97.728451 -144.888510 18.185909 -85.520010
-49.619684 -95.346604 12.475504 -44.999714
-62.739889 -128.227610 -1.121203 -61.378072
-77.978334 -138.156362 5.558738 -71.396470
-59.059950 -123.927254 -1.719081 -59.621216
-65.567802 -124.328761 3.100759 -61.880625
-61.242493 -122.231768 -4.661801 -59.589096
-32.885758 -65.420677 -6.476551 -29.491931
-14.965312 -43.809343 0.464176 -17.632397
-93.256346 -154.010201 -4.065652 -80.978780
-68.257633 -132.445720 -11.671824 -65.192480
-72.225929 -138.179631 -14.777243 -69.525212
-99.116003 -168.722752 -6.168099 -93.928160
-35.616120 -40.899845 11.005369 -22.954790
-82.909355 -137.283598 2.305449 -67.001002
-62.124501 -120.440923 -2.645312 -62.697619
-52.574067 -107.161931 10.827004 -51.280776
-69.909986 -133.147629 -7.450921 -67.322003
-58.017961 -115.957255 -8.050261 -56.618739
-49.154560 -83.234844 18.992580 -40.964353
-19.351042 -53.702334 -2.993864 -21.916013
-69.803337 -78.038216 19.591309 -44.352466
-59.593672 -69.754147 6.233430 -38.804346
-47.541251 -92.052028 -14.496725 -43.924374
-56.823610 -95.690580 -18.116200 -46.903942
-76.902901 -155.407216 -3.679162 -77.771755
-58.531610 -105.710910 -6.057893 -52.867657
-25.815476 -65.624731 0.541081 -27.432062
-63.170061 -115.690401 -13.906216 -59.022275
-53.215900 -92.559106 -7.707604 -43.732502
-44.605958 -95.541573 7.813661 -45.110563
-54.897218 -114.154527 7.830709 -55.114189
-43.728275 -68.172568 1.266931 -33.570253
-48.284429 -102.891939 -3.074404 -48.084920
-35.490422 -82.309336 -2.560353 -35.973117
-61.573185 -125.041679 8.996251 -60.226050
-64.758964 -132.010047 7.694992 -66.802909
-36.805723 -74.605840 -12.495621 -33.646761
-33.407481 -66.519467 0.440659 -29.978084
-46.876897 -80.448262 17.940362 -38.829995
-88.570062 -176.243629 -2.106155 -89.376549
-47.953398 -82.083391 2.914687 -39.011037
-81.996977 -131.515021 12.885932 -65.540730
-12.765423 -41.492912 -0.991170 -16.277501
-43.797952 -96.253158 4.616138 -44.097716
-74.946442 -149.075250 4.846599 -74.770058
-49.956292 -98.198741 -8.415896 -45.504135
-38.556288 -72.810339 -0.120290 -33.409988
-18.711439 -52.557890 -0.212943 -21.380799
-43.680913 -78.986139 1.273905 -36.800116
-42.604453 -81.465509 2.472634 -37.220989
-46.209934 -101.369831 1.892378 -48.222084
-57.466320 -116.880466 2.210588 -56.442080
-34.840443 -65.204884 2.315707 -30.013598
-46.706559 -91.574951 -8.355131 -41.867145
-38.707663 -73.367777 1.348507 -33.622632
-34.503507 -70.889492 3.683517 -31.617900
-37.595757 -85.885803 1.774865 -38.193624
-27.101668 -57.532813 0.505811 -25.390344
-32.387896 -56.415310 2.001498 -26.640962
-30.844130 -62.054334 1.164189 -27.869539
0.556210 -10.114855 2.385025 -2.867594
-17.370130 -48.988819 -0.362897 -19.907685
-11.355793 -39.388249 2.423188 -15.223213
2.128219 -14.995097 2.580058 -3.860064
-0.510388 -10.312331 1.311063 -3.246816
-5.452960 -21.117391 4.328565 -7.971105
-0.920985 -11.255695 0.833872 -3.653004
-3.156344 -24.471906 2.890691 -8.288475
0.950288 -5.666403 1.088016 -1.414835
3.138032 -12.387152 2.016671 -2.774736
9.307068 -3.551475 0.358742 1.726678
-1.101145 -21.740495 1.078211 -6.852492
-8.780265 -34.856002 2.338014 -13.090880
3.580029 -13.595978 0.164911 -3.004785
-39.994188 -76.594540 0.514222 -34.976618
-4.374807 -27.583432 -0.885533 -9.587472
8.488183 -2.109255 0.353673 1.913678
-3.578939 -26.270361 0.023242 -8.954790
-0.996874 -21.158678 2.021996 -6.646666
4.614756 -10.084003 -2.161158 -1.640774
-5.893075 -24.329072 3.541728 -9.066644
-62.492980 -109.015240 -17.470378 -55.098051
9.679559 -2.556063 -0.373900 2.137049
7.099741 -7.432118 0.840314 -0.099713
2.079809 -15.928305 1.925807 -4.154549
0.269422 -19.002504 -2.128959 -5.619925
4.123587 -12.531589 1.269597 -2.522401
-0.372565 -20.466138 1.402109 -6.251611
-3.408901 -26.022295 -0.749943 -8.829359
-6.255874 -30.940897 1.498049 -11.159031
1.540425 -16.850126 1.787477 -4.592910
-2.525279 -22.101144 -4.277973 -7.387927
2.383361 -15.851288 0.270599 -4.040378
-9.371992 -35.745630 2.087098 -13.535287
-16.152524 -32.258219 -7.007768 -14.523223
-23.377293 -48.952832 5.686736 -21.699037
-11.967308 -34.170292 -2.195868 -13.841280
-15.009658 -46.258128 -1.571476 -18.380336
-19.022376 -52.413677 3.452956 -21.430816
-25.039043 -57.734289 8.838093 -24.832000
-12.946174 -31.450174 -7.282953 -13.318904
-48.328574 -102.719560 -4.794015 -48.232333
-39.611220 -88.788886 -2.906619 -40.700630
-34.359155 -80.729233 0.095465 -36.084678
-50.253048 -108.548926 -2.266675 -50.944862
-47.071642 -95.598250 -4.548890 -45.396810
-56.325641 -96.775512 -12.281198 -47.403461
-65.118356 -119.269521 -13.394647 -60.144602
-58.064941 -114.380280 -12.286310 -59.375341
-1.421257 -22.272376 -0.413689 -7.108090
-25.226416 -62.755762 4.923153 -26.394653
-25.411865 -62.650532 5.508910 -26.418719
-21.970029 -42.858919 -1.145845 -19.448684
-42.738505 -93.129418 -6.851989 -42.666187
-6.722717 -31.567252 1.846846 -11.486991
-56.456283 -114.790341 4.734573 -55.529472
-18.606397 -51.772610 -4.246305 -21.113702
-34.221728 -80.446667 1.297339 -34.841352
-4.826900 -15.277161 -2.236223 -6.031218
-22.494620 -59.857387 0.767340 -24.705602
-4.995901 -28.830111 -1.643649 -10.147804
-22.677091 -59.995952 -1.975749 -24.801913
0.544052 -17.336891 -3.443052 -5.037851
-38.933714 -87.891724 4.087562 -39.489785
-6.555909 -31.712206 -0.608573 -11.480434
-27.425597 -67.378791 4.030863 -28.441316
-22.302658 -58.986860 -2.993590 -24.386855
-3.115379 -25.188811 -2.085763 -8.491257
0.038931 -9.265481 0.139562 -2.767965
-3.974601 -26.574478 2.291723 -9.164724
1.315812 -9.957501 0.998444 -2.592506
-13.775150 -12.062049 -2.676918 -7.751160
-2.049467 -16.638788 -2.286804 -5.606477
4.414281 -12.371373 0.625598 -2.387128
-9.501857 -25.263778 -2.629597 -10.429691
0.212181 -18.688136 -2.688480 -5.542787
-7.413213 -31.228340 -4.235367 -11.592466
-2.072760 -1.859778 -0.187956 -1.179761
-4.153886 -27.094964 -1.648989 -9.374655
-7.430983 -33.336067 -0.634013 -12.230115
-3.402360 -25.121621 -2.839944 -8.557194
-22.702031 -58.543538 -4.693438 -24.373671
-16.716107 -41.338559 6.158897 -17.416400
-26.630554 -66.180397 -3.741123 -27.843285
-8.637446 -33.294137 0.028765 -12.579475
-10.896442 -37.633309 1.929668 -14.558925
-17.374340 -48.624845 4.883528 -19.799756
3.969847 -12.927945 -0.200618 -2.687429
-8.126924 -9.781306 -4.106976 -5.372469
-13.431655 -42.019960 -4.411159 -16.635484
-13.652852 -39.456564 4.871149 -15.932825
-5.767276 -9.878958 2.434226 -4.693870
-5.214416 -2.496999 2.006238 -2.313424
-8.428087 -22.810868 7.547992 -9.371686
-6.677342 -6.132143 2.999181 -3.842845
-18.203182 -50.878620 3.931243 -20.724540
-3.662473 -21.587293 2.406113 -7.574930
-4.499640 -10.962555 0.291436 -4.638659
-14.134074 -38.024410 8.123855 -15.647545
-39.697806 -89.089307 4.261382 -39.986971
-17.599700 -50.821324 1.546647 -20.526307
-20.088084 -55.118897 2.510230 -22.562095
-32.231174 -76.809811 1.528291 -32.782871
-32.907464 -77.427558 -3.828079 -33.227406
-24.484629 -62.600752 -1.175945 -26.125614
-15.779314 -36.525549 7.421052 -15.691459
-14.883897 -46.620353 0.196951 -18.451275
-31.358768 -74.878300 2.835062 -31.971885
-31.969527 -75.994266 -3.513325 -32.389138
-42.667634 -95.493799 0.806401 -43.375905
-24.885843 -64.119672 0.027392 -26.701655
-21.818327 -56.918638 4.710809 -23.621090
-10.353841 -37.480227 2.452625 -14.350220
-27.082720 -67.964726 0.611412 -28.514234
-27.594419 -68.866307 1.018495 -28.938218
-29.715523 -70.275059 5.810024 -29.997175
-11.063644 -37.706071 4.214507 -14.630914
-25.630473 -64.421489 3.761823 -27.015589
-20.534138 -47.766007 9.635214 -20.490044
-39.995540 -83.505695 11.058109 -37.994953
-22.247513 -56.306580 6.021859 -23.566228
-55.441769 -117.287440 4.124657 -55.991404
-64.604340 -134.575542 -0.997654 -65.530961
-61.626506 -111.905313 9.666278 -57.250490
-40.019239 -83.848297 10.816243 -38.142460
-42.172212 -94.268809 -3.218696 -42.676556
-95.427621 -188.518064 1.449699 -96.610692
-35.035652 -81.845351 0.323431 -35.784193
-43.017193 -95.995933 0.657031 -44.968832
-19.537853 -53.441296 3.822901 -21.893745
-36.077119 -83.624640 1.778540 -36.682961
-38.590310 -86.306470 5.587753 -38.830744
-26.600677 -66.915097 -1.425174 -28.054732
-29.304516 -34.075251 2.124524 -19.013930
-29.270247 -70.596634 -4.657934 -29.960064
-46.289832 -98.750227 8.129406 -45.785235
-27.156979 -68.103014 0.013267 -28.577998
-66.508140 -117.566859 3.025516 -60.724582
-32.560052 -56.902544 -2.599863 -26.838779
-39.046920 -88.384882 -3.361137 -39.562615
-49.002876 -106.454433 -3.370751 -49.703227
-39.091533 -86.085847 0.265760 -38.485345
-88.417312 -158.506876 13.260519 -82.677977
-52.577372 -97.253513 0.258554 -44.949265
-127.257303 -243.480092 -7.161920 -128.244873
-56.326723 -93.583584 -3.591434 -44.973092
-56.784729 -108.343460 12.326081 -52.110518
-52.460555 -107.659903 10.255332 -51.392533
-51.155099 -110.506373 0.668780 -51.982729
-34.971168 -82.062698 -2.181823 -35.519197
-72.206921 -145.500331 7.423659 -72.630431
-74.091125 -131.799694 12.687811 -65.068098
-82.278072 -162.456143 9.289373 -91.676488
-52.464376 -113.054736 -1.244805 -53.238726
-57.528547 -114.927995 12.285254 -55.843320
-62.285053 -104.771093 1.917404 -50.116844
-69.689217 -113.097586 24.172379 -59.678073
-58.411660 -122.769623 -2.887193 -59.090228
-58.524437 -120.921933 5.188767 -62.478129
-85.830361 -150.110346 -3.831194 -73.769399
-78.682223 -140.549838 -1.126461 -68.244130
-85.801739 -141.941338 -1.719110 -69.048969
-87.735167 -145.366848 5.302317 -71.230329
-103.573318 -150.462939 24.945244 -79.930810
-87.869704 -170.390938 12.190504 -88.180659
-63.902619 -114.108077 17.510317 -57.554815
-87.845637 -171.999067 9.981273 -89.154924
-77.555401 -154.606188 8.270193 -79.127004
-61.722666 -126.672384 7.478198 -63.099764
-75.406126 -150.836355 -0.324776 -76.955367
-105.259716 -202.444912 0.207700 -105.008126
-89.256241 -123.834580 32.425306 -70.713103
-62.855838 -123.481913 12.075470 -61.177051
-44.228907 -97.866140 2.657427 -44.956521
-63.822178 -130.993404 -7.542548 -63.898591
-50.747168 -109.157392 -3.263879 -55.719430
-83.890028 -167.043785 -6.399684 -84.555047
-44.435739 -93.350152 9.818413 -43.695530
-38.020312 -80.634985 10.423058 -36.237627
-62.998167 -117.655761 17.143471 -58.746646
-55.330482 -96.475678 8.065113 -45.541848
-70.084247 -141.746967 8.137195 -70.153018
-87.896670 -171.301611 11.827466 -87.412878
-74.512950 -139.800056 16.577684 -70.683379
-64.524461 -123.066633 11.565384 -64.372501
-76.552277 -154.414121 5.587154 -77.189765
-69.391395 -131.842589 15.033897 -67.837202
-129.202497 -224.676833 29.826898 -122.145797
-98.363599 -170.469271 26.025182 -92.321368
-72.345292 -140.646355 13.233386 -70.700817
-116.506687 -174.597788 12.074882 -101.040626
-90.292535 -165.607330 20.348664 -86.273224
-75.231068 -149.056683 12.534375 -74.240577
-120.551236 -209.699788 28.857636 -113.524011
-85.297056 -155.393642 18.740321 -83.547703
-78.516632 -148.833217 14.198735 -75.134059
-76.095699 -112.124920 28.028785 -61.673223
-75.317442 -135.512422 7.287908 -66.006624
-70.145392 -132.917639 16.106341 -67.073381
-76.428387 -142.202365 14.999628 -71.163987
-77.124060 -153.043370 8.258439 -75.777559
-78.154695 -146.998681 8.141567 -72.411711
-75.302587 -137.598672 19.585781 -70.626482
-78.546499 -156.696470 7.762889 -78.831378
-96.275977 -141.278356 28.214647 -78.448561
-156.582198 -230.364090 48.485490 -134.159523
-119.900913 -176.009597 39.327464 -100.922695
-83.503607 -140.950878 20.618998 -72.625147
-109.898934 -145.442415 38.790508 -92.467104
-89.861171 -109.576631 32.832804 -64.517278
-135.397638 -182.099461 45.665828 -108.877875
-87.067195 -92.327527 32.012818 -58.432997
-90.151207 -101.073032 33.348607 -66.815766
-88.546295 -114.404476 25.737629 -64.583688
-90.392140 -110.899579 32.983833 -65.181466
-89.899879 -155.994629 24.829669 -82.703667
-89.560062 -134.367976 31.025716 -78.553427
-97.235462 -75.383408 29.200158 -55.959748
-87.271638 -146.736432 26.260100 -84.261292
-90.311592 -103.956675 31.979648 -62.159738
-93.930545 -116.576893 34.546998 -69.776118
-78.925853 -114.999501 15.625216 -62.675547
-107.760289 -138.367394 38.430724 -82.793964
-76.573100 -115.034735 27.772656 -62.048232
-61.268846 -102.913811 21.642700 -53.184808
-110.991443 -114.931992 15.071668 -67.777031
-75.394925 -103.266026 28.805776 -58.193219
-74.359137 -126.738731 23.398013 -66.833021
-69.865081 -63.953542 25.602405 -41.825378
-85.978532 -95.360430 32.050757 -59.218331
-54.325948 -84.682055 21.767281 -43.719677
-53.374056 -87.165391 20.716798 -44.247105
-23.313451 -18.634732 8.047683 -12.584455
-55.789112 -89.983154 21.531557 -46.167660
-25.631057 -18.018264 1.286372 -13.094796
-41.522685 -73.311797 16.905911 -35.075430
-23.335656 -24.104332 13.783973 -14.231996
-49.923044 -79.589615 20.443757 -40.174963
-68.715880 -92.219915 27.116671 -51.694374
-62.801364 -107.332299 17.409277 -54.831932
-73.614604 -103.514784 28.060650 -57.641234
-93.352224 -136.279579 17.037631 -75.824756
-75.918313 -136.694212 20.654454 -70.533820
-88.206254 -120.893643 32.312318 -70.168248
-106.363104 -178.129421 29.860941 -96.821212
-91.450060 -164.626872 22.695897 -86.149036
-52.598651 -95.739906 -16.776733 -47.006982
-102.638195 -139.912755 15.605470 -72.765285
-60.815918 -73.248753 25.050185 -41.902518
-58.409786 -113.832015 14.193229 -55.841608
-83.452440 -148.580038 20.434039 -80.689247
-72.620465 -128.954369 21.012196 -66.539286
-36.028377 -81.276719 6.595198 -35.718927
-111.083259 -196.878298 21.296824 -105.386004
-52.869274 -82.012169 21.533490 -42.125355
-55.994109 -63.491885 12.070909 -35.845798
-51.057292 -76.852517 18.920622 -38.372943
-28.119496 -60.353055 11.027854 -26.541765
-45.841773 -65.222337 12.716330 -33.319233
-64.161178 -92.737592 23.064750 -48.440289
-46.569890 -68.516447 20.550439 -34.867714
-41.209651 -83.405530 12.546268 -39.368946
-48.880674 -68.761969 17.054199 -35.292793
-43.645802 -52.490137 6.104568 -28.840782
-36.935930 -60.132333 15.130874 -29.120479
-39.389128 -62.728614 17.946470 -30.635323
-33.244835 -65.170559 11.274284 -29.524618
-61.146781 -113.956044 16.465409 -58.312809
-44.333165 -93.208833 9.794436 -43.463626
-71.357371 -133.084213 17.776623 -67.557827
-40.742466 -57.831909 10.258881 -29.572313
-34.332927 -68.478001 10.856626 -30.843278
-23.782248 -37.202483 8.104859 -18.295419
-33.276535 -63.029049 11.220268 -28.891675
-20.317420 -52.928876 5.922365 -21.973889
-27.208686 -64.592585 7.052019 -27.540381
-38.372833 -75.942835 7.649793 -34.294700
-37.697950 -62.501673 10.693285 -30.059887
-6.139516 -14.049965 5.237051 -6.056844
-19.430468 -37.997459 9.288183 -17.228378
-38.851743 -68.412080 16.282668 -32.179147
-10.176932 -7.346493 7.504684 -5.257028
-5.930935 -5.302243 -1.006587 -3.369954
-37.857735 -73.455866 12.407384 -33.394080
-27.933684 -49.084117 7.556381 -23.105340
-12.771304 -19.200287 8.479638 -9.591477
-16.649254 -21.205718 7.429218 -11.356492
-16.539737 -23.500992 9.491889 -12.012219
-36.454663 -59.190931 17.071797 -28.693678
-23.592581 -35.070554 14.148724 -17.598940
-12.875986 -24.361583 11.011892 -11.171271
-9.977570 -10.429536 4.932673 -6.122132
-14.223385 -34.096837 9.765806 -14.496066
-8.290459 -12.947150 9.932458 -6.371283
-17.436168 -25.012021 11.338393 -12.734457
-15.467077 -36.484947 9.838173 -15.585607
-18.310474 -35.242499 11.935144 -16.065892
-10.316327 -9.361938 3.750176 -5.903480
-28.455198 -32.345163 9.400894 -18.240108
-15.842510 -8.087717 2.572412 -7.179068
-36.955757 -41.541759 12.705660 -23.549255
-30.018098 -22.503543 3.633185 -15.756492
-26.373438 -25.202916 7.931105 -15.472906
-14.746228 -5.991145 7.281586 -6.221212
-16.146712 -11.063522 7.500241 -8.163070
-24.962070 -24.273717 4.858746 -14.770736
-31.549358 -40.945078 8.808288 -21.748331
-21.853555 -20.177231 12.885304 -12.609236
-15.830912 -14.360050 7.820781 -9.057289
-31.492388 -42.632102 16.618378 -22.237347
-46.983609 -73.836978 19.999419 -36.958870
-7.440107 -22.373180 8.317635 -8.943986
-21.939596 -28.155997 10.676714 -15.028678
-34.563386 -52.266789 17.084096 -26.049053
-47.784498 -74.326623 20.208753 -37.517670
-44.605998 -87.349080 14.040186 -43.517221
-46.415978 -69.360879 20.280303 -35.208112
-54.500108 -99.425462 17.715995 -49.777241
-49.616054 -79.347664 20.297701 -40.718845
-52.906506 -65.951264 22.816403 -36.350606
-52.073936 -37.081970 17.800526 -26.746772
-33.721668 -30.729725 11.242458 -19.335418
-26.362053 -28.243443 11.422323 -16.381649
-105.052058 -116.819438 37.564871 -73.941000
-60.458609 -67.163024 24.693764 -39.897821
-33.708977 -50.381797 17.043948 -25.227232
-53.256573 -26.547031 6.747297 -23.941081
-101.388059 -110.440867 36.230958 -70.192037
-87.794374 -56.969838 22.374297 -45.708327
-62.560966 -65.175710 25.103048 -39.800088
-96.815921 -90.000394 32.931771 -61.072728
-30.486792 -32.766842 15.936981 -18.976090
-28.738652 -50.288954 14.698214 -23.708282
-49.895841 -52.023862 21.398939 -30.575911
-40.482962 -39.610792 18.378076 -24.028126
-31.022826 -37.743268 16.601017 -20.629828
-30.103149 -28.774387 14.108093 -17.663261
-18.455944 -7.551989 9.392949 -7.802380
-36.580361 -44.918341 18.213379 -24.449611
-75.216589 -66.380610 26.527392 -44.616179
-41.131637 -49.307970 19.328244 -27.131882
-27.319503 -27.147328 14.770661 -16.340049
-43.278430 -69.110407 18.835475 -33.998044
-15.259681 -10.621913 7.155330 -7.764478
-15.288665 -10.556990 6.811581 -7.753697
-25.053524 -23.222830 8.270660 -14.482906
-19.890819 -16.565900 7.102403 -10.937016
-23.753051 -35.419919 11.487422 -17.751891
-49.884781 -72.752655 21.355833 -38.517553
-58.860225 -81.991141 24.144537 -44.534304
-35.041693 -33.306192 5.085547 -20.504366
-32.894726 -34.202004 4.788394 -20.129019
-31.763950 -38.359065 11.371211 -21.036904
-25.385052 -17.675686 8.931566 -12.918221
-28.696873 -25.691025 14.740841 -16.316369
-22.413620 -20.555537 13.155631 -12.890747
-66.749901 -57.284947 24.011226 -38.582339
-22.830203 -20.020219 13.118051 -12.855126
-21.931760 -13.739385 10.298343 -10.701343
-17.884605 -6.592851 8.944339 -7.343237
-19.166988 -11.579291 10.547872 -9.223884
-5.931566 -2.459727 1.080144 -2.517388
-10.669285 -6.141774 -3.297873 -5.043318
-3.715025 -12.234427 -0.146045 -4.784836
-21.950362 -7.268350 -0.788327 -8.765614
-15.226743 -21.098975 -5.838867 -10.897716
1.005476 -2.703208 0.395425 -0.509320
-26.676985 -6.547746 -0.346994 -9.967419
-24.680290 -13.892023 -0.403599 -11.571694
-18.900353 -8.521942 3.104585 -8.226689
-32.215963 -32.344290 16.203377 -19.368076
-56.329769 -57.467597 23.194963 -34.628505
-57.264789 -48.095594 21.494499 -31.608115
-51.083743 -46.361556 20.749493 -29.233589
-28.194989 -12.096048 6.585895 -12.087311
-39.940735 -30.703283 16.538513 -21.193205
-56.491704 -35.046650 1.230987 -27.461506
-1.053340 -2.127100 0.159280 -0.954132
-14.765166 -4.241337 1.255830 -5.701951
-12.981031 -15.763573 2.382722 -8.623381
-0.103485 -2.645773 0.528341 -0.824777
-10.311567 -15.694613 -2.156126 -7.801854
-10.257939 -22.962998 0.758763 -9.966281
-5.127388 -6.687499 1.685221 -3.544466
-14.426939 -17.118051 -6.251835 -9.463497
-9.507450 -2.298148 -1.335846 -3.541679
-28.427208 -9.774341 0.016086 -11.460465
-20.281665 -1.842991 -0.923188 -6.637397
-14.530961 -25.344257 0.553085 -11.962565
-21.270575 -14.522944 -1.217356 -10.738056
-25.542952 -9.950247 1.209571 -10.647960
-29.848482 -15.299580 -2.926526 -13.544419
-32.049026 -12.908149 0.986392 -13.487152
-41.379518 -38.864937 -3.425898 -24.073337
-55.316956 -39.039431 18.683774 -28.306916
-18.760262 -13.189969 9.988215 -9.585069
-38.950535 -18.547609 11.367724 -17.249443
-94.847079 -113.760414 34.221499 -68.476424
-80.188629 -88.968683 30.438294 -55.185467
-46.272886 -44.712061 19.894042 -27.295484
-86.106932 -51.727981 19.714239 -43.189434
-75.333114 -42.403730 16.805275 -35.902726
-94.716460 -100.614070 32.844525 -63.742328
-69.646631 -56.141236 23.802185 -38.892537
-25.714377 -16.730983 12.501653 -12.733608
-79.169882 -60.174414 16.773477 -41.803289
-32.234460 -13.282617 9.992644 -13.655123
-14.991069 -6.344660 -4.210102 -6.400718
-48.082856 -25.451068 13.222723 -22.060177
-28.934083 -10.060867 -1.141395 -11.698485
-43.222845 -23.139291 1.833755 -19.908641
-52.952777 -30.323072 13.039939 -24.982755
-32.716816 -16.164541 11.316398 -14.664407
-36.504071 -15.142497 -1.318098 -15.493971
-56.473175 -43.875472 1.475260 -30.104594
-83.818057 -47.538717 17.714393 -40.854146
-79.241406 -91.441112 30.356619 -55.489109
-69.813304 -53.663756 22.950564 -38.235472
-45.823449 -34.306678 17.565214 -24.039038
-72.198575 -90.929242 28.361326 -52.493703
-100.097340 -120.775425 36.396460 -73.599038
-110.367208 -102.596613 36.391990 -71.877597
-121.218760 -114.207496 39.000196 -78.376521
-89.208562 -79.824851 30.308011 -54.674337
-82.916856 -57.282693 23.800103 -43.801219
-29.763378 -12.596049 -7.923703 -12.707828
-41.612744 -23.403993 0.860735 -19.505021
-34.321206 -16.044887 2.555634 -15.109828
-77.829877 -62.046634 14.989974 -41.962953
-24.554734 -29.251658 -0.232287 -16.141918
-57.189715 -42.878093 2.356532 -30.020342
-19.751120 -6.108728 -0.243498 -7.757955
-33.070592 -16.457188 -4.448435 -14.858334
-12.286961 -19.133010 0.151742 -9.425991
-24.658274 -10.860408 1.774913 -10.655604
-38.702471 -22.033623 5.714352 -18.220828
-30.490896 -27.193525 -3.299649 -17.305326
-42.921680 -29.034016 7.438093 -21.586709
-44.677756 -40.814131 3.465764 -25.647566
-33.068236 -54.360229 5.045108 -26.228539
-26.790094 -60.561653 -1.262332 -26.205524
-24.411934 -13.295352 1.909632 -11.312186
-37.109612 -46.780403 16.844109 -25.167005
-33.002423 -26.863338 3.505824 -17.959729
-43.725957 -47.378474 3.433917 -27.331329
-26.015921 -37.412152 2.536887 -19.028422
-7.936097 -11.293080 -1.984520 -5.768753
-33.530325 -56.907762 4.444213 -27.131426
-10.889824 -15.275727 2.259928 -7.849665
-26.282618 -44.303973 7.613089 -21.175977
-20.320604 -44.786091 -2.496911 -19.532008
-39.948231 -62.536994 5.143694 -30.745568
-23.866114 -36.333247 1.809992 -18.059808
-31.955834 -47.948219 6.246699 -23.971216
-40.323502 -68.693358 5.129743 -32.705058
-36.526349 -58.251345 4.168082 -28.433308
-35.510235 -54.271613 4.015277 -26.934555
-22.529888 -41.013189 5.323433 -19.062923
-23.489379 -51.577350 -4.631702 -22.520019
-22.828872 -50.078894 -0.267371 -21.872330
-19.271927 -32.299331 0.414889 -15.471377
-25.617931 -42.199451 -1.144759 -20.345214
-21.706908 -41.497891 -0.292845 -18.961440
-25.301835 -63.237488 -1.429352 -26.561797
-22.852043 -38.549368 -0.727650 -18.420423
-31.464190 -52.320597 -3.021683 -25.135436
-24.575898 -43.994563 -1.293999 -20.571138
-41.788277 -85.981664 -1.560390 -38.695798
-36.878996 -45.944362 18.021614 -24.847007
-40.310872 -84.740888 -3.754849 -38.478515
-25.187327 -56.965835 -8.463992 -24.645949
-50.778246 -84.745897 16.844113 -42.466385
-29.314561 -55.943029 -8.188487 -25.577277
-82.418757 -158.147895 14.559703 -80.885948
-39.770721 -78.789838 -4.131818 -35.760810
-43.340773 -75.307913 7.361345 -35.594606
-33.077617 -53.023216 4.193026 -25.830250
-41.133449 -64.230512 6.653318 -31.609188
-40.145282 -65.480715 5.779497 -31.687799
-41.660062 -66.462342 -0.067972 -32.436721
-17.355625 -46.360138 6.118767 -19.114729
-37.433158 -39.528496 9.264166 -23.088496
-48.827248 -92.699611 15.463699 -44.633329
-41.223370 -78.318740 10.944053 -36.152246
-37.536319 -31.210209 12.585476 -20.623958
-22.632431 -40.509210 -7.497123 -18.942492
-47.431131 -58.120506 -3.729810 -31.665491
-28.000597 -54.496331 12.647552 -24.749079
-24.882535 -47.047868 -7.905149 -21.579121
-62.913264 -101.236379 20.783677 -52.419627
-31.264445 -35.840704 6.434333 -20.131545
-53.215512 -96.055869 11.148937 -46.878611
-42.861485 -44.591737 11.285767 -26.235967
-48.627605 -45.186085 18.779209 -28.144107
-64.580318 -52.631408 1.324646 -35.163518
-34.310889 -55.249850 -1.286051 -26.868221
-31.980512 -47.493523 0.267729 -23.842211
-19.585599 -38.386783 0.538464 -17.391715
-34.156618 -59.580650 -10.788374 -28.121180
-31.639468 -23.111745 -0.012919 -16.425364
-32.707329 -52.260867 15.036261 -25.490459
-25.268760 -14.516183 4.750105 -11.935483
-29.057928 -17.153390 6.490060 -13.863395
-31.524086 -49.440940 8.613590 -24.289508
-24.877432 -42.043949 -1.251563 -20.076414
-21.449273 -29.651350 3.365339 -15.330187
-24.564899 -15.015240 -1.622842 -11.874042
-22.983217 -27.468121 2.976324 -15.135401
-40.936239 -29.547599 7.195531 -21.145151
-48.689059 -40.528213 6.422014 -26.765181
-35.911822 -27.109705 2.327502 -18.906458
-26.725836 -29.346736 0.623113 -16.821772
-29.021541 -36.353914 -3.864631 -19.612637
-26.187001 -17.126734 0.326324 -12.994120
-39.273942 -34.588176 11.867100 -22.158635
-88.074545 -73.365642 24.495859 -48.853504
-65.805253 -41.118092 6.656648 -32.077003
-56.746216 -28.638769 5.512621 -25.615495
-80.386858 -73.873275 18.088411 -46.278040
-87.284318 -75.754641 24.683237 -49.176441
-52.222364 -28.734516 0.453256 -24.287064
-52.716035 -45.153717 9.656814 -29.360925
-47.627072 -73.559593 -0.823428 -36.355999
-97.521128 -58.911466 21.701924 -49.940373
-106.134312 -130.110987 35.839209 -76.923334
-107.804361 -95.994027 30.903700 -65.962255
-147.242601 -136.903882 45.731458 -98.313286
-98.279061 -66.842557 22.962110 -51.182428
-65.858955 -55.012986 23.504121 -37.182597
-95.341754 -72.045017 17.975892 -50.216031
-79.261163 -52.206531 12.775474 -39.440308
-112.912440 -70.591033 24.969409 -59.882527
-86.770261 -49.023369 17.459050 -42.446091
-111.011286 -112.844722 33.403069 -77.599308
-91.805277 -89.878850 32.325315 -59.283183
-128.759222 -212.609027 34.811141 -125.124604
-125.816746 -206.439356 34.858442 -125.496407
-86.940794 -144.685356 26.755214 -77.526161
-96.304442 -137.350709 20.673765 -71.280626
-124.453632 -155.428310 42.917114 -95.010209
-142.357433 -233.497830 37.972254 -130.209593
-97.888805 -134.147685 34.981762 -77.656483
-92.492798 -166.359217 20.858639 -85.945043
-111.322073 -170.397871 33.437564 -93.636700
-125.551853 -213.797598 31.599148 -123.583375
-114.532944 -139.382046 31.108714 -81.012789
-114.512770 -138.877477 31.238988 -86.636286
-92.467920 -54.957397 19.817519 -46.555596
-102.757276 -119.030788 36.468105 -73.621832
-89.384195 -154.350668 25.123250 -85.534528
-100.181682 -132.141727 32.083090 -79.676050
-117.602332 -145.345546 30.746409 -89.522526
-113.760465 -185.976483 32.849658 -102.346120
-126.615647 -203.819840 36.367594 -122.416965
-79.285704 -151.823038 14.232351 -77.124831
-132.057369 -192.589821 37.400206 -107.771767
-106.369088 -203.313030 13.141500 -106.501723
-120.068333 -154.981768 41.809017 -93.358378
-114.774769 -204.480441 25.364700 -118.111170
-155.221263 -242.287478 44.616939 -138.072396
-159.157004 -288.473650 25.127702 -173.745214
-131.989672 -240.942594 22.454698 -141.637435
-81.421767 -157.948073 12.915577 -80.329192
-117.000683 -189.877339 33.951338 -104.977972
-159.228898 -223.256691 51.102710 -144.247246
-106.544804 -149.802000 32.659815 -84.662727
-107.766665 -175.580031 31.931852 -96.331783
-95.225471 -78.695773 30.166472 -56.424388
-101.630321 -102.882786 32.212396 -66.692434
-104.453782 -91.623115 30.549639 -63.375678
-97.030835 -79.354452 30.104904 -57.158840
-119.822436 -117.117727 39.830957 -78.534364
-97.906236 -78.061012 22.759011 -52.790174
-128.423099 -116.517837 39.739614 -82.076082
-82.806777 -91.195356 29.942126 -57.979857
-100.152177 -103.162018 29.341474 -64.418331
-101.630521 -88.005225 28.930655 -60.162855
-98.667727 -94.086009 23.056046 -58.899895
-93.908013 -83.697992 20.773067 -53.281801
-67.494709 -48.205218 15.441100 -34.709978
-74.222946 -58.718793 13.225069 -39.882522
-80.404826 -68.789974 27.290247 -47.432947
-49.623824 -89.020524 17.715714 -43.534835
-45.398013 -43.972037 18.660518 -26.811015
-90.049504 -135.588879 31.104089 -75.294417
-114.300059 -102.299926 35.991212 -71.819635
-109.544018 -159.943770 36.912111 -91.239672
-91.012078 -105.065674 31.407711 -64.419048
-96.132105 -137.167155 33.926511 -78.045771
-92.553568 -120.858565 30.228339 -68.063401
-107.930214 -155.728558 36.815461 -89.096069
-77.803480 -95.799802 29.368592 -57.033937
-124.847189 -155.112982 41.265223 -97.049255
-86.491711 -139.564365 28.035266 -75.474271
-112.320328 -202.901353 23.211310 -108.002327
-94.247902 -131.760625 33.002252 -74.151229
-81.685866 -135.294359 25.944500 -77.661556
-110.650927 -174.873639 34.148622 -97.127494
-101.050215 -178.626148 21.842071 -93.012116
-117.302981 -154.680691 39.583164 -91.811178
-112.299855 -117.028726 35.161701 -74.185443
-104.841911 -160.995326 34.043368 -90.645144
-124.431207 -206.154826 33.868565 -113.711714
-98.885470 -174.920615 24.551721 -92.846705
-94.447210 -119.899990 4.482253 -64.304160
-135.856729 -250.655937 15.480530 -132.018261
-141.351780 -241.656558 33.378101 -132.875976
-139.670402 -209.742444 43.266644 -121.679876
-108.435672 -119.581275 0.399290 -68.405084
-146.354780 -257.273678 30.130120 -140.283076
-122.926210 -205.839822 32.695407 -128.129279
-167.649574 -266.429313 45.868226 -152.454302
-152.302018 -240.153704 43.248020 -136.946539
-155.694157 -259.653503 38.213180 -144.690710
-111.893399 -202.795120 22.794469 -109.043579
-107.322157 -185.475714 26.210662 -98.812806
-106.912350 -151.840018 36.837185 -87.372518
-102.332270 -167.013359 30.722997 -91.872027
-83.044387 -139.932416 25.455528 -76.761071
-128.446630 -185.736298 41.936029 -107.646638
-132.584580 -233.788776 27.846770 -138.115047
-115.907171 -170.960565 35.943800 -95.464867
-125.813681 -197.623367 37.758137 -112.610245
-161.190436 -274.378701 36.914813 -151.817665
-155.031180 -262.584497 35.557484 -163.770255
-148.800537 -229.775339 43.869025 -131.158754
-103.487072 -80.063268 0.333163 -55.065102
-126.398749 -199.161154 37.683289 -111.785214
-140.560638 -176.169776 44.738610 -105.937087
-135.767217 -215.640448 39.160870 -121.244836
-112.660388 -170.852582 36.379619 -96.406223
-103.275114 -155.910469 34.349610 -87.465457
-108.160257 -159.483351 36.287215 -90.547701
-100.096779 -144.852943 34.630357 -82.335776
-109.750834 -166.128815 35.807187 -93.575807
-87.487364 -120.394939 30.833022 -67.342587
-100.507772 -143.146201 35.119144 -81.832337
-119.865619 -126.347729 41.224125 -82.847170
-97.323578 -102.185264 30.843883 -62.654527
-101.648072 -119.886257 36.982500 -73.680798
-102.763323 -120.417663 36.824583 -74.226009
-163.307038 -192.564966 54.572382 -122.884139
-78.604684 -88.501005 29.974873 -53.966864
-92.192687 -94.808893 32.762596 -60.934703
-91.438496 -118.117197 33.905889 -69.300540
-74.323564 -89.280196 28.953023 -52.688251
-77.141769 -94.483706 14.296943 -52.315080
-49.052748 -105.067744 5.692029 -49.234743
-64.280777 -121.417942 14.648760 -61.238826
-44.506593 -55.293279 2.386174 -29.939962
-42.168945 -93.493787 4.307050 -42.168945
-86.709635 -128.357589 30.683834 -71.429819
-69.627798 -100.631696 26.608126 -55.111584
-59.624294 -93.790064 22.308246 -47.987117
-47.265931 -57.475690 9.279266 -31.422486
-73.488508 -99.077933 28.190718 -55.767345
-112.871298 -119.972024 34.284104 -77.423895
-101.117474 -134.756078 36.203389 -79.073775
-86.824186 -75.277155 29.142080 -52.125779
-94.693533 -112.505553 33.024726 -67.549026
-62.040450 -51.455199 16.901656 -34.048695
-68.499331 -87.426301 25.207076 -49.796053
-64.042815 -60.758099 19.170221 -37.440274
-55.158153 -60.236471 6.180280 -34.618387
-43.030829 -48.951485 13.503435 -27.594694
-49.805299 -52.424712 7.566309 -30.669003
-38.842023 -44.264366 6.397854 -24.931917
-56.721670 -113.536813 11.958523 -55.121717
-58.817904 -102.346661 15.198152 -51.569621
-53.546439 -94.649248 14.825433 -44.969797
-46.025717 -82.082278 13.638288 -38.646381
-49.009930 -100.315984 11.004626 -47.498580
-48.835088 -92.259787 12.040154 -43.901170
-48.468672 -90.083799 15.578445 -42.613759
-37.456501 -80.466905 -1.171672 -35.385416
-40.540143 -67.784361 2.172212 -32.497351
-49.017051 -95.958402 13.976248 -45.892312
-56.083078 -110.107873 7.986865 -52.403048
-47.415428 -87.393446 11.588113 -41.829618
-41.511380 -70.925144 6.432676 -33.730957
-41.228722 -63.588220 5.658539 -31.445083
-46.687872 -83.559113 -6.594967 -39.074095
-43.370295 -68.806253 1.848865 -33.652965
-38.708566 -80.050345 2.927351 -35.850385
-27.569735 -62.647520 -8.231615 -27.065176
-33.476264 -69.588616 7.671025 -30.919464
-32.466764 -77.330722 -0.177087 -33.058466
-43.104598 -60.927759 5.762940 -31.209707
-46.357326 -100.530709 5.169224 -46.163273
-40.960536 -70.780358 -0.581030 -33.522268
-37.828777 -74.553456 6.870399 -33.714670
-73.225390 -134.990345 15.214631 -70.806175
-52.395513 -104.282637 -3.136562 -47.821485
-29.967903 -49.321206 -2.416776 -23.786733
-46.535636 -57.687748 -20.951201 -31.267015
-53.984322 -99.268292 17.239958 -48.919520
-39.735282 -46.902782 6.272334 -25.991419
-39.019019 -84.662092 -1.462722 -37.193439
-72.260894 -115.012922 16.181637 -57.785770
-46.648207 -97.384004 1.436013 -43.845915
-46.048792 -79.271012 7.154642 -37.595941
-29.683781 -46.020468 -10.785992 -22.711275
-42.067567 -80.282579 6.774824 -36.705044
-43.382987 -96.583795 0.982341 -44.067621
-51.545015 -110.832098 2.187355 -52.249237
-52.788707 -107.418010 -1.230303 -50.141453
-161.811725 -306.584525 6.069897 -163.466320
-169.779630 -303.042562 29.289731 -186.951596
-172.251894 -194.831240 17.025295 -110.333571
-153.236851 -189.654909 20.062167 -103.740367
-156.766932 -178.654861 -13.762589 -100.626538
-172.452002 -316.811188 -20.586582 -179.859052
-138.046358 -223.551069 -37.141100 -123.068360
-231.576287 -396.878769 -37.229258 -257.752571
-166.296507 -303.545413 -0.460869 -163.549135
-180.778123 -339.003055 -5.324248 -182.693043
-277.729042 -510.421144 6.103959 -323.847246
-248.701567 -441.881605 -35.692808 -245.037230
-159.411390 -293.035049 -7.521512 -155.135796
-149.628101 -284.299346 2.401249 -150.757462
-146.055672 -272.358103 16.327319 -145.691889
-169.621315 -276.907369 26.113705 -149.374829
-177.544950 -275.138053 12.821573 -145.357465
-144.171940 -267.627958 18.047085 -141.956463
-171.399263 -256.726903 17.737871 -135.985637
-210.149351 -333.442844 7.111752 -220.070261
-150.187536 -170.424229 -8.459476 -96.183529
-176.032631 -304.629284 0.736609 -161.061114
-250.312326 -445.276824 -24.197881 -285.398423
-197.126243 -366.895397 9.596870 -221.837513
-140.399855 -250.196503 -27.315469 -135.144916
-208.575805 -373.154225 -20.095119 -205.573774
-152.642266 -288.241585 8.597625 -153.891694
-167.939592 -314.277543 -0.329683 -166.526696
-206.142333 -344.274613 5.193409 -191.175846
-209.811488 -262.411395 -31.550510 -148.412802
-156.772374 -265.495863 21.769126 -164.297918
-223.452249 -371.029213 21.567966 -228.638718
-195.066228 -363.738823 -7.850233 -216.369288
-157.723190 -261.543981 11.538713 -165.450792
-166.818949 -228.201716 5.410450 -118.943756
-157.143418 -287.644619 21.632875 -171.818064
-140.626062 -218.103361 8.985587 -113.300910
-225.794643 -412.280015 21.509733 -227.674536
-142.756724 -229.510937 14.739529 -120.060471
-160.768115 -227.548715 5.630267 -118.712760
-157.484286 -282.928916 8.744525 -174.502098
-184.065732 -325.297908 1.880648 -197.012134
-146.805545 -223.431240 18.343947 -117.699204
-153.072160 -290.522436 -0.305147 -157.724138
-184.456321 -345.757689 -3.732421 -186.505201
-146.635405 -232.139990 -41.731877 -131.221789
-172.523453 -313.243864 1.978109 -178.915261
-143.073821 -213.020748 -44.483573 -122.932851
-145.288259 -219.328633 -27.763619 -119.065922
-122.843952 -136.455525 -41.758579 -86.183020
-169.719549 -308.179385 -6.099546 -187.369775
-161.254135 -157.005285 -33.822625 -98.980231
-168.602876 -197.667836 6.097443 -111.048555
-228.757754 -421.000393 15.314185 -230.131121
-155.209283 -287.948070 -17.610674 -170.216331
-169.031217 -200.429051 16.091065 -112.003267
-168.550342 -188.167414 7.479037 -107.587045
-173.121941 -210.300417 3.664482 -115.823674
-181.301874 -199.504998 11.945049 -114.242062
-229.326608 -399.438093 40.999551 -222.617713
-172.297173 -171.946372 16.667483 -103.273063
-168.498265 -205.943195 15.031291 -113.821495
-119.907472 -217.739144 -15.140954 -113.766029
-149.107734 -226.915531 15.625465 -119.746931
-174.041728 -264.480878 -26.869643 -142.516789
-133.569869 -255.610056 -4.191545 -135.015141
-147.528115 -278.593638 -9.912124 -148.323247
-163.881639 -244.573378 -43.217314 -137.954388
-156.907637 -295.339232 -9.930901 -161.793194
-124.597781 -239.548563 -2.906052 -125.367739
-143.424683 -272.308497 7.365163 -144.717879
-124.304816 -220.154468 21.419769 -136.131060
-157.130313 -291.738922 17.177373 -156.806808
-146.495641 -209.703648 -2.105370 -108.718330
-158.604303 -249.955845 11.869961 -131.821081
-123.275330 -232.247405 -5.315779 -120.563776
-159.247524 -287.583190 -25.810900 -155.533987
-131.864780 -173.716257 -5.030217 -91.803090
-142.349945 -270.791988 6.004645 -143.773232
-143.816528 -211.170228 -8.952346 -109.977212
-145.585791 -252.139063 7.906588 -132.510210
-121.867790 -133.912130 -14.968854 -76.733976
-138.521765 -181.830596 -15.009611 -96.745080
-163.120367 -292.924537 18.008373 -179.944077
-121.051935 -186.816048 -24.955951 -99.652239
-139.474178 -258.173609 18.435052 -138.023018
-134.536900 -235.284520 -14.438735 -123.603823
-143.468743 -264.845638 18.200698 -152.079271
-117.634000 -227.440931 -4.146069 -118.931777
-132.521966 -242.232910 -10.020826 -126.932333
-114.938603 -220.275768 -10.416459 -115.335082
-194.481804 -333.914998 34.532663 -186.468815
-174.532167 -306.935012 29.868228 -183.770302
-120.600869 -233.119212 0.430803 -122.085113
-125.622471 -241.706795 3.538633 -127.050362
-188.103949 -344.501754 -21.377467 -192.746621
-177.958830 -325.350408 -2.562833 -200.851223
-166.529552 -310.592495 12.318108 -170.145534
-143.154583 -204.917669 -11.981321 -105.916757
-115.562687 -207.720929 18.570753 -123.321624
-149.029460 -278.684115 -14.947345 -149.085227
-107.245247 -207.264875 0.366889 -126.992998
-149.136165 -277.016315 -1.087079 -150.743497
-150.554184 -284.151806 -9.682808 -151.638050
-140.616856 -218.741367 6.208523 -113.314993
-135.700264 -204.980359 5.335102 -105.854866
-129.702758 -176.733351 -6.456960 -92.018160
-225.855047 -418.183021 8.264429 -263.180577
-109.461475 -213.010710 4.051559 -110.674456
-151.093290 -226.726625 9.685329 -118.323648
-138.280083 -211.927314 6.592338 -109.645311
-149.559899 -229.076542 17.218471 -120.693118
-134.748684 -256.267544 9.066558 -138.812129
-131.173697 -236.928513 24.433610 -127.322823
-147.141761 -223.136866 11.390559 -116.689370
-184.070800 -344.872439 -5.071907 -211.685071
-146.996396 -278.938726 6.322223 -152.266399
-164.408402 -210.281419 -1.613002 -112.406946
-155.328984 -226.933664 -18.207902 -119.974921
-130.468874 -249.526443 6.678569 -146.406411
-170.931936 -295.486747 -17.494244 -157.265836
-137.249774 -210.845714 0.322900 -108.007296
-153.886937 -214.439620 5.475238 -111.344465
-151.478377 -213.017508 6.276095 -109.607830
-130.456480 -220.584690 33.040326 -120.935727
-155.832605 -222.094353 10.266620 -115.533896
-160.999111 -223.914539 13.877496 -117.671887
-150.243803 -220.683259 15.888453 -115.717040
-152.544565 -219.289657 16.696750 -115.041686
-126.475661 -197.932290 -1.591462 -100.918228
-143.081838 -221.510104 3.278956 -114.694506
-218.849122 -400.087209 -16.247477 -223.505408
-144.826796 -243.573769 0.963626 -126.599588
-135.453253 -256.168034 -7.987283 -133.939934
-143.566770 -167.051800 28.672298 -96.525851
-153.383311 -289.862435 -6.722052 -155.975219
-115.314174 -198.215974 28.167158 -106.885388
-175.342916 -324.912360 -16.451359 -179.694710
-133.405209 -241.321205 24.266904 -129.747868
-192.372396 -326.800927 6.601398 -175.401888
-171.198541 -307.028440 -5.496843 -166.549570
-141.540910 -223.412021 6.130716 -115.667531
-137.017497 -207.015610 6.304807 -107.000841
-154.877603 -270.737783 -6.745171 -164.392555
-153.637609 -254.880076 -9.285960 -152.877609
-136.368465 -201.658704 3.900744 -103.939880
-129.483676 -198.753868 14.025158 -103.295622
-104.223598 -193.107652 -12.498774 -112.297296
-165.721360 -290.082890 -13.918030 -174.448255
-117.127790 -201.429366 6.411790 -104.137525
-127.760417 -245.460038 3.599180 -129.198216
-131.159449 -249.020066 -10.748284 -131.708260
-171.494406 -297.571124 -13.448395 -161.937342
-139.784331 -264.569090 -9.954661 -155.428384
-142.296202 -262.290500 -14.302834 -141.398769
-157.212557 -275.975033 -5.972008 -167.027163
-155.564926 -274.487301 -8.980497 -158.616383
-120.979035 -228.387928 1.467261 -134.384411
-162.678202 -259.049106 -4.419595 -150.671081
-168.698293 -293.424951 -6.353622 -170.446063
-132.327728 -234.696859 11.843047 -123.257805
-118.636355 -208.725541 27.105210 -112.437361
-123.379292 -211.940514 23.657005 -112.702176
-139.562369 -254.506338 -22.483614 -136.425623
-136.191487 -253.902163 -17.115516 -135.328309
-170.492718 -304.423180 8.999906 -184.098330
-139.412375 -219.385300 -12.976312 -115.157717
-134.011805 -255.256825 8.271196 -135.055974
-157.463384 -287.581799 14.356612 -154.834772
-128.401006 -186.700562 -13.304224 -96.242607
-136.452681 -256.952597 -13.552046 -136.565168
-147.066130 -228.685493 20.943334 -121.714567
-151.254645 -254.461962 5.663190 -144.275544
-118.515534 -209.091046 26.827217 -112.553335
-123.750825 -208.053833 -22.466587 -116.052790
-139.194102 -192.649986 -7.411088 -99.647034
-140.790437 -201.818609 -3.713376 -104.710370
-135.819041 -240.923831 -15.948621 -126.357440
-133.426740 -241.402038 -21.693799 -127.662977
-137.658338 -207.946504 2.795477 -106.434852
-142.013389 -201.815199 -4.555996 -103.976155
-136.210196 -213.352288 7.336505 -109.861364
-138.868838 -216.970108 5.890466 -111.764350
-120.831458 -132.455695 -32.916110 -79.273721
-142.593761 -196.281417 -7.079085 -101.856899
-136.508404 -136.247422 -3.210006 -81.826748
-136.051831 -178.322179 -3.734278 -94.312203
-152.245588 -163.784955 18.654257 -95.202212
-141.128042 -228.419708 12.809295 -119.512637
-144.314766 -260.057083 1.247786 -142.343882
-105.882623 -192.513203 -22.000047 -101.886398
-165.187957 -293.759478 -0.214181 -172.138081
-152.823208 -190.424853 -18.444049 -103.299420
-204.698718 -378.444686 14.493282 -205.823409
-138.121873 -250.550510 23.947615 -137.927005
-143.448816 -230.935564 6.486277 -119.637477
-144.742290 -216.686917 14.814964 -114.198548
-153.233631 -281.536924 20.802021 -151.579886
-182.881011 -310.344184 13.140530 -186.710971
-153.482665 -215.921503 29.200701 -117.419542
-141.701351 -264.543629 16.293753 -141.254774
-162.557062 -258.959432 29.068658 -140.371237
-147.260048 -280.137924 -2.628560 -148.963699
-144.697357 -270.659344 15.280373 -144.581126
-149.819136 -282.380460 10.813230 -150.715557
-161.108140 -251.867324 -1.448851 -131.898384
-114.502296 -217.637624 13.314057 -128.129952
-159.728025 -293.342392 -17.397021 -155.931719
-162.941947 -299.286373 20.903070 -177.719200
-183.861320 -313.803918 9.394741 -187.527134
-161.884430 -304.746200 -8.341708 -165.172043
-155.222591 -293.881302 -4.651948 -157.149134
-190.422620 -348.982243 4.727829 -189.215901
-164.753579 -297.352512 2.040037 -161.186856
-125.204906 -173.914365 15.263826 -91.341156
-142.160098 -263.146739 -5.453078 -137.949836
-126.863935 -188.216570 -3.000884 -95.777777
-161.186868 -287.287083 -28.987723 -154.983776
-142.479969 -231.994131 25.743047 -124.028885
-143.848451 -245.760271 12.994542 -129.220625
-146.590836 -225.250484 3.222103 -116.228888
-269.454544 -493.574146 14.541285 -303.759827
-149.031652 -220.176410 25.238183 -118.166513
-144.005321 -260.462897 -3.931103 -156.293090
-131.108190 -196.276599 40.745709 -110.843137
-196.355487 -364.389052 11.977780 -197.570076
-175.193074 -311.421127 -8.261157 -170.368952
-167.118531 -312.686523 9.939524 -190.010184
-130.702918 -245.685215 14.707065 -129.911696
-132.347390 -248.176107 11.546207 -129.808193
-134.939420 -258.112093 3.528573 -134.974561
-126.821748 -231.269945 -6.432494 -119.911304
-143.677307 -265.282775 3.628949 -139.107260
-144.730714 -268.942982 4.627919 -141.135131
-143.864931 -267.487417 1.616803 -140.222094
-163.054848 -294.819859 25.656362 -160.101123
-154.927826 -283.296299 16.262746 -150.201567
-159.523126 -294.200736 19.568179 -158.580258
-164.552776 -296.853990 22.729204 -158.811496
-183.330057 -342.756871 -8.467776 -183.330057
-178.857995 -333.665394 11.683147 -180.047270
-144.727490 -199.900720 -47.015292 -117.040688
-154.876093 -283.487258 22.085569 -152.906873
-147.538388 -273.584636 12.987516 -144.250307
-150.547483 -279.463426 17.665063 -148.994951
-147.299688 -276.693947 13.057327 -147.299688
-146.947974 -276.097382 2.621221 -144.947282
-150.532612 -285.995714 -1.423196 -152.284874
-155.710194 -293.134723 -1.785920 -154.568080
-151.702310 -287.934653 -2.784606 -151.875131
-148.347797 -282.160344 0.213241 -150.106556
-145.727726 -274.391809 -0.673947 -143.954198
-154.083746 -284.989262 -9.692425 -150.478097
-152.737698 -285.601672 -4.309895 -150.373721
-147.597539 -280.775103 -1.875634 -149.329828
-148.937045 -282.267932 5.982215 -150.306098
-145.978764 -276.387079 8.164380 -145.978764
-153.267750 -286.189610 -10.785671 -151.117750
-154.375683 -253.864470 15.202256 -133.624079
-141.289041 -263.997696 16.000630 -140.899372
-139.496715 -261.268313 10.207647 -137.007598
-141.941265 -265.319623 14.092352 -139.717910
-145.985588 -235.991949 6.868921 -122.522462
-142.889259 -268.900255 12.892533 -142.889259
-130.097785 -229.768009 23.106093 -141.433550
-162.786012 -307.536104 -2.762358 -162.786012
-137.112022 -243.996354 18.570902 -152.920634
-241.393378 -406.202850 46.361536 -239.636890
-166.343758 -199.785889 -21.322658 -110.864914
-146.745708 -278.990707 -3.145417 -148.364837
-147.117685 -277.418986 -11.036831 -147.117685
-152.873810 -250.530562 -23.895176 -133.580342
-153.465611 -288.975153 -3.712542 -152.358152
-154.954247 -293.456624 4.285098 -154.950539
-146.962172 -240.804671 5.955540 -125.163189
-144.550063 -219.306276 15.287068 -114.524538
-145.561102 -271.922320 -12.987088 -143.305076
-166.609659 -300.481669 8.649741 -175.582987
-136.620732 -220.063457 6.612765 -113.510703
-137.611088 -258.509794 13.079415 -136.457657
-151.222956 -273.245384 -25.373433 -147.902064
-177.541342 -324.126182 22.851079 -191.354775
-127.849531 -245.888200 1.194492 -132.515140
-99.280458 -194.157730 -2.904415 -102.332439
-180.662822 -338.998129 2.261367 -202.297481
-136.877672 -220.854844 -20.342143 -116.595519
-160.920522 -304.301827 -2.382548 -162.775771
-182.927508 -327.980582 20.936605 -195.708986
-271.357295 -473.791881 34.400484 -290.803692
-144.944404 -271.114326 15.224886 -146.125679
-266.988611 -477.610498 22.150651 -273.389481
-153.648718 -276.855515 16.509638 -176.594087
-183.132420 -323.262199 32.840789 -177.020821
-135.391666 -200.774239 -14.785872 -104.102963
-147.816899 -235.625639 -13.466512 -123.279828
-144.052359 -273.617277 -6.705729 -145.006467
-172.091997 -274.251011 25.844079 -147.531214
-158.137867 -295.353127 -14.370951 -158.499920
-132.336785 -244.937444 -19.332704 -130.681775
-135.938723 -121.638644 -5.332594 -77.273210
-115.623991 -201.657430 7.700263 -112.299797
-176.679167 -298.483093 3.267148 -166.931754
-141.347311 -226.342307 25.107655 -120.981031
-209.980301 -368.361738 2.859575 -204.644833
-158.329180 -237.537852 19.130854 -125.763462
-144.500896 -243.599250 25.196370 -130.454060
-150.535567 -222.047300 10.783493 -115.239136
-146.287981 -255.829499 26.340892 -137.294787
-157.951998 -295.518762 13.373530 -158.468169
-162.186365 -277.437208 29.447908 -149.913669
-135.415737 -255.500917 8.882239 -134.152892
-141.086282 -264.419262 14.892516 -140.970743
-157.184076 -292.994750 -12.927354 -155.196492
-155.338106 -294.233984 -3.780146 -155.338106
-132.944270 -254.791752 2.542602 -134.501359
-151.780317 -286.966886 6.858712 -151.780317
-138.356075 -192.476855 33.141673 -106.701132
-191.848856 -351.220759 21.388627 -190.867409
-152.605145 -283.287177 17.531483 -152.072747
-160.582416 -262.834464 20.540753 -139.685783
-144.075936 -264.987935 20.794671 -142.285108
-159.823008 -290.978338 22.923843 -155.537351
-170.531092 -262.898980 6.569536 -137.713569
-153.558160 -267.275219 6.664658 -140.165656
-197.819500 -359.626423 24.419586 -196.064773
-123.600741 -233.741583 13.671600 -122.083109
-142.461344 -136.522927 -18.852223 -83.695281
-141.206761 -262.435557 4.130654 -137.434271
-185.867577 -322.137698 36.445893 -179.209012
-133.455247 -198.088530 15.990347 -102.903322
-161.337457 -282.330269 28.165899 -152.314761
-156.275020 -290.479077 -10.158291 -153.519483
-189.087373 -303.788886 -5.564187 -190.775474
-162.584117 -271.942509 37.278394 -149.122167
-139.871629 -234.450067 31.121398 -127.070204
-145.868062 -224.359683 12.101893 -116.882081
-163.329146 -306.192682 11.331389 -164.344894
-136.421982 -204.532890 40.195545 -115.352241
-139.081359 -228.246114 23.544772 -121.297256
-165.602623 -254.964434 47.940730 -146.479565
-124.425334 -227.609815 12.301481 -141.225341
-132.450847 -251.880979 -1.994049 -132.812483
-179.908762 -262.481768 54.726414 -154.450879
-144.190997 -239.852202 36.165907 -133.236955
-143.455552 -219.729748 27.294563 -117.984336
-132.548560 -192.366405 -24.729104 -103.146732
-140.887852 -237.156670 16.226363 -124.397736
-147.163965 -248.659235 35.753335 -137.455146
-153.930749 -285.689564 17.353715 -152.237944
-158.751716 -293.036688 1.921348 -154.720903
-157.237587 -293.533095 14.574490 -155.951076
-101.938617 -199.376727 5.103025 -102.955807
-203.592373 -368.762385 22.060497 -229.586945
-129.748142 -241.279530 -13.554015 -126.260583
-156.707930 -279.852657 10.142501 -148.393387
-206.234524 -361.921439 26.973264 -205.284447
-168.435640 -302.053337 27.324748 -163.895326
-148.228167 -220.045611 34.724216 -121.260526
-132.365747 -240.404628 5.741087 -143.321439
-135.961053 -256.865182 8.321279 -165.858945
-145.665597 -221.453389 43.159444 -126.655207
-144.617864 -220.536946 40.845494 -123.984791
-134.853934 -220.889279 16.603516 -115.546906
-152.004701 -279.123171 12.668033 -154.281610
-150.862865 -285.227964 7.718600 -152.102449
-134.050639 -234.575065 19.407769 -129.702621
-154.763103 -276.306063 16.195489 -151.413250
-131.042807 -222.574003 23.631664 -140.692098
-160.888391 -304.273288 1.921077 -162.755094
-154.063790 -280.923674 9.310196 -153.802804
-212.770905 -351.029568 50.109978 -199.120280
-129.759378 -216.745007 34.060441 -119.439673
-86.404281 -168.012625 -11.865816 -85.836211
-108.184910 -158.745971 -23.293299 -83.671050
-155.709068 -147.112734 15.744908 -90.846541
-201.869538 -352.706414 36.015087 -220.574866
-203.918912 -378.849460 9.868696 -229.873225
-165.429489 -206.464918 30.731778 -115.119389
-149.980973 -145.793319 -9.164000 -88.732287
-171.837337 -294.421430 33.266204 -181.452143
-146.662844 -277.415946 -9.168744 -147.766209
-151.975422 -274.939383 23.266910 -158.304496
-158.681298 -282.357189 28.019228 -153.904584
-124.613968 -240.154347 2.017205 -126.105847
-133.330552 -246.811565 18.868331 -131.446960
-174.206147 -310.468965 21.561800 -171.166735
-171.432877 -301.282465 18.863825 -166.280073
-137.319732 -241.554493 23.201000 -128.545662
-168.708989 -223.581366 44.103366 -129.086841
-152.088003 -276.725032 23.485023 -149.305115
-144.565078 -273.289646 10.111719 -144.519797
-142.291171 -263.945329 17.763090 -141.048268
-146.098891 -235.026244 -0.518887 -127.724742
-133.562421 -244.704380 21.172503 -130.765992
-118.329937 -219.965852 17.454737 -130.574312
-142.163594 -268.611186 10.060981 -142.750596
-140.667611 -263.801167 14.453108 -143.066667
-145.939608 -262.147910 6.885126 -142.228498
-133.655803 -249.194387 16.932657 -150.561121
-115.841741 -223.296229 7.326965 -116.775923
-144.283976 -271.256414 11.449187 -165.840678
-148.468505 -280.681324 9.097685 -149.607382
-143.952933 -252.065372 -1.164094 -131.327860
-130.356382 -243.677207 16.648714 -129.500572
-119.555686 -176.036542 17.040564 -91.778174
-122.003105 -229.442628 14.586105 -119.660913
-148.752703 -280.425939 10.845113 -149.626217
-155.241776 -284.752569 13.975637 -177.834730
-137.032213 -229.023870 19.491703 -128.300009
-149.312339 -156.769806 32.032198 -93.537531
-129.210482 -207.715342 37.071222 -115.902380
-144.693603 -265.827259 11.626358 -163.086889
-125.568908 -227.635145 17.784292 -125.267475
-150.642016 -268.719540 17.337847 -146.951165
-151.640288 -271.055229 16.320996 -148.137826
-145.781327 -243.472238 22.147693 -138.354382
-138.714031 -260.949798 8.486319 -148.169227
-231.124728 -326.435888 65.057066 -219.483324
-107.147635 -176.001470 31.255031 -96.305158
-139.856814 -230.993762 27.168822 -142.783823
-99.680851 -171.103654 -15.547267 -87.348726
-133.183704 -248.191080 16.022716 -149.551636
-117.180861 -217.240214 16.901993 -116.488639
-148.806430 -273.573717 10.587126 -147.148390
-149.174457 -253.329223 22.700556 -140.903728
-143.471825 -264.966191 9.372371 -142.144145
-114.876825 -212.151952 13.107687 -129.371035
-128.062708 -234.720777 19.116114 -135.532529
-146.344916 -252.705539 21.714414 -139.634137
-130.566560 -241.824545 11.892873 -141.967478
-127.449662 -225.887005 15.790506 -129.954089
-109.969802 -154.837030 7.322601 -79.442050
-134.448489 -241.974936 14.543353 -140.380206
-130.209419 -248.172566 7.587123 -144.208769
-134.316932 -202.238604 41.856854 -115.799744
-126.889681 -234.250866 9.959538 -134.947339
-117.193575 -205.945786 14.868510 -117.887276
-123.719605 -228.832372 19.259610 -123.729554
-122.441826 -224.122144 20.134905 -120.873754
-133.983660 -250.921258 13.240602 -152.071027
-121.908169 -226.307659 16.181495 -120.783583
-130.067903 -242.535902 17.167487 -129.834270
-130.484724 -240.129417 19.411074 -130.113221
-158.529004 -299.983305 2.426525 -161.914238
-135.408068 -246.065567 22.005825 -132.427897
-141.092901 -262.391084 14.098206 -141.439205
-112.116101 -212.238143 7.985699 -125.839366
-127.988449 -236.311208 19.639443 -140.711198
-126.252380 -241.909248 6.653459 -140.828486
-133.653144 -236.916489 14.012412 -128.433148
-137.102455 -251.525699 21.358234 -134.567509
-121.749892 -223.745862 15.713314 -130.812428
-130.538031 -242.200137 18.128765 -147.488749
-125.646896 -235.890520 14.929753 -139.379502
-128.458129 -231.716698 13.476509 -125.313741
-148.699698 -256.671383 -7.881605 -153.073404
-124.006133 -164.206380 10.339279 -86.463754
-139.890137 -244.445133 2.622279 -142.796140
-74.210768 -149.657399 6.328917 -88.290732
-137.345283 -242.479638 28.660268 -144.115133
-95.235762 -151.424058 30.497977 -82.957423
-156.629434 -248.969647 43.560801 -140.999121
-123.393704 -200.073675 35.295405 -110.998715
-147.473320 -273.832595 17.750401 -146.751645
-125.677936 -219.995277 28.578282 -119.145932
-119.284482 -225.566539 8.139523 -116.765316
-111.669123 -216.627503 4.968793 -112.789388
-139.827339 -261.639226 15.665221 -139.505574
-153.043797 -257.658858 -6.171563 -152.589658
-137.551189 -240.503249 8.020796 -141.471949
-133.793761 -228.840119 -1.791345 -124.448895
-142.457884 -238.359928 8.103235 -124.515158
-136.925671 -255.337452 15.040362 -134.246035
-134.786709 -245.192479 22.922528 -131.456771
-141.049414 -254.978114 23.647507 -136.509511
-150.042216 -229.339625 32.081614 -125.185551
-128.178736 -207.868317 7.106593 -107.533375
-154.893888 -273.429607 27.083949 -146.817432
-137.971502 -251.711613 22.509199 -134.989343
-198.694410 -337.467410 8.334161 -213.590352
-191.027561 -338.800238 -15.989127 -207.947310
-144.396446 -250.635170 6.988057 -139.095497
-177.549612 -303.774602 0.957500 -192.379116
-190.852867 -333.261237 17.035071 -184.549897
-102.416930 -197.609519 10.795289 -102.488183
-156.145949 -264.354446 -1.219960 -166.021544
-118.970993 -196.650377 32.066487 -124.814708
-173.145178 -276.707357 -5.232674 -172.333737
-192.944175 -331.194331 11.266618 -184.287110
-124.431455 -237.476523 -2.293362 -125.036584
-160.152381 -267.279338 39.387498 -148.984957
-126.812417 -227.994215 -8.371141 -118.145986
-110.636809 -215.170430 1.220245 -130.624238
-127.200054 -243.516975 -6.844585 -128.262388
-115.933330 -223.763129 6.424214 -130.344462
-144.011917 -205.113100 0.349039 -105.293614
-132.215460 -240.310137 -23.507141 -128.852917
-148.978542 -269.431963 22.367193 -143.423842
-118.008499 -128.792575 38.238452 -80.440352
-153.114402 -286.804140 13.491188 -170.346238
-160.751508 -227.257928 33.131451 -125.039498
-165.498029 -273.337940 41.152992 -151.226077
-131.026120 -241.617687 20.248422 -128.989858
-154.228504 -256.813018 30.798174 -139.141531
-177.397060 -314.971241 19.922041 -183.624880
-137.759375 -262.437277 -2.551626 -138.829832
-126.676930 -224.679392 -11.321979 -117.071774
-123.139982 -229.275013 18.068386 -121.582697
-126.100884 -213.592316 21.768561 -112.673036
-137.502129 -257.838375 -15.440237 -137.193266
-133.693240 -209.661734 0.176852 -107.337508
-110.986900 -214.270226 -7.222753 -111.683375
-127.260882 -217.107464 4.563436 -111.675794
-141.002943 -251.552617 -5.081449 -131.242015
-125.577250 -237.232841 -7.092893 -123.265825
-116.224757 -225.187659 -3.915032 -117.524258
-126.730977 -233.378610 20.558349 -124.413903
-149.300953 -259.345659 7.993552 -135.792525
-159.321264 -191.699230 26.818936 -105.731838
-128.060869 -197.725181 -10.837067 -102.051510
-129.651000 -215.492446 14.443985 -112.332782
-129.728623 -215.863464 5.195835 -111.066123
-141.008657 -265.992073 11.659738 -140.703587
-129.287527 -226.857119 21.980608 -120.310941
-86.815910 -149.846715 -21.533449 -77.246031
-113.996787 -207.336718 15.328617 -110.366710
-110.384555 -214.760057 3.238781 -111.655571
-130.346218 -245.323548 14.518275 -134.886181
-112.096208 -210.279391 16.885320 -111.362175
-133.804970 -228.261298 32.646287 -125.126605
-152.860674 -275.531335 25.966569 -151.559157
-98.630258 -190.197550 11.656662 -98.402202
-171.125712 -271.513139 -22.259236 -153.330517
-156.597648 -269.941574 27.681914 -149.364696
-115.277578 -189.042597 9.579688 -96.610402
-107.621654 -205.983741 12.299258 -122.896888
-134.456971 -256.505593 -7.028843 -135.734183
-105.192704 -142.976528 -29.484334 -78.723646
-165.694189 -241.425613 -51.185615 -141.572723
-101.761047 -149.245056 -18.437134 -76.720356
-126.487106 -143.278431 5.684111 -80.929661
-116.034177 -211.814533 12.137790 -121.371373
-87.938382 -145.625253 -18.135331 -74.054286
-105.557181 -202.615811 8.874282 -112.707805
-60.638682 -122.326470 5.571928 -60.588010
-103.434243 -201.517313 6.358570 -113.542789
-126.897193 -243.825682 4.195760 -128.298712
-119.387024 -214.549337 15.779738 -123.550373
-125.460526 -225.031606 23.086094 -132.025065
-106.529279 -192.579309 14.828167 -101.956358
-115.793766 -206.812257 11.559201 -108.382476
-122.982092 -223.288003 10.397951 -125.636318
-70.468503 -122.822240 -21.725624 -63.525584
-115.483571 -204.227199 10.628412 -107.219438
-111.827783 -162.094433 20.555154 -84.569050
-113.445427 -187.685545 21.093975 -101.160067
-125.952478 -241.341590 7.205810 -127.053380
-144.825436 -272.170029 13.232412 -145.181924
-124.046820 -238.805508 4.107012 -129.273172
-119.302139 -118.040003 3.079443 -71.202643
-102.199498 -129.581444 0.993087 -69.534283
-143.191053 -272.305358 5.863358 -144.635259
-87.974634 -169.455091 13.465902 -97.075965
-102.933340 -150.583286 13.512769 -76.054988
-103.159042 -194.777827 15.990364 -103.414670
-141.393749 -264.529609 15.546349 -155.462902
-95.316908 -180.737108 15.666272 -101.969875
-111.841142 -208.618325 18.048720 -110.190182
-141.779957 -268.051126 10.618051 -142.567096
-114.030512 -206.993436 7.742113 -110.538552
-84.571517 -164.908331 10.311869 -84.586968
-108.538370 -204.020800 15.967562 -108.723153
-89.898041 -169.882084 16.400882 -103.918651
-114.499494 -209.090530 10.560220 -113.546236
-127.650781 -238.160764 3.493873 -139.234523
-117.272618 -210.960768 8.630909 -114.515695
-137.448214 -254.698721 -1.187834 -149.097161
-121.359882 -214.897199 11.651323 -115.978675
-136.542288 -254.557975 3.579303 -135.774684
-123.885207 -154.985389 30.319160 -86.870003
-96.387338 -153.036685 12.267196 -76.731540
-95.123224 -150.470164 3.144665 -73.942205
-139.466402 -262.393632 0.860108 -139.501826
-155.535719 -289.504883 16.230419 -155.444934
-144.400208 -269.275376 -11.016662 -144.603012
-76.846948 -154.840858 5.127763 -91.081274
-51.610474 -110.414182 4.047907 -53.104745
-141.348841 -269.609601 2.935039 -142.978145
-120.667245 -165.197983 14.735019 -85.759568
-106.222316 -204.031246 8.222116 -120.530368
-129.217672 -243.126241 11.153905 -143.158917
-126.907883 -232.742775 10.782750 -138.051143
-118.263377 -220.567616 6.538758 -117.371025
-129.777211 -233.404409 19.418907 -126.462792
-121.944161 -219.575934 21.685162 -119.518002
-124.284904 -228.562918 19.278393 -124.493141
-137.937675 -252.857128 19.179824 -136.109048
-117.426509 -207.102481 19.062454 -112.787137
-119.436471 -214.593935 13.479489 -115.397593
-148.471717 -261.805904 21.771475 -145.215757
-112.906519 -209.889287 17.085934 -124.190228
-119.593832 -221.074408 18.215759 -119.263241
-145.231581 -255.047470 23.257914 -138.284731
-119.638261 -186.130143 36.851531 -104.562923
-114.741729 -203.324132 19.718504 -113.439561
-127.905217 -235.337464 18.596449 -126.235363
-98.577185 -166.967949 21.367124 -102.434318
-114.900407 -194.446348 21.261399 -119.480613
-134.044343 -229.100097 26.019224 -135.797769
-86.670213 -169.932409 9.571803 -96.639088
-117.669367 -227.768944 -1.623644 -125.791142
-141.418410 -258.971284 21.266660 -149.627477
-121.791403 -95.083603 -5.924680 -65.062502
-69.977172 -143.428093 -1.519646 -74.793071
-99.633990 -142.920348 -5.897936 -73.128442
-154.047600 -290.921286 7.814339 -155.385302
-159.717061 -298.342604 13.854428 -160.148947
-156.781087 -294.450057 11.199069 -170.785017
-101.926215 -146.441604 -14.750065 -75.779888
-79.319768 -139.443406 -19.611058 -70.905214
-96.105201 -146.752782 17.790466 -74.910382
-114.642193 -190.130937 31.988554 -104.216434
-105.541739 -182.837710 18.655102 -99.726092
-119.417622 -218.066064 12.275372 -125.244068
-114.897988 -209.665645 17.992333 -113.852061
-122.368171 -217.075292 21.809934 -124.906548
-98.873657 -194.527396 2.108449 -101.398989
-104.278238 -194.996108 17.826353 -102.189171
-107.766877 -208.013323 9.083113 -114.487732
-120.761318 -213.414414 15.815131 -120.178026
-122.521835 -221.009491 10.113279 -127.010610
-79.262744 -155.427968 11.528586 -78.609316
-105.861528 -173.463332 -12.761476 -88.170246
-104.534067 -204.508130 -1.906061 -112.761285
-85.696992 -170.988541 2.863461 -98.279980
-137.544685 -258.196349 2.072549 -138.806738
-107.256285 -208.449263 -6.078033 -108.099486
-109.631340 -195.682590 8.899895 -99.938365
-105.706020 -165.244507 -8.961631 -82.954811
-114.222792 -219.735415 8.870697 -115.860059
-168.577574 -305.872630 15.636213 -165.494353
-65.985539 -129.992390 2.534002 -68.312729
-31.853903 -69.227538 -1.004927 -30.324432
-95.056131 -169.538080 23.249791 -89.553001
-120.921514 -232.807486 4.572264 -122.072096
-110.027419 -183.950483 29.492284 -98.627833
-169.753598 -316.945872 -0.543066 -171.301019
-122.886638 -230.464094 11.449021 -122.302283
-98.367324 -183.456648 15.852503 -108.514875
-112.935961 -172.934691 35.996677 -97.313437
-107.744311 -165.738497 34.588931 -92.794963
-120.582933 -208.077648 13.896154 -114.808178
-110.054564 -199.067799 21.414061 -119.036900
-119.243374 -214.080856 9.947489 -114.837978
-119.919424 -215.443920 16.747847 -127.757113
-104.936674 -195.155610 5.474996 -115.924669
-125.271770 -222.054193 13.132004 -119.524507
-118.952717 -207.986878 8.458612 -125.329271
-115.408374 -208.744171 17.484663 -112.445497
-122.700764 -228.866894 11.650562 -135.292622
-101.613426 -197.522017 7.014022 -103.113916
-132.292993 -248.199554 15.416211 -131.990386
-105.377014 -200.400800 14.190028 -107.928886
-98.857049 -192.951218 4.956363 -100.563396
-95.492138 -186.264511 3.124289 -108.834149
-95.696930 -187.040684 8.271710 -96.998373
-100.091787 -192.773288 11.796681 -102.003364
-94.923732 -187.088829 4.146541 -96.104638
-99.796724 -195.160800 6.404341 -100.856485
-99.838984 -182.807438 13.120831 -105.716566
-94.808126 -186.797614 2.676520 -95.893229
-94.043473 -179.591396 10.633047 -102.974802
-101.296951 -188.856560 14.184328 -106.403487
-76.711745 -153.242730 6.494630 -86.774250
-104.280964 -199.206451 6.730544 -105.069168
-86.879145 -145.266894 26.419226 -77.697570
-75.917802 -116.207726 20.937338 -59.534749
-75.151609 -151.364546 0.299730 -75.324218
-81.679044 -161.389256 9.255155 -81.696224
-103.532082 -178.335690 27.097405 -95.963335
-78.906941 -151.768529 14.045721 -76.943385
-44.901252 -87.342512 4.366128 -40.927613
-105.981477 -197.234331 18.639019 -103.624719
-149.154103 -254.463407 31.489800 -152.555117
-94.097632 -167.389365 23.329402 -88.394850
-81.497194 -140.114237 24.095970 -74.564404
-71.176894 -143.661990 5.991934 -80.371263
-70.699275 -146.870300 1.420560 -71.699973
-70.792673 -143.059563 7.682467 -70.958947
-116.475572 -225.338429 0.825181 -117.708306
-99.159671 -178.426037 22.775249 -94.289614
-79.175856 -137.025760 7.548694 -66.787593
-73.180886 -146.314342 -9.538948 -76.790763
-75.142101 -124.219492 16.881217 -62.018984
-80.588488 -153.876123 11.326291 -77.034454
-85.131170 -99.513503 25.401990 -56.187768
-99.967423 -192.905638 2.002053 -99.839221
-78.556975 -100.421593 30.097507 -58.302281
-94.161135 -186.378121 4.052446 -98.736409
-69.066554 -142.491764 -1.839802 -69.995641
-105.848845 -186.391489 23.870735 -97.950166
-87.348268 -163.415681 17.672835 -84.572875
-62.421428 -128.267648 7.749947 -62.430973
-54.131693 -115.726489 0.006453 -55.082971
-64.104588 -130.908587 8.630807 -63.935953
-64.647576 -119.055062 0.343915 -55.985085
-67.220439 -137.146761 7.469949 -67.374222
-107.559952 -209.864997 -2.738126 -108.838377
-53.363148 -114.501317 -2.583772 -54.069037
-103.575451 -203.057954 -0.379553 -104.895704
-63.512572 -130.350809 7.608035 -63.567918
-87.008461 -173.102484 4.437964 -87.916696
-97.916070 -192.547395 3.491299 -100.125117
-92.180791 -172.888019 6.957878 -89.626550
-86.667870 -170.439974 9.128349 -86.818998
-90.497115 -175.348698 11.951956 -92.008796
-99.764140 -193.977502 6.671708 -101.191998
-100.900642 -197.591370 2.274876 -101.880906
-100.638120 -197.272783 3.820371 -103.117767
-84.327058 -164.161249 11.959482 -83.981912
-90.661874 -134.138188 -2.042293 -67.440019
-77.998725 -152.486191 12.147331 -78.849474
-92.816688 -179.489145 12.016235 -93.175204
-89.934681 -170.876794 15.624903 -88.523800
-83.048505 -165.200964 6.798754 -83.594085
-80.722641 -157.272012 12.344662 -80.763772
-88.473135 -148.935630 19.103012 -76.466333
-67.494818 -136.692167 8.063247 -68.323878
-70.553363 -126.806642 20.332520 -64.887035
-88.581931 -129.816582 -4.118052 -65.519554
-89.296051 -174.342486 10.388318 -89.328899
-81.335878 -144.433376 22.271528 -75.282604
-86.340242 -157.801603 14.809305 -81.499708
-72.909333 -71.651833 -23.273085 -43.395141
-85.035197 -133.996814 -1.483990 -65.709603
-84.758463 -154.395134 14.510834 -77.847503
-85.467999 -143.892223 -2.844779 -70.200738
-142.519173 -250.761378 17.794142 -136.941105
-82.699431 -131.594426 -2.254237 -64.288157
-91.926307 -176.609495 13.526409 -93.741806
-83.553390 -73.849531 8.892970 -47.220877
-87.421019 -172.767828 7.280353 -88.285824
-82.497495 -161.240504 11.474170 -82.027386
-87.682676 -171.829135 9.786243 -89.361036
-88.430676 -171.302485 12.329105 -88.518498
-113.830227 -208.388242 21.389947 -110.730908
-120.151465 -217.268951 23.622741 -116.665860
-103.933539 -194.812595 17.350951 -112.361453
-94.979470 -181.706841 14.038757 -94.327146
-83.789389 -164.271597 10.587560 -85.229752
-99.531559 -187.642825 16.470752 -107.629379
-70.516898 -142.404438 7.592581 -73.162222
-114.299984 -212.903957 18.271924 -112.718036
-132.826802 -254.726769 -0.397301 -134.435298
-98.190011 -174.367956 16.156388 -96.736508
-125.968565 -217.652980 14.003526 -114.368255
-101.123491 -125.532914 -3.635273 -67.996921
-87.210942 -173.404991 -4.781775 -88.091470
-100.128554 -196.806215 -2.092299 -101.357024
-96.745165 -147.272221 -18.749100 -75.539030
-71.734318 -141.018135 -12.197000 -70.620018
-87.910953 -171.441297 -10.998408 -87.628117
-77.195878 -113.543002 -27.827244 -61.473037
-115.428047 -210.119312 14.040506 -121.221206
-111.352224 -216.653859 1.038108 -120.086583
-101.123552 -182.270543 14.858243 -96.415573
-83.950988 -163.158929 -1.819831 -81.259012
-113.298584 -211.632400 17.587538 -111.776461
-109.395438 -192.095730 12.201168 -101.863514
-120.007091 -226.038574 15.358177 -119.347301
-139.884559 -253.870606 23.925119 -146.674479
-114.399289 -222.037664 1.798861 -123.181624
-92.863697 -76.470365 -2.420464 -50.800219
-113.791279 -215.332290 4.349822 -121.483470
-113.335756 -219.683785 4.579528 -122.320952
-110.739219 -214.596327 5.782364 -111.950683
-92.442413 -182.931240 3.202162 -95.089153
-111.103596 -207.067035 7.828528 -118.496348
-110.812549 -215.203630 3.020772 -111.929268
-106.419506 -186.061335 18.398154 -100.292274
-117.193548 -223.432440 11.192541 -117.257423
-111.151053 -160.276228 13.686692 -91.037619
-76.808284 -148.923353 11.979170 -75.801852
-113.110650 -216.175662 10.878367 -113.099046
-108.725087 -211.658538 2.731289 -109.909917
-98.680774 -171.380596 13.730301 -98.463709
-86.455763 -152.207506 1.898940 -75.627386
-141.223568 -236.352493 29.047686 -142.648883
-83.900453 -136.791350 -1.209564 -66.247251
-95.187292 -181.176973 6.775034 -91.619677
-83.405267 -147.575560 -1.192163 -72.498430
-75.218497 -152.413285 -3.753010 -76.059965
-89.079748 -175.501105 -7.829800 -89.536411
-92.690202 -174.316575 4.321600 -97.052253
-121.790827 -212.761965 26.192116 -118.391828
-92.428754 -180.730035 -8.440232 -91.998314
-141.506203 -249.799563 27.570680 -135.500758
-90.815862 -176.739956 9.048937 -89.920604
-68.982218 -141.102843 -4.423317 -69.650884
-104.185514 -144.358549 -12.517836 -74.563219
-98.705474 -101.668478 -8.750392 -60.112186
-131.766777 -201.633587 13.345988 -110.019949
-76.061992 -141.345180 -0.054733 -69.588290
-74.643395 -120.143065 17.460398 -64.690175
-83.864924 -159.804062 1.029866 -80.377086
-107.600348 -143.397522 23.125957 -87.598574
-109.445789 -168.117563 -1.496910 -87.384070
-78.949226 -78.735498 -25.010426 -47.468680
-103.650524 -171.301150 7.444362 -98.428730
-96.691554 -129.749102 -7.834671 -67.932197
-113.656081 -173.558520 5.199139 -89.957488
-146.083774 -150.233178 5.839887 -88.895086
-92.062248 -175.774824 -0.894223 -96.803335
-89.824413 -87.770103 3.202149 -53.278355
-110.262976 -188.792712 -28.768823 -105.557121
-91.576982 -163.513839 6.804274 -92.104554
-91.173150 -161.982427 -3.666079 -89.327890
-91.451441 -172.621670 -13.146822 -97.886930
-77.068717 -70.186916 23.927992 -44.188593
-92.470850 -153.963544 -3.789982 -84.627761
-88.769127 -143.706120 -1.329872 -71.432579
-98.053065 -165.881546 -2.785599 -87.274085
-93.611723 -158.131226 -3.734478 -88.079878
-118.428498 -177.097334 -11.432509 -90.944043
-98.300277 -165.275649 -1.897960 -88.058708
-105.971151 -179.440655 -4.481324 -94.902020
-118.010107 -213.577639 -23.110408 -120.590933
-103.302916 -172.005762 3.779321 -98.832897
-113.030683 -205.823773 -9.680835 -117.696020
-91.392607 -92.267339 -7.676357 -55.097984
-112.079711 -203.999329 -22.139551 -108.322532
-97.917003 -95.054386 -7.681027 -57.891417
-93.501450 -91.075083 -10.400341 -55.372960
-103.961185 -172.031643 1.024600 -99.437599
-131.360205 -227.184166 -13.786034 -120.280934
-111.125737 -187.879864 0.443848 -108.070499
-116.558637 -215.194620 -10.637233 -123.026324
-106.962577 -179.967145 0.688495 -102.423871
-115.443619 -189.216166 -1.811195 -109.323901
-108.399001 -182.857690 1.774477 -104.765602
-117.690514 -194.909623 -5.893298 -112.458583
-94.817913 -182.848637 -3.275111 -96.535086
-105.410725 -187.424796 6.765028 -104.523354
-116.188204 -187.237739 -1.997110 -102.708799
-122.312400 -221.869381 -2.794757 -126.735607
-112.148434 -191.799440 0.663921 -110.299253
-120.146124 -210.413493 -3.564354 -121.006848
-110.413541 -196.688260 -7.846518 -112.778755
-111.047287 -195.221077 -2.538532 -111.848209
-117.241922 -202.770913 -9.294103 -114.604083
-123.587407 -224.163531 -9.482937 -128.660317
-124.715002 -233.340101 9.026829 -132.873667
-132.808103 -231.260291 3.739380 -122.659489
-118.068929 -198.256238 -3.916748 -112.549819
-91.359842 -176.902303 -5.543270 -99.778417
-71.981339 -144.249980 -6.840201 -76.318798
-123.084071 -218.445320 -24.340906 -124.315564
-98.341492 -103.058346 -7.260397 -60.419951
-95.061358 -149.322556 -15.761085 -75.597032
-94.666065 -161.843042 26.403563 -86.601477
-99.071411 -114.664739 -16.468766 -64.120845
-98.680426 -112.383621 -5.865428 -63.319214
-132.698341 -237.521191 18.389107 -132.929592
-93.037474 -146.040244 0.867326 -71.773446
-98.465258 -98.377272 -7.941322 -59.052759
-90.738404 -129.751780 1.087865 -66.147055
-94.498404 -141.301376 29.488162 -77.201912
-115.053109 -135.103316 22.756499 -75.220923
-92.557841 -116.776403 -2.574484 -62.800273
-97.349784 -148.301118 7.316537 -73.807988
-94.224338 -139.638287 -1.967719 -70.158787
-87.961718 -151.650701 20.455856 -81.993056
-128.972669 -233.580274 9.866871 -122.654841
-122.021597 -199.406083 17.433005 -109.660910
-104.417093 -130.887069 9.203226 -70.591249
-121.666655 -178.101463 10.554538 -91.280307
-162.621194 -272.335388 -14.199895 -146.291154
-117.518637 -164.466271 20.686091 -86.455532
-100.922372 -144.370639 7.814552 -73.622436
-127.490901 -156.412006 -44.277680 -96.940164
-135.662228 -255.331492 13.862585 -135.726346
-88.129630 -139.504885 -16.067027 -70.247273
-180.144646 -295.260425 23.223875 -168.738906
-148.679227 -249.562272 -2.077604 -137.503897
-93.188751 -161.443364 25.358425 -85.920136
-137.917276 -242.145731 0.339239 -131.702254
-149.105079 -273.558322 4.961753 -154.365910
-172.650968 -308.423877 -12.674314 -173.075963
-127.946655 -223.364732 13.291109 -121.045581
-103.452446 -169.213494 -6.709136 -84.828701
-142.039595 -172.340453 -19.197786 -94.314014
-124.884357 -214.844580 19.785366 -123.419808
-155.310401 -277.315208 8.563927 -147.556101
-170.309958 -288.253758 8.323320 -159.543907
-109.878442 -201.973071 13.048199 -104.663063
-131.031241 -219.841489 -2.482825 -113.718800
-109.126781 -206.190033 9.932656 -106.071646
-102.910931 -198.858924 9.932939 -101.805633
-117.175600 -189.975473 12.617719 -97.433000
-144.297600 -191.831508 -4.387097 -101.033419
-124.118790 -229.563120 -19.479881 -121.993333
-129.750742 -249.025990 2.940368 -142.263434
-107.680513 -203.309656 8.560134 -104.478432
-105.424493 -196.378765 13.578271 -101.235126
-119.784533 -227.319897 7.586664 -117.731424
-128.239453 -231.967289 23.936585 -124.411188
-109.349150 -212.959455 2.355768 -109.319898
-111.634482 -206.686057 13.540415 -107.263766
-124.356419 -237.005936 -10.039927 -129.125452
-131.124682 -246.014464 -15.511146 -131.953042
-132.808381 -251.843218 -10.939233 -145.672601
-126.582827 -233.506455 -17.953773 -123.384365
-120.418500 -202.278410 -0.505707 -119.169462
-111.496542 -204.864924 5.450180 -105.746425
-138.221178 -258.193181 -16.363881 -136.906150
-119.972205 -226.692641 -14.447684 -119.510092
-119.853112 -230.485531 -4.987901 -120.331117
-127.836363 -240.881872 -14.402556 -126.304470
-131.873790 -235.356551 -16.152541 -132.349734
-120.464334 -212.755528 -11.154750 -119.847763
-119.936989 -230.077687 -7.105086 -127.869864
-112.681522 -199.421656 -8.608964 -112.932660
-117.506776 -212.790819 -14.180795 -119.030979
-96.678947 -186.730379 11.578677 -96.390885
-105.197736 -203.789006 6.378634 -104.250591
-121.958697 -202.401478 2.568620 -107.290563
-118.210970 -202.187282 -0.205247 -116.827997
-118.539771 -197.450913 0.027708 -115.558560
-124.094698 -220.504746 -13.372377 -125.527873
-121.834155 -216.171810 -8.107721 -124.388351
-110.774259 -179.148732 -5.036062 -100.549432
-98.255107 -149.761248 -25.241862 -79.872027
-116.540273 -198.474959 -0.336975 -114.214553
-104.422892 -174.831815 0.117296 -96.552191
-113.468178 -198.615988 0.464354 -114.610321
-116.337140 -195.056898 -3.417546 -113.618866
-114.236374 -163.231500 -16.720775 -84.627505
-90.918711 -134.769027 -31.574694 -75.317122
-117.308427 -193.068254 0.080127 -105.050331
-95.625619 -135.109637 -32.435216 -75.667391
-118.605123 -204.223609 -2.513224 -110.067965
-120.706294 -215.338037 6.290934 -125.950970
-115.944802 -216.353499 4.469618 -127.604901
-125.277877 -221.394510 8.279550 -129.754828
-121.312492 -216.335728 -5.128476 -126.145449
-125.339070 -217.164132 4.263318 -129.977857
-123.917271 -229.287775 6.990536 -122.437076
-165.181372 -294.617090 -10.440233 -159.793389
-109.691672 -209.469511 -0.629321 -120.395018
-116.080525 -220.201815 0.541422 -116.288323
-104.585271 -182.840860 -12.550292 -93.773517
-124.590618 -217.700306 1.718728 -127.596089
-119.175851 -196.106000 -5.477803 -101.167915
-88.473288 -168.528951 -15.283330 -86.783757
-128.008308 -221.129258 -4.036423 -114.971899
-132.967485 -245.353888 5.010535 -128.305664
-130.371634 -157.605386 -5.188367 -86.393106
-130.159315 -244.598662 2.074355 -127.221599
-110.175791 -201.794993 -2.324910 -103.984528
-129.881871 -222.965174 2.090597 -116.033775
-115.273201 -207.508741 -14.964926 -123.989177
-134.071287 -235.496171 -24.363737 -140.990367
-173.229897 -300.630360 -33.373497 -176.970487
-153.714888 -269.181476 -11.104435 -146.391094
-138.983031 -249.388812 -8.259217 -136.305670
-117.369722 -206.410773 3.558795 -120.256631
-111.939356 -204.774854 -12.964129 -117.543808
-139.529819 -251.285899 6.311568 -134.973998
-119.763358 -227.161761 2.142972 -131.983597
-152.295427 -273.472442 -5.731935 -147.841094
-117.904655 -204.510081 -3.176702 -119.607460
-124.488191 -126.521883 -3.997331 -75.303022
-131.922826 -229.663941 -2.998358 -138.240676
-120.949684 -214.313211 -3.124595 -125.138028
-147.039063 -270.113362 11.963586 -155.510516
-145.721558 -268.084178 9.678179 -141.737166
-123.456601 -217.002690 -1.695757 -125.943417
-130.124450 -221.394152 -2.135303 -135.797930
-128.916883 -244.665397 7.208809 -129.038850
-122.862246 -129.967819 -14.105778 -75.849019
-124.859297 -171.781463 -35.257788 -96.663011
-123.601911 -134.118483 -5.246877 -77.316118
-147.750132 -276.792744 12.275443 -159.659471
-101.713115 -102.407031 3.959555 -61.236044
-123.395545 -90.145071 -7.488176 -64.062185
-108.412118 -208.965122 1.049442 -114.702720
-141.297636 -256.042560 20.122540 -146.906646
-133.155304 -243.927487 1.543903 -129.845243
-126.352539 -221.361571 -6.805916 -130.508723
-132.729463 -230.380649 -1.461196 -125.551485
-130.331662 -222.746318 -3.415827 -136.313574
-117.055272 -197.680591 -3.463335 -118.722445
-128.081571 -217.819224 -3.945555 -131.608735
-117.981384 -198.765075 -3.332098 -107.594125
-118.508138 -202.360219 -1.261194 -109.210602
-116.297322 -205.822659 -4.243418 -120.933536
-131.820766 -245.419042 15.288384 -138.355539
-126.651816 -237.314692 5.215534 -125.379324
-137.669728 -250.524757 6.895383 -134.235614
-123.053091 -228.394031 -1.119536 -120.795026
-124.212080 -215.637367 -4.673823 -126.178930
-116.354019 -224.742871 -1.123963 -119.458970
-107.456390 -200.415719 -7.098965 -114.848204
-118.564939 -214.383778 -4.417732 -124.691216
-118.336221 -210.451733 1.111726 -112.667953
-88.799572 -172.573388 10.748271 -88.331133
-107.858307 -209.165385 5.415842 -118.386119
-96.257232 -188.455606 6.135846 -97.219090
-104.683745 -197.393606 -0.232313 -102.127233
-99.524962 -188.707063 -9.491830 -108.141195
-121.719220 -204.134656 -7.323803 -121.410821
-109.120092 -186.439866 -5.242606 -110.046722
-115.451640 -204.097682 0.356657 -118.817427
-111.159311 -204.232431 2.551857 -117.180723
-123.454899 -225.615887 -0.891958 -130.908843
-121.406801 -210.071078 -3.691393 -123.419683
-121.085885 -217.049394 -4.485714 -126.531858
-113.685958 -216.427737 1.502312 -124.377763
-113.450301 -213.774500 1.845882 -122.227323
-114.146971 -215.330126 1.980607 -114.132866
-90.384171 -133.700931 -31.512987 -74.754677
-106.101671 -202.735390 -2.386752 -105.890867
-109.022331 -151.072441 1.419427 -79.964201
-95.836382 -133.511837 -31.996165 -74.939074
-93.412741 -132.087677 -32.600891 -74.040106
-92.858503 -132.675598 -32.838750 -75.260525
-139.120309 -248.815157 21.140526 -135.586343
-95.198741 -156.643051 -1.368981 -82.616396
-112.885896 -155.319938 1.175284 -80.708005
-105.178465 -204.658547 -0.595289 -106.948361
-112.540837 -196.558352 -2.141299 -115.450425
-111.316704 -212.724489 1.122426 -111.631009
-82.324292 -117.666142 -30.094528 -65.975827
-109.371243 -209.459029 -5.671966 -121.436203
-91.018049 -133.407591 -31.868932 -74.871786
-110.668943 -215.272665 -0.841785 -113.047886
-85.484379 -124.067765 -30.656838 -69.451941
-98.260507 -148.458500 -1.629850 -83.413153
-84.166746 -124.415106 -29.963148 -69.105199
-114.764626 -179.570813 1.418448 -94.897630
-102.103468 -168.201939 -4.293732 -95.081247
-113.583694 -176.498003 1.845057 -94.044861
-108.603966 -179.741443 -4.811797 -101.762034
-99.170363 -154.463837 1.698837 -83.999231
-110.261227 -159.064609 0.414840 -87.802231
-92.480456 -153.942957 -2.825741 -81.702323
-102.747370 -168.578812 -5.322609 -94.208491
-116.860996 -226.362949 0.693840 -118.953566
-100.000295 -194.876502 -0.490534 -108.848938
-76.376366 -115.130960 -27.607360 -62.878844
-100.758173 -197.814340 -0.597415 -109.852450
-71.221199 -126.045106 -1.759084 -67.050303
-122.639399 -179.903683 -24.385293 -110.919833
-73.006253 -142.113558 -10.642613 -71.413510
-91.405419 -174.796595 -6.561297 -90.570353
-85.800152 -170.899165 -4.187412 -86.541142
-90.796113 -177.206976 -4.601586 -90.997649
-95.696646 -185.941697 8.175503 -95.868980
-95.662656 -188.570757 0.466472 -105.402704
-90.666656 -180.193803 -0.486261 -91.840967
-88.766818 -175.740544 0.141454 -96.858150
-102.282767 -105.676576 15.761453 -62.387803
-92.077477 -182.254283 -1.290551 -98.380159
-97.283047 -190.925323 -3.398288 -98.723180
-90.500253 -166.805996 -7.905562 -93.897073
-91.533758 -125.520597 5.830183 -65.116306
-79.576194 -114.829361 0.757141 -58.321666
-92.408851 -182.353220 -5.451464 -93.213512
-90.650506 -171.201059 -12.474474 -88.630500
-80.049010 -130.675382 5.070311 -63.826189
-92.814318 -125.259542 1.883115 -65.422158
-81.832104 -126.006081 -5.240160 -62.351456
-66.823662 -100.013461 -5.583598 -50.051137
-76.905114 -154.594205 5.970588 -77.471256
-89.834527 -132.806834 1.544450 -66.792408
-65.447674 -134.599424 3.903497 -66.104490
-81.030613 -162.866245 2.955562 -81.999561
-66.654853 -135.336163 6.763475 -68.057414
-87.289605 -174.215592 0.338793 -88.425340
-52.227188 -110.586606 -0.387809 -53.026685
-77.510815 -151.489873 0.051306 -76.198773
-57.674209 -119.828193 6.441835 -59.997540
-59.261147 -81.024314 3.097845 -42.085638
-70.745340 -136.835778 2.313327 -73.484175
-65.730652 -105.915209 -8.248341 -51.493758
-93.027482 -176.592788 15.388826 -96.723353
-61.189253 -77.081118 0.092349 -41.481111
-79.055785 -154.572027 -1.079993 -76.393486
-67.427985 -103.953269 -13.003921 -51.414376
-73.753270 -149.675978 3.055684 -74.493410
-54.349261 -84.260277 9.135712 -41.582861
-66.601440 -135.479123 -3.790710 -71.516473
-76.432581 -154.675669 2.393807 -77.317076
-47.728003 -96.426145 -8.091288 -44.355500
-46.312658 -99.895209 -4.736941 -46.169661
-74.615439 -145.572900 1.534959 -73.359983
-60.614768 -118.784498 0.586263 -58.382161
-60.918682 -125.424121 5.974954 -66.003753
-74.185629 -150.067704 -3.799366 -74.810960
-61.022937 -127.301978 1.835307 -66.312086
-63.374828 -130.348221 -2.559123 -67.731996
-81.586100 -161.852477 -7.596448 -81.810717
-70.016439 -139.748606 -3.517709 -69.545943
-65.032446 -133.609318 -4.723420 -66.273538
-61.219999 -87.926430 -12.533287 -44.743929
-73.344623 -145.719163 1.323834 -71.894110
-44.422668 -90.432008 -9.074781 -41.017057
-61.713099 -127.523699 -4.098949 -63.740670
-49.657252 -105.900965 6.147150 -49.753275
-77.090110 -97.296269 6.823406 -52.315914
-111.393909 -189.517477 -19.276122 -98.511056
-59.233540 -118.504700 -2.121148 -56.281627
-107.054383 -183.714797 -19.710598 -104.502630
-79.509190 -157.852514 1.542754 -80.320754
-103.966880 -194.869585 -15.102346 -114.744420
-84.087440 -140.989048 -3.466073 -72.244598
-79.637123 -149.682268 -3.990457 -76.893831
-89.522442 -134.830091 -5.737995 -77.463621
-67.050383 -105.706693 12.905092 -51.827123
-113.847244 -178.106383 -19.780261 -97.262486
-99.938662 -183.693820 -12.822403 -96.559546
-84.631254 -166.320075 -9.232866 -84.538490
-53.470214 -112.423543 6.615009 -53.528352
-73.844187 -85.888611 13.335431 -47.919839
-70.826969 -109.611127 17.018973 -54.353549
-87.082055 -125.784294 -31.130202 -70.003315
-80.532775 -129.975813 -3.386040 -68.863066
-94.470033 -124.755020 -1.609450 -68.358148
-96.059004 -141.081343 -6.355095 -81.542968
-97.466186 -153.927465 -1.494936 -83.609438
-92.144543 -155.348648 -8.221161 -87.116235
-92.158719 -147.421475 -3.211453 -79.582860
-99.365358 -150.023494 -4.651980 -84.951589
-91.073884 -150.438730 -1.511936 -81.153835
-93.390361 -147.758050 1.044197 -82.121885
-96.650838 -163.022468 -3.432216 -85.404660
-91.133174 -148.223747 -2.700992 -76.931854
-90.526860 -161.692528 -0.222811 -88.285585
-85.922445 -161.110870 -3.242383 -82.726354
-88.150199 -151.549318 -2.188843 -81.611568
-69.610462 -137.342009 -11.346517 -67.909497
-96.978851 -164.488740 -5.933716 -85.882230
-81.168607 -137.767230 -14.387924 -75.440900
-93.673329 -160.062955 -6.914049 -83.863864
-88.620958 -162.605323 1.434971 -83.100724
-70.607529 -138.728252 -6.442948 -70.395112
-86.168866 -159.640624 -7.174459 -82.567727
-91.652878 -163.170645 -0.991839 -89.237955
-96.377100 -171.512527 8.448622 -88.931611
-91.900503 -168.068016 8.712649 -87.629519
-76.325607 -154.421731 -1.329428 -79.183297
-92.629072 -79.194006 2.072956 -51.546923
-62.249490 -128.345083 -6.044561 -62.523334
-115.633286 -169.655539 -2.977106 -87.645278
-90.525144 -165.336859 -16.826508 -84.913512
-95.095552 -187.734138 -2.173391 -95.547690
-115.050185 -192.321614 -31.470158 -108.879383
-89.853785 -154.145526 -7.121777 -78.919079
-83.871057 -166.065078 -3.910751 -84.005046
-109.372160 -179.995135 25.903211 -103.325905
-122.310999 -178.569122 30.090347 -107.085347
-99.085150 -191.709235 10.195382 -99.072354
-65.728873 -119.123634 -12.849207 -57.798966
-75.863327 -153.163321 -3.984521 -76.562421
-78.373458 -143.110504 -9.399380 -70.448988
-90.410423 -92.606762 0.176779 -54.905155
-91.618451 -136.741847 12.872254 -68.508089
-81.803519 -162.979029 6.750899 -82.328344
-74.711705 -115.742676 3.782465 -57.136314
-84.314585 -158.099028 -9.815740 -81.782245
-85.643687 -166.550014 -2.664019 -84.954658
-77.918971 -156.789087 -4.458516 -78.665321
-74.344248 -145.081715 -12.457684 -73.084133
-83.677623 -165.887031 0.727537 -85.208727
-69.320145 -138.208181 -10.034798 -68.748809
-81.527205 -140.578741 10.649260 -70.245324
-79.696517 -98.936495 -6.274896 -53.589904
-69.183129 -100.664129 1.507000 -50.954178
-65.921497 -131.285558 -8.263707 -64.984604
-78.713728 -96.950731 -5.739376 -52.699338
-47.858153 -77.288050 18.235090 -37.543861
-70.446195 -141.890752 -7.763936 -70.498713
-73.611392 -140.109574 -13.717468 -69.818428
-51.954909 -109.896162 -4.344947 -53.151834
-75.313079 -142.908457 -8.955575 -72.635189
-64.759512 -125.386209 -1.837581 -62.587900
-88.472943 -147.002914 -1.630856 -76.866529
-85.995678 -165.294688 -2.863151 -85.017808
-68.916011 -129.762106 -6.277310 -65.764652
-69.589009 -133.116264 -12.729295 -65.725745
-87.027023 -152.521229 -11.925596 -79.677575
-83.765646 -150.560328 -9.076585 -77.915742
-83.239833 -165.904178 -5.512795 -83.678903
-86.042215 -140.138897 -3.381603 -73.706945
-60.621817 -124.792646 7.367674 -60.656233
-89.249748 -149.569178 -2.357768 -80.739311
-86.734892 -140.657043 -0.500805 -70.098957
-66.738279 -133.968463 6.638386 -64.875769
-63.878746 -132.634916 2.386143 -64.705777
-91.510244 -142.247419 -0.811000 -72.131993
-61.794846 -115.651774 5.927399 -54.510311
-67.421621 -132.910310 3.343460 -64.006631
-63.850249 -121.883712 -11.287040 -59.486795
-55.743034 -111.179618 -3.320273 -52.202386
-57.278130 -117.209735 9.415147 -56.663293
-59.793512 -123.432764 7.204844 -59.850161
-57.491522 -118.303715 8.574666 -57.140241
-59.545125 -94.798641 -4.804244 -46.303130
-57.808338 -119.320903 7.980679 -57.628583
-60.063633 -125.570048 3.597700 -60.736463
-57.316837 -118.341712 8.111870 -57.090325
-58.458891 -118.113754 9.539459 -56.378148
-50.172416 -101.326875 11.922771 -48.275626
-43.627585 -72.804865 7.235366 -34.929735
-55.710628 -106.969191 10.941974 -50.499690
-62.825125 -128.449485 7.847456 -62.790431
-59.117970 -120.971807 8.898149 -58.713106
-60.992353 -112.566064 -11.218756 -59.934564
-71.782664 -139.145075 -9.441916 -70.394860
-70.971036 -125.610795 -11.577369 -65.036526
-59.640445 -117.997796 -11.019571 -62.456086
-52.567416 -111.200274 -3.114966 -53.404300
-76.264952 -138.630143 -15.270438 -71.339861
-78.893122 -103.593532 10.981827 -54.745996
-80.132222 -137.904983 -23.779286 -72.562291
-81.895532 -89.798062 -12.446427 -51.508078
-48.406722 -71.009595 15.492293 -35.824895
-57.223175 -113.387552 -4.633252 -53.136278
-47.460116 -89.343255 -15.156836 -42.038333
-64.003014 -120.365423 -0.267805 -59.198763
-43.193655 -75.818264 -15.011956 -35.703576
-78.161885 -143.037642 -19.194530 -73.683247
-68.154053 -123.444634 -11.517197 -62.509394
-51.060388 -65.535659 13.989982 -34.978814
-50.308466 -63.062199 14.749101 -34.011199
-53.909271 -71.046464 16.312108 -37.486720
-46.420388 -72.407253 19.747607 -36.336013
-34.491749 -80.327027 3.185703 -36.902893
-59.698414 -105.424247 -9.488141 -53.761794
-62.642331 -117.415975 -14.749260 -58.611540
-55.924762 -106.791228 -7.685117 -52.215537
-49.195285 -99.019197 -11.996255 -47.241566
-48.394717 -86.173977 17.634808 -42.088878
-39.112104 -59.189665 8.696320 -29.490531
-46.367738 -61.870286 13.814096 -32.471407
1.038875 -17.793133 1.841108 -5.026277
-37.740381 -84.872550 -5.242671 -38.059116
-25.829619 -65.360180 -0.102967 -27.356940
-38.429867 -87.754840 -1.448815 -39.038414
-51.129317 -104.114890 -5.865536 -49.518014
-24.218110 -57.637309 5.570330 -24.556626
-46.248740 -99.583537 -5.237266 -46.572799
-49.952685 -102.351400 -7.693394 -48.760341
-45.323949 -93.960236 0.691843 -43.760936
-52.125072 -107.499408 6.974580 -51.245078
-36.675307 -67.620582 7.962391 -31.288767
-42.071449 -94.367667 0.017325 -42.823433
-56.484297 -115.342020 3.627370 -55.661324
-50.348302 -107.951389 4.483486 -50.756330
-47.229890 -101.829143 5.649147 -48.624209
-38.467362 -60.903952 17.739091 -29.811394
-65.672416 -134.210248 3.301638 -65.951944
-55.905564 -114.997025 5.095074 -55.847627
-50.463507 -105.436506 4.321730 -49.687821
-73.804175 -150.009483 3.269471 -78.479784
-37.362777 -77.717594 11.016832 -34.900703
-50.061698 -104.925948 0.226724 -49.373040
-29.121961 -67.883058 4.773540 -29.101506
-29.902446 -72.106146 1.429147 -30.602578
-45.868807 -97.789390 3.623204 -46.126892
-65.839152 -133.580808 3.916163 -65.837764
-33.917324 -60.191838 14.766564 -28.232749
-49.464911 -104.519420 -2.926866 -49.013730
-15.253654 -45.705538 -0.728396 -18.287758
-43.857450 -81.866034 3.631261 -37.717045
-46.568414 -99.894601 5.236494 -46.164315
-28.442480 -64.702804 -5.115760 -27.943585
-45.922000 -90.220532 -7.627319 -41.112561
-43.227025 -93.944800 5.508773 -43.030240
-34.184917 -79.003501 -3.116458 -34.174267
-49.055059 -106.611927 0.977177 -49.797470
-69.482241 -134.104025 10.858635 -67.231818
-62.418320 -94.884373 -6.450061 -47.190808
-45.943712 -92.618916 -8.967783 -42.370542
-55.741797 -118.340440 -1.881957 -56.513519
-49.797615 -89.845812 -6.454733 -41.893028
-37.344388 -82.320361 -5.823520 -35.910996
-49.476998 -91.363731 -4.274265 -42.252218
-47.254901 -91.735194 -7.276252 -41.862455
-55.960451 -94.272166 -4.997371 -45.069785
-55.006336 -92.122566 -7.059117 -44.138671
-57.218263 -99.497703 -8.333942 -47.014790
-65.357544 -104.358547 -4.126944 -50.914827
-66.231416 -121.182866 -1.638490 -57.600852
-61.203511 -98.549920 -6.191152 -47.926029
-49.070655 -91.871335 -16.052885 -44.424166
-69.744850 -98.702453 -20.146627 -50.600557
-63.791764 -97.907493 -9.034616 -48.509777
-51.370895 -73.167993 -21.916113 -38.437016
-59.844358 -116.761444 -2.969739 -57.530527
-51.325162 -110.679555 0.374569 -52.105812
-71.873895 -142.022481 -7.245918 -75.361813
-50.982068 -94.339017 -7.148280 -43.652184
-48.507281 -103.924700 5.020422 -48.341051
-50.516935 -105.903114 -8.270815 -50.071085
-60.981731 -122.581306 -2.301504 -60.060365
-55.630599 -118.216514 0.921284 -56.424435
-61.740981 -122.299177 -2.140483 -60.239899
-57.974859 -109.688193 0.296868 -54.049538
-42.550635 -94.171657 4.000597 -44.190795
-49.842753 -107.665272 2.492907 -50.310872
-83.271197 -166.975990 -0.450171 -84.305500
-47.735149 -104.296650 0.704997 -48.471569
-60.310517 -88.844470 14.445350 -44.746496
-50.112290 -107.240058 4.844882 -51.014818
-55.925009 -83.215298 5.636642 -41.742092
-57.120698 -82.253709 2.409966 -41.812322
-59.351861 -75.430786 3.550624 -40.434794
-48.253819 -74.296513 18.409650 -36.765100
-55.148856 -77.425798 8.676489 -39.772396
-53.219265 -89.883464 5.218092 -42.930819
-59.289119 -87.258177 7.798767 -43.964189
-45.290468 -99.274110 3.768153 -45.747037
-52.903088 -82.069850 1.083053 -40.491881
-49.689637 -104.395019 -8.070380 -49.116009
-41.055856 -91.196225 3.421609 -41.774440
-57.965262 -114.770820 2.179746 -56.662637
-30.016952 -72.753647 0.912732 -30.831179
-45.090186 -99.242240 -1.776515 -45.832917
-37.439113 -75.273607 -1.412399 -33.813816
-46.454888 -98.266125 6.933820 -45.447197
-32.166719 -75.891466 3.097858 -32.417455
-45.197943 -96.351959 -5.146927 -43.595987
-47.903145 -84.192876 3.171677 -39.628806
-62.614719 -129.318087 3.908602 -66.754499
-44.133258 -88.855241 1.146035 -39.896550
-38.007087 -84.291947 6.971356 -37.617873
-38.508401 -87.150178 3.428378 -38.825192
-32.809133 -66.350009 0.686408 -29.747742
-24.944542 -62.615627 4.190005 -26.268051
-36.021089 -65.515354 0.935800 -30.460933
-33.792116 -64.603946 1.236175 -29.518819
-31.210770 -64.155360 -0.045394 -28.609839
-22.585646 -59.444910 0.944904 -24.609167
-20.722961 -55.282729 3.867183 -22.801707
-25.411217 -62.829489 -5.145521 -26.472212
-14.476446 -45.246291 1.097714 -17.916821
-31.003060 -73.887608 2.395352 -31.467200
-32.199618 -76.264597 1.953981 -32.570382
-47.248215 -103.271985 -0.022336 -47.915942
-18.853782 -52.814481 1.651540 -21.500479
-41.862370 -93.482875 -2.458079 -42.801242
-40.615789 -89.091629 -1.018895 -39.487468
-36.478134 -79.051476 -6.995220 -34.667643
-14.638945 -44.674197 3.463245 -17.793943
-44.283224 -80.468731 4.592908 -37.425587
-45.408900 -98.969286 4.535376 -45.331555
-27.493355 -31.109354 -5.885313 -17.580813
-39.340994 -70.215883 8.152865 -32.867063
-48.226093 -90.044887 -1.435574 -41.717846
-38.982279 -70.902027 2.292147 -32.965292
-35.471941 -75.945614 0.876337 -33.425266
-43.111561 -75.888425 1.696296 -35.699996
-43.619522 -79.681736 1.216284 -36.990377
-53.508891 -111.862810 -1.802037 -53.300248
-22.430555 -50.812812 -0.829315 -21.973010
-11.175650 -39.526924 0.651630 -15.210772
-30.739174 -68.723199 3.377298 -29.838712
-24.825068 -30.277115 -6.442944 -16.530655
-21.929600 -51.423925 -9.083607 -22.006058
-29.954020 -69.840476 -6.294776 -29.938349
-29.410681 -71.605303 2.044424 -30.304795
-16.330626 -30.093669 0.853997 -13.927289
-17.860867 -50.194376 3.191942 -20.416573
-21.575600 -56.854270 2.897360 -23.528961
-42.242421 -77.820590 4.245511 -36.018903
-7.544126 -32.457457 2.694434 -12.000475
-23.370587 -59.537503 3.477350 -24.872427
-4.453792 -27.673417 1.083832 -9.638163
-18.320664 -51.422473 2.273592 -20.922941
-19.887126 -53.914529 3.145973 -22.140497
-21.578343 -56.036203 4.143892 -23.284364
-23.786581 -61.235954 0.955774 -25.506761
-26.339691 -59.573481 4.905404 -25.773951
-22.112914 -57.042149 4.163523 -23.746519
-13.498499 -43.226732 1.239008 -17.017569
0.724565 -18.627613 -0.109186 -5.370914
-7.298308 -21.982436 4.744485 -8.784223
-30.089782 -72.708114 1.651118 -30.839369
-18.938605 -53.061925 1.505859 -21.600159
-19.586965 -53.179531 4.075732 -21.829949
-7.547923 -32.245496 3.039023 -11.938026
-20.622780 -55.707246 -2.664380 -22.899008
-14.239257 -44.440255 2.700915 -17.603854
-16.639951 -49.069066 0.184202 -19.712705
-25.514595 -56.362454 6.588150 -24.563115
-15.381306 -32.843795 -0.721894 -14.467530
-19.537851 -53.253275 3.830963 -21.837338
-23.621295 -60.725886 3.296376 -25.304155
-4.810822 -19.350205 2.537282 -7.248308
-17.032816 -49.892311 -0.996027 -20.077538
-29.779422 -61.742177 0.548536 -27.456480
-13.018466 -42.409964 -1.291992 -16.628529
-16.778776 -35.353345 -1.742651 -15.639636
-6.540676 -24.656846 1.915101 -9.359257
-12.284934 -40.696301 2.702662 -15.894370
-10.729944 -34.608045 4.071843 -13.601397
-26.548795 -64.970683 4.418638 -27.455843
-12.139795 -30.377748 1.409688 -12.755263
2.034040 -15.651705 1.437040 -4.085300
-3.004093 -14.676223 2.223408 -5.304095
-6.084338 -29.851553 1.749078 -10.780767
-5.259714 -25.788538 2.811094 -9.314476
-2.744405 -15.463972 1.633884 -5.462513
-4.818520 -23.436108 -0.348849 -8.476388
-2.135607 -23.285472 1.662332 -7.626324
-5.858478 -20.241306 0.883428 -7.829935
-10.126000 -37.365657 1.027293 -14.247497
-2.482251 -19.775453 2.114996 -6.677311
-3.265639 -13.248194 1.157341 -4.954150
-2.424825 -6.383647 0.915227 -2.642542
-3.818629 -19.557812 2.583870 -7.012932
-2.442882 -11.413441 1.567536 -4.156897
-1.594884 -2.228105 0.434538 -1.146896
0.110614 -2.148175 0.516586 -0.611268
-4.102285 -15.121950 0.400449 -5.767270
-0.693703 -2.077587 0.431898 -0.831387
-1.252047 -6.765589 0.873555 -2.405291
-1.078832 -6.749488 1.125134 -2.348496
0.785082 -2.053425 0.414927 -0.380503
-0.601203 -2.301758 0.470901 -0.870889
8.612639 -2.469369 0.527872 1.842981
1.365828 -2.055803 0.162736 -0.206992
-3.540429 -20.214525 -1.295932 -7.126486
-3.953245 -17.922218 -0.358750 -6.562639
-0.573397 -9.983189 1.869089 -3.166976
-1.007162 -9.827687 1.015763 -3.250455
0.821643 -15.987751 3.485298 -4.549832
3.014928 -6.233642 1.766724 -0.965614
0.745620 -6.092732 0.899587 -1.604134
0.153250 -9.573340 2.038030 -2.826027
0.267419 -5.595362 0.613322 -1.598383
3.645082 -2.037931 0.641932 0.482145
1.912928 -10.692258 2.716139 -2.633799
2.215376 -1.931192 0.484115 0.085255
0.464651 -15.656630 3.368072 -4.557594
2.500263 -6.279873 1.762749 -1.133883
4.611023 -11.779429 -0.140171 -2.150522
4.600060 -10.818180 2.022611 -1.865436
2.819461 -11.492083 2.580382 -2.601787
-0.245624 -15.244429 3.864834 -4.647016
-2.727373 -24.159351 1.156855 -8.066017
2.039273 -15.874739 1.821894 -4.150640
-2.295409 -22.236328 3.546042 -7.359521
-0.112862 -13.912044 3.418884 -4.207472
-5.456874 -22.612464 5.197614 -8.420801
-1.121239 -13.847189 3.103574 -4.490528
-9.339515 -25.978595 2.076049 -10.595433
-2.230584 -17.843697 4.002186 -6.022284
-4.714586 -23.857895 4.845210 -8.571744
-14.039025 -32.620646 2.785719 -13.997901
-27.837168 -68.234537 3.599922 -28.821512
-15.434590 -46.961888 1.255302 -18.718943
-2.138981 -21.239189 3.732018 -7.013451
-9.152243 -33.792514 4.626320 -12.883427
-10.708802 -38.468422 0.632905 -14.753167
-0.295293 -19.709912 2.381214 -6.001562
-2.100647 -23.463246 -1.126277 -7.669168
0.493398 -18.939365 0.654401 -5.533790
-4.088483 -26.751217 -1.790770 -9.251910
-2.624829 -17.380976 -0.129468 -6.001741
-14.972927 -46.257845 1.072034 -18.369232
-14.824603 -45.792664 -1.824530 -18.185180
-13.368031 -40.586579 3.305406 -16.186383
-21.947341 -55.170985 -0.325209 -23.135498
2.725071 -10.114305 0.827541 -2.216770
-3.670231 -19.821448 -0.058200 -7.047504
0.684310 -18.751825 0.231683 -5.420254
-10.268268 -37.555360 1.790180 -14.347089
-11.178474 -39.282254 0.564908 -15.138218
-10.624480 -38.007204 2.573787 -14.589505
-0.401352 -20.177353 -1.822551 -6.173611
-15.940993 -48.022342 0.834921 -19.189000
-4.358183 -24.799827 0.268662 -8.747403
5.826395 -9.600602 -0.170811 -1.132262
-2.482561 -24.260394 -0.755630 -8.022887
4.972845 -10.779740 -0.674270 -1.742069
4.406953 -8.960933 0.324472 -1.366194
10.091292 -2.087426 0.510947 2.401160
8.372548 -5.126735 0.021408 0.973744
6.834589 -5.422182 0.116293 0.423722
8.977824 -1.812421 -0.044313 2.149621
-3.846584 -19.598032 2.517667 -7.033385
10.460933 -1.540603 -0.571886 2.676099
2.635933 -14.359973 1.736279 -3.517212
5.138761 -10.823657 0.470326 -1.705469
-6.545168 -31.113571 -1.890292 -11.297622
-1.951923 -23.374155 0.478592 -7.597823
2.496950 -15.236406 1.386301 -3.821837
-7.028599 -32.163123 -1.360280 -11.757517
1.069220 -17.818680 -0.575613 -5.024838
-1.879074 -22.939373 -1.581897 -7.445534
-2.111657 -23.659727 0.323282 -7.731415
-13.046050 -43.018039 1.503747 -16.819227
7.522353 -6.660077 -0.024729 0.258683
2.781191 -15.171543 -0.564852 -3.717106
2.553714 -14.979499 -1.655339 -3.727736
6.677210 -7.808997 -0.819490 -0.339536
2.473801 -15.710433 1.078224 -3.970990
-1.704217 -22.600064 1.942746 -7.291284
2.284944 -15.813752 1.242255 -4.058642
-2.695099 -24.787339 0.824900 -8.244732
0.001089 -20.074312 -0.459100 -6.021967
2.024363 -16.526898 -0.265743 -4.350761
-0.811140 -20.729176 -0.286831 -6.462095
-20.954144 -57.083725 0.213980 -23.411361
-3.370169 -25.943681 0.035830 -8.794155
-1.756868 -23.163566 0.709168 -7.476130
-7.282283 -32.586495 -1.683382 -11.960633
-18.275694 -47.601853 -7.193389 -19.763264
3.308387 -12.633291 -1.506351 -2.797471
0.412617 -17.555843 -0.269030 -5.142968
-18.248105 -49.554368 0.836017 -20.340742
-12.608940 -41.554628 1.589027 -16.249070
-1.499121 -21.840876 -0.141597 -7.001999
-2.713634 -24.618618 -0.986556 -8.199676
3.453245 -13.904595 0.010745 -3.135405
-21.337836 -56.295959 3.484789 -23.290138
-11.907226 -40.810591 -1.529416 -15.815345
-32.748343 -60.031467 -2.179183 -27.833943
-19.899294 -46.734234 -3.401235 -19.990058
-1.062323 -21.275487 2.119868 -6.701343
-3.203995 -25.126338 -0.839190 -8.499100
-10.300864 -31.099112 3.764115 -12.419993
-7.081477 -32.447482 -0.594615 -11.858688
-39.341658 -88.329927 -4.209518 -40.024803
-17.302901 -50.718770 -0.124730 -20.406501
-19.222726 -52.174513 2.786547 -21.419172
-25.831878 -52.193717 -9.826083 -23.407678
-26.628987 -52.291766 -2.964729 -23.676226
-19.523268 -54.484953 0.806932 -22.202466
-21.485460 -57.998568 0.764634 -23.845208
-33.402781 -79.027333 0.425255 -34.652792
-30.466539 -67.412253 -9.477638 -29.363638
-19.050551 -53.367479 1.913833 -21.725409
2.570167 -11.153393 4.675124 -2.574968
-13.799279 -44.061041 1.802765 -17.358096
-9.641965 -37.100570 -0.144472 -14.022760
-19.868193 -52.126545 2.734359 -21.598421
-24.236516 -22.762447 -3.020585 -14.099689
-16.690509 -47.365680 0.222933 -19.216857
-31.142530 -70.399476 6.139105 -30.462602
-8.083119 -34.154821 -0.292662 -12.671382
-23.988750 -58.538514 -1.804933 -24.758179
-5.886446 -30.124024 -1.209703 -10.803141
-16.432052 -47.857961 3.440473 -19.287004
-16.034178 -45.411110 2.472237 -18.433586
-28.010032 -64.404117 6.109055 -27.724245
-15.683874 -45.625834 1.507909 -18.392913
-17.857052 -50.405249 2.366957 -20.478690
-11.374473 -24.934632 -7.903348 -10.892731
-15.452236 -47.001905 -1.268973 -18.736242
-19.594711 -22.322186 -6.767758 -12.575069
-15.572086 -25.901897 -9.147373 -12.442195
-25.930977 -65.623244 1.752547 -27.466266
-21.371081 -55.822218 4.922835 -23.157990
-26.702877 -53.992763 1.337835 -24.208692
-26.715307 -51.578185 -1.478573 -23.488048
-31.938692 -72.094398 -3.937236 -31.209927
-37.749760 -86.130908 3.230174 -38.230173
-28.540677 -61.031197 -8.932790 -26.871562
-38.947267 -75.701236 3.323454 -34.394551
-43.959110 -96.160670 -1.703161 -44.068220
-33.493609 -63.570724 3.830461 -29.119300
-43.507390 -93.944811 0.237858 -43.082528
-35.701108 -80.880513 -5.897304 -35.485357
-43.489007 -96.044036 -3.831834 -43.909864
-40.617246 -84.057393 5.283354 -39.081775
-32.347707 -76.227902 -1.915618 -32.572683
-36.151428 -76.363585 -4.930629 -33.754504
-30.427621 -61.796482 3.062863 -27.667231
-53.117081 -112.591565 4.924979 -54.141347
-33.848212 -63.090683 5.535183 -29.081669
-46.967585 -67.009656 9.595492 -34.193172
-46.403331 -100.269914 -5.778899 -46.517666
-17.477683 -46.928792 6.620541 -19.321943
-22.621904 -57.611204 5.498623 -24.069932
-21.147828 -55.280592 4.245917 -22.928526
-31.049825 -56.947877 3.140261 -26.399311
-20.143422 -55.247852 1.322733 -22.617382
-39.310438 -89.149456 -2.234814 -40.241482
-20.733282 -54.334709 4.894545 -22.520397
-32.905500 -66.356083 2.874289 -29.778475
-27.266780 -67.732385 2.398064 -28.499750
-28.944737 -66.235431 -2.377802 -28.554050
-31.757562 -75.106997 -3.876149 -32.059368
-36.601208 -84.150154 -2.904568 -37.946197
-35.688260 -82.861081 -1.678221 -37.040034
-40.126380 -89.081405 -4.747957 -40.495629
-40.754461 -90.605481 -4.382097 -41.562728
-34.507477 -32.351076 6.614184 -20.057566
-28.067783 -67.431713 5.254332 -28.649849
-44.411823 -80.723757 10.074749 -37.540674
-28.491630 -62.895915 4.414331 -27.416263
-24.770538 -50.677247 3.786422 -22.634336
-12.280213 -37.546575 -2.645954 -14.948036
-31.349121 -56.062509 1.022892 -26.223489
-27.186065 -59.754322 5.813497 -26.082116
-19.422420 -47.109845 8.855103 -19.959679
-20.806109 -38.751681 5.470438 -17.867337
-35.368409 -76.934342 2.047579 -33.690825
-31.224981 -74.807921 2.502317 -31.809871
-38.803124 -88.078016 -3.002873 -39.278849
-13.736315 -43.273914 -3.873299 -17.103068
-32.516594 -76.749248 3.388565 -32.860881
-28.956417 -71.261691 -0.891043 -30.065433
-29.570906 -72.048732 1.697717 -30.485891
-14.038815 -44.662613 -2.185888 -17.610428
-17.891564 -51.927606 -1.004568 -20.945751
-23.546866 -59.966508 -4.932729 -25.054012
-36.750302 -84.290511 -4.303762 -37.181314
-22.329338 -57.818749 -4.726434 -24.044426
-25.844115 -63.529452 -5.747384 -26.812070
-53.986215 -113.627786 6.815524 -54.758643
-20.164570 -54.145704 -4.517244 -22.293082
-27.245229 -65.786264 -6.089643 -27.909448
-23.868395 -58.790429 -6.691255 -24.797647
-22.442076 -59.687688 -1.368086 -24.638929
-17.827666 -47.783900 -6.451068 -19.683470
-27.031923 -65.812836 -5.457939 -27.853428
-47.123948 -103.151999 1.341802 -47.832053
-28.200208 -69.815653 -1.793646 -29.404758
-33.347288 -78.717396 1.975397 -33.888262
-37.905521 -85.538049 -5.467534 -37.996315
-28.763560 -70.700592 -2.303343 -29.839246
-29.344581 -68.316060 -7.208275 -29.298192
-12.908698 -41.118476 -4.646906 -16.208152
-8.536073 -33.536869 -4.291487 -12.621882
-24.371698 -61.477324 -4.823142 -25.754707
-9.943228 -36.336038 -0.616347 -13.883780
-21.965566 -57.997608 -3.375973 -23.988952
-7.435553 -28.773514 -5.904309 -10.862720
-16.315053 -43.719966 -5.891063 -18.010506
-22.966020 -59.837130 -3.469088 -24.840945
-20.202265 -49.326859 -2.659883 -20.858737
-16.236078 -38.165762 -2.975788 -16.320552
-13.993485 -39.772982 -6.994213 -16.129940
-4.264862 -21.308257 -3.112058 -7.671936
-17.126584 -50.015219 -1.977665 -20.142541
-15.531251 -42.934375 -6.838920 -17.539688
-19.255006 -47.316661 -8.582533 -19.971500
-15.741912 -43.476733 -6.765914 -17.765594
-21.984263 -58.929635 -0.822915 -24.274169
-26.444649 -66.611647 1.624291 -27.916889
-14.523387 -45.536321 -2.385250 -18.017912
-15.154721 -44.918575 -4.971150 -18.021989
-17.958869 -51.512251 1.730861 -20.841336
-30.358272 -73.091018 2.965851 -31.034787
-19.751688 -54.990086 0.665381 -22.422532
-23.252602 -61.189792 -0.207354 -25.332718
-24.859744 -59.392768 -1.327891 -25.275754
-20.650349 -40.435603 2.084246 -18.325786
-27.716430 -68.609095 2.423130 -28.897658
-23.754004 -61.824894 1.585163 -25.673669
-26.524103 -40.469247 2.899087 -20.098005
-4.018418 -26.135762 -2.724387 -9.046254
-19.440698 -37.502974 4.904576 -17.083102
-21.006341 -56.470007 3.042028 -23.242904
-23.997318 -61.897888 2.747592 -25.768562
-19.847580 -55.171027 0.048401 -22.505582
-16.329689 -39.368649 -2.308329 -16.709501
-32.724643 -61.478333 -6.230064 -28.260893
-28.313412 -48.210952 5.184674 -22.957309
-13.763117 -29.748728 2.654217 -13.053553
-11.379419 -40.315930 0.067912 -15.508605
-12.762150 -42.633477 1.115585 -16.618688
-14.243099 -45.342827 -0.934209 -17.875778
-17.370789 -50.868265 -0.289501 -20.471716
-15.463013 -34.439853 2.387546 -14.970860
7.294505 -2.601909 -1.303394 1.407779
-11.080982 -39.523397 -1.983214 -15.181314
-10.285195 -36.384750 -4.675979 -14.000983
-8.236198 -33.639584 -2.823584 -12.562734
-21.402680 -43.435347 -1.595575 -19.451408
-8.914095 -30.150259 -0.652221 -11.719306
1.715958 -9.048896 -0.449947 -2.199882
-4.958380 -24.437452 -0.845628 -8.818749
10.580924 -1.450748 -0.106394 2.739053
-1.447012 -19.346297 -3.830445 -6.237993
5.800091 -2.298271 -1.262139 1.050546
6.104933 -8.869497 -1.392075 -0.829369
8.886213 -4.025387 -1.078550 1.458248
-6.396658 -31.101720 -1.559721 -11.249513
-0.664775 -5.620222 0.597339 -1.885499
3.738912 -4.477910 -1.382033 -0.221699
-0.462173 -6.378308 0.851516 -2.052144
1.614622 -17.270712 -0.518444 -4.696827
3.152319 -11.275350 -3.246864 -2.436909
0.929201 -17.772264 0.618628 -5.052919
-1.738973 -8.518945 -0.692024 -3.077375
-0.980798 -4.722794 -0.240893 -1.711078
4.707286 -11.768623 -0.456017 -2.118401
-0.206284 -18.406831 -3.716933 -5.583934
3.387601 -3.639450 -0.164632 -0.075555
0.584533 -8.307089 0.200990 -2.316767
2.498862 -13.867087 -3.365136 -3.410467
0.624209 -11.184603 -1.999857 -3.168118
1.327887 -12.557378 -0.887677 -3.368847
0.469390 -1.736673 -0.244946 -0.380185
-0.995496 -5.958817 -0.939610 -2.086294
0.945910 -8.163230 0.750723 -2.165196
-1.429649 -5.901547 -0.985212 -2.199359
-0.799875 -15.056897 -2.952420 -4.757032
-1.279073 -6.491086 0.160485 -2.331048
-2.284087 -9.478046 -1.148114 -3.528640
-2.998319 -13.670347 -3.168286 -5.000600
1.337032 -1.930003 -0.211317 -0.177891
-4.922718 -13.680459 -3.295238 -5.580953
-2.403411 -10.264487 0.447261 -3.800370
-4.786582 -17.394069 -4.186982 -6.654195
-1.174720 -15.546769 -4.832931 -5.016447
-5.304354 -24.544642 -2.861057 -8.954699
0.138573 -6.189673 -1.088076 -1.815330
2.270356 -15.529096 -1.755271 -3.977622
-9.353988 -34.837611 -4.103434 -13.257480
-0.305806 -20.207820 -1.675962 -6.154088
-5.776217 -28.267084 -4.280693 -10.212990
-13.841301 -41.513505 -5.777430 -16.606442
-12.038798 -39.681136 -4.302308 -15.515980
-6.856328 -23.419622 -0.149364 -9.082785
0.023291 -19.299899 -2.350844 -5.782982
-15.871270 -34.101712 -8.543593 -14.991894
-9.590120 -34.856356 -4.585832 -13.333943
-10.062075 -19.952678 -8.769917 -9.004426
-4.760252 -19.154910 -3.302258 -7.174549
-12.229850 -30.000396 -5.538644 -12.669074
-16.368377 -42.968594 -7.602273 -17.801091
-18.408034 -51.652670 -1.286182 -21.018211
-17.448816 -50.499514 -0.711962 -20.384499
-12.929099 -27.973878 1.073034 -12.270893
-15.951811 -45.983277 -2.829293 -18.580526
-6.429044 -30.947402 0.778130 -11.212934
-7.000165 -21.108647 -4.322073 -8.432644
-8.050640 -32.833706 2.878871 -12.265304
-7.099798 -31.438471 3.101666 -11.561481
-9.698065 -24.376898 -1.183752 -10.222489
-4.212239 -14.548394 -0.223253 -5.628190
-1.718541 -20.518737 -0.243303 -6.671183
-6.025491 -8.966483 -1.487715 -4.497592
-8.259074 -18.835741 -5.838734 -8.128445
-11.584388 -21.722659 -1.813496 -9.992114
-8.023454 -14.828202 -6.317729 -6.855497
-10.365292 -25.794956 -6.222197 -10.848074
-10.351449 -25.068247 -6.514704 -10.625909
-1.440888 -6.151558 -0.101122 -2.277734
-10.731989 -28.937379 -5.303655 -11.900810
-7.656465 -22.522737 -0.142676 -9.053761
-0.821338 -2.079084 0.102818 -0.870126
-8.432259 -34.531069 1.907864 -12.888998
-9.014041 -9.033046 1.886922 -5.414126
-7.108779 -7.085647 -3.505858 -4.258328
-8.047498 -5.915008 0.669255 -4.188752
-0.922827 -2.455711 -0.759885 -1.013561
-3.564082 -16.609500 -2.035506 -6.052075
-8.159615 -17.330349 -2.709820 -7.646989
-14.139571 -33.359807 2.745237 -14.249813
-1.286449 -10.310033 -0.974793 -3.478945
-8.447245 -19.558333 -3.451706 -8.401673
-7.694511 -12.141864 -1.663278 -5.950913
0.826300 -13.948671 -0.791003 -3.936711
-12.543283 -5.288224 -0.580168 -5.349452
-2.817231 -24.975853 -0.180050 -8.337925
0.962858 -16.595730 -1.153680 -4.689861
-1.788519 -23.107600 -0.900733 -7.468835
-9.479895 -1.919988 0.805919 -3.419965
-4.205510 -5.462567 3.370386 -2.900423
-5.452846 -19.379542 5.448861 -7.449716
-5.250349 -3.191115 3.220818 -2.532439
-3.743669 -23.786234 4.609772 -8.258971
-3.156104 -25.576000 0.100063 -8.619631
-3.729843 -9.178057 3.314972 -3.872370
-3.346284 -14.624273 4.989054 -5.391167
-4.706299 -14.128283 4.637889 -5.650375
-2.181248 -13.942364 4.816919 -4.837084
-7.657923 -30.437420 5.124069 -11.428603
-5.363243 -23.130722 4.118697 -8.548190
-9.192341 -36.277830 -0.561385 -13.641051
-5.478084 -28.218674 -3.726414 -10.109027
-1.453869 -16.558248 0.515161 -5.403635
-4.888976 -21.626049 3.584676 -7.954508
-12.225036 -41.242227 2.003026 -16.040179
-5.387683 -29.649716 -0.350912 -10.511220
-3.074059 -25.414365 -1.039092 -8.546527
-4.222659 -27.561499 -0.434590 -9.535248
-9.612123 -37.070648 0.923831 -14.004831
-7.937790 -34.185439 0.473316 -12.636969
-5.354363 -21.753882 2.627308 -8.132473
-4.462872 -16.489286 5.555650 -6.285647
-14.819693 -40.060076 5.316285 -16.463931
-12.154851 -41.003642 2.150228 -15.947548
-9.206617 -28.397164 1.343324 -11.281134
-27.123833 -67.799267 2.067169 -28.476930
-10.318014 -30.083963 -2.067161 -12.120593
-22.111979 -58.886998 -1.437437 -24.299693
-8.025475 -32.455910 -3.913424 -12.144416
-29.920030 -72.785035 -1.049291 -30.811519
-17.038162 -50.027803 -0.738810 -20.119790
-18.800015 -51.599465 -4.433759 -21.119844
-26.637983 -66.250939 3.446637 -27.866677
-15.245543 -46.331210 -3.020113 -18.473026
-22.666590 -59.930076 1.942917 -24.779000
-10.274995 -36.821498 -3.948307 -14.128948
-8.328931 -34.824767 0.905700 -12.946109
-16.082588 -48.110551 2.323008 -19.257942
-3.325673 -25.891625 -0.798501 -8.765189
-16.324134 -48.154205 3.149229 -19.343502
-10.006303 -37.521906 1.535514 -14.258463
-27.309388 -62.520389 0.752435 -26.948933
-6.167401 -30.996636 -0.403252 -11.149211
-10.419543 -36.436185 4.360968 -14.056718
-15.009478 -31.667936 6.106036 -14.003224
-12.820170 -39.829583 -4.458715 -15.794926
-10.936413 -39.052652 1.795090 -14.996719
-12.072713 -40.717437 2.275803 -15.837045
-18.199762 -51.915082 -0.058662 -21.034453
-8.096913 -30.907120 -5.352496 -11.701210
-10.868442 -36.358968 3.766227 -14.168223
-16.689733 -42.214055 -2.117514 -17.671137
-26.234629 -65.428495 1.685175 -27.498937
-11.480410 -39.327787 2.720711 -15.242459
-23.129234 -58.762741 5.412290 -24.567593
-19.449763 -48.167990 1.636036 -20.285326
-8.177981 -33.142710 3.506520 -12.396207
-14.075868 -44.491558 2.038989 -17.570228
-23.519429 -59.779870 -4.837315 -24.989790
-44.887850 -99.356703 1.904479 -45.661321
-26.585348 -60.085070 -2.206771 -26.001126
-19.912752 -54.807077 2.267217 -22.415949
-26.652761 -42.210466 2.490498 -20.658968
-25.447323 -62.971736 -5.347307 -26.525718
-15.581945 -44.176720 -5.298038 -17.927600
-18.301327 -25.352599 -0.949925 -13.096178
-23.817086 -62.077467 0.264999 -25.768366
-26.470690 -63.985825 -3.289143 -27.136954
-25.995566 -62.856714 1.128592 -26.655684
-24.262606 -62.671318 0.737050 -26.080177
-19.787739 -50.851006 -3.176619 -21.191623
-33.552247 -78.423193 3.750229 -33.852442
-28.727183 -69.148447 0.435937 -29.362689
-23.299990 -58.900732 5.417707 -24.660217
-32.050442 -75.789374 3.684618 -32.351945
-19.481387 -53.048125 4.050456 -21.758854
-17.260610 -49.155164 4.093354 -19.924732
-36.836964 -84.397401 3.383040 -37.177896
-27.311549 -65.775655 5.967189 -27.926161
-20.449225 -54.960028 3.914522 -22.622776
-29.836014 -71.850862 3.582638 -30.506063
-31.361528 -72.395248 6.821243 -31.127033
-27.083021 -66.874020 3.859320 -28.187112
-19.678291 -53.619375 3.987765 -21.989300
-27.260565 -67.631531 2.964709 -28.467629
-16.200001 -47.991764 -3.239358 -19.257530
-17.338860 -50.510006 1.846235 -20.354660
-22.431496 -59.569116 1.772379 -24.600184
-29.534243 -71.952259 2.135555 -30.445951
-25.338731 -63.515059 4.215521 -26.656137
-24.016701 -62.177867 2.105312 -25.858370
-26.960698 -67.441642 1.941223 -28.320702
-19.063683 -52.560125 -4.138613 -21.487143
-28.066499 -69.397285 2.335263 -29.239135
-19.648715 -54.531997 2.126459 -22.254214
-38.131887 -86.300734 4.263279 -38.396016
-33.669729 -79.230785 2.373194 -34.222029
-30.004321 -73.202373 -0.071066 -30.962008
-32.961808 -77.830359 2.603986 -33.421048
-32.911815 -77.329000 3.597160 -33.217079
-27.558185 -68.627778 1.399311 -28.855789
-35.650702 -82.092081 3.846883 -35.956414
-26.125929 -65.482173 3.152902 -27.482430
-21.100879 -56.928115 2.270012 -23.408698
-38.996983 -88.234329 3.279733 -39.783327
-29.351042 -71.213687 3.067072 -30.169419
-39.235631 -88.203810 4.444485 -39.496692
-30.935339 -74.382125 2.336818 -31.595239
-30.422006 -73.482297 2.274637 -31.171291
-24.623276 -62.629688 3.609949 -26.175889
-56.031777 -115.974560 7.978689 -55.749221
-60.882447 -105.308154 18.542461 -53.221652
-38.215432 -86.830853 3.622094 -38.620832
-30.962704 -67.596266 10.161544 -29.567691
-39.447364 -87.346367 6.023722 -39.297706
-53.609615 -113.941902 -3.395875 -54.093174
-50.412245 -106.542670 7.124351 -50.267235
-54.869826 -106.544550 11.550689 -50.551691
-36.210875 -83.933102 0.400071 -36.831918
-46.709186 -102.396635 -0.824491 -47.401764
-52.748919 -108.604287 2.908326 -51.662011
-57.018830 -119.819493 4.510851 -57.529141
-37.806377 -86.760935 0.428500 -38.491381
-43.010487 -93.611118 2.512526 -42.534346
-34.696156 -81.058647 1.918418 -35.275224
-35.940047 -83.020891 2.770689 -36.490412
-50.114286 -107.220073 5.015799 -50.402927
-43.231682 -94.784867 5.411718 -43.346956
-39.933418 -90.200558 2.567725 -41.128871
-37.599638 -86.330927 1.830898 -38.206150
-46.008485 -99.999203 5.021186 -46.549283
-36.331778 -84.056483 1.475695 -36.922129
-43.547926 -96.319390 -4.359410 -43.903230
-72.164289 -137.803269 15.158660 -72.027113
-39.248468 -89.317531 1.232450 -41.472939
-44.458377 -98.242097 2.622331 -45.726876
-46.439815 -102.329608 -2.338586 -47.096966
-36.513733 -84.997778 -0.776007 -37.137725
-42.301826 -93.735336 -4.585649 -42.587630
-37.323377 -85.612636 -3.521585 -37.714527
-38.320304 -88.285091 1.252637 -38.971307
-34.036444 -75.502055 -8.522333 -32.962527
-48.626024 -106.069213 0.691760 -49.400299
-62.419121 -129.707339 -4.304899 -63.102114
-30.741849 -73.850255 -2.966969 -31.377631
-19.887119 -53.324058 4.752280 -21.963353
-63.458532 -131.587173 -4.100409 -64.149888
-45.183050 -98.910635 4.270399 -45.590847
-31.063200 -74.652602 2.135671 -31.714740
-24.616980 -63.116151 2.347135 -26.319939
-38.815715 -88.555140 0.219971 -39.805293
-37.119539 -85.509133 1.150898 -37.730533
-22.008622 -57.997383 3.484546 -24.001802
-35.081921 -81.796838 1.785028 -35.641542
-35.193888 -82.071788 1.533800 -35.783209
-36.967935 -85.159737 1.819001 -37.544388
-24.656696 -61.741743 -5.250618 -25.919532
-24.508331 -62.717349 3.005846 -26.167704
-30.005295 -40.841883 0.110445 -21.254153
-28.643723 -69.728487 3.814955 -29.511663
-34.557141 -80.712441 2.378306 -35.056227
-18.704362 -51.798042 3.893166 -21.150721
-25.964109 -65.724580 1.650245 -27.506607
-28.141570 -69.659240 -2.250294 -29.340243
-31.802277 -74.335991 -5.597112 -31.841480
-31.121885 -74.475114 -3.860716 -31.679100
-39.761086 -90.167165 -1.981017 -40.397489
-63.071511 -127.922526 -7.247194 -64.002835
-39.098321 -87.978599 -4.700929 -39.587519
-40.787195 -91.301922 -4.683940 -41.731809
-42.920903 -95.609306 2.259058 -43.996775
-38.220147 -87.516560 -0.395272 -38.871517
-21.630505 -58.312393 0.162963 -23.982869
-45.127448 -99.738672 0.934985 -46.168318
-29.667350 -71.230510 4.319738 -30.269358
-35.446392 -82.372030 2.442720 -35.962553
-33.059615 -78.578672 0.201308 -33.828814
-48.222265 -105.202956 1.236926 -48.954386
-33.539523 -72.417429 4.556162 -31.787086
-31.304236 -74.400325 3.782686 -31.711368
-40.773758 -91.807216 1.967044 -41.374739
-27.303712 -56.214951 2.867164 -25.055599
-28.392488 -62.348959 -3.390263 -27.222434
-45.707593 -99.713221 -4.496791 -46.058394
-43.324706 -73.315475 0.065153 -34.992054
-27.250585 -67.306832 3.412918 -28.367225
-33.429186 -77.983794 -4.137650 -33.646507
-51.326251 -105.872339 -1.310735 -49.896221
-33.459302 -74.642397 5.627521 -32.430510
-49.674321 -90.026252 0.507098 -41.910172
-60.803316 -99.780853 0.344063 -48.175251
-51.287061 -110.350839 1.785394 -51.942065
-38.514699 -71.923406 -14.478286 -33.146333
-64.859728 -119.418411 -4.083867 -57.978683
-30.473258 -69.696824 6.391539 -30.051025
-33.481195 -77.554705 0.906028 -33.407473
-54.196502 -94.043270 -9.684853 -44.471932
-37.742619 -66.305616 -16.251452 -31.214471
-65.173035 -133.589921 -6.237475 -65.529000
-60.665568 -126.782001 3.236851 -61.395835
-42.327180 -94.053160 3.481520 -42.756851
-66.414884 -129.311818 7.507087 -63.466000
-66.742011 -109.195445 -13.588534 -53.062134
-62.874755 -121.440007 10.718910 -59.327221
-66.872884 -125.497522 0.800203 -63.595040
-58.821599 -115.836764 13.113467 -55.952999
-46.950920 -98.604502 -6.624903 -44.975915
-66.220939 -121.394564 2.087003 -60.801848
-39.836232 -89.886085 3.056521 -40.324170
-52.383314 -95.809314 7.422117 -44.457788
-52.118392 -102.115291 10.883275 -48.478623
-54.479056 -115.314263 -4.576473 -54.955514
-51.364063 -91.010035 -5.505255 -42.712230
-34.813267 -60.325421 5.295191 -28.541606
-30.776658 -73.701530 3.220030 -31.343457
-56.354846 -95.265696 0.198434 -47.181788
-53.755686 -106.120700 12.359850 -50.859420
-57.423500 -111.973884 12.158888 -54.221103
-52.284612 -110.435389 -6.425949 -52.424097
-45.630410 -100.511466 1.351720 -46.711761
-67.158380 -129.399698 7.718326 -64.193477
-46.581047 -102.352566 -1.397288 -47.339927
-41.817892 -88.902202 9.414082 -40.676810
-35.485317 -81.435160 -4.882387 -36.112591
-33.769781 -79.410746 3.619239 -34.108729
-15.315089 -46.598338 2.903790 -18.574028
-54.407400 -108.390280 12.275061 -52.089993
-51.261308 -109.058605 6.488981 -51.323536
-44.519991 -94.161446 9.369721 -43.513656
-45.298773 -100.334497 -1.797023 -45.968158
-41.983516 -92.470511 6.325058 -41.885911
-39.894320 -90.313944 -3.568286 -40.324738
-59.058148 -121.243868 8.529050 -58.763068
-54.674078 -112.829138 2.627693 -52.839796
-58.597520 -117.992065 11.168351 -57.405548
-51.971689 -105.590204 8.460011 -49.934038
-76.085831 -153.586957 4.866025 -78.095842
-64.724686 -130.573656 9.912136 -64.177522
-60.270474 -123.285169 7.954492 -59.946822
-50.036170 -102.350306 11.110626 -48.527179
-59.929182 -108.050215 3.540963 -50.429486
-68.043062 -139.933620 -2.748790 -68.892397
-60.021952 -84.092919 4.114225 -43.234461
-54.623849 -109.152332 8.927889 -51.970846
-54.853329 -105.749974 3.598417 -49.093016
-54.867041 -108.859544 10.179498 -52.099981
-53.113329 -112.549946 -5.214424 -53.425781
-57.055580 -113.113701 8.916737 -53.847338
-64.218020 -130.772324 -7.253168 -66.531384
-46.730996 -86.930178 6.762475 -40.098352
-85.223839 -167.125522 0.246422 -84.851959
-65.470401 -130.363236 -10.475459 -63.891789
-62.303855 -117.984675 1.269499 -59.634779
-62.419624 -105.717786 21.422011 -54.331592
-71.098646 -123.559003 3.816164 -65.340375
-61.503435 -118.884781 14.411849 -58.082495
-72.837801 -129.099788 1.398308 -67.681018
-76.703682 -127.412072 1.690756 -62.418072
-64.718779 -129.152136 4.670542 -62.724180
-67.604137 -129.615840 0.053347 -64.232597
-73.623378 -91.560666 -3.535328 -49.555213
-58.505719 -114.347823 13.803245 -56.058994
-73.049994 -148.390331 -3.921406 -74.038757
-68.944385 -134.454818 3.905066 -69.446350
-76.326889 -140.072866 -3.861379 -68.099146
-83.494160 -146.186629 20.601789 -75.156611
-75.072671 -108.264963 -9.949447 -55.001290
-70.413443 -134.270751 3.180000 -69.523268
-75.503245 -149.074725 -8.090080 -74.556158
-73.396448 -135.471096 -10.398688 -71.978774
-91.857581 -173.873995 1.960791 -87.188537
-74.781517 -147.603871 -1.338525 -73.665403
-85.482333 -159.996899 3.093648 -81.078507
-83.479007 -151.124179 9.118851 -77.742378
-75.375320 -151.336363 -7.163232 -75.726443
-60.163596 -120.028436 1.113415 -63.351063
-87.219263 -143.052048 1.996603 -70.041726
-88.525982 -170.521256 3.192976 -87.389481
-117.495381 -226.915998 -4.662954 -118.658214
-92.476518 -177.495551 -3.773352 -95.686851
-129.331223 -248.398933 -0.277640 -139.947071
-85.889465 -100.762480 -8.969543 -55.995584
-67.124846 -52.461399 -20.069278 -35.875873
-93.345798 -178.276851 -4.448717 -91.451073
-84.715737 -165.427817 11.262640 -84.865523
-52.548397 -98.098525 7.088588 -45.796062
-70.570596 -64.550396 -22.606051 -40.591607
-90.929763 -174.831357 7.468225 -89.617457
-91.005489 -172.887784 6.893227 -88.927908
-76.818535 -136.429205 21.765917 -70.688544
-77.065364 -125.422123 20.152281 -64.936060
-63.524240 -129.461789 8.504086 -63.351647
-63.179699 -130.047986 6.530477 -63.453265
-54.903940 -108.548500 13.068556 -52.618046
-74.363617 -148.128494 9.413669 -76.078123
-63.719147 -130.181091 7.742094 -63.730550
-59.745411 -123.579389 6.783731 -60.594435
-58.414160 -120.310826 7.519632 -58.791465
-84.541311 -167.548888 7.455065 -85.083055
-77.319892 -154.844033 7.071109 -77.975507
-54.425089 -113.811394 6.697012 -56.213458
-62.030974 -127.664861 6.763128 -63.397944
-52.770853 -113.212194 -3.480894 -53.378087
-91.362066 -177.929528 2.100806 -91.322798
-95.870105 -189.365776 1.947060 -97.082148
-47.015866 -103.164924 0.372486 -48.495439
-67.938202 -139.958926 -1.534437 -72.316675
-81.105412 -157.045569 8.341406 -82.974166
-90.439168 -178.800601 5.624671 -91.253288
-100.248720 -196.183646 2.717255 -101.219769
-85.769849 -171.521509 -1.035613 -87.504298
-63.572486 -132.253847 -1.885760 -66.825397
-92.706312 -183.464678 3.297429 -93.781003
-73.909363 -149.639882 5.098852 -74.788968
-96.768458 -190.645617 3.106717 -97.890243
-79.923151 -160.922249 3.018780 -81.920936
-47.911634 -105.089983 -1.629149 -48.627690
-44.390363 -98.624946 -1.778498 -45.051067
-55.085555 -114.356275 7.944484 -57.532354
-64.529338 -134.227488 -1.623409 -65.409515
-48.927988 -106.646735 -2.373350 -49.590468
-46.169800 -101.410857 -3.288361 -46.720105
-82.923642 -166.531183 0.864122 -85.120925
-50.302286 -109.309399 -1.770278 -51.053453
-42.372928 -94.845421 1.630199 -43.018877
-43.853305 -96.536857 -4.828275 -44.127915
-41.279665 -81.901036 13.004981 -37.183528
-50.899482 -109.928291 -3.490844 -51.505303
-58.969455 -121.046922 8.446196 -60.279995
-69.200230 -142.266707 -1.395669 -71.846878
-51.539219 -106.484516 -10.167973 -50.488459
-59.003017 -122.870011 5.703535 -65.813909
-54.505474 -116.629102 -2.505608 -55.249091
-66.298115 -137.036589 -3.290423 -67.094122
-90.767001 -180.294801 -2.777145 -91.967993
-61.853513 -123.543484 -4.346165 -58.767918
-67.993038 -140.305495 0.340392 -69.899755
-75.129059 -152.402058 -3.831136 -76.025429
-52.287322 -109.430207 2.050201 -52.386333
-83.255416 -166.718925 -3.804608 -86.359868
-82.185148 -163.781633 -0.046761 -82.756504
-53.944409 -114.374234 3.955461 -54.361772
-66.280067 -137.152779 -2.253763 -67.609004
-48.628258 -93.298729 9.346460 -44.685451
-65.570035 -126.270865 12.770657 -62.995093
-29.590469 -70.518306 5.512373 -30.032633
-56.334352 -83.373068 22.892632 -43.969543
-73.532448 -148.308508 1.591788 -74.284159
-59.514213 -94.032979 22.671633 -49.019327
-47.635637 -96.196922 7.238261 -45.448170
-65.946304 -128.375557 4.751656 -63.442651
-58.837173 -116.528712 12.425335 -56.939391
-63.941985 -106.983958 8.296798 -53.448879
-54.630801 -107.455296 13.273565 -52.144039
-66.647389 -130.500423 10.448336 -65.220306
-83.813909 -154.516145 19.152931 -80.155781
-51.689542 -108.587535 -8.211654 -51.323369
-90.512456 -178.689839 -6.806059 -91.641110
-45.046806 -97.301571 6.593987 -44.998334
-49.737583 -104.412521 -8.524522 -49.893372
-74.754604 -151.822667 -4.467646 -75.530757
-61.901894 -126.776653 8.915339 -61.585853
-58.377652 -122.214587 5.732319 -58.730658
-59.475778 -125.508745 1.791121 -60.322247
-52.579497 -112.330780 4.089406 -53.100598
-74.202690 -150.694531 -4.215899 -77.249875
-89.420732 -167.325304 17.708411 -86.707916
-41.708260 -83.216318 -11.358713 -37.477374
-65.632568 -128.556972 12.224794 -64.178956
-89.272014 -164.597510 18.568140 -85.810314
-104.783898 -144.346809 -0.225257 -74.739212
-113.559617 -182.937910 33.538427 -101.135763
-173.345265 -267.908047 49.305239 -154.097596
-178.886915 -289.552656 45.923929 -164.063660
-113.571572 -176.604258 33.905932 -108.364059
-99.825464 -196.276316 -1.639533 -99.825885
-76.969275 -114.069217 27.474730 -64.346884
-93.675418 -175.152918 17.908533 -91.087914
-102.546558 -167.941864 29.473699 -93.318581
-79.478826 -147.674478 19.292895 -75.487097
-138.363710 -216.430150 31.408010 -117.546281
-162.958439 -265.736485 42.247310 -149.438118
-119.669070 -144.209929 2.642823 -79.163700
-109.462002 -201.491411 20.384202 -107.621234
-132.671590 -232.539644 12.256441 -121.113477
-105.882422 -137.102043 -8.185353 -73.438217
-92.691939 -169.339085 19.014812 -93.806673
-130.799286 -221.269741 26.332806 -117.918959
-90.606825 -171.975479 15.691219 -87.906960
-108.536496 -103.158116 36.468302 -70.245411
-69.380258 -142.707435 -1.420589 -70.328539
-128.302084 -228.500763 21.439207 -133.819821
-72.817939 -139.630768 14.901233 -70.390642
-92.396527 -174.710132 16.345427 -90.439797
-73.028327 -146.361058 8.379223 -73.034657
-100.426080 -193.242335 10.296979 -100.414489
-62.780204 -127.921811 7.563791 -64.372377
-65.465550 -133.312072 7.754307 -65.509978
-92.616144 -177.079205 7.754907 -95.371594
-89.788141 -172.512799 13.457379 -88.656615
-78.222237 -158.781292 2.259923 -79.217586
-99.408159 -189.792244 9.226011 -99.249550
-81.520390 -164.754355 0.847257 -82.608917
-90.377190 -177.595309 10.316317 -90.393032
-109.422813 -199.938608 19.825135 -105.757074
-83.991872 -151.017929 21.503772 -78.737309
-122.366739 -202.561857 33.523674 -111.557898
-71.148798 -137.512636 13.489133 -69.047035
-65.233377 -132.368283 8.477308 -67.010711
-74.885810 -152.663244 4.199623 -75.723942
-88.952344 -164.989878 19.926882 -85.205957
-67.875037 -130.449185 13.076678 -65.833572
-75.673885 -152.704537 7.255942 -76.050836
-86.857038 -161.781020 16.542411 -83.101190
-83.313068 -158.678619 14.981475 -81.229142
-80.861206 -152.246322 17.097855 -78.021885
-67.906166 -76.163020 -16.269955 -43.220756
-74.483680 -148.029534 10.040854 -74.150490
-73.289554 -143.986074 11.275466 -72.159838
-116.039008 -204.438638 26.771966 -109.948616
-76.956038 -150.664020 12.175846 -76.022506
-71.035156 -140.644678 11.323740 -70.211425
-92.326810 -171.034363 19.632886 -88.874986
-89.908071 -161.485031 22.213304 -87.051017
-167.584425 -275.757156 42.098248 -160.070394
-79.804068 -157.141451 2.343558 -88.773687
-91.491134 -175.711480 13.923619 -90.430446
-110.424096 -191.711031 27.870242 -103.107689
-103.694222 -183.402712 24.962765 -107.621605
-113.981083 -197.299919 28.313254 -119.898922
-94.825691 -175.433310 19.355364 -91.896138
-84.080157 -155.788735 19.759901 -80.081742
-120.052181 -195.007014 34.440338 -109.141054
-110.500968 -193.254977 26.875100 -111.419930
-104.376062 -180.071840 27.343322 -107.911290
-111.760044 -190.052195 29.609260 -103.731282
-89.655896 -170.474111 16.830287 -87.481235
-137.549881 -213.570335 40.992645 -130.870684
-89.523531 -169.481401 16.283879 -87.478444
-89.587530 -165.708148 19.033074 -86.014859
-120.828881 -205.452092 31.062742 -120.468881
-107.686320 -158.406208 36.167417 -90.048035
-76.659728 -141.875200 13.084213 -70.576527
-79.029040 -152.113905 15.021375 -77.119754
-74.423863 -144.462349 13.240238 -72.797147
-105.936156 -188.780666 24.635218 -102.001161
-109.470682 -159.935663 36.790207 -91.294611
-74.317329 -146.599964 -8.633326 -72.319839
-109.760079 -150.518807 38.241745 -87.977328
-83.209015 -161.803777 10.455657 -81.006955
-74.700182 -137.694046 18.803836 -70.481878
-94.040601 -181.026743 14.034698 -93.060989
-86.184784 -155.129384 21.644290 -81.023588
-91.797191 -155.390905 26.819430 -83.098589
-74.748352 -139.596357 17.634323 -71.180762
-97.099852 -164.989882 27.332249 -95.606570
-91.001658 -152.967893 27.084346 -81.917794
-85.534058 -150.610683 18.489605 -76.950839
-121.395353 -152.920045 42.469419 -93.069365
-117.994692 -155.996698 41.114125 -92.908978
-86.151901 -135.119182 17.874987 -69.815598
-84.846174 -144.536424 18.795339 -74.437036
-90.714780 -104.054452 29.557259 -60.935683
-95.766699 -145.750327 16.935369 -78.119941
-86.526211 -110.859546 30.233901 -62.966982
-73.994436 -122.092068 23.260320 -63.108816
-115.836985 -156.474753 40.177232 -94.309759
-78.118663 -118.208921 28.009592 -65.570830
-96.347777 -158.771894 29.134315 -85.995534
-79.834456 -124.768479 27.658853 -67.660088
-101.273762 -143.077514 35.433536 -82.138882
-89.419989 -135.272945 30.773318 -74.992747
-93.264751 -120.472614 34.262650 -72.452894
-105.915012 -153.787129 36.011570 -91.584368
-92.355190 -139.789202 31.469792 -79.021499
-78.874320 -116.919136 26.874480 -62.900172
-94.205513 -139.692870 30.480544 -76.484350
-92.386165 -140.382190 22.521725 -76.117222
-84.296674 -124.004637 25.408921 -66.552586
-75.482211 -116.144698 26.686626 -61.894014
-79.548809 -117.066099 26.456525 -65.276110
-75.827561 -116.303638 27.147282 -63.098565
-75.167692 -107.293042 28.271854 -59.574814
-75.213056 -107.988430 28.200466 -60.210124
-69.154001 -106.460544 21.631791 -56.980120
-83.584697 -120.111760 17.036268 -67.825944
-79.281577 -124.204236 27.340987 -66.286426
-76.992654 -115.635465 27.879993 -63.288995
-100.310717 -134.899883 35.913254 -79.562148
-124.485853 -178.236186 41.217787 -103.392615
-101.102817 -139.083232 20.001758 -76.750384
-107.388144 -148.046222 24.073630 -80.245244
-76.305137 -154.228645 -0.624046 -77.029709
-150.371985 -185.944572 50.842723 -115.719634
-111.949224 -147.745299 39.365654 -87.766267
-106.189156 -139.274717 37.843125 -82.993274
-81.514373 -150.704718 15.161877 -75.873533
-91.219480 -171.694470 16.991637 -88.926864
-109.164549 -125.642139 38.924135 -78.839636
-86.637259 -161.164909 17.316547 -82.135663
-72.021633 -106.474291 -0.080984 -53.548777
-86.750326 -156.314166 18.769322 -79.941340
-100.685990 -156.227965 32.636898 -86.929050
-74.934478 -129.498409 7.528410 -62.656953
-113.506645 -144.874392 20.401494 -77.514311
-86.645140 -108.871159 31.488297 -62.905404
-76.018441 -113.305006 24.506042 -61.089836
-66.911076 -97.122553 25.313212 -51.774475
-85.119716 -123.103907 22.387308 -67.732298
-90.743163 -131.267311 18.556135 -73.124521
-81.840497 -136.144725 3.924956 -73.626959
-84.510272 -122.116824 17.659800 -66.618547
-69.224995 -107.614532 21.864572 -57.177619
-65.494717 -114.123201 10.072629 -58.058527
-75.228178 -108.721390 22.810178 -58.272693
-73.253863 -106.667438 27.500248 -58.640449
-75.967206 -111.698724 28.043685 -61.466685
-56.296733 -88.910580 22.024863 -46.044200
-77.600123 -112.621186 28.683328 -62.411348
-81.646584 -120.747745 14.560865 -65.052123
-76.052975 -108.227693 28.560176 -60.250164
-79.350790 -106.443110 30.066757 -60.791308
-79.117751 -112.329910 29.391707 -62.857719
-78.609836 -112.304923 29.169558 -62.661849
-74.835513 -107.939854 28.035782 -59.676729
-46.288358 -79.068337 18.450821 -39.066921
-81.120724 -118.563497 28.362335 -64.426588
-83.379549 -114.717648 30.944900 -65.281510
-81.981122 -121.172074 27.924273 -66.006806
-49.849789 -80.534510 20.194195 -41.062426
-70.197065 -99.302345 27.065938 -54.932571
-56.235781 -85.110787 22.655208 -44.522320
-80.393599 -110.249353 30.180428 -62.554798
-51.297268 -57.529542 22.134218 -32.654249
-73.287614 -103.637450 27.904166 -57.548387
-50.605990 -81.897039 20.340832 -41.454617
-78.960677 -105.847127 29.970819 -60.430885
-75.297702 -109.481805 28.040377 -60.908635
-64.996173 -92.419284 25.622162 -50.468897
-80.191293 -109.380786 30.165431 -62.173876
-44.876600 -88.690855 13.625475 -42.687426
-73.755671 -107.980170 27.558731 -59.299800
-61.455277 -94.202760 23.766216 -49.798612
-67.644662 -98.304211 26.075486 -53.625062
-51.646350 -81.750616 20.927723 -41.767734
-51.813304 -88.337133 19.521213 -44.393805
-53.396576 -70.408639 22.867901 -38.149108
-42.174920 -71.734403 17.714661 -35.138444
-66.791078 -85.005873 26.805994 -48.623007
-31.455340 -49.805562 13.691463 -24.378271
-48.591468 -77.637279 20.078321 -39.925461
-31.517363 -51.192078 15.922390 -24.812832
-53.099220 -84.867962 21.092140 -43.282358
-46.565358 -79.058259 18.519677 -39.562076
-44.993015 -85.968770 15.090090 -41.091346
-43.888138 -70.711124 18.890104 -35.467558
-55.239572 -103.995641 16.323907 -51.230308
-40.583803 -66.946068 17.995517 -32.258961
-65.962701 -116.582206 10.854046 -58.862228
-55.871597 -105.017645 16.479842 -51.706882
-73.700076 -116.330669 13.044186 -61.252081
-64.708218 -108.196812 22.381168 -55.741280
-71.214566 -114.549850 14.536101 -59.898288
-71.625694 -107.981105 16.919649 -59.257679
-52.811433 -80.967368 19.548084 -40.174094
-46.270430 -73.468344 19.660710 -36.598682
-46.730464 -72.769176 19.327484 -35.849892
-59.546770 -91.706716 22.794696 -47.249695
-37.160446 -54.850973 17.914153 -27.603426
-44.713119 -58.429149 11.687338 -30.942680
-55.718121 -85.568808 20.870746 -43.185401
-69.520363 -121.038207 8.109756 -61.859607
-48.618335 -75.970258 20.451131 -38.353490
-55.436680 -86.417028 22.044278 -44.695596
-45.409640 -61.677890 6.873018 -32.126259
-48.035019 -59.289624 13.744450 -32.197393
-41.396090 -64.750998 18.001855 -31.844126
-39.913908 -61.969547 14.937511 -30.565037
-56.817377 -110.647589 14.207858 -54.796315
-64.646184 -125.790819 14.116261 -62.494749
-40.388016 -87.563566 8.303134 -40.757664
-33.170063 -73.113970 9.243384 -32.756508
-70.177196 -127.020544 17.895258 -64.670638
-69.450965 -125.938661 15.126684 -63.250059
-76.778707 -133.554509 22.778223 -69.742244
-70.106530 -121.983739 21.746519 -63.093363
-54.102824 -94.122081 19.245530 -47.159286
-84.847760 -127.057811 15.506230 -63.571672
-47.212153 -71.620362 18.339761 -35.649755
-49.901231 -62.035677 9.248739 -33.581073
-71.282322 -88.483721 28.070413 -51.263088
-81.218391 -127.429780 11.073251 -65.315144
-65.252697 -88.531296 22.442775 -46.514690
-78.379083 -107.454206 29.627776 -60.326666
-79.474858 -103.678122 29.544181 -58.580134
-77.638304 -113.581706 28.592740 -62.729279
-74.189254 -100.095259 27.912139 -55.418692
-84.317131 -110.251593 31.609730 -63.058768
-80.656208 -153.452140 15.791494 -78.036064
-74.223266 -134.790942 19.924001 -69.218632
-89.992843 -128.823222 27.491998 -69.694784
-77.618401 -109.045706 29.167585 -61.074103
-90.693503 -155.279493 25.562501 -88.332920
-75.145790 -98.223054 28.620990 -55.212264
-69.422262 -123.275738 20.536067 -63.289856
-89.276901 -160.806733 21.632778 -84.632202
-52.706423 -34.175124 16.726803 -26.064464
-77.839391 -137.733605 21.853878 -71.879502
-81.736725 -148.419644 17.537532 -76.937538
-80.223903 -163.476692 3.760862 -81.253489
-63.751918 -128.166389 8.119092 -70.494889
-53.096218 -107.143864 8.613582 -53.168168
-63.747805 -130.640507 4.052079 -66.489185
-72.230141 -149.086331 4.311728 -73.080738
-56.116021 -116.670645 5.364450 -63.773852
-78.401101 -151.039590 14.761581 -76.565278
-103.281920 -196.236616 13.207725 -106.310622
-84.072024 -163.915372 10.609110 -84.943530
-90.437423 -167.740196 16.669504 -87.284286
-55.037821 -115.440304 4.093872 -57.704461
-53.002320 -111.297976 6.179464 -55.666737
-63.564087 -133.628017 0.409936 -64.530523
-68.863423 -134.347737 11.837031 -72.038897
-70.554201 -144.837371 3.200000 -71.415524
-85.986620 -156.533149 18.450391 -81.588645
-89.032743 -169.477662 13.430679 -87.389981
-61.331091 -123.598662 9.514888 -62.265950
-86.738150 -153.329914 22.977940 -80.671218
-67.423855 -132.003587 11.872578 -70.538783
-79.559208 -144.449582 20.295735 -74.844387
-70.335334 -127.456793 14.713069 -68.789517
-68.426457 -124.180909 13.352357 -63.182449
-82.755920 -148.375342 11.881355 -80.798053
-70.827034 -127.172206 20.196541 -65.251197
-60.806954 -114.285729 12.794646 -59.199168
-59.055334 -113.272068 15.258283 -55.985226
-69.367779 -125.577333 19.062376 -63.798388
-76.731487 -139.083549 16.924782 -71.769674
-86.100425 -149.336016 24.079704 -79.013000
-53.959144 -105.076268 13.430889 -50.745455
-88.124294 -157.778615 22.115702 -82.773479
-58.894050 -116.773377 12.606898 -61.618909
-62.317582 -121.206306 11.518687 -60.040479
-63.320368 -116.791780 14.535914 -58.577994
-61.911248 -121.172659 10.703012 -59.878862
-49.948355 -95.235851 15.329291 -45.970894
-48.740991 -97.790138 12.509080 -46.527059
-68.768074 -128.313491 16.332871 -64.744566
-52.045212 -105.400488 10.920428 -50.143785
-40.146271 -87.063222 7.299042 -39.640876
-56.935016 -99.001011 19.720375 -49.931801
-29.188015 -69.006020 -0.029506 -29.458211
-62.295638 -109.178619 17.032741 -55.821213
-55.988540 -107.113233 15.403651 -52.512221
-44.052040 -89.047291 12.405652 -41.537332
-49.990409 -99.651916 12.870359 -47.774437
-45.397029 -90.991665 12.764704 -42.756278
-55.642443 -106.753474 13.210623 -52.207522
-63.521178 -117.854842 17.510997 -59.190300
-51.572186 -99.676909 14.522058 -48.160758
-52.819254 -103.530058 13.891570 -50.049274
-55.946267 -107.547226 14.078574 -52.501534
-63.561115 -118.735255 17.081780 -59.308623
-53.044807 -105.050834 13.162870 -51.609404
-52.366954 -103.826240 13.175017 -49.969043
-58.675527 -118.086847 11.298091 -57.500050
-47.218524 -99.486793 8.893312 -46.501070
-38.679961 -62.451761 13.318082 -30.339517
-26.457139 -66.703878 1.192640 -27.948305
-50.150719 -104.147241 9.624228 -49.397042
-35.993704 -71.672680 11.257287 -32.299915
-37.359907 -53.391275 14.423585 -27.225354
-32.657078 -73.591848 8.162860 -31.874678
-46.718715 -93.291800 12.920947 -44.207558
-39.898067 -86.643077 8.276049 -39.494413
-43.328689 -88.418533 11.908378 -41.052009
-32.355565 -76.234393 4.114062 -32.576987
-25.853626 -63.129953 6.003876 -26.695074
-20.340726 -49.596799 4.120783 -20.981257
-26.999806 -53.440107 8.145993 -24.131974
-23.951294 -55.460452 5.636670 -23.823524
-24.851651 -48.137623 8.117991 -21.896782
-29.373362 -61.259286 8.702020 -27.189795
-34.891726 -70.530791 12.472558 -31.626755
-33.750999 -63.361445 12.836668 -29.133733
-26.010868 -43.032938 5.972995 -20.713142
-25.952370 -44.270842 6.397183 -21.066964
-31.327837 -59.519990 10.319376 -27.254348
-26.973254 -46.111688 7.107184 -21.925482
-34.908468 -63.973320 11.823759 -29.664536
-24.595437 -23.558752 9.379750 -14.446257
-31.621778 -38.838496 4.923035 -21.138082
-24.234762 -39.785262 5.256992 -19.206007
-45.020277 -90.893272 7.572381 -41.922416
-16.116768 -47.339169 2.873540 -19.036781
-25.470722 -38.220764 7.580679 -19.107446
-17.503857 -33.315573 11.787552 -15.245829
-22.632980 -57.639510 5.421018 -24.081747
-30.307378 -70.327395 7.143438 -30.190432
-35.585678 -80.987386 5.945466 -35.450689
-24.355178 -58.507327 6.677223 -24.858752
-35.156045 -78.172607 8.176156 -34.262548
-32.424158 -76.869507 2.625232 -33.238777
-39.325166 -82.931574 10.444665 -37.591149
-31.839721 -72.279396 7.968717 -31.235735
-31.768365 -71.083909 8.896337 -30.855682
-25.838659 -65.704546 -1.448142 -27.462961
-17.208525 -50.411427 0.369024 -20.285986
-18.113033 -51.916156 1.099934 -21.008757
-30.800196 -69.064016 5.774281 -29.959264
-23.676357 -58.726140 6.341091 -24.720749
-24.370440 -61.893371 4.120389 -25.879143
-26.216740 -66.476872 0.625302 -27.808084
-35.376991 -81.323679 4.680391 -35.568913
-16.075147 -47.794201 2.572540 -19.160804
-13.135789 -39.859294 5.778465 -15.898525
-27.803181 -67.231522 5.199554 -28.510411
-6.711237 -9.179446 2.450821 -4.767205
-17.104236 -49.182344 0.803033 -19.885974
-18.237189 -38.388301 7.335486 -16.987647
-11.353233 -39.980890 -0.790469 -15.400237
-24.982962 -61.683358 5.738387 -25.999896
-13.893988 -38.318600 7.722805 -15.663776
-21.804082 -51.270552 6.374945 -21.922390
-6.088438 -29.509104 -2.315839 -10.679263
-15.483631 -46.843061 -2.936994 -18.698007
-23.060347 -57.899812 5.832576 -24.288048
-31.823692 -75.960860 0.397530 -32.335366
-2.187920 -23.658286 0.436779 -7.753862
-4.235249 -16.166931 0.277537 -6.120654
-17.797880 -50.365257 3.190678 -20.448941
-20.441029 -43.002926 5.436280 -19.033187
-1.370995 -3.497654 1.202953 -1.460595
-3.515623 -7.577361 3.405297 -3.327895
-0.869232 -2.995212 0.248111 -1.159333
-3.968745 -20.116012 3.544359 -7.225427
-5.484113 -19.781212 1.818975 -7.579598
-7.345477 -21.213951 1.141188 -8.567828
-2.562827 -4.061278 2.050194 -1.987232
-12.935129 -29.126064 3.598472 -12.618358
-16.703817 -43.963650 4.650393 -18.200240
-15.322029 -34.276529 4.651307 -14.879567
-16.693002 -41.249137 4.838123 -17.382642
-17.985753 -32.943574 5.327679 -15.278798
-13.134113 -27.268716 3.421815 -12.120849
-2.837663 -9.916404 1.230046 -3.826220
-5.641041 -9.176265 0.195636 -4.445192
-13.652510 -31.141638 5.275683 -13.438244
-20.938375 -40.368162 4.661463 -18.391961
-2.573179 -2.500961 0.718381 -1.522242
-4.024381 -2.628864 1.228421 -1.995974
-5.643817 -24.940671 3.464797 -9.175346
-5.745122 -6.651349 0.995408 -3.718941
-15.477020 -5.637770 7.984471 -6.334437
-7.556089 -6.298229 0.730132 -4.156295
-6.459119 -4.037197 3.311751 -3.148895
-6.394791 -3.977247 4.169836 -3.111611
-5.559659 -16.895518 6.269032 -6.736553
-3.871966 -5.302317 3.434127 -2.752285
-15.058572 -33.477418 9.892982 -14.560797
-5.128768 -13.618443 5.766234 -5.624163
-9.451688 -28.474368 6.027625 -11.377817
-4.865276 -11.037120 4.894932 -4.770719
-20.739000 -48.296030 3.877948 -20.710509
-21.067898 -46.172974 10.760108 -20.172262
-20.220859 -37.038874 7.153960 -17.177920
-16.790245 -22.285826 11.494016 -11.722821
-20.891719 -46.786756 10.377426 -20.303542
-20.158950 -32.671477 11.340966 -15.849128
-8.738154 -13.849200 7.298269 -6.776206
-23.567348 -45.930770 11.410324 -20.849435
-19.361403 -21.743382 11.560817 -12.331436
-46.555963 -95.776563 4.942327 -44.259657
-17.242382 -33.996696 9.843564 -15.371724
-20.713775 -39.065142 9.510154 -17.933675
-16.614178 -34.223548 3.351316 -15.251318
-1.725386 -12.543948 2.262495 -4.280800
-33.590543 -39.170499 14.279747 -21.828313
-20.365425 -34.789274 3.658126 -16.546410
-22.648437 -21.946720 10.548362 -13.378547
-13.911723 -13.614134 5.418575 -8.257757
-20.835445 -28.098782 13.139513 -14.680268
-16.356077 -9.254451 7.265665 -7.683158
-18.479017 -26.524760 11.086923 -13.501133
-13.451096 -22.176064 9.568523 -10.688148
-15.034801 -16.531449 5.931928 -9.469875
-21.950482 -18.218413 4.672780 -12.050668
-14.076317 -17.666885 5.973455 -9.522961
-12.837449 -18.232088 8.849261 -9.320861
-32.742529 -57.752787 10.401477 -27.148595
-16.441174 -20.838841 7.537513 -11.184004
-18.357506 -9.620454 6.063938 -8.393388
-19.742388 -20.658182 7.869148 -12.120171
-17.580968 -11.720355 -0.786660 -8.790397
-13.949899 -9.588980 1.128039 -7.061664
-14.890327 -9.628906 1.855424 -7.355770
-21.933106 -32.175480 5.996982 -16.232576
-9.516186 -25.296445 4.519093 -10.443789
-9.420016 -3.562315 3.438476 -3.894699
-13.686913 -4.572336 5.642187 -5.477774
-11.879103 -6.739848 2.301073 -5.585685
-14.365702 -4.559324 5.854580 -5.677508
-14.816325 -5.114627 6.634387 -5.979285
-16.976854 -9.002754 2.350918 -7.793882
-14.592002 -8.857121 5.779875 -7.034737
-14.031161 -7.135366 3.499461 -6.349958
-14.716554 -11.989773 4.914121 -8.011898
-10.535208 -19.262541 9.754657 -8.939325
-12.600152 -12.218608 9.745773 -7.445628
-13.712980 -12.804256 7.289354 -7.955171
-12.746128 -22.215881 11.142913 -10.488603
-10.310743 -16.143017 10.004203 -7.936128
-12.021537 -13.242137 8.741633 -7.579102
-13.025922 -15.816556 6.668369 -8.652743
-14.181904 -9.587946 6.545667 -7.130955
-13.718044 -9.664444 10.159319 -7.014746
-11.328962 -21.343823 7.667802 -9.801836
-8.404637 -14.295499 10.074160 -6.810041
-13.319445 -7.869666 9.627525 -6.356733
-7.093349 -8.296134 3.415813 -4.616845
-9.226323 -20.666958 9.836018 -8.967984
-11.158561 -17.050789 10.767122 -8.462805
-12.994421 -24.168499 11.160758 -11.148876
-14.285522 -5.598698 7.006969 -5.965266
-13.189923 -27.215243 7.288419 -12.121550
-9.884004 -24.190625 9.531573 -10.222389
-6.839440 -4.077389 2.863506 -3.275049
-9.243654 -13.947774 4.470439 -6.957428
-15.121087 -28.151991 11.558441 -12.981923
-12.194526 -21.183219 10.936158 -10.013324
-9.130604 -12.088596 5.926291 -6.365760
-9.823795 -14.781784 9.501566 -7.381674
-18.229023 -27.917113 12.608169 -13.843841
-11.996310 -20.298575 10.925190 -9.688466
-31.181171 -41.388395 16.583770 -21.770870
-26.675712 -37.127252 15.269778 -19.140889
-13.821267 -27.068328 0.284727 -12.266878
-10.799267 -21.606986 7.299633 -9.721876
-15.566283 -23.788667 3.778862 -11.806485
-7.211997 -8.913840 3.026147 -4.837751
-15.982816 -23.293747 5.799180 -11.782969
-11.334357 -13.920164 5.604560 -7.576356
-18.463321 -21.619604 4.227813 -12.024878
-15.939979 -16.161306 4.803811 -9.630385
-25.904890 -32.962265 11.945935 -17.660146
-12.901354 -16.522126 7.244262 -8.827044
-27.018173 -15.090419 3.323328 -12.632578
-26.804465 -28.447846 10.213720 -16.575693
-10.045783 -4.729548 2.019872 -4.432599
-10.229445 -4.086407 3.204878 -4.294756
-55.956402 -104.848434 16.527477 -51.804160
-29.564782 -18.528906 5.468746 -14.428106
-25.053282 -44.901874 11.494099 -20.986547
-19.496687 -16.230123 7.298769 -10.718043
-32.812109 -63.854945 13.561336 -29.000116
-28.785189 -54.410084 13.634754 -24.958582
-18.431629 -43.445610 9.545010 -18.563172
-17.245248 -18.590720 3.664677 -10.750791
-28.361344 -35.340832 15.305395 -19.110653
-37.997222 -50.181400 16.139482 -26.453587
-25.731232 -47.713917 13.457919 -22.033545
-7.279506 -28.503718 5.903850 -10.734967
-33.556280 -49.748671 15.007040 -24.991485
-23.365441 -29.977211 12.392487 -16.002795
-38.118735 -53.628656 15.251226 -27.524217
-40.716979 -64.509698 18.396064 -31.568003
-35.412615 -59.401682 12.556510 -28.444289
-39.288586 -61.886937 15.231805 -30.352657
-36.247316 -44.032103 17.926664 -24.083826
-33.145596 -41.043530 15.932358 -22.256738
-40.103511 -56.220597 19.026568 -28.897232
-27.560789 -41.881620 15.317034 -20.832723
-22.169927 -44.674991 12.149744 -20.053475
-20.188560 -33.548150 13.160877 -16.121013
-34.388535 -61.408338 15.513235 -28.739062
-24.951294 -41.759849 14.153508 -20.013343
-36.248377 -53.645188 17.054506 -26.968069
-38.589228 -64.877747 11.042315 -31.040092
-31.691541 -39.259663 16.605775 -21.285361
-37.658586 -56.922378 17.922192 -28.374289
-28.657556 -69.861576 3.619391 -29.555740
-36.247916 -58.705240 17.056543 -28.485947
-38.599618 -50.475315 15.163284 -26.722480
-37.987610 -58.249003 13.774210 -28.870984
-37.458782 -57.060659 17.801133 -28.355832
-36.639329 -57.040398 17.477779 -28.103918
-34.949636 -60.051118 16.230496 -28.500226
-35.965621 -48.903611 16.691055 -25.460769
-38.810380 -57.987796 18.402031 -29.039453
-38.032132 -58.395477 18.019873 -28.928283
-36.739664 -52.650857 17.940603 -26.817156
-34.908842 -53.217546 17.166300 -26.437916
-36.721860 -54.222791 17.921769 -27.283395
-38.522590 -57.657551 18.312906 -28.854042
-31.327388 -61.943148 10.547674 -27.981161
-19.115299 -37.840926 11.579441 -17.086868
-47.453655 -95.062422 12.825479 -45.891908
-26.244237 -38.481753 15.004207 -19.417797
-59.602672 -113.367413 15.872034 -56.343469
-21.432435 -42.857867 11.759383 -19.287090
-11.415117 -33.967389 7.468320 -13.614752
-43.959069 -78.561075 16.939260 -38.523722
-31.589633 -21.073869 5.719708 -15.799051
-45.897601 -61.086188 20.692693 -32.095137
-35.562122 -37.937341 12.906386 -22.049839
-9.565819 -27.941330 -3.157986 -11.252145
-32.513907 -60.378168 14.471270 -27.867623
-46.190855 -78.467446 18.433981 -38.679289
-31.094560 -60.035290 11.816070 -27.338955
-32.625653 -67.148795 11.998213 -29.932334
-19.462170 -14.440538 -3.517995 -10.170812
-24.488253 -26.826112 3.426166 -15.394309
-107.830212 -117.499252 38.204895 -75.176763
-114.873766 -144.448754 32.848528 -90.692961
-82.282581 -102.338910 31.268328 -60.170328
-77.932762 -109.553308 29.210975 -61.591111
-108.030845 -119.885490 25.753581 -71.283751
-81.861924 -67.978275 27.136349 -47.655034
-102.949743 -83.318110 31.623400 -60.896375
-72.363662 -73.570651 27.479677 -46.210571
-76.077256 -88.447674 29.415605 -53.037736
-90.332305 -96.776153 33.042119 -62.098549
-89.754570 -104.360941 33.356062 -64.391961
-55.459695 -70.657048 23.547815 -39.726146
-79.960456 -64.672813 26.268441 -45.679584
-89.971374 -71.420907 28.105612 -51.881549
-104.263489 -82.533343 31.332293 -61.112386
-97.835655 -105.967504 35.281443 -67.328920
-98.694076 -98.811507 34.658573 -65.056425
-100.494748 -123.003685 34.368771 -73.677836
-100.903448 -105.329610 35.799940 -68.200496
-91.280658 -108.959955 33.935427 -66.907651
-83.819105 -91.240076 31.304667 -56.921244
-86.605951 -97.870700 32.380966 -60.400105
-81.630603 -94.204746 30.970687 -57.144699
-89.881731 -106.309773 33.492040 -64.844375
-30.637989 -53.022705 11.870807 -25.098208
-63.345492 -83.502110 23.719934 -44.836015
-59.965690 -79.998041 24.274449 -43.159847
-82.096588 -92.319919 30.984066 -56.633221
-50.836326 -71.347717 21.944507 -37.516095
-96.990322 -115.125078 35.512846 -70.427856
-79.498979 -95.260374 30.454984 -57.130865
-49.361174 -73.696243 20.905596 -37.199498
-45.746915 -68.595310 19.550268 -34.302668
-55.649257 -78.016634 22.882282 -40.928074
-33.634815 -42.941856 17.224554 -22.973001
-50.333929 -69.879866 20.956532 -36.064139
-46.690727 -75.120830 19.500891 -36.988591
-47.770176 -69.102370 20.891844 -35.601207
-40.463434 -42.708339 18.761827 -24.951532
-41.178814 -51.746812 19.455058 -27.877688
-16.961298 -28.869021 12.266244 -13.749096
-29.801067 -51.737948 14.967080 -24.461704
-23.139799 -36.461716 9.719388 -17.880455
-21.849158 -29.134433 10.130217 -15.295077
-26.371999 -22.493570 9.176532 -14.659671
-41.669758 -52.804961 19.548101 -28.342416
-36.796611 -39.481785 17.761369 -22.883519
-31.516222 -35.180929 16.385759 -20.009145
-12.489225 -30.056495 8.903656 -12.763716
-15.138584 -28.360387 11.504207 -13.049691
-39.127308 -47.695935 18.824619 -26.046973
-36.845273 -44.367125 15.038409 -24.363719
-39.377140 -58.505507 15.831924 -29.364794
-43.671609 -50.423493 20.051516 -28.228530
-68.767975 -65.834788 25.897737 -42.054802
-50.328880 -75.686773 21.282910 -38.894117
-33.017602 -63.495220 13.906914 -28.953847
-60.877777 -68.108604 24.845497 -40.439788
-54.389075 -88.284579 21.104277 -45.088449
-49.740369 -77.506330 20.687848 -40.394975
-53.481969 -83.472846 21.549052 -43.932864
-97.319427 -139.365214 25.683320 -82.275535
-51.540274 -70.174109 22.261173 -37.424731
-57.264823 -89.456332 22.411423 -47.161347
-40.683321 -68.205189 17.633663 -32.822224
-50.855740 -59.018780 22.140284 -33.018979
-37.310809 -33.348093 16.930872 -21.197671
-51.432953 -61.094143 22.382439 -33.972425
-45.335930 -50.362224 18.200713 -28.709446
-25.982263 -37.550985 5.278022 -19.059974
-30.414384 -41.001029 6.786406 -21.424624
-37.192393 -53.089365 18.093214 -27.084528
-37.026530 -51.888717 18.103050 -26.674574
-36.721574 -59.593683 15.754165 -28.894577
-38.962390 -52.715821 18.737106 -27.503463
-31.745503 -45.934095 16.528547 -23.303879
-21.818582 -29.626567 13.612899 -15.433545
-12.437075 -22.428462 10.971670 -10.459661
-15.724540 -13.866015 9.837989 -8.877166
-25.124475 -25.655003 14.247911 -15.233843
-63.485264 -69.812394 25.506924 -41.636084
-31.994215 -46.274724 16.593243 -23.480682
-28.084101 -29.334120 15.164805 -17.225466
-32.476025 -37.574754 16.605003 -21.015234
-29.616490 -33.745006 15.842655 -19.008449
-13.583037 -5.494980 6.616610 -5.723405
-36.599729 -44.449499 18.026475 -24.314769
-30.386536 -33.071888 15.956433 -19.037527
-12.391699 -6.071054 3.670893 -5.538826
-7.153742 -8.455590 3.083019 -4.682800
-26.359252 -24.470621 13.011400 -15.248962
-13.950044 -15.593113 8.044216 -8.862947
-14.323396 -17.175006 6.558668 -9.449521
-15.734764 -10.831883 7.046242 -7.969994
-13.813943 -10.681290 6.476948 -7.348570
-16.040267 -6.049021 7.504303 -6.626786
-38.347175 -40.149639 18.056811 -23.549044
-15.202668 -16.682293 5.774630 -9.565488
-15.501165 -13.504545 7.381771 -8.701713
-16.594854 -6.522262 7.858500 -6.935135
-17.985921 -18.268320 6.283549 -10.876272
-16.950545 -6.488385 8.693184 -7.031679
-15.378292 -10.305899 8.618028 -7.705257
-33.528476 -31.639247 16.218659 -19.550317
-15.558215 -12.930802 9.516200 -8.546705
-20.441189 -26.710784 13.386859 -14.145592
-14.960095 -15.717742 5.593299 -9.203351
-15.605462 -11.651664 8.779221 -8.177138
-13.275237 -12.902561 8.473639 -7.853340
-14.203135 -7.315814 8.225311 -6.455685
-15.932159 -19.241292 9.637751 -10.552035
-23.427375 -30.317241 13.001891 -16.123385
-16.750467 -20.359663 8.575311 -11.133039
-10.505326 -6.017337 6.021309 -4.956799
-12.097496 -6.515933 7.148344 -5.584029
-19.289687 -26.085089 10.555366 -13.612433
-18.305756 -18.431430 11.113317 -11.021156
-20.720317 -34.803424 13.119264 -16.657122
-25.721369 -33.190618 14.909897 -17.673596
-33.631620 -35.475881 16.767444 -20.732250
-39.090189 -47.964896 18.771821 -26.116526
-19.139410 -22.814727 12.089991 -12.586241
-36.416398 -40.441398 17.756739 -23.057339
-42.555963 -40.197068 18.649693 -24.825909
-27.036643 -35.691173 15.341537 -18.818345
-38.559738 -65.919786 16.924367 -31.343857
-43.867580 -68.170745 19.295015 -33.819546
-38.967264 -47.056677 18.715644 -25.807183
-38.627132 -37.047071 17.689023 -22.702261
-37.015873 -48.844592 18.206186 -25.758140
-25.267291 -34.485058 14.801575 -17.925705
-39.304701 -47.500206 18.819149 -26.041472
-29.100418 -48.271707 15.011141 -23.211638
-43.495704 -50.771261 19.978258 -28.280090
-70.942033 -84.218552 27.987221 -49.617433
-57.786343 -75.067308 24.199206 -41.550319
-29.164324 -21.247016 9.977171 -15.123402
-32.595188 -28.511597 3.449855 -18.332036
-32.734426 -25.922973 11.027076 -17.597220
-35.253611 -27.862329 7.790442 -18.934782
-38.148141 -30.546208 15.766675 -20.608305
-33.189313 -27.670249 7.702397 -18.257869
-36.620271 -30.520286 9.106795 -20.142167
-26.447814 -33.956689 7.704592 -18.121351
-45.627204 -67.032578 20.210934 -34.066100
-57.367323 -80.608263 23.691994 -43.337354
-51.430536 -79.721501 21.151471 -40.971404
-39.643346 -61.092070 18.408842 -30.220625
-26.950130 -25.643864 8.324827 -15.778198
-20.466885 -14.144971 7.742497 -10.383557
-14.599405 -5.171141 6.478086 -5.931164
-20.558105 -25.880144 9.165934 -13.931475
-16.914125 -9.535550 6.623190 -7.934903
-20.319126 -23.861226 9.972775 -13.254106
-12.253710 -5.791731 6.292437 -5.413632
-25.913452 -17.142486 10.228329 -12.916781
-22.954574 -14.096629 8.285879 -11.115361
-22.414395 -12.690252 11.135696 -10.531394
-16.222967 -5.506915 7.307036 -6.518965
-28.032757 -23.824496 7.191007 -15.557176
-21.820694 -14.187159 7.931663 -10.802356
-26.021097 -32.377938 3.083209 -17.519711
-30.477447 -23.662619 12.656680 -16.242020
-26.009634 -18.168175 8.375905 -13.253343
-29.252786 -22.643087 13.499661 -15.568762
-28.559603 -24.636018 14.450437 -15.958686
-25.465612 -18.092883 12.929394 -13.067548
-21.175299 -19.647851 12.828748 -12.246945
-17.997782 -9.607503 7.046765 -8.281586
-22.772781 -12.938246 11.365017 -10.713308
-18.823060 -8.195815 9.577442 -8.105662
-17.741016 -10.265440 10.362082 -8.401937
-21.637929 -13.946654 11.402328 -10.675375
-18.214182 -6.414469 8.812530 -7.388595
-20.688025 -23.030243 13.400852 -13.115480
-18.325959 -12.138620 10.971479 -9.139374
-37.217347 -28.168437 15.638175 -19.615735
-19.362971 -11.037125 10.001520 -9.120029
-23.801616 -20.276562 13.211840 -13.223453
-24.326720 -19.087681 12.963883 -13.024320
-46.699551 -58.668934 21.081798 -31.610545
-30.390128 -24.068335 14.420970 -16.337539
-22.495762 -17.452132 12.498252 -11.984368
-36.502381 -35.758624 17.031906 -21.678301
-42.123365 -44.849502 19.377128 -26.091860
-48.956146 -52.313509 21.367259 -30.380897
-23.526246 -22.907036 13.649364 -13.929985
-15.285149 -9.573645 10.273345 -7.457638
-24.989408 -17.075721 12.389828 -12.619538
-18.484379 -7.666570 9.393041 -7.845285
-30.164435 -22.910546 14.111831 -15.922494
-18.618575 -7.574108 9.331707 -7.857805
-30.750203 -13.732275 10.786437 -13.344743
-45.616687 -25.957634 14.060137 -21.472296
-11.019069 -9.955465 8.730063 -6.292360
-25.004672 -15.342257 12.050901 -12.104079
-17.761442 -4.766857 8.427308 -6.758490
-37.797419 -15.302220 9.451787 -15.929892
-61.200613 -44.139992 20.120964 -31.602182
-49.702574 -42.011862 19.717439 -27.514331
-13.830045 -14.648530 11.177989 -8.543573
-15.042330 -6.289465 6.840447 -6.399539
-25.789176 -25.926198 14.397588 -15.514612
-17.329073 -11.555350 9.648183 -8.665327
-18.259805 -6.919643 8.703415 -7.553834
-39.754782 -45.745018 19.014559 -25.649940
-67.366685 -79.314842 26.952327 -46.513011
-37.174828 -42.300563 18.077785 -23.842617
-35.559488 -44.875167 17.872653 -24.130397
-36.258576 -50.691846 17.928667 -26.481418
-30.933906 -30.310070 3.687070 -18.373193
-84.426613 -87.306535 31.041931 -55.636500
-37.352440 -32.611965 5.538332 -20.989322
-59.697258 -86.655661 24.038141 -46.437684
-39.364197 -63.744074 17.788431 -31.969368
-47.094775 -50.766675 20.892629 -29.358435
-51.965151 -52.679934 21.848198 -31.393526
-38.828538 -37.030361 17.860514 -22.757670
-38.175464 -42.272406 18.287181 -24.134361
-51.826475 -54.704154 22.031457 -31.959189
-49.315263 -44.553758 20.254091 -28.160706
-57.123240 -56.591189 23.021955 -34.759845
-49.613649 -48.880210 20.997499 -29.548158
-52.957994 -56.461295 22.404616 -32.836261
-45.692833 -51.006670 20.513411 -29.009851
-21.343569 -9.226869 10.154276 -9.171131
-17.132220 -3.931431 7.921824 -6.319095
-69.177428 -84.810805 27.532697 -49.496777
-66.921223 -78.738455 26.804318 -46.122744
-88.743369 -87.232678 31.690815 -57.139236
-48.376101 -32.416338 7.077031 -24.237732
-68.696106 -85.748300 26.599258 -48.199965
-69.127802 -88.015090 26.778274 -49.228851
-57.289987 -63.124015 23.815059 -36.858278
-44.579822 -49.955350 20.212789 -28.360551
-42.681949 -22.638892 0.345513 -19.596253
-23.907396 -2.219617 -0.017910 -7.838104
-25.687834 -6.496511 0.650094 -9.655304
-24.305943 -10.063585 -1.049479 -10.310858
-3.064329 -2.117626 -0.952915 -1.554586
-23.810583 -2.165773 -0.008231 -7.792907
-22.947842 -6.636517 0.585411 -8.875308
-4.588715 -2.061064 -0.608910 -1.994934
-5.252569 -2.118360 0.097125 -2.211279
-15.661876 -6.133984 -2.671217 -6.538758
2.353126 -2.596349 -0.304291 -0.072967
-5.714131 -2.117119 0.512688 -2.349375
-4.384837 -6.077022 -1.680443 -3.138558
-14.038083 -4.379704 -1.287576 -5.525336
-12.166918 -2.168349 -1.131427 -4.300580
-5.470997 -8.555838 -3.285056 -4.208051
0.755281 -2.576496 -0.208355 -0.546365
-1.513943 -2.321535 0.253832 -1.150644
-2.584155 -2.250933 -1.052737 -1.450526
-13.291790 -2.270785 1.269307 -4.668773
-6.002555 -10.562182 1.965040 -4.969421
-7.895164 -2.031741 -1.273345 -2.978072
-5.160819 -2.085288 -0.242265 -2.173832
-4.936175 -2.183583 0.423980 -2.135927
-12.228346 -6.144358 -3.054160 -5.511811
-14.465567 -1.595700 -0.636927 -4.818380
-8.625469 -12.884766 -1.336685 -6.453070
-5.215460 -1.850697 -0.696339 -2.119847
-9.294996 -14.397302 -1.473567 -7.107689
-6.749271 -5.617627 0.215906 -3.710069
-5.779647 -16.606881 -4.859225 -6.715958
-3.362315 -6.107305 -2.493666 -2.840886
-9.736605 -13.080055 -3.869987 -6.844998
-12.768738 -13.806425 -5.378900 -7.972549
-18.635952 -11.723438 -1.259678 -9.107817
-11.812038 -12.391995 1.925947 -7.261210
-14.518388 -19.507834 2.814994 -10.207867
-27.232933 -37.967585 8.327654 -19.560155
-13.634718 -5.169755 2.497355 -5.641342
-0.743665 -2.078935 0.334969 -0.846780
-4.112849 -10.193855 0.523161 -4.292011
-4.214859 -7.028501 1.064616 -3.373008
-20.416547 -7.759341 0.031989 -8.452766
-6.878301 -0.129680 -1.654479 -2.102394
-23.327663 -17.997947 -1.161892 -12.397683
-21.762482 -9.119211 -3.091872 -9.264508
-25.903987 -13.021500 0.872245 -11.677646
-21.909258 -9.616016 0.865624 -9.457582
-26.382486 -25.252970 1.315728 -15.490637
-20.474825 -9.600868 -2.042847 -9.022708
-29.766729 -20.354668 1.957740 -15.036419
-43.717657 -26.733835 8.068997 -21.135447
-35.064330 -23.158959 4.820516 -17.466987
-19.427544 -5.747938 -1.366492 -7.552645
-22.344072 -6.336514 0.603756 -8.604176
-30.703327 -22.950560 11.961196 -16.096166
-2.595127 -2.129883 -0.078753 -1.417503
-31.746328 -15.744372 2.817276 -14.247210
-20.477144 -1.905759 0.530119 -6.714871
-22.990466 -10.041010 1.296094 -9.909443
-20.089110 -14.937981 1.169848 -10.508127
-16.349333 -6.435408 2.959419 -6.835422
-2.606719 -2.287038 -0.219846 -1.468127
-5.504506 -3.510839 -0.781787 -2.704604
-18.097503 -8.182556 -2.639240 -7.884018
-18.019168 -8.303295 -0.322927 -7.896739
-8.817497 -0.998878 1.208178 -2.944912
-24.904334 -8.467911 -3.013657 -10.011674
-17.697639 -4.865642 -1.713191 -6.768984
-23.732590 -2.187085 0.167758 -7.775903
-21.011137 -2.083121 0.113876 -6.928277
-21.151931 -6.215949 0.688965 -8.210364
-17.864337 -2.696166 -1.698717 -6.168151
-23.995390 -2.272336 0.073867 -7.880318
-27.143755 -6.779099 -0.008332 -10.176856
-17.050686 -5.415361 -2.794127 -6.739814
-18.856714 -5.772238 -3.458363 -7.388686
-27.965029 -10.259135 -3.776167 -11.467249
-59.822572 -44.113219 20.198090 -31.180737
-31.558566 -14.363050 10.832029 -13.776485
-30.862697 -10.375427 8.025648 -12.371437
-28.346035 -13.595738 11.026729 -12.582532
-21.693112 -8.560700 6.666781 -9.076144
-19.811119 -14.047617 11.724270 -10.157621
-14.661886 -6.718411 5.253926 -6.414089
-34.779565 -17.840015 11.875278 -15.785874
-60.302082 -66.252743 24.882394 -38.917584
-54.910199 -32.158899 8.032255 -26.120729
-52.565153 -55.185062 22.255981 -32.325064
-42.156298 -40.733446 18.766884 -24.866923
-98.587343 -97.984723 34.544847 -64.693055
-87.816992 -96.427226 32.543584 -60.513389
-96.458686 -106.340415 35.080593 -66.910296
-55.006754 -59.410878 23.061457 -34.797909
-83.845290 -109.957110 26.041734 -59.999786
-96.774582 -104.220342 34.960371 -66.726025
-70.351765 -85.082407 27.871074 -51.593599
-64.477300 -85.447498 26.006684 -49.142967
-54.387489 -59.493964 22.970660 -34.437390
-57.415849 -61.602372 23.824758 -36.315864
-28.640985 -25.831313 14.837766 -16.341690
-39.664794 -32.317054 16.950882 -21.594554
-42.523177 -32.368601 17.010014 -22.467533
-41.806780 -31.817721 16.865122 -22.087350
-89.754616 -104.249135 33.418191 -63.714462
-97.313783 -105.532441 35.162441 -67.016155
-98.406170 -108.903834 35.660451 -68.614740
-77.302427 -89.874203 29.815650 -54.023887
-86.101337 -116.373632 22.781104 -61.453762
-87.415740 -89.368875 31.137937 -56.309871
-83.058772 -100.325476 31.601364 -59.798344
-91.825812 -117.306498 34.032776 -69.185122
-95.710462 -113.243136 35.221120 -69.150938
-90.815692 -110.088838 33.598734 -65.299570
-83.913950 -98.628278 31.792978 -61.292012
-91.390387 -112.557483 33.972208 -67.330327
-104.785695 -122.095881 37.768912 -75.763814
-95.193540 -114.423910 35.098191 -76.759656
-97.307029 -113.226740 35.617329 -69.822494
-73.242976 -86.917328 28.714086 -53.180412
-89.879314 -88.942662 32.091380 -58.474697
-77.655968 -51.565290 21.509268 -40.118593
-44.777583 -34.929653 17.743159 -23.912171
-62.577065 -53.588245 22.956305 -35.787614
-37.941708 -20.767687 2.567041 -17.612818
-24.075326 -2.661341 2.459158 -8.021000
-62.516963 -48.710741 21.649939 -33.603025
-70.502034 -57.768309 24.263862 -39.807713
-28.243219 -6.807805 5.430830 -10.515307
-38.043289 -17.706962 10.976102 -16.725075
-22.406453 -11.932791 0.389132 -10.301773
-20.056668 -9.381534 -5.728823 -8.831461
-28.266789 -9.755877 -1.060707 -11.406800
-23.659602 -2.086951 -0.185916 -7.723966
-32.487650 -17.251054 1.402773 -14.921611
-14.014561 -1.494034 0.250147 -4.652578
-38.088150 -21.040287 1.718699 -17.738531
-25.587408 -8.160619 -2.875569 -10.124408
-31.276540 -12.104815 -2.447527 -13.014406
-25.759852 -6.157645 -0.991844 -9.575249
-23.615521 -6.410698 0.839138 -9.007866
-29.419666 -14.645048 2.740780 -13.219414
-30.398921 -14.966934 -3.561562 -13.609756
-25.889344 -11.953563 -4.675392 -11.352872
-23.945897 -24.462742 4.380910 -14.522592
-50.508881 -35.111460 0.724171 -25.686102
-16.601374 -2.365964 1.135759 -5.690201
-22.775166 -12.945461 -0.795874 -10.716188
-42.338485 -24.656615 2.106026 -20.098530
-32.090096 -16.439006 -0.268560 -14.558731
-31.737245 -14.546605 -6.495118 -13.885155
-28.714970 -10.861031 -2.901632 -11.872800
-37.804081 -20.401591 -0.814588 -17.461702
-38.896218 -19.517293 0.170189 -17.524053
-39.306328 -20.594661 1.719604 -17.970297
-48.030576 -26.678579 1.886372 -22.412746
-71.367258 -60.507517 24.927075 -41.116285
-71.913795 -55.792364 23.576700 -39.594643
-67.347411 -54.234490 23.217820 -37.322571
-61.559905 -48.151052 21.454474 -33.018600
-81.132845 -96.059226 30.968564 -57.640488
-99.132512 -118.061658 36.191786 -72.222525
-77.608690 -64.927018 26.258586 -44.996513
-52.068357 -46.684817 20.876308 -29.625952
-83.174359 -48.061812 18.275440 -40.801818
-61.641469 -66.341504 24.943201 -39.833158
-67.447067 -71.574900 26.528103 -43.616350
-82.788713 -48.660243 18.858027 -40.918110
-56.164900 -48.599129 21.544028 -31.429209
-113.842499 -109.397718 37.219723 -73.283853
-63.305169 -48.871492 21.601345 -34.083680
-46.125050 -31.973384 16.689200 -23.429530
-83.407347 -63.198147 20.605696 -43.981648
-90.840678 -63.072530 24.830515 -49.150373
-65.450692 -72.981945 26.162063 -43.706084
-64.312410 -66.364384 25.440254 -40.549043
-77.404747 -65.798086 26.452241 -45.282369
-85.880687 -79.452519 30.017363 -53.536674
-93.878344 -102.233397 34.242206 -64.543019
-108.734548 -122.804996 36.153523 -75.130316
-89.893007 -92.289160 32.483588 -59.466736
-80.213895 -55.477980 23.317989 -42.150847
-88.143814 -102.702142 27.737385 -58.908212
-88.533106 -111.230201 32.876207 -64.886287
-102.485013 -133.129288 35.053334 -78.110133
-103.146184 -114.979261 37.099946 -72.665750
-85.629734 -52.202585 19.892076 -43.113178
-81.353568 -49.722593 19.725492 -40.715662
-80.162884 -79.115860 29.314690 -51.486951
-90.267695 -83.440536 31.179286 -56.492312
-72.983704 -37.630055 14.000923 -33.407624
-33.677025 -16.063368 11.036994 -14.922118
-56.933183 -30.043776 12.814938 -26.093088
-83.612006 -63.530177 19.859936 -44.142655
-51.595653 -28.994424 14.643558 -24.177023
-46.450152 -28.733896 15.305376 -22.555214
-43.588369 -23.286221 -0.080066 -20.062377
-83.753596 -55.583203 19.634609 -41.802028
-50.310920 -26.893313 0.160385 -23.161270
-25.884972 -11.826092 -7.193496 -11.313319
-55.912809 -34.802081 -0.955343 -27.214467
-48.303977 -30.796135 -0.383463 -23.730034
-44.383602 -23.341899 -0.401084 -20.317650
-48.878138 -26.817282 2.717727 -22.708626
-59.576755 -37.497672 3.120491 -29.122328
-50.103591 -20.899273 -0.550997 -21.300859
-29.881888 -24.760907 7.598005 -16.392839
-56.090977 -41.651617 4.205173 -29.322778
-30.978597 -21.050272 -2.627391 -15.608661
-33.862369 -16.082152 -2.346397 -14.983356
-25.924574 -33.653513 7.873945 -17.873426
-19.286004 -8.792094 2.225381 -8.423429
-24.652513 -29.095452 6.978615 -16.124390
-16.185948 -15.714635 6.168799 -9.570175
-24.280384 -28.111449 6.482928 -15.717550
-13.759863 -14.983229 2.750952 -8.622928
-23.396468 -12.447154 0.931509 -10.753087
-42.412671 -36.311195 9.050134 -23.617160
-16.389453 -39.456652 -3.731070 -16.753831
-30.338548 -15.387746 3.710934 -13.717888
-26.255919 -20.054115 1.444834 -13.893010
-25.966419 -12.180759 -1.878807 -11.444153
-27.991363 -15.414288 2.993596 -13.021696
-24.545777 -15.410226 0.851481 -11.986801
-24.015685 -16.837479 0.714388 -12.255949
-25.281530 -16.520288 -1.278172 -12.540545
-29.275109 -17.422230 6.699758 -14.009202
-27.248286 -17.781255 1.514690 -13.508862
-19.654591 -14.111745 5.506465 -10.129901
-23.915589 -13.037515 4.181393 -11.085931
-26.652034 -26.175004 -0.808656 -15.848111
-11.243439 -6.983965 2.861512 -5.468221
-28.472213 -16.543956 5.387399 -13.504851
-17.726241 -15.871684 4.123501 -10.079378
-18.491598 -20.442063 4.211147 -11.680098
-19.406595 -24.103948 4.288827 -13.053163
-27.030136 -22.633283 -1.851602 -14.899026
-21.242785 -13.924582 -1.931185 -10.550210
-32.282796 -35.857910 7.611278 -20.442212
-18.875937 -10.467740 -1.881381 -8.803103
-34.070939 -20.865201 -2.210944 -16.480842
-18.230571 -8.717653 -3.035778 -8.084467
-17.500857 -19.526980 3.660434 -11.108351
-32.118265 -46.384446 4.146592 -23.550813
-20.280625 -23.757146 4.147974 -13.211331
-20.523088 -26.153466 3.869902 -14.002966
-9.809071 -15.438139 -3.947994 -7.574163
-14.903878 -34.492618 1.215776 -14.818949
-12.368404 -18.179425 -3.360376 -9.164349
-9.562184 -17.078988 0.266723 -7.992352
-8.197410 -11.909865 -0.813515 -6.032183
-10.097800 -16.353953 -0.694840 -7.935526
-14.691867 -21.192264 -4.900511 -10.765239
-12.191789 -11.204884 -4.851163 -7.019002
-4.359153 -11.056002 -0.814335 -4.624547
-24.967440 -37.818569 -6.307594 -18.835802
-22.561678 -39.711989 -5.086175 -18.682100
-16.367502 -14.426959 -6.533196 -9.238338
-17.135161 -16.144118 -6.328686 -9.983784
-11.546593 -6.546598 -3.199314 -5.427957
-18.284134 -15.909292 -2.638148 -10.258028
-19.093268 -17.186534 -1.785910 -10.883941
-12.932423 -5.193892 -2.351703 -5.437895
-14.455193 -22.444988 0.266502 -11.070054
-9.500149 -16.067322 3.058698 -7.670241
-12.201064 -21.636285 0.442325 -10.151205
-10.086108 -18.405952 0.547199 -8.547618
-20.775784 -23.836519 4.671048 -13.383691
-27.218206 -36.414631 4.147164 -19.089851
-18.457054 -23.849369 3.749659 -12.691927
-26.002991 -34.099037 6.249978 -18.030608
-13.659501 -18.364110 2.991558 -9.607083
-22.892575 -41.263100 3.125234 -19.246702
-25.814117 -43.177184 3.001343 -20.697390
-18.965910 -36.513070 4.582117 -16.643694
-11.778740 -27.149698 1.275617 -11.678531
-10.556111 -19.557861 0.428395 -9.034192
-16.935014 -24.325838 -5.219764 -12.378256
-17.991919 -14.708872 -2.215459 -9.810237
-29.782265 -37.293462 -4.795249 -20.122718
-27.388150 -45.748303 -1.856016 -21.940936
-10.945862 -24.015409 -0.419186 -10.488382
-26.417155 -58.173268 -8.924679 -25.377127
-24.259752 -38.268448 -6.312693 -18.758460
-20.829724 -25.689519 -8.384393 -13.955773
-22.630291 -32.165838 2.084997 -16.438839
-24.170276 -31.520289 4.175465 -16.707169
-12.351274 -18.957277 -1.205087 -9.392565
-25.873874 -46.562098 5.916917 -21.730792
-15.259310 -20.983307 2.955541 -10.872785
-23.024580 -28.773469 4.318736 -15.539415
-9.594617 -18.750409 -8.246701 -8.503508
-14.207102 -35.500526 2.599416 -14.912288
-28.623202 -39.899277 5.715303 -20.556744
-27.391829 -36.296794 6.093445 -19.106587
-19.899844 -23.773313 3.671526 -13.101947
-36.279200 -56.377140 4.073864 -27.796902
-27.038988 -13.102475 3.986011 -12.042439
-24.982445 -25.443844 4.379379 -15.127887
-24.932377 -13.741015 6.703559 -11.602018
-28.351238 -15.984940 7.790733 -13.300853
-16.167015 -27.435489 5.235540 -13.080751
-26.088782 -23.356182 -1.403917 -14.833489
-23.852838 -22.857007 4.864971 -14.012953
-28.226328 -17.443706 7.828331 -13.701010
-26.390588 -14.786839 7.434107 -12.353228
-30.312807 -21.839719 7.974098 -15.645758
-26.627059 -33.460166 7.883068 -18.026168
-26.970828 -34.276389 8.481875 -18.374165
-22.082434 -29.158393 3.291236 -15.372248
-25.304499 -32.189916 5.261927 -17.248325
-28.221968 -40.709757 2.957826 -20.679518
-23.428623 -32.148332 3.299089 -16.673086
-25.761810 -45.867840 3.989253 -21.488895
-15.853676 -35.771816 1.590087 -15.487648
-26.916350 -36.171441 4.994908 -18.926337
-31.846160 -45.970051 5.318144 -23.344863
-29.294049 -40.553928 4.840946 -20.954393
-31.957158 -45.820123 4.827873 -23.333184
-21.395567 -28.464660 3.163386 -14.958068
-24.250741 -19.406392 4.494507 -13.097140
-32.544694 -46.203842 5.013605 -23.624561
-29.948177 -41.120794 4.600467 -21.320691
-22.249459 -37.777966 5.471767 -18.008228
-32.194267 -49.504548 7.072474 -24.509645
-40.252767 -74.800915 -10.421750 -34.552851
-19.453345 -41.232129 3.667930 -18.205642
-15.870063 -32.649945 3.020777 -14.556002
-24.538952 -25.371491 2.735098 -14.973133
-25.770519 -53.178065 -11.491792 -23.684575
-28.296147 -44.259034 -6.683347 -21.766554
-21.637414 -44.157834 -3.287723 -19.738574
-20.112886 -33.887113 -5.099599 -16.200000
-24.759913 -47.679765 -5.704452 -21.731903
-16.668108 -24.729087 -5.680907 -12.419159
-22.771265 -19.454790 -3.327059 -12.667816
-20.853978 -30.466409 -0.742097 -15.396116
-19.559832 -18.045949 -3.183466 -11.281734
-28.128428 -47.034243 -7.148827 -22.548801
-25.821269 -36.973046 -7.295299 -18.838295
-26.970646 -40.786916 -8.140476 -20.327269
-19.515232 -29.807076 -0.058109 -14.796693
-21.992954 -33.626535 -0.467783 -16.685847
-23.708681 -38.934479 -1.413525 -18.792948
-23.524202 -49.910170 -6.501413 -22.030312
-19.907502 -36.958520 0.134558 -17.059807
-20.779088 -28.951799 -0.706302 -14.919266
-19.893887 -49.242553 -6.653627 -20.740932
-15.081924 -43.994749 3.056964 -17.723002
-38.333045 -78.202384 -3.018198 -34.960629
-24.852767 -58.537744 -7.792485 -25.017153
-30.756957 -50.866617 3.874382 -24.487072
-38.032864 -61.338209 6.332872 -29.811322
-33.312210 -68.313134 -3.749960 -30.487603
-27.326466 -59.776490 -9.126297 -26.130887
-25.339596 -53.717580 -6.280811 -23.717153
-24.301119 -50.655533 -0.949609 -22.486996
-26.007520 -60.092182 -7.889888 -25.829911
-25.510898 -54.288316 -5.353421 -23.939764
-43.058718 -89.774842 0.364486 -41.007848
-23.536842 -50.242617 -5.179743 -22.133838
-28.745385 -52.070210 -3.283332 -24.244679
-24.725436 -49.236301 -0.772260 -22.188521
-38.359064 -56.105300 0.401614 -28.339309
-22.008649 -51.318455 -0.566900 -21.998131
-27.721876 -57.460931 -3.547747 -25.554842
-25.461605 -44.924875 -1.990977 -21.115944
-37.322043 -66.020601 13.599308 -31.002793
-27.487770 -53.089860 10.490738 -24.173289
-39.699940 -73.153461 -4.060030 -33.856020
-19.689078 -32.136386 3.175637 -15.547639
-37.737617 -77.018888 -1.138151 -34.426951
-42.867103 -79.787813 -3.731246 -36.796475
-27.252202 -63.019927 -7.464473 -27.081639
-26.401229 -60.646499 -8.363032 -26.114318
-26.151857 -60.667955 -7.849905 -26.045944
-22.438553 -49.623021 -7.376451 -21.618472
-40.122219 -66.372211 3.406202 -31.948329
-34.427923 -54.086174 3.691523 -26.554229
-44.430169 -68.676037 2.458387 -33.931862
-32.651940 -61.497278 2.912181 -28.244765
-38.406957 -58.758927 5.379797 -29.149765
-41.561810 -67.435920 6.506444 -32.699319
-40.545765 -62.632631 3.062964 -30.953519
-39.023649 -61.531478 4.855214 -30.166538
-47.262716 -82.610085 15.806256 -39.987753
-32.664747 -39.252520 -3.193363 -21.575180
-26.176827 -51.971062 -10.122244 -23.444367
-51.312034 -103.587472 0.535423 -48.961543
-23.962972 -50.621271 1.854409 -22.375273
-23.028598 -23.049839 2.781139 -13.823531
-22.233891 -48.030606 -8.596286 -21.079349
-28.480571 -45.142391 6.491240 -22.086889
-23.987861 -41.477431 0.908460 -19.639587
-34.012634 -68.657387 11.707200 -30.801006
-38.066908 -65.006354 11.051220 -30.921979
-25.163856 -57.746297 -6.895349 -24.873046
-36.880392 -55.565886 5.435080 -27.733883
-38.543341 -60.451892 5.240695 -29.698570
-42.878434 -63.028668 3.300174 -31.772131
-32.922203 -62.639386 6.239770 -28.668477
-35.108183 -51.980721 5.142188 -26.126671
-35.271539 -55.311800 4.170773 -27.175002
-32.624889 -56.656046 4.545000 -26.784281
-38.285108 -68.865748 8.251529 -32.145257
-22.947527 -43.456264 -0.985530 -19.921137
-26.875146 -41.599655 2.164698 -20.542440
-23.779557 -46.971643 1.899382 -21.225360
-24.529919 -36.260834 0.877149 -18.237226
-37.028881 -57.425797 4.602019 -28.336403
-36.242537 -56.733712 3.708633 -27.892875
-43.569669 -44.646613 1.701460 -26.464885
-38.295426 -40.803639 10.029347 -23.729720
-36.192466 -44.214380 17.558219 -24.122054
-29.148902 -27.521472 3.293592 -17.001112
-61.282577 -47.561781 2.620159 -32.653308
-49.974557 -79.680687 20.179966 -39.566430
-43.877986 -45.866934 2.015194 -26.923476
-46.847465 -52.730745 -6.431452 -29.873463
-67.014576 -57.815754 2.721551 -37.449099
-62.168274 -47.624591 4.098302 -32.937859
-42.139182 -40.061218 14.182886 -24.660120
-58.500633 -78.481804 18.018066 -41.618984
-49.063752 -48.708745 20.339655 -29.331749
-49.566223 -75.431535 9.477659 -37.542812
-30.378910 -52.858295 13.600299 -24.971162
-36.523069 -48.396570 12.064919 -25.475892
-39.845315 -47.307527 16.228189 -26.145852
-45.161073 -80.881380 13.256219 -38.580102
-38.825735 -54.844357 15.221006 -28.101027
-39.087461 -25.211267 11.023830 -19.289618
-42.045329 -83.640040 8.577202 -38.845864
-44.823946 -71.483262 9.385243 -34.892162
-42.119366 -76.035793 14.135999 -35.713921
-45.976739 -83.203949 12.179622 -39.693279
-50.198337 -51.890115 11.888140 -30.626536
-49.579934 -55.954652 21.608311 -31.660376
-37.896588 -41.362988 13.230622 -23.777873
-39.215066 -38.395544 9.176831 -23.283183
-76.539942 -70.816317 12.386547 -44.206878
-57.373304 -27.380490 3.087656 -25.426138
-75.586251 -102.907332 28.049861 -57.699171
-48.808293 -82.142296 6.258774 -40.375392
-37.253206 -40.105281 9.376586 -23.207546
-44.894528 -50.038351 1.112013 -28.479864
-52.730322 -57.535383 8.352353 -33.079711
-56.820433 -24.364493 1.194144 -24.355478
-61.886629 -42.615848 -0.659791 -31.350743
-71.914409 -58.058341 9.816801 -38.991825
-87.009299 -82.885173 23.050887 -50.968341
-82.044595 -65.595730 20.531702 -44.292097
-89.021153 -86.209113 27.936692 -54.110197
-87.048737 -83.604381 27.109934 -52.473042
-82.020787 -64.149779 17.456040 -43.851170
-102.958633 -93.063384 25.766480 -60.057825
-89.336181 -43.565562 11.569505 -41.484619
-112.347799 -101.062714 34.235796 -69.565790
-91.077882 -105.914329 29.214685 -62.295809
-82.633412 -74.467303 19.905341 -47.130215
-84.029734 -66.110893 5.486827 -45.042188
-84.718388 -78.440035 20.101843 -48.947527
-99.457352 -52.510181 15.802796 -48.434449
-90.882489 -80.368555 28.087802 -53.325486
-41.924971 -23.051085 13.215317 -19.492817
-65.885621 -44.215233 19.718013 -35.812316
-70.935237 -60.018800 10.842155 -39.286211
-56.010286 -38.267742 2.722737 -28.283408
-71.377846 -63.786572 12.998016 -40.549325
-61.730396 -35.290480 13.591595 -29.106263
-59.790029 -33.341458 4.580983 -27.939446
-58.610499 -43.084743 4.185489 -30.508573
-69.030661 -80.300125 12.281528 -44.799236
-38.101867 -22.525390 9.100149 -18.188177
-72.297275 -47.480199 9.807758 -35.933242
-78.363765 -50.409698 13.247035 -38.632039
-74.986540 -55.785009 13.522639 -39.231465
-70.651164 -51.941048 10.573906 -36.777664
-58.915245 -38.559956 3.386480 -29.242560
-64.509726 -48.724986 7.674444 -33.970414
-81.346583 -38.171839 10.023542 -36.588050
-71.810475 -47.144575 20.280844 -38.153488
-88.621613 -68.594409 23.819239 -47.806947
-145.700236 -93.127922 30.604721 -80.141106
-66.646669 -29.986085 9.251135 -28.989826
-84.854537 -75.670851 23.376708 -48.157616
-71.412806 -39.811821 10.422291 -33.367388
-39.559393 -17.660064 10.479322 -17.165837
-75.357048 -51.774639 12.123542 -38.139506
-74.949538 -49.453772 13.522453 -37.320993
-65.109595 -50.062590 7.662009 -34.551656
-55.193006 -37.567001 2.041913 -27.828002
-81.045522 -53.533323 16.169711 -40.373654
-81.509068 -48.480161 12.198982 -38.996769
-66.012904 -48.158434 8.080092 -34.251401
-59.489457 -36.353349 3.969722 -28.752842
-59.923215 -28.741498 2.563656 -26.599414
-55.046056 -26.156490 3.254354 -24.360764
-58.408751 -44.753412 4.000840 -30.948649
-63.419196 -51.480819 3.128698 -34.470005
-43.935564 -39.858026 12.663123 -25.138077
-47.584611 -59.153910 20.351319 -32.021556
-24.139976 -60.560606 1.381413 -25.410174
-31.038575 -30.826702 -3.076737 -18.559583
-49.085464 -80.674396 4.352937 -39.604405
-26.476600 -22.696689 -1.601834 -14.751986
-32.311942 -65.176253 10.205744 -29.246458
-27.292399 -26.392549 -2.158707 -16.105484
-56.648481 -43.138687 2.157937 -29.936150
-61.288624 -51.124841 2.025728 -33.724039
-59.250092 -44.959305 9.124340 -31.262819
-11.569074 -17.979745 -3.283070 -8.864646
-52.927154 -41.752817 5.758054 -28.403991
-34.134539 -17.676972 -4.996550 -15.543453
-56.405538 -38.882709 1.241823 -28.586474
-46.612861 -25.310945 8.642400 -21.577142
-53.569834 -36.266630 0.603973 -26.950939
-56.205879 -40.189597 2.312925 -28.918643
-49.514328 -37.101119 4.083039 -25.984634
-53.284660 -38.566404 2.976354 -27.555319
-26.594065 -35.486004 0.240364 -18.624021
-47.911266 -27.970616 4.115167 -22.764565
-26.182054 -31.206864 0.171798 -17.216675
-43.046460 -34.232274 7.148784 -23.183620
-25.485439 -26.803015 -1.503394 -15.686536
-28.038699 -21.198934 1.195575 -14.771290
-26.364494 -22.315104 9.791225 -14.603880
-53.345761 -37.531673 0.813364 -27.263230
-21.073740 -9.959544 0.815015 -9.309985
-49.785100 -32.164434 -1.254095 -24.584860
-39.545681 -23.997304 0.284236 -19.062896
-33.501473 -30.329561 5.643281 -19.149310
-52.301641 -29.388056 2.617854 -24.506909
-63.873525 -41.144070 5.061584 -31.505279
-46.571403 -26.022507 8.961622 -21.778173
-37.686065 -22.478628 6.861817 -18.049408
-63.953827 -40.187126 5.053637 -31.242286
-56.502333 -33.598264 2.847088 -27.030179
-51.980376 -23.243587 2.184394 -22.567189
-58.629548 -29.169645 4.412599 -26.339758
-74.508449 -48.419601 11.400661 -36.878415
-50.169751 -29.831176 2.365222 -24.000278
-63.604859 -36.159219 4.291522 -29.929223
-74.521862 -50.614066 12.558718 -37.540778
-88.361064 -51.661761 13.885150 -42.006847
-75.986389 -43.033417 8.582393 -35.705942
-64.449081 -40.596421 5.981209 -31.513651
-58.250609 -35.603268 4.235635 -28.156163
-69.606982 -43.494328 7.810299 -33.930393
-59.138130 -34.349897 2.173284 -28.046408
-89.928365 -70.804090 27.649056 -51.511242
-48.808930 -37.413951 18.392677 -25.866864
-87.288277 -69.559317 27.568095 -50.192966
-70.286555 -57.374337 24.121673 -39.538524
-68.441702 -53.657805 22.998190 -38.234033
-79.974707 -64.149805 26.015593 -45.587082
-91.891431 -72.145519 28.110340 -52.643540
-67.680633 -59.824422 24.640120 -39.584793
-102.702707 -86.576193 32.277099 -62.011398
-113.081262 -112.721481 35.725068 -74.479044
-89.497338 -64.632174 23.047791 -47.131055
-81.097941 -63.011987 25.530314 -45.521612
-88.926467 -68.571920 21.810908 -47.249516
-111.930461 -62.231793 19.143018 -56.538163
-76.123048 -55.320452 22.460904 -41.416199
-61.530591 -24.482942 4.585526 -25.804060
-89.529370 -68.748636 26.911296 -49.809511
-78.941116 -59.966300 24.645461 -43.619015
-91.148384 -62.310109 24.199027 -48.951435
-99.314854 -77.434270 19.119874 -53.024737
-93.581383 -74.917216 25.438999 -51.710373
-99.097505 -79.032982 19.628061 -53.439146
-96.052293 -69.523024 20.715372 -49.672595
-95.372864 -49.046063 14.326505 -45.620847
-99.171881 -81.957742 30.810944 -58.989219
-107.152857 -91.305131 31.400952 -63.547246
-104.661562 -94.526756 27.182621 -62.366101
-85.312961 -64.216892 25.871259 -47.427150
-104.394767 -90.793093 33.568079 -64.185900
-103.522340 -113.385209 33.708466 -71.341550
-73.243208 -59.367767 24.640194 -42.706829
-101.938930 -91.344062 33.147369 -63.387151
-95.063629 -78.605834 29.794314 -56.209431
-104.532553 -89.327385 32.572891 -63.574641
-122.011510 -127.079644 40.634564 -87.695708
-92.512377 -92.306730 32.898514 -60.417847
-101.108298 -92.048365 33.628101 -63.461351
-94.999013 -72.560956 28.233231 -54.192731
-113.461397 -66.927742 22.439049 -58.731142
-111.906744 -104.252192 35.101627 -70.498189
-112.006597 -105.469463 37.196803 -72.343045
-116.597338 -115.800003 38.547768 -76.757614
-111.525710 -155.268084 33.054988 -88.022623
-101.552805 -129.662137 34.292606 -80.314342
-113.946198 -127.375081 34.868889 -77.144157
-107.927556 -131.845801 31.840054 -77.694755
-102.973658 -130.152729 32.915366 -76.540617
-84.794116 -99.022654 32.020323 -60.492446
-119.523072 -117.727990 38.365090 -80.112310
-94.427730 -94.351866 32.890689 -61.470132
-99.388892 -129.735110 33.552325 -74.820671
-89.294768 -112.390188 33.242016 -67.087959
-110.808561 -118.730724 37.407691 -75.781110
-95.778161 -112.524884 35.107291 -69.011026
-94.828179 -52.670600 17.786588 -46.721335
-91.250623 -92.329850 32.663384 -59.984603
-101.884266 -59.391877 20.373496 -51.661039
-101.166387 -66.390773 25.203145 -53.961541
-89.433016 -107.889780 33.345163 -65.239860
-110.082656 -106.475987 36.044979 -71.121627
-96.001814 -59.444276 21.864690 -49.432301
-113.871602 -110.058363 37.979055 -74.806791
-97.076751 -109.826636 35.332152 -68.499153
-100.477481 -124.684167 33.468618 -73.279474
-110.594342 -127.379498 36.935831 -77.674024
-114.071474 -134.199592 30.502277 -82.105603
-93.473626 -100.101955 33.980723 -63.734137
-104.350032 -118.907514 37.470955 -74.469142
-110.317408 -129.816793 39.355896 -83.206082
-122.193942 -108.305273 36.097298 -74.714146
-104.300937 -125.928989 33.303616 -75.599287
-100.250552 -124.302354 36.535229 -82.636002
-102.944680 -150.392967 35.095044 -91.493592
-129.815566 -171.852131 44.339196 -104.178670
-116.330493 -160.334542 23.751833 -92.080391
-161.846684 -201.555390 54.137818 -125.621873
-86.226410 -157.318932 20.781544 -81.698655
-136.977369 -220.460033 38.499476 -123.594963
-87.400059 -164.471999 14.096501 -84.401602
-102.674820 -187.035180 21.597552 -100.184703
-118.851665 -190.184013 15.430145 -111.655833
-89.685574 -156.068150 24.878386 -82.503051
-83.237544 -151.749529 20.221274 -78.688940
-85.181724 -160.877140 16.611737 -82.767343
-126.661930 -214.039899 32.330063 -117.294713
-97.726427 -156.360024 29.817083 -85.476431
-77.202370 -151.516946 11.886006 -86.210780
-122.327076 -205.030512 32.438734 -114.557713
-120.100034 -139.359210 -10.396918 -78.264765
-130.709729 -153.530279 8.733705 -85.272002
-105.561503 -169.220289 5.816745 -84.803647
-119.652913 -201.332710 20.296887 -105.675126
-115.844113 -202.729972 27.446779 -109.484486
-124.379348 -203.327169 34.813484 -121.555733
-100.154510 -176.596880 24.867870 -94.368213
-110.272674 -181.136969 31.822192 -109.117652
-96.607617 -174.311839 22.458837 -95.584094
-112.138220 -200.705706 24.587253 -116.173304
-75.716123 -149.792031 11.791591 -74.936306
-130.907391 -222.693080 31.089274 -132.811727
-95.979061 -171.040254 14.545203 -88.784117
-97.748825 -169.679756 25.960512 -99.062708
-90.301604 -163.982645 21.336110 -93.626929
-115.492783 -189.290573 32.979523 -113.275190
-106.907223 -169.051490 33.317824 -93.622947
-96.264236 -185.718541 11.991186 -95.837094
-130.026867 -219.026811 33.351876 -120.423457
-135.738628 -236.683415 28.918478 -130.873063
-113.234310 -189.728081 31.005752 -114.679064
-122.404943 -205.182136 32.515975 -112.549197
-95.610925 -162.701770 27.077871 -87.180430
-115.908169 -131.383278 40.784981 -83.229392
-137.060353 -234.658773 30.601030 -136.111098
-79.425743 -140.502337 22.639739 -72.953484
-90.885479 -118.995845 33.506546 -69.565863
-125.771926 -178.497288 41.822693 -104.004903
-87.718635 -168.862382 11.329432 -86.103079
-114.778947 -193.518435 30.787097 -105.493402
-90.704964 -176.258307 11.351274 -90.389039
-99.778259 -173.282337 3.250219 -87.215171
-130.989180 -235.883671 24.993034 -126.888173
-92.672563 -126.924022 33.614003 -75.752115
-128.797363 -230.181098 26.044623 -124.001662
-134.931589 -226.347009 34.544796 -124.825855
-85.800059 -157.634295 17.471006 -80.203881
-73.485754 -117.276676 -5.912892 -57.546699
-116.286907 -206.933213 23.284089 -120.688935
-89.568901 -174.772676 10.017866 -103.107497
-98.407056 -106.468959 34.876623 -66.510439
-118.266998 -153.797504 35.644749 -89.417959
-105.873786 -137.549569 29.431942 -82.704105
-106.022424 -130.343923 30.847724 -81.545092
-83.405264 -148.160587 18.177872 -75.216505
-171.400920 -237.943967 54.712387 -142.389238
-91.012380 -117.231385 33.629349 -69.219649
-113.680800 -145.457057 31.592891 -85.431251
-101.784491 -129.240127 36.354268 -76.658005
-103.859976 -135.607294 36.067253 -79.376235
-89.816619 -170.908465 15.847527 -87.976199
-87.749904 -157.760101 22.256175 -82.374640
-70.987320 -132.111481 -5.266282 -64.534539
-78.694949 -156.672164 4.640585 -78.302119
-107.774430 -189.158828 26.236679 -101.327071
-101.133159 -182.053204 23.056450 -96.264646
-118.000110 -163.705384 2.434992 -84.935624
-77.321598 -135.374338 22.521785 -72.695385
-134.951806 -160.563912 46.278107 -100.822086
-122.473965 -171.200990 41.332034 -100.126372
-96.573958 -166.907225 26.331213 -88.985500
-127.111628 -143.992716 43.998113 -91.931255
-114.117049 -145.039252 39.966263 -87.468901
-130.779217 -198.623803 40.597035 -123.811771
-96.674954 -176.860271 20.916048 -92.741241
-114.395995 -172.478628 36.995778 -97.647785
-122.293911 -199.804572 34.483277 -110.543526
-122.034918 -201.463408 33.678955 -111.053450
-125.742397 -209.087815 33.786571 -115.434129
-123.646650 -216.210585 19.365257 -126.885810
-122.440702 -200.715630 31.452241 -108.904541
-152.481221 -138.993581 8.404747 -87.442441
-141.301989 -235.348935 36.237916 -140.842916
-123.628373 -201.052165 35.058608 -112.635224
-124.681374 -119.233563 33.409511 -76.677083
-114.710090 -205.875759 24.305953 -114.981479
-137.220804 -165.666765 46.960342 -102.127507
-123.113823 -208.896455 15.243592 -115.348802
-133.360141 -229.732137 31.440485 -137.477571
-106.075805 -197.345078 18.400602 -105.182592
-119.331268 -206.079575 29.201983 -112.210521
-124.148636 -209.291585 32.198444 -115.743264
-124.781641 -204.735119 34.661545 -114.194697
-159.222616 -299.110260 6.168577 -170.157173
-123.248538 -204.952301 33.323274 -113.391330
-121.764140 -206.312352 31.318415 -113.880897
-133.461185 -224.985593 21.408335 -124.723518
-126.584138 -230.340572 20.388283 -131.772958
-142.214823 -158.123679 39.739817 -96.593443
-138.144574 -196.634861 45.018421 -115.120198
-108.472861 -193.986546 20.532854 -103.931780
-130.312293 -221.675218 32.344237 -131.444320
-134.258102 -236.405218 28.716485 -128.242482
-143.375081 -247.500940 32.504713 -148.125384
-147.494359 -238.154277 23.697726 -139.278463
-119.654592 -203.910124 26.040494 -113.543990
-162.582722 -253.773150 37.233297 -151.681934
-140.778407 -235.959520 35.374902 -130.952952
-138.250475 -233.131444 34.585715 -128.645419
-120.632446 -211.268273 27.723430 -114.427509
-139.385463 -220.258540 40.310364 -124.254898
-130.938388 -166.003567 44.704735 -101.075104
-115.518458 -193.933600 31.260545 -112.279431
-104.616085 -187.205549 23.993176 -99.419854
-126.278219 -156.815869 43.161833 -96.103751
-120.406440 -220.933958 17.557462 -117.721785
-121.674443 -182.504613 38.982352 -103.957757
-117.351976 -149.526928 41.013477 -90.299268
-122.975893 -206.830561 32.371590 -119.398249
-86.796310 -169.185556 11.664127 -86.305233
-96.196375 -186.528213 11.082894 -96.081824
-127.349600 -198.447390 38.550554 -122.031285
-133.304951 -226.091132 33.241929 -124.378335
-94.586062 -180.313186 15.227752 -93.164791
-64.439391 -133.719948 2.617200 -76.816667
-119.628890 -227.625562 12.588304 -123.102995
-81.097654 -141.608643 -10.102630 -69.755875
-141.952260 -231.476106 28.872742 -127.662515
-95.287606 -161.838651 27.151269 -86.747852
-81.064636 -152.755335 16.905515 -78.252915
-96.650238 -129.184965 19.417538 -67.750561
-113.225721 -144.520799 37.202291 -84.445080
-37.998741 -68.893758 15.744524 -38.626725
-96.791442 -119.723129 30.295395 -72.987176
-115.471447 -154.062021 32.209533 -91.173469
-74.771538 -133.368301 21.095030 -72.332553
-58.453584 -98.396433 21.055531 -51.525430
-45.143641 -83.461872 16.159595 -52.473191
-118.208926 -150.757265 32.662869 -91.523510
-114.193710 -144.191734 33.061259 -89.917965
-91.896080 -124.335786 30.382793 -69.348906
-129.929867 -174.697907 44.139566 -104.190179
-71.135412 -104.693378 26.775965 -61.004364
-86.843933 -144.633453 26.653702 -79.546143
-45.173215 -74.190160 18.861784 -43.551369
-176.997538 -258.203923 54.069492 -151.790481
-93.791985 -126.842802 34.005360 -74.127467
-186.634108 -241.107729 60.729179 -149.078583
-135.916670 -117.651528 41.194939 -84.284075
-112.102467 -132.944615 39.895135 -85.839937
-202.022641 -215.240023 64.751844 -145.274382
-70.248049 -82.053248 -5.678147 -45.690389
-122.920052 -146.705527 39.669146 -90.452079
-35.965625 -64.412132 15.669352 -35.700767
-111.940297 -139.243272 29.285471 -82.099195
-115.922839 -146.837695 30.634312 -86.802830
-117.807008 -151.559610 38.668050 -88.781729
-114.964298 -155.858628 34.306531 -96.272273
-119.303593 -147.918078 33.265914 -87.814900
-103.432692 -142.461908 35.605964 -81.455956
-115.385327 -145.132775 28.959231 -89.928361
-116.298434 -145.536550 32.630350 -90.884934
-111.908710 -138.391040 28.648355 -85.201353
-108.999936 -126.069101 31.780709 -76.935209
-108.008701 -106.259501 35.487511 -71.003036
-111.020823 -63.433456 20.645086 -56.556158
-115.522414 -136.856579 32.767337 -82.418875
-115.342726 -122.776490 37.754939 -77.980647
-120.962855 -138.064189 38.629262 -84.997063
-107.713837 -101.226023 34.415148 -68.868524
-102.264622 -83.568260 31.048127 -60.591228
-85.842129 -93.429298 30.144263 -64.023488
-99.710391 -81.348766 29.192627 -57.246760
-99.142227 -85.607534 21.715190 -56.578024
-103.087522 -89.522197 33.233108 -62.869642
-92.494746 -85.554151 31.714379 -58.224667
-107.240988 -92.129520 33.823239 -65.680438
-105.276923 -92.723040 33.150838 -65.011528
-92.087968 -87.667616 26.001372 -55.472457
-100.174260 -73.727472 16.755609 -52.170520
-104.909534 -91.441706 33.033065 -66.809946
-113.718784 -104.607369 34.292691 -73.406502
-94.156376 -57.114812 18.347131 -46.253923
-98.836560 -84.009051 24.423642 -55.656516
-113.130000 -141.179305 29.818075 -83.016434
-113.475177 -132.092610 34.606565 -78.995459
-127.482680 -116.208470 39.687365 -81.654913
-105.301651 -88.041391 32.702798 -63.469716
-113.774148 -152.525272 31.941167 -90.340326
-91.231915 -123.833820 31.127366 -69.560940
-100.388800 -153.090271 33.199386 -85.472971
-122.804521 -137.431769 39.115179 -85.114726
-95.054851 -52.546779 17.875830 -46.761351
-169.545025 -176.740981 54.971378 -119.097832
-100.834170 -107.438277 35.416106 -68.723308
-108.431361 -101.890958 35.593813 -68.434288
-101.749142 -92.896284 30.526363 -62.684666
-105.700719 -95.928388 34.784094 -65.902202
-105.170957 -104.094324 30.227533 -68.159164
-133.131496 -123.071468 40.999218 -86.047745
-87.551607 -73.212420 26.363346 -50.525576
-106.503130 -105.481638 36.134019 -69.934671
-109.491450 -117.756017 36.871698 -75.155403
-98.433527 -124.767939 35.844846 -74.424105
-96.593651 -92.238367 30.843985 -61.352516
-154.558414 -145.708775 48.130998 -102.377242
-157.663607 -157.278102 50.214721 -107.639415
-97.307239 -133.687530 34.796332 -77.269054
-136.393327 -135.597504 44.076134 -91.885132
-99.897793 -133.740952 35.851929 -78.220275
-117.617910 -133.842128 39.707049 -85.213074
-103.838211 -93.452454 33.951612 -63.954047
-105.659509 -99.837789 34.507083 -66.443062
-69.529467 -94.098232 25.283075 -55.219027
-82.299558 -100.473970 28.810803 -60.723191
-94.205618 -138.495718 32.806313 -77.825121
-112.830108 -122.066171 38.799328 -78.613920
-99.868255 -109.733295 35.652200 -69.300125
-133.048360 -155.444124 45.615588 -98.247898
-127.898572 -147.953104 44.340331 -94.410507
-89.682255 -106.777934 33.253616 -64.541206
-92.440774 -98.774473 33.470140 -62.291247
-100.323273 -136.957337 35.770772 -79.514516
-88.883606 -140.491230 29.275079 -76.693462
-80.997563 -129.226583 24.603222 -67.820186
-84.702451 -135.156103 27.348865 -71.960086
-96.411489 -126.682150 28.665836 -70.293018
-71.229657 -98.506455 8.187201 -50.920834
-84.085639 -125.435965 21.900071 -65.388186
-140.212932 -159.747098 47.784280 -102.393905
-76.278577 -97.321886 29.237867 -58.357909
-82.270575 -89.191971 29.474165 -58.273071
-105.193661 -159.331981 34.706652 -89.414147
-106.441276 -176.762984 30.474925 -96.301131
-98.397995 -146.408355 33.240163 -82.160859
-106.906292 -155.596199 36.303898 -88.705289
-109.578467 -172.735727 34.058144 -95.943359
-106.551836 -158.489140 35.624671 -89.595477
-96.629777 -139.271007 32.940036 -77.643280
-103.510403 -177.764442 25.712653 -93.825274
-84.179091 -138.318893 26.847746 -74.677165
-111.795304 -178.303057 33.928908 -98.800244
-107.804288 -170.996510 33.365896 -94.661017
-82.863922 -135.647109 26.724391 -73.370257
-98.318880 -164.800689 28.441664 -89.004856
-105.950259 -167.839667 33.042345 -92.818324
-97.212087 -162.939729 28.249002 -90.300703
-99.109422 -149.761165 33.203428 -83.776713
-97.510067 -126.414606 28.472853 -70.328533
-76.260758 -113.396321 24.674719 -60.787784
-72.137413 -107.828085 22.643679 -58.159403
-94.189672 -108.205133 34.586097 -66.840208
-110.345351 -109.700807 37.728853 -73.164256
-86.737205 -102.979496 19.813459 -56.915010
-109.071200 -102.150209 13.470270 -63.366423
-104.725206 -148.366109 36.247427 -85.339483
-111.765583 -129.373110 39.431861 -79.895227
-100.988393 -100.618773 35.196740 -66.538427
-142.715082 -133.324325 42.539934 -92.385177
-102.466317 -165.805690 31.224428 -92.811804
-108.678387 -182.095795 30.280491 -99.124357
-101.463138 -145.677882 33.802651 -81.476150
-123.409373 -169.029793 39.313128 -101.121737
-97.390632 -141.453573 32.129821 -78.337111
-100.298355 -155.536487 32.585718 -86.331498
-104.086406 -142.190635 20.757091 -74.310073
-88.495592 -168.400121 15.684287 -86.665679
-105.265019 -163.496446 29.557625 -88.203660
-98.409865 -145.110988 17.015664 -73.938365
-97.633270 -178.287180 21.128937 -93.636367
-106.401912 -134.615124 -4.503233 -72.305111
-113.674507 -194.883022 29.279320 -107.158331
-115.122277 -118.551592 13.223592 -70.102160
-149.646314 -246.992453 38.779417 -147.885798
-131.303802 -225.344180 31.445480 -133.219379
-135.199080 -213.200107 27.217414 -116.680878
-117.308142 -116.106991 3.284357 -70.024540
-174.960908 -327.944195 0.657729 -176.516148
-153.176676 -182.758404 51.699653 -115.584928
-140.025097 -219.806534 40.885164 -124.795772
-152.166443 -249.867424 26.076089 -148.074931
-129.910453 -214.782514 34.976905 -136.349918
-140.020917 -239.766753 32.440432 -131.501785
-145.492793 -247.813650 34.519150 -136.959419
-134.284890 -220.069589 36.476039 -123.004787
-140.426553 -205.618740 34.597701 -113.549082
-131.444568 -160.258346 30.030351 -90.079286
-157.290597 -255.028855 37.499191 -155.436400
-166.888964 -260.251570 41.723610 -148.206083
-144.568293 -209.923538 27.513111 -113.159837
-185.162662 -313.004030 -11.563670 -182.800271
-139.358662 -189.531355 29.930321 -103.845044
-132.846908 -246.127053 14.774326 -129.103572
-160.148067 -256.002673 40.830350 -157.418429
-171.399003 -270.373277 45.571561 -165.931469
-126.596217 -216.435487 31.348720 -119.386584
-144.673946 -234.223147 39.491359 -131.679126
-143.132970 -238.618216 36.581941 -132.850465
-160.840304 -231.379254 16.020673 -142.585814
-151.848648 -200.216585 50.514622 -121.469486
-136.576936 -221.578495 36.977861 -123.386225
-136.847789 -169.959948 46.892621 -104.956180
-135.827242 -215.333990 39.293361 -121.147879
-145.585345 -209.673894 33.154888 -115.306067
-162.103562 -223.211487 5.328879 -116.624361
-132.839590 -239.948799 23.859457 -128.288597
-126.206008 -198.842444 31.996824 -124.979110
-149.387646 -207.421901 27.591580 -112.301448
-135.198835 -223.704569 17.652185 -117.520111
-131.003874 -239.207710 22.183318 -127.782687
-135.190395 -243.724572 23.637578 -129.442553
-130.694101 -236.821690 22.710542 -126.510700
-175.068218 -271.471195 47.073697 -161.898617
-124.898402 -227.196214 21.665415 -120.906474
-132.337711 -241.154030 22.048846 -128.533335
-177.368105 -256.465205 28.934110 -152.326381
-168.451526 -249.980106 17.181761 -142.959404
-202.974612 -274.755164 64.103846 -167.356770
-143.145591 -231.909012 39.192589 -129.875795
-167.679803 -234.556677 53.237255 -139.796052
-144.618654 -191.119576 35.429996 -107.675665
-146.171733 -221.212775 44.432674 -127.651899
-130.308008 -185.608430 42.910485 -108.260988
-134.445812 -210.403917 39.834861 -121.353557
-138.079701 -212.490918 41.614346 -121.664374
-147.871967 -227.272847 44.031938 -146.181237
-133.558634 -229.259518 32.038695 -125.646665
-77.803763 -127.368575 25.713474 -67.859740
-143.030406 -227.452687 40.713134 -128.617232
-175.745929 -256.737728 53.610111 -167.185827
-137.429258 -234.104011 33.374731 -129.301086
-128.740958 -213.515135 34.504325 -123.251059
-126.382107 -197.478341 38.131167 -111.123367
-109.548005 -173.438416 32.806507 -94.652383
-117.161143 -207.397468 26.327976 -111.418789
-165.471882 -250.522451 49.024370 -145.312494
-135.510137 -181.122975 45.750765 -111.409126
-142.625018 -234.416620 37.851866 -130.593907
-117.240356 -171.208109 38.747567 -98.252775
-123.236168 -179.452328 24.869602 -95.618467
-154.387010 -226.566118 47.976474 -133.384778
-179.289679 -252.690365 56.175550 -150.975237
-138.272307 -210.460188 42.245047 -120.264473
-134.155053 -207.902000 38.670706 -115.813199
-146.218994 -257.996463 26.562750 -138.262285
-148.597328 -200.712986 35.106150 -112.261469
-128.210504 -128.545649 42.788032 -86.687662
-148.353065 -192.197778 43.610237 -112.685319
-158.889960 -249.664933 44.919335 -142.099083
-158.945142 -181.333548 23.287083 -102.083607
-129.095335 -117.485989 8.513924 -73.974397
-128.829251 -239.052930 16.451456 -126.943783
-211.138648 -293.112579 63.129638 -178.896815
-149.565084 -260.024265 32.322836 -142.479667
-177.862581 -278.819420 14.088830 -164.243795
-129.728033 -230.542447 24.471212 -122.775865
-138.032921 -252.880915 19.045851 -133.770583
-191.388474 -286.212610 55.238677 -168.691879
-146.940004 -263.547898 26.729996 -142.797829
-152.700124 -242.698639 42.701216 -137.301048
-126.229383 -230.673559 19.777470 -121.511180
-132.093217 -236.963959 21.748059 -125.402733
-131.865672 -237.921804 22.401713 -125.968739
-131.229615 -238.692631 22.257126 -126.800998
-134.575424 -241.340676 24.106465 -128.996599
-147.421307 -267.375752 20.287971 -142.236827
-165.732006 -287.505801 34.675024 -158.400471
-152.304385 -281.412849 18.550777 -150.107198
-134.525355 -248.991488 19.283335 -132.958898
-133.279361 -242.733143 22.167721 -128.632702
-132.214439 -241.680937 22.045029 -128.996392
-135.644977 -249.875068 17.955449 -133.238024
-134.996532 -239.858819 27.177160 -128.450258
-133.284812 -240.258985 24.550946 -128.062107
-139.497698 -234.341626 35.186603 -129.428660
-137.098667 -243.632873 27.623546 -131.947127
-134.586662 -243.122280 24.601016 -130.845643
-139.297002 -251.529120 24.890020 -134.768968
-132.310334 -243.452826 20.725194 -130.138863
-158.294460 -283.871785 26.277387 -153.873107
-147.164103 -255.117536 32.476205 -139.809251
-119.685062 -197.043608 33.435578 -108.585976
-128.793368 -225.745483 28.743829 -122.391168
-123.548108 -199.425521 30.187525 -107.630202
-165.765151 -250.053236 49.275353 -170.341222
-126.428454 -199.132885 37.680035 -111.805936
-145.147315 -227.722327 42.030573 -129.070163
-120.619817 -186.631432 37.252121 -105.014184
-134.760214 -212.960388 39.360774 -120.336138
-130.301853 -210.099423 36.998598 -117.223826
-134.103236 -210.855371 39.459187 -118.874808
-105.075640 -182.826622 26.494506 -97.363968
-124.516151 -191.344640 38.555379 -108.258507
-130.074021 -199.569640 39.920426 -113.294039
-129.051095 -194.444699 40.492270 -111.038973
-115.043215 -167.914703 38.197090 -96.252547
-116.391420 -183.596051 35.415386 -102.461706
-114.974909 -186.293910 33.615301 -102.923338
-112.155771 -161.757611 37.832582 -92.912385
-113.047137 -162.778985 38.101167 -93.618758
-117.537951 -185.789247 35.517832 -103.636580
-111.725696 -161.666330 37.739838 -92.646583
-115.172164 -170.054554 37.815093 -97.060177
-121.776732 -212.515669 28.531474 -114.608245
-113.088651 -188.693078 31.304524 -103.104576
-110.850868 -172.354102 34.976306 -96.262074
-115.412495 -168.147708 38.278026 -96.422882
-111.382705 -166.208032 36.192759 -92.895969
-118.183453 -194.664780 33.174100 -106.251094
-111.470640 -186.158377 29.543775 -99.839483
-111.182405 -179.312177 32.856979 -97.641029
-109.044370 -153.639466 37.565024 -88.812552
-103.607863 -153.256070 28.477471 -82.737165
-108.339457 -175.886180 31.050648 -95.056029
-111.687531 -184.003528 31.950092 -100.870295
-106.724991 -172.788705 32.013524 -94.971673
-92.588863 -119.887114 22.594505 -63.758708
-107.260026 -153.877002 36.775455 -88.186391
-105.389707 -151.974191 36.101798 -86.851302
-110.068290 -175.657843 33.194428 -97.183724
-117.578946 -172.651927 38.638064 -98.871142
-104.996869 -158.603705 34.709711 -89.108474
-112.509131 -163.233431 37.781751 -93.568006
-111.320161 -164.861523 36.932569 -93.681255
-91.541564 -130.691714 32.367607 -72.988666
-99.824842 -135.804866 35.706268 -78.889458
-99.853127 -138.748123 35.305030 -80.056881
-80.189366 -121.835517 28.373201 -66.675583
-100.533154 -140.495641 35.419275 -80.924416
-88.828425 -126.135419 31.282092 -71.099056
-105.364682 -143.383896 37.240514 -83.678892
-101.476721 -136.576993 36.244265 -79.822738
-97.195286 -135.677623 34.554744 -77.934199
-144.024479 -148.573491 47.304667 -99.586781
-90.447214 -96.621060 32.589464 -60.910313
-136.544502 -170.038811 46.628042 -104.828467
-99.058026 -138.522202 35.073309 -79.615970
-93.472443 -132.513633 33.359548 -75.363653
-101.065387 -86.296161 32.329904 -61.091066
-90.402557 -112.505099 33.300803 -66.938168
-100.743432 -114.456061 35.991826 -71.290363
-93.692654 -134.510990 33.188363 -76.177507
-103.726629 -119.029453 37.343752 -74.266464
-102.819912 -123.839820 37.313009 -75.592813
-105.190382 -128.987174 37.958314 -78.359405
-101.594566 -138.776449 36.144460 -80.611792
-116.325021 -163.913549 39.496661 -95.229500
-80.749876 -103.362770 30.306467 -62.630917
-82.462901 -108.619722 31.067640 -63.562241
-110.969476 -150.077969 38.841049 -88.187700
-102.481915 -140.731695 36.285032 -81.671042
-94.974128 -131.880711 34.044301 -75.731296
-100.391441 -141.263914 35.259707 -81.151850
-96.270381 -135.348555 34.221919 -77.443859
-100.289256 -140.258802 35.436601 -80.670078
-102.250062 -128.063638 37.077406 -76.936426
-88.407900 -111.859185 33.102678 -65.954942
-102.496919 -140.211766 36.300046 -81.525260
-122.541136 -129.136753 41.983904 -88.974663
-94.702638 -126.083228 34.497156 -73.497769
-103.127308 -137.579957 36.962914 -80.661391
-109.293612 -126.192400 39.147842 -78.744438
-97.923504 -122.818026 35.695860 -73.531100
-84.760722 -108.967056 31.968512 -63.584793
-93.350752 -112.710338 34.456190 -68.184171
-101.093766 -125.335918 36.810234 -75.486238
-39.736524 -50.389201 17.480096 -27.037718
-83.529406 -111.724297 31.359207 -64.150863
-86.764697 -125.870925 31.124537 -70.528821
-60.660828 -75.533286 15.648803 -40.858234
-81.478110 -121.163928 25.464837 -64.302749
-55.833009 -54.282061 9.962505 -33.034521
-42.876985 -83.122678 14.305475 -38.961825
-56.260804 -89.375742 21.840650 -46.134520
-53.024252 -109.065714 9.808344 -52.141148
-39.655948 -87.181587 7.092608 -39.275167
-45.563613 -75.228567 5.003052 -36.237654
-50.439879 -106.596879 7.185436 -50.286175
-45.549542 -76.129227 18.652211 -37.362080
-51.446270 -57.136021 11.578073 -32.574687
-41.572885 -78.454440 15.162899 -36.771018
-61.235875 -109.280705 19.360042 -55.631946
-48.138249 -103.597987 5.019644 -48.199210
-57.031394 -116.756480 9.404004 -55.974657
-86.422280 -109.663324 32.384960 -64.544499
-28.352132 -65.944243 0.810171 -28.288912
-58.667299 -79.713823 20.026992 -41.514337
-90.849733 -90.987093 9.963937 -56.354112
-70.247765 -89.232373 24.316785 -48.594855
-49.610086 -76.408163 13.442289 -37.805475
-75.283952 -128.677002 23.385426 -73.655152
-72.484722 -121.757627 23.639173 -67.902870
-57.407461 -94.002297 21.003642 -47.300595
-47.385758 -67.783762 5.894347 -34.550856
-46.138890 -64.682120 20.588434 -33.427001
-54.979743 -79.690977 13.382943 -40.401216
-60.314443 -102.836101 4.558335 -48.945163
-60.100892 -115.671392 15.024085 -57.132900
-52.898628 -73.110322 4.685279 -37.802685
-56.184103 -93.083584 20.937381 -49.215750
-79.268208 -108.783832 29.952880 -61.518153
-90.160713 -86.880231 25.136849 -53.231334
-111.653554 -106.882886 37.455543 -72.726602
-42.945197 -73.041210 11.535541 -34.795922
-75.942599 -90.561345 29.407705 -53.749668
-70.477730 -93.293156 27.651485 -52.732652
-65.002659 -106.496360 23.045145 -55.561134
-54.254721 -88.745878 19.358612 -43.954032
-60.773511 -82.514476 24.778704 -46.278919
-79.640107 -98.367308 30.494646 -57.946799
-86.076920 -100.548627 32.280184 -61.035429
-85.430664 -92.255238 31.580136 -57.750535
-103.534800 -128.617682 37.169887 -77.680860
-51.569967 -62.011049 22.357327 -34.798827
-113.844018 -126.995112 40.070199 -81.206349
-78.432876 -97.556884 30.088147 -57.179405
-60.758991 -75.129912 24.719522 -44.791139
-70.831660 -101.084631 26.979930 -55.673150
-95.452327 -64.830366 25.138660 -51.484585
-86.469962 -100.971896 32.419627 -61.375893
-104.002091 -137.225545 35.993223 -82.468895
-70.216737 -100.412257 26.855659 -55.207068
-78.222449 -77.350668 28.728635 -49.002925
-65.264834 -82.854405 26.329431 -47.033888
-79.662914 -71.073965 27.729437 -47.815156
-66.815297 -84.682854 25.999276 -47.940756
-79.119254 -95.528611 29.737425 -55.570158
-75.779727 -80.215365 24.513797 -47.284600
-70.623379 -103.103632 25.454967 -57.425232
-78.390474 -112.557190 15.997601 -64.235250
-117.161480 -144.396751 40.140459 -88.103605
-102.386971 -83.151853 31.420326 -60.417456
-75.538525 -76.702890 28.245410 -48.671783
-73.709284 -33.924066 5.499368 -32.290005
-71.333084 -83.287738 14.553132 -46.386247
-145.824878 -132.289461 45.212236 -94.009286
-94.597803 -89.164202 29.607309 -57.515606
-126.798290 -109.586395 39.050618 -79.111436
-59.693058 -51.343718 7.250182 -33.311033
-104.689305 -93.558209 34.250599 -65.067525
-85.947825 -84.800302 26.046627 -54.316589
-87.794733 -95.564766 27.943182 -56.819913
-68.887126 -65.271633 23.627657 -40.247628
-66.212454 -89.188998 21.826826 -46.628863
-31.209308 -73.367516 4.282114 -31.373047
-53.063727 -47.666529 6.047554 -30.219077
-89.331353 -97.744815 28.999452 -58.747384
-88.515963 -87.298027 27.696700 -54.162688
-75.402713 -63.612234 25.329292 -42.755801
-82.959000 -70.922280 27.934955 -49.121577
-57.535133 -90.348058 17.441055 -44.800254
-63.545776 -98.804768 23.930301 -52.314121
-48.973093 -63.901372 9.495713 -33.862339
-51.582349 -52.075355 14.619802 -31.097311
-61.331132 -103.634337 12.829731 -52.289474
-52.489103 -84.781849 7.192937 -42.095498
-43.726849 -71.433909 6.246619 -34.570746
-49.429712 -57.744477 3.234428 -32.152257
-48.436266 -53.451950 10.801425 -30.566465
-62.923258 -99.084385 21.774367 -51.473986
-41.389790 -48.587846 6.317106 -26.993291
-29.653613 -38.526058 2.896858 -20.453901
-53.125873 -90.898169 8.488468 -43.207213
-37.978897 -42.009050 16.907649 -23.996384
-51.067526 -90.576189 8.283588 -43.646534
-39.235013 -44.377530 2.707471 -25.083763
-47.035912 -85.070487 9.007815 -40.284475
-53.099515 -98.707742 9.877176 -47.938553
-43.956920 -78.571401 14.624917 -37.211463
-44.838522 -81.912168 10.619524 -38.335539
-65.161410 -116.842607 17.157702 -59.563228
-47.118186 -84.963223 15.235511 -40.813908
-53.528305 -110.976406 8.731878 -53.023273
-43.308710 -78.426547 8.190310 -36.520577
-50.648544 -62.697639 3.407048 -34.003855
-43.127146 -55.307907 11.128109 -29.530516
-67.026417 -119.777034 18.167595 -63.184392
-50.081995 -99.489463 13.056263 -47.706782
-72.835382 -89.362446 20.673258 -49.063995
-58.177980 -88.330995 23.030370 -46.979426
-62.696010 -84.351649 10.530505 -44.114298
-76.455717 -105.518281 22.102793 -56.893457
-47.267205 -64.997698 6.272822 -33.679471
-44.783671 -80.175442 7.726021 -37.487734
-31.018252 -44.405830 -11.552446 -22.627225
-48.768725 -77.030189 5.735409 -37.739674
-50.101224 -92.805349 11.150016 -44.468849
-51.183117 -102.446625 12.434942 -48.663077
-39.200113 -63.983054 17.589100 -30.954950
-52.314567 -101.556493 9.572068 -48.394169
-49.434771 -62.272586 10.987938 -33.512207
-54.264440 -101.376917 16.564328 -49.783996
-71.723332 -98.300668 25.206221 -52.932678
-44.808734 -63.434715 9.741901 -32.473035
-41.467563 -85.044173 0.866281 -38.919307
-51.085758 -92.234576 8.624511 -44.016620
-32.067696 -39.124474 -12.802259 -21.357651
-30.107145 -66.683573 -2.763274 -29.037215
-35.250476 -75.912270 -1.600413 -33.348824
-31.124545 -71.421427 -1.555173 -30.763792
-66.097188 -82.562332 21.882733 -44.597856
-46.124368 -84.947138 15.307197 -40.400368
-27.234199 -52.682094 -11.788130 -23.974888
-28.064329 -43.027428 -14.105497 -21.327527
-55.364419 -45.482937 6.571707 -30.254207
-29.265127 -44.292696 3.788842 -22.067347
-45.650881 -76.639010 1.826154 -36.686967
-36.031202 -74.702485 1.288081 -33.220106
-51.952441 -93.129987 13.479639 -44.998308
-36.833032 -49.308138 6.463455 -25.842351
-41.322219 -80.978839 5.780041 -36.690317
-66.164556 -65.618592 12.626258 -39.534945
-28.496173 -61.186733 -8.061845 -26.904872
-31.493255 -70.308422 -6.627542 -30.540503
-43.023059 -66.127388 4.740713 -32.745134
-30.605613 -68.540083 -2.997683 -29.743709
-38.191053 -53.543564 11.822926 -27.520385
-34.630976 -72.467409 -1.717175 -32.129516
-32.293274 -58.784065 -13.133193 -27.323202
-41.349637 -81.952895 6.743557 -37.273624
-47.090840 -90.888783 -1.986889 -42.970565
-50.140042 -97.932373 2.541924 -45.903777
-34.242941 -80.365727 1.279699 -34.784588
-39.681827 -65.735086 3.936648 -31.625074
-37.678154 -83.752079 0.444658 -36.546963
-49.405861 -90.115477 9.169378 -43.468866
-41.031438 -71.951195 3.600089 -33.894790
-38.953240 -64.487424 5.051632 -31.032199
-35.638951 -77.926230 7.427056 -34.069554
-32.747043 -57.915865 10.757270 -27.198873
-40.733504 -54.561713 19.184683 -28.588565
-25.467298 -34.652983 14.849039 -18.036084
-40.918421 -85.173018 -2.392644 -39.053605
-36.079899 -71.942129 -0.861616 -32.406608
-36.032922 -39.560320 17.601361 -22.677973
-35.050719 -53.865934 17.122027 -26.674996
-50.546595 -99.384364 -5.949616 -46.972649
-49.988499 -96.560834 -10.483733 -46.003329
-36.264636 -75.721433 7.855475 -33.785538
-32.683077 -75.363727 -1.109991 -32.414041
-35.802448 -79.712090 0.295691 -34.668339
-44.466283 -82.278102 -1.977927 -38.023315
-47.068066 -103.032416 1.498562 -47.767956
-43.730933 -64.091117 -2.740490 -32.346615
-40.551145 -91.576981 0.894874 -41.204576
-38.991252 -80.247043 9.083599 -35.778882
-44.416226 -87.045042 7.425212 -39.438380
-39.202970 -71.735129 6.423868 -33.281430
-41.661198 -79.445344 7.522793 -36.331962
-33.609554 -56.441125 15.187054 -27.015204
-33.010181 -62.489192 14.174835 -28.649812
-36.762791 -55.406801 -1.968271 -27.650878
-49.424848 -98.678625 1.268675 -44.562442
-50.661515 -98.966625 6.620262 -45.210660
-46.717539 -100.700265 -1.312542 -45.705784
-38.183053 -65.549291 -1.665227 -31.119703
-38.757813 -60.456647 -4.978106 -29.764338
-38.412389 -72.169678 14.941310 -33.344390
-53.679052 -107.470977 -10.699922 -51.564380
-40.696691 -60.401727 -3.725695 -30.329525
-7.453571 5.978040 -3.257098 -0.442659
-52.015645 -104.234275 11.057748 -48.956672
-38.130924 -79.839504 -3.116605 -35.391128
-49.282608 -99.016480 11.920664 -47.054405
-44.987153 -85.347298 5.018254 -39.100335
-49.955505 -90.167969 1.101904 -42.037042
-49.494643 -106.020302 0.664319 -48.701823
-50.880606 -109.844902 0.585965 -51.161093
-41.626198 -86.861314 2.272327 -39.947351
-43.098894 -88.743630 10.246316 -40.165071
-47.916371 -92.155159 4.917672 -42.021459
-49.834285 -107.265228 3.997343 -50.319589
-53.613446 -104.667593 3.651432 -49.057818
-48.278102 -76.780178 15.031793 -37.517484
-44.287328 -76.327835 17.778934 -36.985559
-43.422768 -79.382623 0.768857 -36.841617
-45.523002 -93.897064 6.950679 -42.392350
-45.401137 -99.116984 4.584304 -45.722543
-55.312038 -110.667165 12.156345 -53.558801
-48.508005 -76.443619 5.824374 -37.485487
-54.082124 -88.216712 3.120062 -42.689651
-42.157583 -74.990407 5.229490 -35.144397
-41.674571 -92.970682 3.418551 -42.123867
-43.983415 -79.327955 0.742012 -36.993411
-38.966689 -72.609987 -1.868982 -33.473003
-40.704216 -89.984669 -0.504684 -39.783123
-40.505005 -84.955167 8.215602 -37.700108
-56.137678 -118.377609 4.244681 -56.137678
-46.698374 -101.973634 3.242042 -47.243928
-61.619711 -110.227677 19.306312 -55.704210
-47.266224 -99.439308 4.565650 -45.198415
-46.979517 -93.318135 13.202669 -44.185856
-54.561142 -86.584411 10.437749 -42.343666
-48.659076 -71.761398 8.280742 -36.126142
-45.178536 -93.561297 -0.084706 -42.023594
-45.599898 -83.444379 4.254845 -38.713283
-44.512927 -97.457301 4.750671 -44.238771
-42.240851 -92.995881 5.475968 -41.989207
-42.636158 -95.302639 0.281412 -42.636158
-43.904968 -96.513710 4.456708 -43.904968
-51.099996 -93.425728 1.017775 -43.357717
-53.628725 -114.410112 2.684931 -54.315901
-44.362284 -97.776074 -3.285074 -44.847141
-45.964990 -94.345680 9.700300 -44.184350
-43.033003 -93.431854 6.845925 -42.724556
-57.948599 -107.651584 17.110772 -53.424158
-71.707187 -140.614334 11.732853 -70.569458
-45.228415 -90.802895 -9.950667 -41.261205
-46.791583 -63.568379 -7.464776 -33.107989
-50.893636 -102.160360 12.300970 -48.742581
-50.434748 -108.414976 -4.025948 -50.930020
-166.380925 -257.358610 -20.521440 -136.829072
-176.959289 -283.769719 -38.710558 -156.358575
-172.663847 -314.925063 -23.510804 -170.222832
-152.521397 -271.962267 -28.283650 -147.209275
-150.770717 -248.679493 -0.868490 -129.427489
-157.895598 -264.616996 -20.167540 -140.504844
-142.220527 -204.229534 -25.088650 -109.281914
-154.136500 -172.814973 52.020187 -112.044066
-63.592712 -93.940444 25.429234 -49.945491
-164.880967 -301.002055 -23.012401 -162.169303
14.863665 21.097000 0.548985 14.937883
-306.304565 -295.985280 90.839044 -211.676694
-140.896249 -125.804100 28.721223 -81.640815
-178.818452 -232.329349 -14.981574 -123.698962
-172.249920 -283.435277 36.545559 -155.212902
-169.712728 -196.296591 7.072374 -110.566809
-136.177233 -177.419243 34.197103 -99.996964
-136.703658 -259.036367 -11.040507 -137.360826
-167.810235 -234.685244 20.885939 -124.857379
-167.353485 -198.866597 14.758673 -110.540881
-156.082939 -228.674335 4.376399 -118.231847
-214.172047 -384.157130 30.175825 -211.358949
-155.048871 -267.084455 -2.787653 -139.836849
-171.878640 -293.288097 -36.012889 -160.224656
-157.697195 -218.789472 2.565662 -113.174733
-147.996002 -217.637363 -30.135797 -118.629887
-161.124070 -246.335188 -16.606333 -129.869362
-171.398340 -285.254815 -25.163636 -153.089704
-189.745520 -354.860078 -5.352570 -230.487074
-150.352673 -283.468113 10.451720 -151.407975
-161.104108 -304.367223 -4.272240 -193.329563
-218.062007 -403.838664 10.261668 -222.594710
-167.483147 -309.840600 18.011007 -188.373096
-136.124353 -258.344009 9.977150 -162.792080
-237.266303 -431.830927 23.145719 -237.192560
-244.777535 -448.584675 17.327696 -278.562897
-196.496914 -365.680117 9.899760 -200.400684
-191.433053 -355.392372 -13.219710 -218.630434
-201.530556 -271.108363 2.392957 -144.763922
-196.879512 -367.789087 3.146313 -199.682751
-134.801416 -258.226179 0.173770 -148.820460
-264.336984 -484.522624 14.608913 -301.237832
-158.023903 -246.458154 -12.136389 -130.491927
-204.472068 -380.739587 6.338516 -206.577922
-214.027527 -393.315311 -17.981840 -214.027527
-139.028623 -202.975299 25.618185 -108.637525
-215.447048 -399.551980 9.017469 -215.447048
-218.782284 -363.328571 43.456376 -201.087672
-154.413701 -266.750268 -33.877454 -145.935216
-244.317722 -451.571438 -4.225395 -253.905178
-226.344000 -413.819022 -19.903376 -227.857523
-168.674898 -312.017104 -17.814784 -168.321326
-216.499412 -346.995214 -53.985134 -196.102525
-214.572859 -374.074867 -39.115869 -207.166620
-191.766911 -358.587606 4.477966 -193.831568
-177.083026 -325.412107 20.306349 -176.320818
-191.056515 -348.273099 23.341452 -189.657186
-143.798064 -272.205264 9.460556 -143.798064
-158.374775 -299.038014 -6.570955 -158.374775
-167.438157 -314.297009 9.227487 -168.802703
-152.968233 -290.239538 -0.646861 -154.663597
-165.553173 -282.152730 -5.450861 -149.180732
-169.625008 -305.732311 5.252849 -161.796945
-168.441299 -304.638323 -13.542310 -162.193649
-149.304303 -267.565914 -12.637226 -141.277020
-174.416764 -325.983549 11.150656 -174.416764
-164.626222 -291.921172 10.102813 -162.716693
-175.326935 -324.627193 16.881955 -175.448914
-159.119034 -290.169328 23.133927 -155.680464
-165.366655 -301.126654 23.696041 -162.493007
-158.160653 -285.593683 25.690143 -153.115646
-156.254053 -283.046960 24.940487 -152.883322
-150.407494 -268.614350 24.320625 -143.444213
-143.218826 -272.656869 -4.540494 -143.218826
-153.945809 -261.792083 16.273620 -138.211815
-166.352695 -309.611206 -15.137567 -165.661047
-165.545265 -250.374539 15.351253 -131.890385
-184.528725 -324.138133 -32.792640 -176.235223
-182.922170 -324.495930 -21.118975 -174.042071
-174.783654 -308.184199 30.164258 -166.750351
-167.991126 -297.251399 27.925526 -160.154290
-139.321565 -264.906555 7.696448 -139.321565
-167.701080 -276.518686 24.387023 -148.380121
-172.587553 -301.501494 17.234541 -160.570460
-179.985803 -264.664228 9.541856 -139.054294
-176.508614 -247.757723 -3.809804 -128.999491
-163.362118 -251.209083 27.157808 -135.356000
-154.192666 -259.126665 6.905905 -135.572207
-184.916959 -286.763002 -3.637642 -151.024623
-145.101356 -242.043066 -36.193909 -132.451854
-168.677162 -250.361091 2.592634 -130.405787
-168.694906 -317.112358 -7.391961 -170.292054
-179.425790 -335.523804 -9.358313 -182.199257
-142.988286 -211.903706 -19.115430 -111.398789
-129.203586 -248.227129 -0.212746 -148.360422
-181.409371 -250.514877 -36.269969 -139.236000
-177.439370 -283.231344 -7.606873 -149.260974
-185.077540 -276.516966 34.778532 -151.799736
-246.940204 -367.416249 69.970877 -240.113863
-162.416061 -227.199541 5.355063 -117.506387
-135.032311 -214.254687 39.075808 -120.457199
-170.470259 -319.531059 -9.383352 -171.776830
-151.394217 -254.330246 34.284663 -138.588600
-224.660841 -393.380709 18.562391 -218.030458
-175.312797 -317.407262 25.633654 -172.808111
-165.030532 -309.357147 9.516373 -164.086929
-171.103732 -321.756059 5.805750 -171.567231
-153.163201 -276.771558 25.415177 -149.897702
-152.752579 -276.165887 25.273418 -149.524308
-145.120345 -253.160562 -21.145784 -134.788400
-167.310630 -190.091528 -6.139460 -107.220647
-144.390899 -266.438679 -15.539049 -140.592851
-153.587279 -285.081829 -11.153906 -150.585913
-181.219978 -286.074903 -16.691518 -153.348824
-174.060383 -317.152435 -18.813858 -169.544947
-137.068175 -257.134618 -14.844354 -136.801806
-160.590125 -302.371891 8.328890 -161.834761
-177.864582 -306.768589 11.586690 -191.652422
-164.209539 -308.519191 9.285575 -164.487582
-192.582335 -322.382785 20.805964 -203.272379
-148.766350 -280.423436 4.308137 -150.620695
-170.347987 -294.832828 10.544593 -188.374030
-191.310135 -293.193407 20.578130 -172.568235
-198.864286 -352.257010 11.166293 -194.494878
-198.489945 -349.563670 4.566389 -195.720244
-167.555677 -291.518934 8.935728 -186.544314
-210.764177 -376.208352 16.919143 -207.410208
-126.822150 -234.668446 10.204564 -146.729027
-165.175525 -293.939657 12.267453 -178.913783
-123.784254 -234.570446 6.627397 -139.021874
-182.038395 -318.166066 18.662461 -177.636215
-190.543748 -329.819439 20.512609 -199.966097
-182.302622 -312.525298 15.944903 -198.291012
-156.565942 -209.579285 2.855485 -110.038499
-236.453836 -409.291923 41.525813 -252.408740
-193.433404 -226.029486 19.384134 -126.292036
-153.767481 -172.372899 -0.189648 -97.842114
-180.602060 -247.203652 17.225924 -130.959970
-152.935310 -215.157467 10.228954 -111.984964
-154.620590 -196.831191 -8.656124 -105.435534
-146.474638 -165.775208 -39.505953 -100.050552
-190.635199 -224.183992 -21.686432 -124.782415
-242.439787 -441.246401 22.644647 -259.575679
-151.664921 -127.634777 -21.295893 -83.789909
-138.908050 -262.569150 11.087429 -149.701020
-210.811132 -369.678664 -12.099263 -213.455462
-255.293170 -445.686275 42.546562 -248.780882
-157.372586 -220.536180 5.709339 -113.785054
-156.846245 -218.145618 6.389540 -113.700477
-159.665954 -227.919920 4.398859 -118.267810
-153.585050 -213.777982 -0.165158 -111.471482
-152.935661 -215.681391 19.075191 -113.798896
-164.845005 -223.615558 4.151331 -118.288123
-163.575024 -209.421540 5.326897 -111.898969
-157.659616 -218.496066 8.993478 -113.762310
-155.419425 -223.684601 13.713146 -116.779632
-184.848686 -244.048664 30.561242 -134.136895
-192.544112 -328.626041 -7.747216 -180.108788
-157.601381 -239.435555 24.407514 -128.106796
-157.606434 -268.448251 -6.976202 -149.203232
-160.664229 -260.923251 33.169983 -141.985529
-152.775976 -231.983768 20.310236 -122.872974
-158.815255 -230.276440 20.075435 -122.019052
-160.665105 -279.946002 -33.187578 -153.713730
-139.723194 -233.690115 15.833360 -122.469822
-152.397038 -214.615862 3.192379 -110.246462
-151.336918 -212.911523 8.928564 -110.599357
-148.157381 -222.912950 21.236607 -118.121588
-154.820486 -228.249768 17.986869 -120.254802
-213.102053 -385.295487 21.166842 -211.233288
-110.576403 -213.872381 7.568002 -122.913976
-139.541376 -262.171435 2.172168 -145.891460
-150.727163 -203.361626 4.029927 -106.226637
-80.797260 -161.714290 2.920877 -83.586200
-248.524949 -443.534252 32.530635 -283.218316
-167.184317 -216.275570 -6.229242 -115.037966
-149.334184 -200.606665 1.778452 -104.982255
-161.857678 -295.419648 -2.718787 -179.567889
-125.274766 -239.962829 -0.092701 -140.657680
-208.992909 -381.657124 7.399167 -208.766109
-171.639866 -308.446740 -1.490988 -170.664303
-202.393443 -361.412433 7.355259 -223.014211
-202.598323 -372.099380 -6.688841 -226.792167
-149.960290 -284.726498 3.142917 -172.505643
-166.930112 -310.241594 -7.878926 -171.114691
-150.158677 -274.342387 1.393390 -170.650119
-145.232324 -270.706153 -7.650635 -171.904890
-152.288898 -285.519905 -11.569889 -178.017472
-176.525608 -327.367071 -15.937652 -178.608869
-175.435301 -325.299534 2.562012 -176.327799
-190.955243 -357.081812 -4.929322 -193.005955
-155.444081 -294.706189 0.333339 -157.281949
-216.882751 -379.243512 38.563207 -238.935965
-138.444638 -252.116947 -9.032831 -132.683093
-115.323342 -151.567214 -32.092037 -85.910752
-182.530904 -339.871976 12.595905 -205.144713
-255.808682 -445.890960 43.480555 -249.104127
-178.498610 -334.975643 -5.238862 -180.828807
-149.033832 -283.243734 3.043756 -168.648591
-229.822972 -425.965370 2.199792 -254.906124
-216.072614 -384.914999 -25.998805 -241.338677
-174.731178 -234.143710 -55.302850 -140.000167
-208.958638 -358.505719 -38.734374 -204.610247
-166.205130 -313.423963 4.035418 -176.424581
-168.572581 -223.804592 -54.352667 -134.268197
-201.537941 -351.129346 -14.969627 -214.772692
-145.387299 -266.266339 -16.194010 -146.187871
-164.343404 -216.810520 -52.957747 -130.069289
-185.109492 -232.895339 -59.149930 -143.165152
-185.538517 -306.759421 -35.154744 -167.779140
-165.576185 -234.512942 -45.941885 -134.593017
-150.407956 -282.819950 7.204071 -167.662898
-174.898900 -327.857069 8.359846 -177.669721
-225.617130 -407.893072 -8.344208 -225.895406
-154.985320 -290.765027 -9.622324 -166.305728
-192.644576 -354.072395 5.633085 -195.116067
-156.229874 -292.276319 13.867910 -158.997537
-202.537233 -374.337340 0.728422 -203.450724
-197.828838 -366.213259 -14.465065 -228.030629
-151.453442 -287.502261 -0.410572 -155.475455
-137.926264 -255.932744 -8.502353 -153.174043
-173.202186 -320.277185 17.806874 -196.341629
-202.742562 -369.239243 23.663370 -225.442424
-236.585943 -431.386373 21.929869 -254.120134
-128.415907 -235.132238 21.806330 -147.437141
-162.323701 -299.843584 18.889967 -164.065239
-170.141440 -199.115188 14.334778 -111.023339
-199.938446 -370.142923 14.147808 -201.056268
-183.392076 -198.304641 21.433363 -114.722291
-172.715004 -196.006412 9.084876 -111.110516
-160.642917 -206.994151 6.108951 -110.549638
-170.422911 -213.748295 12.336820 -115.836672
-178.269770 -209.091994 1.453361 -116.208529
-169.737456 -203.028430 6.211111 -112.860667
-203.811250 -370.438213 24.525625 -202.609765
-169.115725 -197.119482 15.668216 -110.099830
-162.420646 -297.486453 21.884743 -178.191629
-200.108571 -355.423994 32.670788 -195.834900
-176.509784 -212.583452 4.271744 -116.727971
-169.800208 -201.512585 15.642837 -111.934064
-168.836473 -204.200315 5.678838 -113.180807
-166.489185 -169.365507 27.752484 -102.333467
-168.142543 -171.198135 26.403441 -102.099800
-128.891698 -237.993300 19.950260 -146.165030
-121.733344 -229.923905 14.376458 -133.263557
-131.209503 -243.017553 16.393045 -127.579761
-210.458298 -359.187095 42.992216 -200.772646
-210.495114 -381.771011 14.718789 -208.129353
-163.840465 -303.530533 17.396983 -175.061065
-174.816646 -208.233267 4.481625 -115.293807
-176.322780 -217.942545 11.460020 -119.144120
-176.940543 -203.674615 29.494222 -116.886766
-159.506830 -214.747309 29.712423 -118.677462
-183.554427 -208.395364 34.053152 -121.539773
-176.138422 -211.611069 4.119890 -116.374188
-181.304324 -212.899766 13.991183 -118.455262
-156.349862 -220.592073 7.309029 -115.298490
-178.696452 -227.842966 18.181829 -123.082237
-135.190102 -247.419798 21.974840 -131.509210
-167.724341 -217.458884 13.321563 -115.974018
-161.551394 -300.465834 13.578321 -159.467774
-149.005232 -246.874472 20.224051 -131.382454
-139.208562 -223.719491 -18.209537 -118.049127
-139.558255 -265.524953 7.031070 -140.828180
-135.329702 -241.135084 4.569689 -125.952482
-173.267620 -265.725348 24.761880 -143.077830
-199.022459 -270.956563 43.025273 -153.605238
-150.992586 -264.913693 13.116413 -139.913230
-163.811025 -273.949765 27.023133 -147.670175
-138.847719 -264.343838 -6.863809 -140.140231
-137.937759 -260.495044 -0.948364 -136.144264
-123.315943 -211.771278 -30.428019 -115.278484
-136.049370 -260.365595 -1.565121 -137.672575
-166.950835 -314.484324 -5.509914 -188.255723
-140.457467 -266.433245 -8.809304 -141.476731
-192.622508 -358.840888 -3.975515 -219.680216
-184.403625 -342.035086 4.054288 -186.456162
-125.538779 -236.559820 -14.708972 -129.565741
-168.099046 -316.957351 -2.713227 -174.124348
-187.779618 -350.994003 -7.223206 -214.900469
-195.728402 -360.619353 -17.874316 -196.080072
-137.942488 -255.647862 -6.870998 -134.075806
-144.180229 -268.331580 11.471048 -141.183306
-149.942642 -254.296185 -8.495985 -132.971573
-128.820297 -244.543104 -11.135901 -128.063041
-132.707104 -248.669658 -10.440930 -130.012088
-148.103780 -182.753350 -21.212466 -100.094301
-152.909530 -278.336990 -19.613126 -147.979024
-131.741724 -244.379141 -5.734003 -127.773043
-125.626111 -222.333977 -26.291917 -118.289303
-129.065387 -247.631335 0.349425 -129.797560
-155.192397 -293.230629 2.736709 -154.637053
-182.407267 -341.390579 -7.566768 -185.720314
-163.329864 -306.781447 9.891501 -164.562669
-105.193194 -199.180334 15.296899 -104.071001
-155.367471 -293.406303 5.820765 -156.459231
-178.326472 -335.132623 -1.498993 -183.543475
-177.660116 -330.715762 13.508365 -178.528799
-115.811765 -221.272181 11.447392 -116.008371
-126.318570 -242.121858 1.855069 -127.014903
-132.558260 -245.994902 -4.199754 -128.629381
-134.713141 -250.092431 -5.715497 -130.914178
-144.033249 -270.399198 -2.567608 -141.872507
-140.701772 -221.414790 -2.372524 -114.978672
-159.099280 -220.702784 0.836367 -114.965912
-147.069736 -248.173218 1.882141 -130.332472
-133.415751 -244.130838 -5.158560 -127.852219
-138.499093 -238.252290 5.502738 -124.294368
-135.975059 -243.390934 8.848252 -127.365143
-128.530458 -243.014687 -2.061718 -126.439827
-136.185745 -247.551403 -1.522383 -129.407581
-168.714367 -218.393122 2.852608 -116.132247
-160.421750 -234.495210 6.254081 -122.741833
-170.532564 -237.861157 13.602157 -125.984320
-166.884150 -226.183121 4.746323 -118.516266
-142.253969 -224.747838 5.407586 -116.910779
-151.793521 -217.891690 -0.786390 -113.076226
-137.903998 -232.321300 -1.370117 -121.150278
-149.081166 -219.572189 1.385908 -113.969314
-157.749257 -224.226561 1.967027 -116.752766
-152.913449 -228.223881 0.078016 -118.882814
-151.038796 -218.333616 -0.299151 -113.349629
-151.814401 -240.734606 1.656303 -125.961862
-127.636076 -216.720156 -13.506865 -113.390244
-143.114562 -242.243144 -3.453544 -127.054245
-135.222581 -243.147334 -4.356873 -127.284839
-144.433911 -214.694409 -3.299861 -111.293757
-142.218158 -225.689554 -10.801378 -118.106165
-146.398469 -232.117278 -4.486426 -121.214613
-133.241120 -224.974883 -7.152850 -117.376149
-146.672397 -211.066770 -2.052131 -109.355258
-147.591330 -220.257882 -4.488904 -114.559929
-135.883886 -213.842582 -8.504537 -111.198954
-140.671470 -187.314547 -4.931899 -98.395805
-142.941043 -200.949005 -3.337381 -104.137150
-140.077426 -206.030308 -7.374848 -106.885200
-136.362829 -180.487835 -3.089786 -95.055199
-131.473842 -175.921538 -11.103139 -92.683860
-127.883138 -167.433519 -3.331828 -88.732266
-109.030222 -111.447505 -37.125609 -72.126295
-142.600408 -233.034672 -29.324921 -125.547978
-110.327480 -195.301071 -25.507616 -104.387352
-121.595377 -218.238486 19.722863 -130.830840
-135.851170 -193.870617 -12.018368 -101.047886
-130.086340 -203.100524 -15.447889 -106.309973
-138.561988 -236.004411 -9.098958 -123.768359
-121.278703 -224.951072 -9.803503 -117.018575
-132.495386 -250.391370 -10.824683 -130.948509
-119.913882 -206.967914 -20.177381 -108.900996
-111.924011 -209.498537 -17.299905 -110.297834
-134.855293 -241.238923 23.401519 -131.643480
-160.256343 -289.631567 21.656304 -157.173452
-150.884461 -280.026600 17.035388 -160.636552
-150.931964 -278.914636 11.448691 -149.671157
-132.298155 -253.147640 -1.465211 -132.845158
-153.293349 -275.274065 12.015963 -148.651859
-165.007436 -295.144683 23.347061 -178.394321
-118.740284 -212.114961 17.924682 -127.826568
-127.844570 -229.102677 21.149251 -123.510611
-139.551490 -243.373203 0.663792 -132.590931
-164.717494 -295.573837 18.312611 -162.192213
-131.291141 -241.566042 2.764958 -131.407691
-118.509248 -213.134207 16.675452 -124.068278
-128.389884 -233.455391 -0.778260 -137.163376
-123.294619 -228.405055 10.226220 -136.810026
-149.857551 -272.393882 -0.982840 -148.031081
-154.903676 -283.934783 7.627966 -154.020992
-178.090170 -318.264543 29.490118 -172.859042
-135.752334 -247.108708 14.963509 -137.133557
-151.536740 -278.744643 9.882578 -151.621344
-128.959529 -229.216048 16.812016 -128.774249
-132.635010 -246.285994 -5.420612 -128.724345
-136.250304 -260.704809 1.819845 -137.867406
-174.045483 -310.365396 24.018332 -170.112491
-122.296298 -210.836528 22.474583 -118.677008
-127.095382 -225.037482 -10.749247 -117.719409
-131.159464 -238.398383 -5.330019 -124.788115
-136.424205 -241.374213 -7.068382 -126.664845
-131.266225 -231.841571 -5.551484 -121.159402
-128.788537 -238.841653 -5.766656 -124.652149
-133.831527 -251.550411 -1.764588 -131.302035
-159.570303 -293.655526 20.337250 -158.403454
-170.535332 -320.878759 -5.310482 -172.338171
-131.215427 -244.755427 17.304666 -130.204005
-169.906254 -308.065980 14.181019 -168.134514
-125.467581 -239.686146 -5.393598 -128.631333
-125.837578 -233.468799 15.406434 -127.011695
-153.761500 -284.797980 -7.367690 -155.666817
-132.438707 -251.585931 -10.342321 -133.144349
-157.534593 -280.089037 -29.244441 -152.706280
-141.427034 -260.404078 -20.543865 -139.641040
-131.882681 -251.597613 -7.354493 -136.631928
-119.957780 -227.164461 2.112058 -117.527374
-124.867156 -232.128484 -6.432531 -134.968234
-141.012714 -266.765199 -10.584526 -141.811840
-138.074917 -263.825202 -3.013386 -139.664161
-159.427591 -285.900447 -17.006591 -178.318785
-141.895077 -263.399914 -8.658551 -143.462611
-116.399050 -218.969727 -0.866310 -130.651274
-120.615574 -221.864032 -12.020586 -131.858571
-156.444948 -291.699803 -0.578410 -159.602368
-119.231099 -222.058311 -11.249381 -133.100664
-111.508481 -210.573157 6.717602 -127.031178
-161.807005 -295.609354 -9.351270 -183.027347
-148.806749 -273.123386 -0.104270 -148.520694
-145.447652 -268.144522 -6.638640 -144.934894
-131.997341 -233.254162 -0.773657 -127.052385
-128.526340 -239.957013 0.610874 -142.089268
-129.514260 -231.289390 -6.105516 -126.354284
-146.995743 -266.684109 -9.002141 -143.973603
-133.728736 -214.191186 8.951365 -110.918789
-112.781536 -207.279127 -15.180215 -112.268955
-170.713684 -301.347281 -26.227408 -182.713038
-138.927084 -242.248405 -24.161869 -148.593240
-147.033485 -269.778084 -10.128032 -166.096473
-200.381452 -333.101100 -39.574738 -214.578686
-126.935770 -232.551877 -10.583621 -133.664483
-125.894893 -215.486707 -23.869163 -131.087876
-108.963948 -212.548786 -0.915721 -110.323290
-166.576719 -298.107147 -24.124466 -162.193161
-186.949750 -314.632398 -36.324421 -176.296739
-138.197085 -240.429666 -27.904415 -130.614627
-136.672523 -261.512443 1.130638 -138.310988
-159.052475 -280.410701 -24.231382 -156.395721
-163.048128 -292.168016 -19.536046 -170.394303
-162.060505 -279.904351 -19.349536 -161.658722
-156.361172 -278.985539 -19.697924 -151.878621
-143.537989 -240.204297 -24.428877 -130.269202
-134.837387 -247.255992 -0.870227 -129.192513
-133.673001 -226.858986 20.397933 -119.475723
-103.308829 -197.132022 13.714250 -102.635992
-130.248841 -246.836437 11.925431 -129.720408
-107.149650 -206.895330 9.461257 -107.599874
-136.101628 -200.460901 10.333313 -103.427916
-120.204692 -206.477785 14.778698 -107.586399
-129.960397 -193.878021 7.798548 -99.821797
-132.003147 -199.140123 3.186125 -102.615847
-133.484973 -200.864603 4.086656 -103.377899
-136.698358 -211.123586 5.660682 -108.974595
-137.040642 -218.566090 6.480735 -113.150485
-124.185850 -237.789561 8.321929 -125.095475
-128.871063 -226.088354 7.889096 -117.494649
-119.499442 -221.234997 6.097528 -114.775163
-137.506415 -236.842355 -4.311202 -124.086787
-142.508646 -222.753016 5.111691 -115.529903
-130.588526 -230.239524 6.276862 -119.915220
-144.942387 -228.571248 -0.145634 -118.842916
-133.886484 -217.392009 4.611360 -112.434977
-139.117343 -227.845170 3.185900 -118.297271
-143.670523 -215.963961 6.824664 -112.100943
-141.854009 -208.741905 9.544047 -108.691112
-141.914657 -214.795216 7.313972 -111.493631
-133.782108 -202.597770 6.528763 -104.627825
-139.265770 -218.870131 10.302260 -113.756588
-139.328927 -211.138671 6.133668 -109.470970
-140.759491 -211.106620 7.399073 -109.469564
-145.321438 -213.595826 6.932846 -111.358048
-153.737596 -223.946849 8.671621 -117.251983
-149.910574 -223.922687 6.784105 -116.590152
-152.351003 -227.270379 5.985116 -118.622347
-136.981874 -217.812001 9.529632 -112.824162
-160.051374 -228.935893 -0.336577 -119.663700
-144.124144 -267.515561 -7.320011 -140.616135
-156.496940 -246.159815 -5.169605 -128.958863
-150.249727 -232.167061 0.973534 -120.755942
-115.986894 -224.945999 0.801362 -117.419878
-136.699872 -254.497305 -17.546885 -135.754003
-137.378472 -227.168122 0.548304 -118.013273
-145.329592 -241.783425 -2.266020 -126.411423
-162.223576 -299.093946 -19.577353 -161.357684
-172.856820 -325.083461 -4.697068 -174.617349
-125.895422 -238.755569 -12.399806 -126.074716
-143.601997 -269.923869 -13.360176 -143.908907
-173.709097 -324.972594 10.525371 -173.657397
-146.686232 -279.218976 1.035043 -171.171305
-146.699378 -278.989937 3.560796 -148.352754
-170.443299 -321.007675 3.478946 -172.353210
-157.199654 -297.822801 -0.373210 -159.055806
-158.993676 -300.547639 4.813024 -160.704056
-148.862891 -282.044808 7.071661 -154.788524
-195.295291 -364.745362 4.983852 -197.389852
-181.611768 -340.659528 -4.168714 -183.683507
-125.939973 -228.586826 -11.389911 -119.651075
-150.712067 -285.005476 -7.730512 -151.740321
-149.934676 -283.530251 -8.361168 -151.190864
-140.799908 -235.534254 -10.160658 -123.597364
-162.225081 -300.835066 -11.148883 -159.415820
-158.823269 -204.160280 -4.793658 -108.895065
-154.636480 -235.139877 2.496330 -122.201847
-169.996039 -220.538753 -9.577615 -117.622903
-116.945628 -213.182448 -22.185089 -113.472126
-189.625277 -354.808697 4.340629 -191.747753
-171.562654 -319.600413 13.598705 -188.596082
-198.847993 -371.062651 -4.273648 -200.921921
-201.852431 -376.449346 -4.258211 -232.328375
-175.541648 -330.225650 -0.543473 -202.333945
-194.892338 -354.515801 8.243726 -194.354655
-140.979868 -269.123070 1.110541 -169.064911
-186.867868 -350.006271 -3.792124 -191.033883
-172.903050 -325.515641 1.667845 -176.206422
-132.640549 -253.205834 7.229532 -141.590367
-142.349530 -266.015870 15.868389 -145.024358
-184.789028 -342.830181 9.217702 -185.480724
-163.752103 -308.228459 -7.802723 -166.581571
-179.750425 -337.507181 -3.045687 -182.812441
-145.513052 -177.823605 -18.062224 -97.244436
-159.441424 -224.953593 3.454780 -117.398686
-151.796158 -225.514126 0.965351 -117.053993
-148.636544 -209.395834 -1.529527 -108.217168
-150.830615 -225.214700 12.228523 -118.184337
-149.490254 -217.004738 8.155608 -112.783828
-145.244132 -222.716105 8.883146 -115.978558
-152.211621 -226.075917 6.219703 -117.855871
-150.516992 -225.720713 12.197928 -118.319803
-149.389111 -221.713087 14.583473 -116.416842
-142.033871 -220.986581 14.021077 -115.471725
-139.974155 -223.137586 16.882786 -116.916792
-152.235297 -226.834697 15.994423 -119.371860
-151.523320 -226.201184 9.507909 -118.149817
-147.021370 -230.217698 21.638539 -122.180404
-100.894924 -163.474266 -30.649266 -89.423524
-150.022874 -236.776086 20.849021 -125.466888
-151.491791 -244.858345 22.412433 -130.378815
-138.032867 -225.531770 13.202586 -117.489293
-142.136576 -243.780801 20.706511 -129.292891
-151.155928 -251.645872 -26.782772 -135.000801
-148.969297 -257.374171 21.030714 -136.628860
-121.567379 -220.476936 -6.988705 -113.859225
-206.872317 -379.961422 -7.942120 -206.586542
-120.557945 -218.598878 -21.051258 -134.593525
-70.031277 -140.133837 -4.932075 -71.503959
-164.572460 -278.999142 -13.974177 -167.000045
-145.090300 -260.481160 -13.195932 -158.415539
-190.746359 -337.113579 -24.194646 -186.003479
-166.089439 -278.912516 -18.534902 -171.039662
-126.520572 -242.336604 -7.002350 -127.574567
-134.665290 -234.885589 -22.060201 -143.455098
-128.663599 -229.892489 -20.569552 -140.947794
-169.590202 -295.242262 -10.141499 -162.065546
-169.193084 -286.864712 -15.791928 -170.907875
-166.598627 -276.803865 -13.089485 -164.850186
-156.778369 -258.855384 -1.963992 -152.155578
-140.579637 -255.517449 19.976981 -135.229631
-179.812050 -295.168032 -5.266472 -172.707645
-123.942987 -227.067417 21.482190 -121.043206
-164.309286 -267.525109 -2.887966 -159.298004
-156.591809 -238.743909 26.191464 -128.558493
-173.951501 -288.890269 -2.592766 -156.546125
-114.875097 -197.924501 27.757596 -105.482939
-152.998969 -164.082226 32.348413 -98.928782
-160.220892 -262.579382 -0.716629 -142.175106
-167.474613 -290.737536 -6.050202 -176.721869
-167.048953 -284.073089 -7.992556 -156.353848
-176.587403 -293.868586 -19.103534 -180.090082
-186.305593 -300.405994 -22.068431 -167.511877
-175.340849 -269.814735 -5.178637 -163.892973
-184.710050 -303.859786 -18.291405 -184.908373
-133.176553 -249.894531 0.518228 -148.924641
-152.115962 -279.010104 -4.644762 -150.192676
-180.651523 -292.573068 -13.561542 -162.075881
-167.964413 -267.065223 -8.369820 -149.260624
-124.817904 -240.519314 -0.571735 -134.063112
-145.512242 -254.254893 -2.646440 -145.463402
-131.731370 -92.827583 9.913748 -67.367686
-157.900696 -259.945039 4.329671 -147.148078
-162.865013 -274.314508 -5.318100 -147.014226
-153.851188 -288.102042 0.746070 -158.088557
-142.021542 -250.964753 -25.299617 -133.859791
-138.091482 -261.016188 -11.511484 -154.243444
-144.149919 -270.609019 -10.509245 -145.545984
-140.815210 -259.762075 -9.658780 -140.202200
-132.965317 -254.696224 -2.587916 -149.850509
-152.145104 -283.550483 -5.712480 -152.938116
-130.956744 -241.778734 -10.863886 -142.799246
-174.940042 -323.159640 4.974409 -174.584283
-161.656749 -286.677870 -16.883769 -172.209397
-138.589539 -258.031307 -13.732710 -138.884498
-168.177692 -284.969197 -15.008067 -175.108783
-151.922761 -282.430392 -6.725646 -151.456461
-170.994413 -280.719137 -14.219185 -167.704603
-165.101587 -277.670357 -15.884862 -154.181866
-160.357273 -223.738038 -14.702040 -117.451304
-131.008319 -197.679696 1.010133 -101.795674
-217.530430 -397.012548 -7.855954 -217.373713
-93.540032 -179.110701 -1.166305 -105.426573
-154.046864 -280.883111 -17.152446 -151.352927
-158.664979 -205.737192 5.794607 -110.053009
-103.629600 -175.216284 27.474306 -93.125211
-157.884541 -270.334531 -32.542812 -148.681763
-193.607260 -351.697322 -0.951819 -191.489881
-130.649832 -243.216058 -1.207926 -141.704195
-135.946226 -207.958880 8.589120 -107.689374
-150.634856 -206.935444 18.538677 -110.101106
-113.837440 -169.901444 30.899564 -92.584920
-133.714896 -205.283471 7.817415 -106.196611
-139.881999 -259.019067 -15.173187 -139.187658
-134.018821 -216.891510 20.273955 -114.094804
-168.022517 -314.059049 -11.941260 -169.485301
-173.218902 -309.941393 -19.110195 -197.218294
-123.626918 -198.365154 8.337839 -102.708177
-139.837522 -259.484295 -5.296922 -159.376021
-121.993552 -224.683818 -16.935618 -130.066783
-162.321009 -292.090178 -17.724378 -158.790352
-160.162539 -279.277683 -29.377535 -152.964101
-132.444878 -198.800579 3.453386 -102.664089
-159.319279 -288.779487 -20.556904 -156.477046
-124.007379 -237.422158 8.325128 -123.666454
-134.249912 -196.018069 3.901792 -100.830169
-130.156453 -206.385177 6.314953 -106.744945
-126.473509 -231.801699 17.912210 -121.540061
-136.711438 -193.615940 -1.973759 -100.426870
-134.329019 -190.692664 3.550480 -98.440784
-133.586062 -199.674192 1.525081 -103.335163
-133.423485 -207.698656 -0.598321 -107.886915
-134.122803 -191.479171 -0.126364 -98.802639
-102.728163 -198.471784 5.945598 -102.281934
-100.686335 -193.884454 11.738240 -100.497097
-142.697440 -267.567023 -8.651879 -146.402915
-141.023355 -267.655197 8.454308 -142.142626
-103.014115 -192.937639 17.485528 -100.997810
-131.291189 -214.443266 5.306078 -111.469588
-168.100347 -306.380574 -18.008722 -189.436959
-103.429391 -201.041696 7.825758 -104.110810
-172.990256 -311.429680 -17.350471 -169.964799
-128.995324 -243.159658 -14.158768 -128.814492
-140.015876 -263.950830 -12.557332 -140.423903
-134.340920 -253.959647 -12.232170 -134.697381
-105.694172 -189.614810 -23.640877 -100.763696
-125.251190 -232.744676 -18.536685 -123.645153
-129.650187 -242.941738 -16.062523 -128.971376
-122.391960 -234.915136 -6.110179 -122.616390
-136.057336 -253.858848 -0.061745 -137.237724
-137.774587 -257.149270 -15.268899 -138.224375
-131.370542 -245.903846 -16.247539 -130.681856
-130.685703 -246.681590 -13.467045 -130.714408
-126.453137 -231.483107 -18.612451 -121.670427
-125.570923 -214.794109 1.934514 -110.642011
-147.880732 -269.022438 -23.647785 -145.144476
-132.754453 -248.317195 -16.260471 -131.970922
-116.840335 -214.637075 -16.200794 -111.715307
-134.678645 -250.448980 -10.932460 -131.136590
-169.267716 -319.049579 -1.900981 -187.911288
-102.304454 -154.201102 -34.010897 -86.602955
-120.752937 -226.391331 -6.043290 -117.215262
-142.635282 -224.415326 6.559471 -116.066267
-141.972305 -258.664857 -23.139690 -139.207652
-138.991657 -263.691521 -9.370000 -139.954871
-140.084685 -257.298257 -15.681180 -135.586268
-116.848858 -210.432454 -23.598848 -112.257380
-162.895280 -302.755399 -11.085615 -178.842553
-131.793794 -249.528620 -9.434744 -145.446326
-165.424319 -311.581135 -6.198081 -179.850587
-134.103574 -251.412498 -15.473860 -135.120752
-134.847617 -255.104986 -11.813979 -148.068941
-160.466374 -303.438087 2.329049 -171.224910
-112.673631 -218.951052 2.041919 -123.217931
-99.108311 -170.560426 -26.707510 -91.406607
-140.557637 -163.772367 -2.568074 -91.299001
-124.771843 -201.006179 -6.838729 -103.053741
-154.357743 -220.694979 -12.331090 -114.828502
-107.540916 -152.636563 36.882695 -87.914726
-137.538914 -207.729605 19.004088 -109.757430
-140.505651 -248.030811 -1.917911 -149.973455
-165.886658 -297.420802 3.421243 -176.016120
-118.437873 -135.349554 40.891966 -84.227576
-118.947876 -214.428034 23.973907 -114.647999
-170.219335 -302.115237 9.398326 -184.622231
-136.757732 -232.554163 27.427444 -125.055985
-138.120801 -241.900801 29.763849 -131.576161
-173.476675 -306.670307 -2.651289 -191.915422
-134.275939 -239.877478 26.388193 -129.459285
-142.385483 -239.965698 -6.719051 -124.942391
-129.234743 -227.598562 25.874571 -121.425083
-126.056133 -204.875585 13.664460 -106.588323
-137.075078 -226.490700 20.922205 -120.366161
-137.597612 -243.190855 -1.236486 -126.759841
-137.012568 -228.659219 11.000627 -119.689603
-125.884364 -233.425511 9.538701 -121.704818
-128.306896 -221.315432 13.672209 -116.135115
-120.325373 -224.353783 5.423115 -116.205634
-117.756588 -214.182458 14.891976 -111.808012
-135.535027 -254.101012 0.365996 -132.660214
-129.012168 -224.521883 21.784226 -119.344669
-112.703236 -215.422824 11.828353 -112.740506
-121.550197 -220.142497 14.827524 -115.123053
-106.883227 -199.564345 15.177401 -103.714364
-129.814466 -232.910493 25.466125 -125.364641
-112.530220 -209.903320 18.017550 -110.663675
-128.555984 -223.074529 21.662824 -118.407266
-106.935600 -199.175280 18.379914 -104.702166
-117.204223 -205.911075 22.788178 -108.840914
-99.426674 -190.354879 13.357465 -98.742655
-114.585772 -204.490303 24.446223 -109.218195
-134.426253 -228.549797 -9.124821 -119.483957
-116.226364 -217.404531 6.164035 -112.277034
-129.194871 -183.308786 1.230207 -94.581319
-113.582790 -192.892607 5.073845 -98.185221
-109.255361 -203.553655 13.860737 -105.182134
-113.665417 -214.068398 12.336083 -110.844368
-118.935867 -209.282073 4.204875 -107.356918
-109.729142 -205.310523 5.128958 -105.260600
-114.127412 -177.532149 6.942853 -89.627378
-128.734221 -202.485372 0.871484 -103.647572
-139.134396 -195.569013 -7.582805 -101.274147
-143.919908 -209.285767 -19.607674 -110.191046
-137.052452 -194.285951 -5.531298 -100.619679
-124.918952 -206.204156 -1.283705 -106.237974
-141.002514 -205.437147 -7.937637 -105.932954
-101.501929 -173.231668 -27.674449 -92.968578
-141.200249 -197.922719 -6.502062 -102.283709
-144.190903 -209.099237 -4.777273 -107.701867
-138.847230 -196.642548 -7.010017 -101.403944
-133.140528 -242.752929 20.819119 -128.225671
-117.858347 -216.666661 -3.316457 -112.063046
-180.887028 -312.521392 19.000134 -200.223998
-134.883088 -253.798803 -14.061681 -133.733471
-136.563903 -203.809473 -7.174849 -106.130610
-107.816260 -203.505372 -15.765982 -106.605596
-113.969743 -202.613053 9.851690 -119.850593
-135.369494 -201.925912 -8.107674 -105.091730
-125.891425 -210.597150 -10.206058 -109.942363
-142.985529 -201.740590 -12.483687 -105.565534
-129.645463 -200.064488 -16.391782 -105.267892
-143.205865 -210.504669 -11.809878 -110.261255
-141.560546 -205.499959 -7.596800 -107.000750
-138.503194 -189.331296 -13.214852 -99.151051
-144.997373 -202.052858 -8.114338 -105.144393
-139.270108 -195.185975 -4.701881 -100.586037
-139.610974 -199.964516 -3.398395 -102.569847
-143.046934 -200.749477 -9.091189 -104.180210
-136.197268 -203.238010 1.464579 -103.852233
-135.991264 -177.749564 -10.384357 -94.122248
-143.069994 -200.315210 -3.561926 -103.283457
-137.476032 -226.327251 8.434340 -117.307189
-139.698032 -210.628794 1.028081 -108.038976
-144.350927 -263.422790 9.451253 -161.352487
-111.929299 -184.807680 -31.786622 -100.345464
-170.464947 -309.043489 7.067364 -180.610153
-182.269850 -338.501490 9.727185 -201.082938
-140.279522 -256.609857 10.909279 -151.438309
-116.899740 -207.608221 -1.415501 -123.081895
-174.992593 -326.212167 3.504383 -174.820214
-158.293607 -224.902408 -34.521353 -124.249078
-123.186951 -206.963850 32.375968 -113.437275
-135.013580 -190.860786 22.767581 -102.604432
-193.401540 -341.695695 10.277713 -188.654168
-152.145692 -279.957848 2.476406 -151.205951
-124.267332 -191.737340 -0.749853 -97.236842
-137.031342 -190.970322 22.548152 -101.821073
-139.309062 -218.657249 40.632825 -123.596152
-117.448785 -154.448885 15.331589 -82.668899
-151.171051 -210.762345 40.352044 -119.522991
-140.818807 -116.771336 37.605611 -85.159899
-137.100802 -243.977854 0.806733 -140.951909
-169.720162 -306.784112 3.659888 -176.308517
-142.722753 -256.279787 0.661615 -140.273663
-145.909969 -264.709541 -7.414966 -159.357855
-161.014625 -285.001283 5.091173 -170.465892
-165.729158 -292.926736 2.472293 -174.466008
-149.545738 -270.508577 -1.842406 -145.567063
-122.379961 -218.961270 4.657376 -129.298938
-137.064772 -248.534119 -11.172513 -143.855210
-182.640209 -320.739178 4.251159 -174.456140
-151.447624 -267.861625 -4.289179 -161.131645
-164.296430 -282.873975 -0.458990 -155.867144
-178.226627 -181.831650 13.242922 -108.131346
-144.176430 -161.545267 27.697483 -94.568221
-193.239098 -330.869933 21.220647 -188.465768
-182.500361 -315.359219 7.021998 -187.445884
-178.239851 -204.687429 4.671888 -114.878184
-169.578953 -306.528928 -0.363789 -171.013508
-163.276482 -216.442078 -15.989194 -114.364886
-150.914237 -260.586877 3.219797 -141.054763
-207.074291 -358.079765 25.988598 -197.121109
-156.892541 -289.362600 19.654239 -169.965539
-154.276399 -267.127396 -3.587386 -146.315772
-166.610075 -285.399395 1.766093 -171.675161
-172.994604 -317.637009 10.666168 -171.605233
-158.999297 -276.291937 -1.761663 -151.631984
-101.761376 -190.456518 17.646452 -119.313368
-132.656111 -138.571058 -17.647698 -81.368151
-171.141688 -199.309000 12.939762 -111.135206
-137.156949 -196.906586 -2.251203 -100.665948
-149.477504 -272.315920 -0.686691 -148.200813
-128.911555 -239.767703 14.214974 -131.154464
-188.784569 -349.126380 16.226405 -189.310283
-153.088502 -186.684583 -6.758527 -101.931926
-144.926273 -203.165961 1.821680 -104.825885
-136.458340 -206.105065 4.067799 -105.522632
-136.089440 -198.979367 3.025054 -101.461820
-136.479299 -211.556111 2.108323 -108.438186
-136.594372 -206.452843 1.448242 -105.540121
-137.179083 -210.718111 3.456431 -108.021745
-138.163841 -217.740371 5.038138 -112.081806
-134.889266 -214.459823 3.733466 -110.145211
-139.843013 -216.528274 5.628206 -111.450978
-137.355523 -212.981078 4.415478 -109.380317
-134.544332 -199.070398 20.357430 -104.680463
-137.042430 -184.745464 4.613152 -96.536368
-137.374313 -220.513898 5.885710 -113.705706
-136.442062 -209.317378 3.686163 -107.242396
-184.445154 -345.241568 -4.647212 -202.628422
-141.761409 -261.329707 10.591393 -140.001303
-124.163886 -169.779352 37.966673 -96.956221
-130.370251 -151.212926 29.389520 -86.071506
-151.646389 -241.901324 22.345787 -128.555482
-141.314023 -214.377359 11.255586 -110.960410
-139.427489 -220.935239 10.616397 -114.479302
-138.867822 -220.564225 10.938828 -114.314122
-146.564570 -229.081679 18.900586 -120.654678
-143.478059 -229.514688 1.677358 -118.581380
-136.691269 -218.005959 3.285511 -112.127314
-141.636522 -227.851606 7.179728 -117.958353
-150.431183 -238.573403 38.475695 -131.869934
-153.523546 -244.194666 16.841378 -128.618769
-141.373550 -226.797707 7.398840 -117.385912
-148.986854 -242.008412 10.012532 -126.234315
-148.135336 -249.604517 16.532707 -131.414777
-147.450165 -245.033162 11.474138 -128.095784
-145.930402 -235.785826 13.224667 -123.189855
-147.589429 -241.150956 10.597924 -125.817252
-139.047278 -259.463345 16.661382 -157.243847
-152.043443 -285.484155 12.444223 -152.672856
-151.563194 -249.264557 16.829049 -131.395013
-123.196866 -181.466465 39.115930 -102.526395
-80.158568 -152.037748 16.162300 -84.023819
-119.818574 -229.070776 10.241360 -125.043875
-149.283049 -241.866597 23.397570 -129.064523
-206.318622 -380.392337 16.403741 -208.773381
-141.176120 -222.364983 20.141762 -117.196799
-166.798599 -270.344455 42.848735 -150.420201
-146.429878 -253.941809 -2.673105 -132.909736
-143.778810 -270.710744 -9.850977 -142.557550
-154.483014 -292.273823 -6.065391 -156.041733
-151.138062 -286.852851 -3.610265 -152.836020
-132.608928 -253.573998 -5.846248 -133.931148
-145.537851 -273.459578 -3.360708 -143.496071
-149.961058 -281.658920 12.707935 -150.516674
-145.428262 -276.193095 -0.451317 -146.365640
-147.757133 -269.937137 2.738131 -141.683721
-143.780727 -269.772190 -1.506067 -141.388208
-135.094733 -255.432713 -10.163952 -134.833414
-154.924408 -266.797087 -6.275514 -140.023815
-157.384661 -261.173327 0.192347 -137.005590
-150.052943 -274.463453 -1.142249 -144.274115
-135.633719 -248.796543 -12.912581 -130.501556
-151.634474 -280.997207 -5.712428 -148.013502
-143.765957 -237.860285 2.953946 -123.343442
-141.829330 -258.452285 16.892153 -136.438502
-137.059476 -234.019535 -25.451143 -124.660980
-120.647547 -115.160299 -21.243660 -70.742354
-133.998692 -256.661784 -2.433215 -152.243947
-148.618004 -282.053360 5.312371 -150.173713
-202.611520 -377.993898 2.288873 -223.545941
-178.359482 -333.262944 10.422076 -192.459450
-163.347270 -277.780854 3.366315 -170.138722
-133.715556 -256.203249 2.042351 -136.284387
-153.960012 -283.851154 16.779096 -169.141226
-153.685408 -286.336207 15.989086 -175.317075
-150.509026 -229.970817 10.684597 -119.830765
-133.479441 -231.414735 24.463137 -123.160560
-125.086589 -152.802611 -36.193501 -89.248472
-204.128422 -377.031121 15.318892 -224.802743
-168.910639 -305.060034 1.550660 -177.433299
-136.416207 -255.303565 -5.674039 -151.137135
-164.896220 -265.873360 -8.290532 -157.335000
-148.286732 -277.187959 14.988803 -148.238712
-143.097155 -267.776883 -7.194346 -140.488145
-128.171500 -238.682742 17.769190 -126.852273
-141.443251 -265.805769 13.468001 -141.108722
-152.201799 -261.127476 1.546829 -136.992289
-136.197659 -228.228714 8.950637 -118.791597
-143.509816 -262.044993 12.627042 -138.114253
-151.946744 -271.136226 -27.799084 -145.597658
-153.829667 -276.119298 -26.955725 -149.696294
-156.160461 -267.626876 -32.818642 -145.225399
-133.295808 -254.271566 0.841282 -132.585461
-171.043558 -310.969470 -23.076007 -166.743165
-143.526353 -270.606995 1.361691 -141.841225
-186.814857 -302.693880 -25.006951 -181.327693
-149.265046 -279.846864 -3.225206 -147.113276
-154.589869 -275.997041 -28.161475 -148.896400
-157.761044 -284.388398 -26.197871 -153.474972
-162.032634 -291.525095 -26.877076 -158.432328
-151.909815 -269.317368 -29.285281 -146.364280
-158.571255 -287.025734 -25.214235 -154.167798
-142.202470 -267.032632 -2.179288 -139.888050
-177.910642 -327.261377 -19.750985 -177.314821
-163.274165 -291.534461 -28.722273 -158.916373
-225.884423 -407.004325 -17.227960 -244.042292
-156.791923 -279.470292 26.724862 -149.977833
-151.720276 -281.239681 18.068584 -149.567792
-150.423352 -279.488770 -8.170672 -165.586160
-201.787041 -357.360998 -26.678203 -197.423134
-151.620050 -271.707204 -27.169429 -147.426704
-120.880623 -218.825818 -21.937236 -119.731720
-160.255962 -288.062241 -26.992920 -156.337412
-229.341986 -413.334984 -21.802495 -232.199598
-170.274835 -299.193866 -32.732651 -163.819580
-93.182843 -173.231432 -10.542333 -91.550379
-125.329537 -227.826993 -21.469654 -124.030188
-157.344764 -268.034413 5.868496 -140.944693
-141.881225 -266.293894 -6.349816 -139.599872
-149.194254 -270.065123 -14.822012 -145.023348
-229.041813 -411.065601 -2.917014 -238.175385
-219.780709 -394.882765 -1.230165 -235.275734
-143.639038 -255.820805 -20.159919 -161.550791
-184.441776 -329.996527 -8.032018 -197.620701
-161.712640 -292.981727 -3.412614 -174.876633
-145.094653 -274.343742 7.088459 -167.239559
-193.778371 -348.833521 1.826500 -190.687069
-219.272950 -404.013359 0.352959 -239.578673
-233.287433 -423.645675 -13.778304 -232.743921
-134.991470 -169.410804 -10.606848 -91.320682
-124.165573 -180.122483 -36.140401 -100.918721
-223.196459 -410.910863 -13.160599 -226.642170
-142.056586 -268.401256 10.555002 -141.143799
-156.384481 -256.166113 10.584177 -134.277292
-140.738187 -260.023996 5.671281 -136.326359
-137.192734 -261.840426 4.603024 -137.648939
-146.897625 -264.769571 6.503710 -139.219345
-145.769530 -273.413386 -5.721338 -143.579992
-141.892531 -267.576435 -1.459035 -140.119240
-140.244839 -263.753622 4.339183 -138.057747
-134.365894 -254.650506 4.758566 -132.910977
-135.922732 -247.436767 16.621852 -130.323151
-142.041494 -262.515330 10.144507 -138.001641
-147.497496 -236.388417 7.632986 -123.544333
-142.436438 -254.537653 9.238817 -133.659799
-141.845257 -265.413043 4.850680 -139.113245
-146.566677 -263.203694 6.284651 -138.246835
-138.513120 -252.362413 12.988572 -132.757150
-142.788305 -261.390470 7.030847 -137.174769
-150.620245 -259.209855 9.191642 -136.487634
-136.821250 -254.376769 7.891017 -133.167890
-145.025368 -260.926648 7.173169 -136.989727
-147.913832 -275.248528 2.031827 -144.550750
-143.715990 -266.660732 3.832382 -139.851130
-151.392934 -282.093224 -1.050139 -148.349524
-152.955684 -286.469325 -0.861028 -150.788128
-145.232500 -272.265661 1.860489 -142.803616
-154.337089 -289.801203 -3.022897 -152.707368
-146.933357 -279.540747 -2.404667 -147.129297
-148.166837 -269.144526 9.514430 -141.760508
-144.694321 -266.290177 7.726810 -139.957091
-145.967954 -271.610072 9.732573 -142.838037
-146.335088 -277.223539 8.093615 -146.335088
-138.053892 -258.262274 7.709542 -135.231344
-136.840053 -254.735425 3.332656 -133.112088
-140.232047 -258.783523 8.428784 -135.889939
-143.573684 -262.904599 5.829849 -138.095876
-158.868751 -290.715379 -20.421840 -177.348541
-133.980385 -247.628886 -3.163709 -128.872317
-164.304576 -296.405913 21.392844 -158.321523
-147.487870 -265.520279 13.691128 -140.207032
-222.583228 -400.744389 -24.040661 -219.814836
-202.291909 -364.287081 -14.340775 -199.106970
-145.620532 -277.305103 1.266611 -149.790691
-172.877817 -320.241278 -13.842580 -192.980418
-150.717384 -286.342158 0.221035 -158.398226
-230.775835 -426.923388 6.042505 -233.007042
-178.794272 -334.863990 -7.953614 -180.461182
-169.464619 -300.258069 27.672086 -161.783488
-180.778217 -339.466506 -1.099302 -182.865847
-190.276738 -352.645786 -10.109971 -193.911909
-171.381188 -321.789465 7.692685 -172.500800
-139.192510 -251.247983 24.996650 -135.489198
-148.046095 -268.495096 10.608344 -141.366615
-148.449882 -269.673987 16.691105 -142.776705
-173.567506 -326.708314 1.342565 -175.522714
-163.006527 -307.458229 5.669964 -164.691500
-153.246345 -278.381832 15.538547 -147.585208
-157.708744 -285.335091 19.404084 -151.961066
-158.097631 -294.036557 -16.345994 -158.005548
-179.214339 -336.558547 3.049467 -181.228478
-162.071697 -305.939441 -5.013216 -163.801213
-188.335932 -352.817747 1.286150 -188.335932
-188.593718 -350.930956 11.819939 -188.593718
-168.864713 -307.417791 23.806472 -166.814205
-151.513622 -278.098334 21.307018 -149.785923
-154.468185 -279.829690 20.455592 -148.974336
-150.849263 -277.598085 16.075251 -146.909444
-160.592812 -293.940050 17.785113 -156.331795
-151.935988 -280.361350 7.806517 -147.730838
-151.793531 -282.518618 3.355336 -148.647414
-145.679202 -268.006325 10.233939 -141.070802
-147.350548 -271.657977 12.441572 -143.197938
-158.587233 -293.594456 12.064314 -155.421285
-147.436514 -280.282309 3.593893 -147.436514
-156.710734 -293.568834 0.959545 -154.805132
-153.258808 -290.809612 -1.314574 -153.258808
-149.994018 -285.009315 -1.793072 -150.571570
-148.754118 -280.591795 -0.256588 -147.459514
-145.840828 -272.775805 6.098228 -143.227457
-156.941358 -292.942459 5.960198 -154.594649
-150.165206 -285.374745 0.181785 -150.165206
-154.389151 -292.823211 -0.988406 -154.389151
-146.561439 -279.016148 -0.024942 -148.310011
-138.717467 -263.562527 7.670265 -139.705851
-149.923285 -284.254344 4.667287 -150.967750
-141.447373 -269.890317 1.720418 -143.110184
-146.590756 -276.114429 11.311320 -146.590756
-137.217484 -260.391704 8.988527 -137.995143
-139.789979 -262.440313 8.504974 -137.783665
-143.764750 -270.099253 13.525693 -144.038539
-149.053777 -283.385628 1.282984 -150.815283
-150.182885 -285.112052 3.782060 -150.182885
-149.429558 -284.071484 0.328706 -151.203049
-145.544410 -276.910903 3.730554 -147.171090
-151.080331 -283.041493 -4.641495 -148.937928
-142.254203 -271.280856 -2.361947 -143.915394
-150.515189 -283.696094 -8.473343 -151.037317
-147.926928 -281.106042 -3.935862 -149.572421
-154.332108 -273.287376 -3.806898 -143.792828
-144.534937 -263.290597 -0.059257 -137.917499
-137.382926 -262.382745 -4.420995 -138.880912
-144.934176 -275.507502 -3.768867 -146.141784
-140.274326 -267.630762 -3.475443 -141.863412
-143.352057 -264.478052 17.215787 -139.700816
-143.039039 -269.063711 13.089672 -143.392935
-131.784866 -251.762610 7.045734 -132.967146
-147.451122 -275.354836 9.137544 -145.233556
-139.964001 -267.276694 1.366871 -141.609901
-133.723764 -254.565499 8.168869 -134.673627
-148.627367 -277.237981 15.973643 -146.715602
-149.126111 -279.224546 14.038981 -149.266468
-143.127995 -270.370242 10.961966 -143.895247
-143.115512 -255.817306 21.689872 -136.071274
-145.839632 -275.052517 11.225592 -146.602994
-148.030874 -262.951822 24.295863 -140.398937
-145.295023 -268.585962 19.318775 -143.399305
-144.157147 -266.635414 19.180737 -142.180927
-143.490177 -265.646826 18.722482 -142.201122
-158.822778 -277.476772 28.382074 -149.573902
-151.279573 -274.014964 22.009426 -145.930137
-161.661745 -262.630171 23.318044 -140.255480
-154.784284 -257.295638 6.859526 -134.538395
-150.285937 -240.914595 11.232568 -125.788686
-154.567520 -260.462348 13.091900 -136.973813
-146.865398 -266.193888 20.742498 -141.302526
-150.768278 -272.815272 21.396628 -145.121164
-156.980141 -267.661091 19.650422 -142.059710
-147.201941 -273.610637 17.435064 -146.029856
-145.003876 -256.147457 14.130233 -134.631061
-152.099917 -279.016141 19.261904 -148.185086
-147.645561 -275.521020 15.914540 -145.937229
-154.120652 -275.314860 15.879512 -145.631854
-148.298476 -276.708810 15.901697 -148.105100
-154.696136 -269.635413 8.616189 -141.624396
-141.110993 -264.829473 14.349183 -141.145312
-141.854015 -266.022355 14.557204 -141.850044
-142.670950 -265.801138 16.941484 -141.537604
-147.152113 -276.431166 13.061897 -147.443291
-139.905796 -264.186226 11.233825 -140.293329
-147.442231 -276.108271 14.265371 -145.857971
-144.003556 -269.009226 15.855075 -143.726513
-145.531585 -271.841348 15.739734 -145.318309
-152.683493 -283.919970 16.870488 -150.754277
-138.333235 -263.380575 6.997237 -138.333235
-154.184606 -288.425814 4.154099 -151.964071
-137.683648 -263.309836 -0.387695 -137.683648
-143.317243 -271.988209 -7.737539 -143.317243
-154.854029 -287.118582 12.961444 -151.863182
-139.931083 -258.084920 4.262637 -134.813231
-140.836682 -259.071782 -3.440365 -135.341094
-156.500136 -292.379237 -6.835991 -154.322004
-148.713999 -279.169119 -12.164777 -147.403621
-158.634264 -299.033032 7.306661 -159.112206
-148.135007 -281.777330 -0.922058 -149.892981
-141.947537 -267.566482 -12.281359 -142.447842
-151.028200 -284.270802 -9.710946 -150.110377
-152.403327 -286.992108 -10.661595 -152.403327
-145.827106 -275.628481 -9.907633 -146.808999
-158.048296 -299.310161 -0.463827 -159.911847
-158.658321 -299.911034 -4.959936 -160.354037
-166.785367 -314.123880 5.666679 -166.785367
-156.900769 -297.207067 -1.243352 -158.178439
-153.642205 -283.280823 19.837110 -152.057365
-149.752411 -264.390864 27.472647 -141.861042
-136.898669 -261.427914 -4.503059 -138.367616
-165.755674 -311.424962 -4.394752 -165.080040
-154.733138 -279.298179 11.284679 -147.361829
-155.466764 -262.641152 -11.613492 -138.403446
-154.246039 -289.846335 6.070606 -152.948907
-154.890297 -291.549798 9.236080 -154.015453
-163.737712 -305.419321 1.051771 -161.513838
-154.696183 -292.665885 -6.001154 -156.263968
-149.813911 -284.605433 1.016466 -151.372576
-168.563260 -317.570225 0.377512 -169.837298
-154.879055 -292.231263 8.154849 -155.704182
-152.589035 -289.189971 3.097615 -153.981566
-172.960375 -325.486363 -2.372550 -174.904368
-138.743577 -263.507997 -8.594058 -139.795791
-125.673600 -186.522639 39.101376 -105.136985
-223.755969 -402.757804 -22.400561 -256.466816
-181.980945 -278.115916 12.359297 -147.778595
-162.211754 -248.450018 -7.231394 -129.615548
-186.784902 -342.296880 6.454895 -189.142880
-203.639470 -377.909650 -10.334807 -232.349863
-165.994032 -261.162134 1.303603 -136.572545
-177.996984 -244.862964 13.707531 -128.883058
-155.646648 -290.263730 5.592474 -169.562152
-152.982381 -261.117093 -9.269932 -137.241174
-184.735031 -315.431691 30.356772 -176.706281
-156.563174 -295.125786 8.744835 -156.872574
-149.796155 -250.830888 -5.929410 -130.878078
-157.449835 -298.114748 2.732363 -159.255627
-160.602834 -291.301829 0.088238 -172.077740
-117.664641 -202.788229 -29.266405 -109.936792
-154.534503 -292.336157 -6.217264 -156.081463
-160.263759 -293.253530 -22.205067 -158.505299
-155.352826 -293.772172 4.949087 -156.118986
-132.958871 -251.122275 -12.918346 -133.160780
-157.322973 -270.132924 0.250879 -141.542637
-144.897027 -271.468275 -8.621888 -142.627977
-140.164398 -246.522987 -22.588847 -131.248982
-161.566352 -278.230272 -11.325797 -146.759127
-152.669156 -248.915915 10.149719 -130.138308
-146.051260 -251.200840 8.905418 -131.255559
-151.392975 -245.618406 4.047247 -127.771767
-147.530157 -248.713344 2.634082 -129.463133
-138.703707 -234.104749 -13.425465 -122.207724
-155.806284 -258.908791 -1.311725 -135.201798
-146.231625 -236.679661 6.522517 -122.881294
-142.866071 -231.414161 6.313234 -119.891123
-137.796904 -215.126981 -9.337139 -111.051911
-153.460084 -247.698717 -6.793649 -129.125968
-134.894668 -248.804470 13.439021 -145.404302
-111.117145 -182.443935 -32.011235 -100.122953
-183.851921 -330.250585 -2.052177 -192.661614
-209.943599 -376.298508 21.496718 -206.953090
-197.538505 -365.849923 -14.134025 -201.023653
-206.843723 -368.845810 26.852772 -217.806123
-109.720829 -149.608906 38.236479 -87.581415
-168.054202 -300.396299 16.603536 -162.902989
-160.718462 -223.884689 -8.258423 -115.976291
-140.071249 -225.443607 4.830010 -116.413922
-149.113381 -200.972997 3.058197 -105.160437
-108.719440 -155.115963 -37.153960 -88.908712
-136.189087 -212.524944 -4.534687 -109.102330
-136.076159 -218.994277 3.809658 -112.709968
-133.066242 -206.149768 10.957861 -106.253996
-144.549119 -224.930634 3.240910 -116.043117
-142.809389 -221.033823 4.887991 -113.936992
-135.346356 -215.124077 5.308974 -110.621031
-119.600681 -231.239421 2.099280 -132.218784
-189.579137 -354.747389 -4.192351 -191.656166
-163.709814 -295.598189 19.054642 -173.097837
-159.678043 -297.401635 15.527347 -166.341285
-158.217430 -288.891085 14.728373 -169.378277
-140.638575 -268.432472 2.152414 -155.426857
-186.366967 -334.612808 28.610252 -183.693989
-160.060532 -279.465424 26.270374 -161.539522
-172.124756 -296.648542 18.305707 -161.196052
-179.346913 -324.133113 -4.108601 -172.299647
-169.904340 -301.634890 12.550064 -174.221508
-143.401019 -268.737445 8.895481 -142.359627
-197.595652 -347.588048 22.706655 -207.582642
-176.593274 -310.118287 19.250138 -184.809332
-175.729540 -315.901698 11.835923 -170.820510
-165.948343 -302.074015 23.596432 -163.851970
-146.933156 -275.781724 13.511438 -147.509068
-151.549960 -278.295269 11.468280 -163.763202
-122.755752 -231.680188 0.385639 -138.059784
-164.671436 -303.287345 19.870033 -180.840583
-152.726453 -266.689577 27.932214 -162.162181
-135.175693 -258.389895 4.115989 -138.781176
-176.688588 -330.311513 9.350173 -178.162295
-123.198722 -204.460917 -7.141959 -104.741136
-170.722534 -314.251723 9.510628 -169.404717
-222.310494 -404.895249 11.464164 -221.892293
-128.474699 -246.524809 -2.458379 -146.768208
-123.622715 -222.766814 -24.382991 -119.409354
-134.926389 -249.221711 11.268149 -153.705068
-117.641671 -222.078072 -0.264948 -134.471975
-187.810332 -350.829439 -7.698944 -189.831645
-141.109920 -157.937007 16.026200 -89.714078
-146.302172 -243.161447 18.439634 -146.560754
-146.404896 -256.422201 10.030683 -140.423359
-189.517150 -318.865567 26.806501 -176.482374
-167.136030 -296.792547 22.101461 -179.205333
-158.046701 -282.727235 14.914986 -161.586793
-169.744947 -305.234545 12.736099 -164.527191
-161.146335 -289.308006 16.475054 -156.730108
-173.099886 -304.811607 18.358300 -176.087441
-166.752976 -302.007116 19.676960 -177.520198
-174.627751 -315.702124 21.405941 -171.975493
-186.542318 -335.882942 20.055229 -183.851747
-178.238636 -324.631841 11.962842 -176.942627
-149.317696 -221.210670 1.175466 -113.929418
-143.813823 -205.592771 -7.521212 -105.538556
-141.275982 -142.451842 1.246797 -85.118347
-172.228132 -219.484319 -3.985193 -117.513735
-136.188371 -243.510580 -22.342257 -129.134382
-136.503282 -249.475318 -22.140302 -132.412954
-168.706125 -307.230407 12.449184 -176.189420
-154.206352 -286.462913 -17.169240 -152.433266
-157.242421 -297.884718 0.143538 -159.069459
-181.746664 -323.292243 9.931394 -200.324550
-165.385390 -307.172397 4.266093 -171.457086
-152.979929 -274.441453 -24.787444 -146.728944
-173.470878 -310.860487 5.515153 -185.427131
-171.014412 -305.906944 8.177512 -167.191864
-118.192098 -196.062386 -32.610838 -107.213991
-151.339751 -239.098190 -12.780179 -125.013320
-164.493179 -283.024993 -0.855306 -152.206115
-212.406884 -390.084626 -15.702745 -230.382541
-154.277865 -205.180426 -27.180759 -112.041445
-171.148088 -210.967080 -18.609900 -115.757184
-165.699512 -252.050795 -24.708885 -135.027832
-160.726267 -282.274262 -9.202937 -165.065060
-138.452629 -175.324499 -21.805664 -96.101473
-121.314597 -160.533094 -31.334803 -89.344858
-163.657721 -183.610152 0.457797 -104.180362
-119.962777 -215.531569 -6.824658 -110.959270
-160.783533 -273.208194 7.101265 -170.469955
-211.972740 -388.838828 15.619250 -211.730995
-141.886706 -238.966537 2.393544 -135.893734
-153.651544 -256.131824 1.456230 -158.097327
-151.805442 -249.048398 6.639257 -144.610201
-172.192503 -308.925797 1.548122 -184.084215
-157.553579 -293.154730 3.300483 -180.229470
-145.098461 -259.402311 5.322383 -164.728780
-161.821425 -274.219124 12.266159 -154.549136
-161.484692 -287.752367 7.109805 -158.333686
-147.244367 -267.728410 2.856265 -145.638655
-140.757452 -247.826333 14.915166 -158.941190
-156.720146 -263.527730 36.901845 -144.318474
-214.911710 -381.298215 -16.692576 -235.088646
-210.107187 -371.347861 -14.023127 -203.185824
-190.477438 -324.470322 12.692604 -180.241589
-162.682928 -210.889808 35.457704 -118.925448
-147.525453 -162.085819 47.637673 -103.568157
-139.592026 -187.804771 46.743910 -111.166920
-145.886067 -241.635199 27.700325 -130.146557
-181.379688 -236.385926 38.749146 -133.968775
-162.230071 -235.663013 30.181049 -128.455168
-130.519018 -200.224862 40.017351 -113.697520
-165.001478 -241.616444 23.958247 -129.757655
-170.974792 -215.942629 11.897114 -116.075227
-164.518912 -284.470802 34.559774 -154.903444
-159.038178 -240.101713 41.791476 -134.568391
-156.388510 -256.510141 21.853436 -136.806052
-165.062847 -220.645141 29.711114 -121.516584
-154.561134 -218.753217 29.326145 -119.373326
-189.403707 -350.899002 6.653802 -212.773494
-190.566270 -331.164807 -30.011461 -210.453828
-225.643277 -405.884973 6.844876 -225.276135
-126.701985 -231.404066 5.756554 -142.459994
-177.027186 -316.264921 -12.983852 -180.658416
-156.228506 -294.557444 -8.790621 -157.513160
-137.362708 -245.646616 -9.326820 -134.661787
-97.426453 -180.142463 6.649685 -113.928172
-156.203559 -271.699360 33.068158 -149.159346
-215.874509 -395.032144 11.815785 -255.170363
-140.345380 -237.749126 34.426796 -130.980862
-127.376585 -206.828708 35.912266 -114.964086
-154.012523 -254.478854 22.494797 -135.543631
-153.008900 -227.147438 18.395865 -119.834161
-159.805530 -285.773012 28.108925 -155.129267
-161.860565 -275.664867 29.833855 -149.443529
-144.938649 -238.798553 15.683713 -125.372519
-152.553489 -241.780713 17.753162 -127.438200
-145.016598 -263.976079 23.283718 -140.760733
-160.836072 -285.357135 26.959014 -153.316979
-148.311141 -257.522159 21.054160 -136.631245
-151.151240 -241.048696 17.746455 -127.016665
-127.319100 -242.860446 9.500913 -128.089274
-151.707264 -282.774833 12.981925 -149.682170
-143.512607 -244.462884 34.273699 -134.587249
-137.886754 -263.457147 3.140529 -139.468264
-143.463009 -273.253714 -3.611617 -145.078772
-153.606787 -291.236136 -3.378318 -155.343404
-176.145285 -329.973400 8.644961 -177.704794
-160.786759 -280.456514 33.138721 -154.028656
-155.066975 -282.602407 -16.126595 -149.888177
-157.808831 -285.265675 -14.897199 -151.577830
-160.758531 -295.385649 -15.611479 -156.892479
-142.055439 -270.061375 -5.825196 -143.306208
-163.507823 -247.554351 5.460978 -129.585180
-159.433134 -261.448180 -12.975594 -137.670231
-147.454239 -261.326084 -18.906929 -138.716726
-154.588397 -264.644379 -18.040226 -140.105720
-174.047741 -302.974470 19.408300 -161.867615
-160.670522 -258.290559 -0.175666 -135.355769
-157.207575 -246.684398 -7.145779 -128.862940
-178.916942 -290.576025 9.111841 -153.813337
-147.976514 -276.090088 -13.478084 -145.716785
-145.370347 -271.944604 -6.132618 -142.792619
-141.563819 -266.301611 -12.842495 -141.544486
-144.603094 -262.276272 -18.224867 -138.944427
-157.096694 -295.077635 -10.838946 -157.857656
-158.579863 -300.171488 2.048244 -160.420273
-150.799274 -267.968346 -13.073090 -141.708853
-160.611451 -273.717213 -11.965878 -144.689301
-160.006847 -288.783362 -12.440915 -152.974995
-145.016331 -276.246367 0.998135 -145.016331
-170.076390 -309.486832 19.667900 -165.368667
-167.554056 -284.974106 -3.075053 -150.209068
-155.941058 -262.428475 -7.458639 -137.833726
-169.371709 -271.478088 -4.642742 -142.798592
-148.565818 -279.993369 11.007558 -148.565818
-149.760641 -270.646117 2.216530 -141.974048
-168.220560 -307.767186 8.167071 -163.119702
-161.553896 -301.511766 -4.478650 -159.380683
-149.490422 -282.897568 -7.885435 -149.490422
-148.082043 -280.906012 -6.151020 -148.082043
-152.772885 -288.242905 -9.271738 -153.905109
-153.444104 -287.690517 -7.256446 -151.696461
-131.660735 -250.468379 9.468142 -132.447716
-153.988862 -281.323580 22.634739 -151.864053
-149.269516 -279.422001 14.051857 -149.269516
-148.355853 -280.570027 -8.790258 -149.534939
-140.751319 -264.859150 -12.234850 -140.723122
-157.420335 -296.719651 8.680943 -158.734897
-140.509929 -267.952512 -4.080141 -142.065645
-135.796990 -257.040482 11.333617 -136.362461
-148.531502 -273.231310 20.689946 -146.459498
-160.866029 -273.350923 15.356241 -144.528265
-148.148926 -281.593278 -3.240515 -148.148926
-155.657909 -286.007896 20.923515 -153.146564
-141.185060 -260.382298 17.071810 -137.382399
-155.772874 -287.784695 14.746868 -152.449431
-139.129863 -257.720224 9.280557 -134.928715
-137.410694 -262.826109 0.427390 -137.410694
-182.800769 -338.942387 15.313366 -182.800769
-188.427942 -319.928028 30.220448 -183.169338
-191.934878 -332.748620 31.498105 -188.287106
-154.669749 -264.781137 32.980910 -143.778403
-155.741806 -295.232390 0.439461 -156.994893
-185.227716 -346.718804 6.076416 -185.227716
-168.150587 -315.539837 9.323559 -169.524481
-174.635907 -324.594207 14.852922 -175.196563
-138.028376 -262.604107 7.714893 -138.028376
-152.116528 -283.531048 -5.493779 -149.326221
-152.995425 -286.314652 5.750315 -150.837308
-159.511796 -284.041788 -6.101614 -149.579646
-143.801136 -247.599895 2.843539 -128.838916
-127.337452 -244.686371 -3.805066 -128.766682
-138.415803 -259.645872 -3.312680 -135.745322
-190.857317 -324.278927 39.860487 -204.501980
-200.639967 -367.352719 20.580569 -199.706139
-210.429245 -356.338633 40.737091 -202.408348
-152.863707 -259.275136 33.436950 -160.566710
-177.937662 -303.291546 30.346481 -194.167320
-206.362766 -349.710470 39.590172 -197.571996
-188.174724 -322.022465 28.458436 -201.102546
-174.143300 -301.167282 18.030069 -167.256162
-179.619395 -336.216263 8.333666 -181.256241
-176.705076 -325.072920 19.833496 -176.125729
-178.628938 -327.715530 20.920322 -177.791832
-158.469983 -286.008407 23.739348 -153.045355
-177.963739 -312.881977 28.271053 -177.594807
-181.413247 -334.981565 17.783545 -181.460988
-181.425351 -334.573265 18.427825 -180.360565
-170.678141 -280.429512 11.775905 -180.987789
-189.618957 -300.903869 22.632264 -175.112258
-199.888928 -341.401610 23.984624 -219.557303
-115.621226 -200.600798 21.348346 -124.777147
-198.067606 -322.154064 30.885640 -185.622904
-160.988172 -252.712018 -0.254378 -165.872033
-204.157081 -329.519594 -4.086157 -187.186423
-194.334846 -208.542209 33.577334 -124.373509
-134.916173 -189.582399 42.496333 -109.443332
-144.358748 -158.117694 -13.236234 -91.169225
-145.745902 -215.867658 24.640750 -116.484542
-150.100075 -241.267493 37.491065 -133.260389
-212.775557 -342.542962 -26.698107 -210.503398
-151.717175 -203.726470 26.696603 -111.727435
-170.232439 -230.287927 41.918189 -131.991727
-153.557119 -267.333886 29.488053 -144.208547
-204.106214 -326.026720 -16.499755 -205.810243
-156.474449 -221.360878 23.246231 -119.522457
-163.207430 -253.830562 32.589375 -138.955872
-164.214689 -289.804735 31.276530 -158.686655
-212.055711 -347.725469 -5.268209 -200.640871
-161.521137 -286.763357 28.525497 -154.519165
-145.413237 -258.191145 25.888455 -138.087719
-172.488210 -290.001814 40.407026 -161.766103
-187.617855 -341.148203 24.264610 -185.965576
-173.978859 -302.242224 35.374113 -166.801166
-151.118396 -262.669375 32.544778 -144.014482
-132.056754 -237.873536 24.924360 -127.999905
-167.211174 -275.158287 25.633657 -147.720354
-178.819288 -289.212903 0.331533 -152.379098
-146.112723 -227.533482 22.713890 -121.118622
-131.694233 -252.724529 0.040577 -131.694233
-184.329438 -330.958679 -17.448269 -182.712824
-182.911693 -342.790958 5.032622 -182.911693
-163.595296 -239.981362 18.582653 -127.271775
-130.312098 -244.717074 -15.096923 -128.492178
-213.871812 -385.402846 27.994136 -211.086392
-213.871812 -385.402846 27.994136 -211.086392
-131.142853 -249.273858 -7.636481 -149.461196
-156.035365 -283.575725 18.973461 -150.770350
-224.938163 -412.005896 -5.882735 -227.025866
-168.861691 -289.513659 36.856919 -160.180878
-158.441957 -282.813239 28.244827 -153.061620
-154.537999 -270.235061 16.719438 -143.368599
-159.619102 -278.534983 31.760302 -150.829942
-169.743975 -299.054521 31.938721 -164.055021
-161.346234 -301.727312 12.487661 -161.810997
-146.394857 -216.217638 38.976492 -121.144860
-164.395318 -301.504235 21.227141 -162.669237
-162.217177 -268.931337 39.945836 -150.588179
-128.127915 -225.210029 28.118694 -122.001677
-141.837439 -223.015792 41.161258 -126.144724
-162.130434 -288.575188 16.705663 -153.459049
-137.859745 -217.546389 39.226187 -120.930588
-162.579590 -298.337758 16.262726 -158.604003
-159.413606 -294.349673 18.740000 -157.272567
-149.249994 -278.288096 16.090204 -147.643824
-144.071644 -266.937877 18.467794 -142.852824
-158.534867 -294.374138 16.582529 -156.388740
-172.655714 -273.740335 3.448033 -144.202899
-158.790562 -297.390218 7.564743 -158.349427
-155.575845 -286.099936 11.056620 -151.393755
-142.640717 -267.582665 9.490482 -142.075509
-139.570684 -263.424176 12.010635 -140.030626
-182.533443 -306.360718 42.422333 -171.377225
-140.295822 -258.897484 19.872048 -138.694522
-165.849276 -308.499372 15.613585 -166.088045
-136.772862 -237.013084 31.213444 -129.407135
-145.569967 -229.098198 41.957560 -129.697880
-148.278793 -233.906161 42.137338 -132.500024
-140.455743 -258.695259 -5.433878 -135.926311
-149.382177 -273.395438 12.143876 -144.647256
-165.902205 -307.742098 16.887385 -165.843909
-141.494640 -266.553339 12.632585 -141.915880
-136.696841 -257.149954 14.033684 -136.715107
-164.406933 -252.203192 47.957338 -145.007924
-135.181617 -247.557461 14.380403 -147.596822
-152.907983 -247.439152 37.983452 -136.274133
-183.820865 -287.060460 21.979075 -154.027581
-164.830921 -298.050210 4.816135 -158.303779
-225.757161 -377.361920 46.957383 -238.918577
-225.477461 -392.494944 39.921559 -251.454875
-232.936907 -429.384329 0.767148 -240.545003
-174.956418 -297.564409 36.244192 -162.776615
-187.361007 -217.527382 8.631330 -121.466517
-146.588841 -199.953892 12.204371 -104.046424
-169.455612 -276.662461 37.281126 -172.487148
-170.378338 -253.356609 -12.596507 -133.482641
-163.204104 -293.031984 25.202275 -162.448765
-181.770615 -325.205300 28.554110 -192.426067
-200.384159 -360.435831 24.176188 -201.160407
-201.090324 -372.630956 4.062566 -203.709317
-210.771481 -370.195137 32.289198 -229.531121
-215.370014 -364.326320 42.009190 -206.510198
-175.961503 -295.636423 39.190213 -165.120109
-136.476893 -260.481962 -5.423937 -137.871468
-177.298065 -329.476474 11.953667 -182.758054
-153.985696 -281.969061 19.029388 -175.943092
-212.824607 -362.130224 44.000497 -203.165242
-187.008673 -343.387991 15.275419 -208.281078
-138.779334 -261.959073 9.577332 -161.811992
-129.088152 -246.433010 -8.507393 -130.039696
-154.093638 -282.731918 20.091663 -157.742213
-189.982584 -353.457239 4.568759 -193.971009
-138.775793 -256.700465 -19.160900 -137.264555
-172.688911 -282.444902 -20.075192 -151.245708
-154.931948 -286.649842 2.376160 -176.568427
-222.767143 -408.265863 7.928615 -225.385964
-179.165739 -312.900817 -30.230132 -169.602060
-110.167684 -181.509643 -29.069631 -97.559291
-137.131532 -262.138505 3.190772 -138.702465
-187.429723 -333.231732 23.145642 -203.648005
-133.993160 -254.705322 9.652408 -134.839919
-142.034829 -244.816933 24.482731 -140.109345
-253.421937 -435.344751 36.027774 -282.656116
-219.745797 -367.264572 37.909825 -250.519369
-100.449521 -173.024218 16.964553 -108.977583
-205.919364 -351.154734 21.279499 -243.853447
-117.724844 -209.802823 17.288785 -133.795273
-217.238580 -387.085390 22.092781 -214.407458
-188.873089 -341.694750 17.328887 -186.901330
-194.604717 -337.067183 28.651588 -191.337232
-166.336309 -306.711378 19.325911 -180.032893
-196.762569 -352.879765 26.527760 -195.514534
-134.284896 -257.331127 0.305233 -135.907516
-145.096023 -276.388618 1.630499 -146.809675
-113.389567 -197.630182 17.830796 -127.404593
-125.981843 -218.647497 18.532316 -126.014454
-176.357937 -328.970035 12.231236 -199.039311
-207.533325 -360.630265 29.508374 -201.341843
-161.205202 -294.137056 20.055402 -161.554372
-182.976302 -324.514553 26.661155 -198.728156
-171.080310 -306.284030 15.157187 -190.121993
-128.081119 -228.877179 15.868597 -143.056723
-208.802037 -367.157788 27.115013 -203.871902
-145.425269 -228.096883 42.141877 -129.289779
-110.457952 -200.876229 16.713111 -125.448571
-180.422886 -319.546836 25.113802 -203.529101
-145.177762 -271.786590 13.390689 -154.493358
-123.133611 -232.472212 14.235802 -124.972202
-145.337570 -263.456288 11.920075 -146.308065
-177.076340 -310.033744 20.271348 -171.960354
-176.531514 -313.241906 20.653450 -195.274531
-130.952533 -238.183216 10.681831 -143.456275
-179.613144 -328.858270 18.512104 -194.446311
-174.925534 -310.457985 30.866631 -198.739570
-157.788408 -285.012503 15.690493 -157.775365
-162.494267 -302.130516 12.032007 -190.723235
-127.346067 -241.007855 -11.991920 -127.156030
-139.734565 -263.381662 -12.720363 -140.106519
-126.532454 -243.543963 1.536027 -143.475200
-142.124291 -269.505969 -8.805373 -143.215386
-137.265285 -232.860214 33.623483 -126.486818
-171.079833 -310.849625 22.265562 -170.727397
-162.634450 -301.615844 -17.232564 -162.419581
-152.194210 -283.038064 -16.912425 -151.826636
-113.524108 -208.315172 -21.021718 -110.440103
-128.863896 -247.013500 -5.585139 -129.685070
-118.117906 -228.533926 2.499017 -119.482310
-119.943624 -231.851104 -0.862062 -121.378390
-124.131985 -236.132511 -11.516465 -124.469702
-154.991057 -280.712267 24.878436 -162.237858
-136.820931 -225.194565 21.674208 -118.969216
-103.508081 -199.697601 5.474944 -101.878076
-139.673184 -256.048880 19.059842 -135.301203
-147.695803 -236.653242 26.425388 -126.709752
-107.433802 -209.845401 0.874724 -108.778120
-137.553840 -262.135985 -6.547151 -138.735397
-152.173601 -278.717135 12.263700 -153.515643
-168.478023 -304.979534 25.483336 -181.731895
-194.568489 -337.132877 18.486566 -187.395954
-149.665145 -271.383705 24.470832 -149.155010
-141.573322 -162.117402 46.030479 -101.747940
-175.437067 -230.185046 -0.544840 -122.418459
-140.126251 -218.500868 32.688410 -119.262885
-135.051327 -224.148088 32.128676 -121.405298
-153.780114 -259.134665 37.140769 -143.682668
-161.989234 -232.619309 30.311376 -126.699128
-133.408566 -115.510002 -14.778690 -74.675570
-155.625051 -272.167763 2.648717 -162.075311
-199.678961 -209.959627 25.622992 -123.752494
-174.358649 -276.323961 47.506684 -156.856346
-148.246327 -193.317700 20.894481 -105.064578
-158.491934 -197.016607 24.899383 -108.772210
-131.924228 -182.734481 44.017506 -107.820854
-180.153340 -202.585415 34.638129 -118.169804
-185.124060 -303.019584 1.627962 -172.056005
-151.948708 -261.072989 17.199852 -159.190025
-193.623435 -334.589843 -9.694894 -181.001731
-177.041301 -298.801605 14.197670 -188.263298
-164.593119 -278.762189 10.027736 -177.058055
-157.788429 -298.494547 4.072017 -162.741724
-163.872303 -259.868547 -19.376560 -161.820533
-138.154249 -252.214891 17.971031 -138.838812
-230.206221 -388.363797 47.652039 -230.814924
-127.413085 -244.344484 4.777708 -133.104020
-209.347054 -347.277423 33.162163 -195.446913
-148.562215 -272.140958 6.107329 -146.886857
-135.867758 -232.497186 25.506857 -144.887690
-152.699032 -274.753631 9.096616 -163.812768
-149.521325 -250.736906 15.648994 -158.892816
-156.747814 -280.599161 11.427272 -154.987667
-186.329962 -297.853576 10.394072 -189.235008
-172.900482 -297.930489 18.641980 -165.132390
-199.447143 -352.529916 33.231602 -194.379259
-160.835736 -168.520821 5.916375 -98.806967
-197.257450 -286.111016 58.752810 -169.789803
-221.835345 -381.744490 42.959493 -238.380705
-155.611311 -265.063690 35.532131 -163.032071
-203.022667 -323.442095 52.586755 -187.344916
-201.370122 -328.333168 49.204146 -186.153817
-161.207622 -296.380398 19.021309 -175.485335
-220.237937 -364.939899 34.863336 -227.747898
-210.374768 -348.871641 44.872492 -213.715252
-139.578926 -251.660855 25.186566 -135.651789
-162.578733 -298.702948 7.899985 -161.304094
-148.993322 -277.775331 13.214033 -165.854604
-181.337992 -320.316462 24.784237 -176.607280
-152.133638 -269.992068 11.542080 -149.825376
-161.817986 -289.523276 12.804976 -160.096931
-197.227066 -342.489874 28.366111 -190.691852
-147.553154 -272.218020 8.740987 -148.447830
-150.943534 -279.521282 17.115638 -152.885488
-141.550924 -266.566813 11.895662 -141.598833
-147.409516 -274.784168 8.735761 -164.049766
-112.511322 -214.559436 12.622701 -134.331519
-165.819773 -259.097933 35.471577 -142.192823
-135.405202 -217.421702 38.303965 -121.635160
-139.134617 -257.611958 19.013296 -137.591012
-149.773480 -281.120567 13.065310 -149.117473
-149.014180 -275.672304 6.001770 -148.400697
-149.413828 -274.238515 10.524304 -162.925611
-141.563742 -136.514646 36.385861 -88.016358
-147.672057 -202.206540 30.239291 -111.074245
-146.869089 -233.959099 21.169113 -124.514595
-133.382924 -228.698543 27.035563 -122.529149
-147.112027 -258.633617 24.459979 -138.294299
-129.107783 -231.999818 23.632285 -123.336279
-149.060353 -275.623821 18.749080 -147.662718
-140.885134 -264.438427 13.823115 -140.821850
-130.760074 -229.692192 14.864667 -120.837291
-129.374195 -237.156926 18.642094 -124.889973
-140.984079 -263.979400 14.244538 -140.383926
-139.618519 -258.909694 18.155913 -138.234643
-142.645647 -209.282838 -5.797043 -108.267351
-152.021917 -239.501333 19.992597 -127.680967
-169.406705 -228.328873 3.333994 -120.288351
-141.896864 -216.550769 23.186937 -115.859987
-142.175818 -254.254999 19.455106 -134.581648
-138.197928 -249.618438 23.946263 -133.400457
-127.001799 -235.880402 18.319242 -125.335870
-122.225811 -227.383898 16.286852 -118.801670
-134.400789 -240.630750 17.496666 -128.959255
-118.791530 -224.798064 14.082220 -118.379607
-115.734881 -220.476377 10.587203 -125.708819
-123.600845 -228.647171 19.564886 -121.542836
-126.223899 -233.560711 19.490569 -124.296888
-139.654346 -259.320385 16.075063 -140.364982
-132.052144 -243.535161 20.198994 -130.059737
-120.238918 -227.637336 12.916020 -132.258376
-132.171608 -241.396494 22.313468 -129.291576
-127.260100 -235.806118 19.041488 -125.449565
-135.124149 -251.636255 17.544456 -134.144504
-138.547495 -256.736493 18.723838 -137.205656
-117.609938 -225.075797 10.418543 -118.054696
-124.495653 -239.982188 1.559642 -126.000600
-126.558479 -241.379236 4.803942 -126.564081
-145.766290 -275.902375 9.166659 -146.860817
-140.055836 -266.009346 -0.073031 -139.902880
-183.728192 -336.174638 -12.335107 -214.143875
-137.777933 -260.173705 11.785617 -138.069985
-137.623263 -261.249226 7.295000 -138.145896
-123.379668 -237.111716 5.745551 -124.554804
-122.095364 -228.061789 10.351832 -132.971305
-106.269838 -183.010265 27.754366 -98.536360
-157.371234 -297.382849 -3.114177 -159.159873
-89.851333 -171.402609 -14.979939 -88.333946
-115.222282 -142.061377 -10.631767 -77.185098
-135.520947 -257.941308 1.071582 -135.821366
-142.439421 -254.495454 27.184120 -137.838372
-149.928100 -263.234037 30.896811 -143.752874
-145.185491 -256.524332 28.023387 -137.627829
-121.911367 -212.649117 26.992289 -113.260244
-137.683130 -235.478114 22.690216 -124.790258
-145.222643 -203.806932 3.728434 -106.251408
-134.764827 -240.591405 15.471699 -126.143027
-130.057982 -247.694265 9.617574 -130.849811
-141.182169 -265.386259 12.452420 -141.058108
-134.638775 -257.512491 3.314618 -134.974210
-138.416729 -264.599022 1.670842 -140.061639
-141.788545 -270.565723 -1.713261 -143.467397
-144.887067 -274.200035 9.382744 -145.935155
-147.343010 -277.702283 11.287756 -148.119478
-161.417809 -301.223676 14.359518 -166.062211
-137.176815 -261.146934 -1.495777 -137.893896
-144.320792 -272.881052 5.089048 -144.489821
-138.267646 -222.661492 19.782276 -117.203662
-147.831237 -243.119166 27.587228 -130.480530
-131.634790 -229.558754 18.636400 -120.579736
-125.641293 -221.131604 26.658561 -117.758175
-140.656004 -212.752484 -1.070795 -110.350577
-115.719299 -204.965467 3.673380 -104.769301
-174.435297 -308.733699 30.001696 -192.698569
-152.091480 -249.307773 26.739974 -141.760078
-130.395764 -232.697009 -3.536044 -120.432145
-110.851818 -186.671007 29.983881 -118.041666
-122.421348 -215.886646 25.841995 -123.189511
-114.637262 -194.412055 26.603516 -129.465822
-197.879852 -331.654224 41.412696 -188.067408
-156.518359 -275.488745 20.663514 -151.857187
-147.602900 -266.647554 12.873078 -162.154805
-128.988666 -233.118487 19.124939 -129.275881
-156.864688 -285.670440 16.216091 -157.037620
-179.302291 -309.005745 34.349964 -172.402191
-161.577939 -293.883117 12.462839 -182.453042
-159.242259 -286.859412 18.058740 -158.603032
-146.577097 -261.016429 15.245578 -155.139938
-174.581452 -307.786251 17.712838 -190.448019
-151.220152 -271.382890 13.261443 -149.802022
-192.389328 -340.392632 17.944443 -187.505507
-175.417429 -316.703873 10.279278 -190.857430
-134.374208 -240.987391 10.687108 -147.038141
-131.249769 -245.315988 13.840894 -145.886132
-155.398722 -280.163650 8.919211 -152.309171
-164.173065 -296.999301 7.310489 -161.322440
-138.625929 -141.875051 28.924730 -84.453070
-177.485547 -324.528429 15.388027 -193.749823
-142.242712 -263.425303 -4.109813 -140.698416
-164.685441 -292.990872 17.840692 -161.291565
-148.150529 -261.877307 16.643458 -155.690966
-173.751820 -311.344435 11.747693 -169.647950
-139.910747 -252.760936 8.404499 -145.947106
-130.342679 -238.064592 7.630834 -128.794033
-135.506546 -248.970655 6.102494 -146.394191
-149.278715 -270.550723 14.546010 -165.065220
-151.759115 -275.387204 17.457970 -149.862557
-139.474424 -253.801756 5.809335 -138.188117
-131.812857 -240.141707 5.623021 -139.102922
-148.455272 -268.756979 9.665855 -162.269508
-132.863837 -240.944832 12.663251 -130.651140
-151.906697 -275.495932 6.368695 -165.304529
-132.243969 -239.681690 9.829807 -141.026826
-146.165754 -262.393829 8.349268 -153.216923
-152.431572 -273.647752 7.205634 -161.981264
-137.346533 -245.574891 9.917720 -145.786215
-130.716141 -239.865592 12.908995 -128.522756
-138.124663 -255.458785 6.731562 -154.606627
-142.458537 -260.356397 7.288237 -155.604113
-138.462222 -254.102425 6.459194 -152.057889
-137.203878 -249.721775 5.488424 -149.750297
-135.814603 -220.382323 24.689239 -124.651459
-194.078782 -307.617667 42.796571 -177.032910
-125.696845 -222.625541 17.652076 -123.920669
-162.690840 -249.625290 32.390720 -144.516573
-137.619046 -220.273623 30.269485 -142.547312
-186.265322 -307.048643 38.654285 -172.747301
-171.816367 -303.365543 26.913488 -166.723442
-135.616781 -236.304058 21.504463 -132.158831
-217.290114 -329.103264 56.166869 -192.517520
-113.883167 -167.823411 -14.639629 -86.474031
-189.288693 -283.697807 47.355794 -184.903001
-105.820897 -175.586485 25.185173 -109.655774
-153.425533 -239.676728 31.931904 -150.346579
-123.981515 -171.105713 41.988935 -100.666530
-119.813794 -182.853392 28.115778 -115.220437
-122.945413 -186.565210 29.866501 -118.283652
-143.093823 -227.361532 26.581033 -130.748541
-166.451825 -258.262952 40.043654 -162.925675
-128.014113 -182.414325 42.283180 -106.264671
-135.872935 -221.713271 29.093090 -126.827385
-146.778448 -243.603339 27.054333 -138.443365
-124.021108 -201.339635 27.488433 -125.801162
-147.126770 -242.277056 33.124229 -138.506953
-120.567713 -202.544459 19.889804 -123.015007
-122.441055 -211.563974 15.434539 -118.297824
-148.897065 -254.215685 23.062360 -158.170678
-148.348352 -257.872590 19.192879 -161.055433
-116.873343 -188.566381 23.314606 -106.472732
-146.796222 -265.858449 13.504517 -143.978500
-113.848003 -195.555462 19.968844 -115.391518
-118.736182 -213.389513 14.529826 -117.433776
-147.133501 -253.686086 17.246303 -140.969593
-112.944366 -204.752949 13.435377 -123.663674
-150.843250 -264.282381 17.981494 -145.370609
-133.441301 -246.371469 8.657270 -142.730035
-134.918008 -247.952660 8.436157 -135.293125
-137.167371 -245.011316 10.922316 -140.704952
-137.965037 -249.789688 10.017182 -134.993869
-137.194733 -245.062906 10.201248 -142.615259
-154.766742 -284.744199 1.797067 -164.224255
-131.792700 -233.754923 11.742339 -135.853314
-134.642839 -245.254278 10.763206 -141.187752
-128.024118 -235.280212 11.910812 -138.240567
-122.105658 -225.508467 12.025121 -130.116587
-134.306542 -238.066529 13.757086 -139.444840
-133.606428 -241.520759 15.386226 -140.390231
-118.220733 -220.087824 9.897140 -130.609966
-130.650785 -242.256264 8.398910 -145.886276
-132.777138 -243.818232 11.202166 -131.747901
-129.698533 -240.674790 9.289188 -138.269642
-131.700460 -241.838505 13.605947 -130.479924
-138.425670 -250.995823 9.094669 -144.180667
-141.854822 -249.113411 16.259730 -135.243762
-127.403247 -227.975384 14.029588 -131.942398
-142.588722 -260.076041 11.492102 -139.682763
-134.091212 -249.935774 7.426644 -143.578192
-114.038062 -211.837189 11.018373 -123.410235
-147.555210 -274.201403 3.588670 -146.957540
-121.361256 -225.176473 11.559097 -129.716989
-131.120458 -244.364926 9.679316 -141.374616
-127.966873 -236.234827 16.059464 -137.680581
-144.308084 -268.694077 5.093030 -151.494314
-128.704940 -234.596657 14.800121 -136.302183
-108.933437 -209.730800 9.125111 -109.955496
-128.384182 -225.049322 14.338391 -129.949696
-124.234372 -222.947004 11.762278 -129.033723
-137.100849 -257.311095 10.540350 -146.163079
-125.797193 -221.245346 16.551424 -126.038373
-137.536468 -223.683860 27.248007 -124.285355
-109.767237 -189.636834 16.172286 -114.143455
-104.424970 -180.366389 16.656328 -105.843624
-145.826785 -239.116688 28.575886 -148.087692
-108.665915 -179.916245 21.205966 -107.577679
-120.961319 -188.502034 37.068083 -105.912849
-115.639770 -204.293784 13.292428 -111.720384
-113.394560 -201.089839 13.245289 -118.811796
-107.008763 -189.481312 17.668985 -102.888229
-119.539211 -199.368822 29.315895 -121.921573
-108.470324 -185.917949 17.839427 -112.414005
-135.931737 -226.160735 26.686189 -142.099154
-117.432127 -214.800123 13.995142 -117.459985
-116.839427 -179.952878 36.680853 -101.288294
-134.720572 -222.459981 24.293883 -139.549730
-115.180134 -178.753610 35.953465 -100.243718
-149.536756 -248.351263 26.800792 -138.500422
-145.740180 -232.259931 28.437274 -133.291624
-128.569693 -235.207205 20.404319 -128.101229
-121.475355 -215.497201 19.610422 -118.775762
-114.902564 -208.702459 18.541819 -126.277091
-129.074673 -236.872621 19.640524 -139.698070
-129.720834 -236.628463 20.698671 -128.616944
-122.530596 -215.532818 24.658998 -119.041521
-122.655577 -225.123098 19.390652 -133.370840
-131.752845 -236.698959 21.730773 -127.938747
-124.560111 -224.252058 23.453016 -123.427894
-124.588265 -230.541148 16.138069 -136.940158
-121.375196 -227.477418 15.633629 -133.981620
-125.832283 -230.536975 20.344163 -136.218004
-129.594332 -238.784603 18.658781 -128.798745
-131.712279 -245.684829 14.934453 -131.086608
-123.400989 -228.618258 16.467745 -123.408038
-120.813819 -181.604586 38.645484 -103.340544
-150.387365 -274.591011 17.959199 -149.202016
-131.863965 -247.523506 9.822013 -144.296102
-145.583491 -242.709805 36.775609 -135.281653
-116.884308 -194.589133 32.030245 -116.956602
-102.733919 -194.716882 -10.156559 -113.079546
-140.126540 -200.789928 45.288406 -117.390266
-184.303382 -342.439507 -6.170600 -185.039546
-134.912264 -193.750624 43.852383 -112.917552
-111.591589 -210.785645 13.172672 -125.878976
-107.252666 -205.700300 8.653087 -123.944643
-110.613035 -210.287277 12.316999 -124.943576
-146.931064 -274.773940 12.188418 -148.073491
-122.174340 -215.490348 16.342126 -119.110568
-131.627999 -236.057274 10.839763 -127.651401
-130.142522 -240.799023 18.724938 -128.430478
-126.704552 -231.018258 17.418895 -135.928330
-140.431104 -263.303580 14.768977 -142.205875
-131.118466 -244.818969 15.109674 -143.504868
-127.197683 -221.742176 11.570471 -130.246782
-130.096773 -243.838167 15.175468 -147.086114
-124.378989 -217.631779 13.840465 -119.560833
-124.583786 -232.105018 17.210657 -125.112864
-122.128432 -221.275916 14.006874 -134.682974
-129.228941 -236.996709 13.627959 -127.639889
-130.498130 -238.485584 16.199455 -129.170867
-106.962638 -207.587630 6.661305 -123.509920
-162.041668 -256.600158 -14.863267 -143.999382
-139.463545 -253.348000 -7.718930 -135.744721
-137.835388 -239.241808 11.044925 -139.751273
-128.886670 -233.920296 20.590449 -132.621736
-152.309887 -236.891640 9.230610 -127.800980
-138.402419 -228.734942 5.777025 -127.547412
-145.588747 -246.592258 13.628355 -142.674122
-142.316647 -243.643338 3.729810 -132.198203
-150.922747 -250.194984 7.312119 -142.904909
-137.997546 -236.601202 18.492126 -128.061304
-141.425230 -261.299754 -10.008142 -154.381604
-111.356390 -174.388549 34.708320 -96.629974
-103.178087 -193.210553 -2.807225 -102.149042
-178.871088 -266.192803 -14.827140 -158.279869
-121.882390 -214.845054 2.575275 -128.305699
-126.116765 -218.165784 0.549265 -127.379277
-128.758082 -232.244022 13.133196 -124.983764
-137.462657 -242.026250 8.557607 -144.030076
-133.413088 -239.851057 8.457003 -143.237661
-120.044337 -215.660085 -7.809506 -123.436374
-120.839332 -213.797055 13.572444 -116.187715
-131.894580 -243.294985 5.631484 -143.262960
-147.573020 -263.880938 -7.531617 -142.184094
-141.459378 -262.803562 -8.732067 -159.492778
-121.375282 -224.896640 -3.861664 -127.529009
-142.549517 -269.900436 -7.851794 -144.029292
-116.600637 -210.810806 5.606195 -126.614395
-147.803369 -269.603787 -15.729167 -146.612904
-164.381296 -309.311022 -7.838148 -183.695354
-151.076214 -286.245344 -5.945593 -168.895614
-121.403861 -227.400761 -0.471891 -121.099629
-86.132893 -171.293210 5.131950 -90.412293
-191.594111 -335.881858 -27.565416 -200.824154
-147.276054 -270.988931 -9.496318 -163.166223
-146.287716 -251.263746 -9.244741 -149.547711
-168.660307 -316.739774 0.683201 -192.277664
-127.507162 -154.410020 10.660182 -84.575155
-121.173048 -187.062357 10.704313 -95.506004
-119.540389 -182.302545 7.214813 -92.618867
-167.335821 -314.206450 -7.979716 -186.981824
-145.491346 -247.432834 32.127856 -134.043480
-124.868811 -178.194307 15.013938 -91.757438
-127.766724 -177.468872 7.958736 -91.570679
-119.840738 -139.186540 12.931656 -77.708183
-103.619417 -199.704048 10.723754 -107.311836
-115.083622 -201.647574 19.105862 -105.543397
-149.100248 -241.649950 40.422073 -135.552127
-125.816064 -195.396277 21.574057 -102.934438
-129.762286 -240.914939 18.623697 -128.272584
-123.544036 -227.759799 20.313618 -132.969005
-124.905426 -228.008828 22.249347 -134.982346
-130.032113 -233.136636 25.624995 -125.533570
-132.020189 -242.490273 21.152307 -129.670444
-147.617271 -248.275139 36.411918 -137.467317
-133.216732 -234.343783 28.777377 -130.343839
-143.163170 -255.670155 27.272995 -138.550844
-139.298824 -244.911826 29.496937 -133.211854
-123.292740 -232.958629 14.072274 -123.009433
-151.672706 -250.870496 38.891633 -139.902436
-129.944201 -231.935212 26.317860 -125.051605
-102.292779 -190.622700 18.463630 -99.853446
-123.699219 -206.106265 33.236249 -113.346881
-122.208701 -213.368145 28.472758 -115.460799
-139.083932 -224.455428 10.979160 -116.486544
-132.222499 -232.329991 28.907861 -126.003272
-91.763424 -182.134544 0.286103 -92.951250
-130.227809 -236.367253 23.515150 -126.783667
-137.828819 -244.275412 28.122496 -132.444917
-146.267814 -256.575626 30.596383 -140.014275
-144.819273 -249.468835 20.440655 -132.031652
-131.186699 -216.767817 35.279179 -119.977654
-139.920964 -150.433097 16.925757 -87.106218
-131.911221 -230.521670 29.526210 -127.490203
-133.083101 -193.124068 43.005417 -121.128167
-127.080863 -207.504429 35.483829 -115.082131
-100.792872 -195.046191 10.258957 -100.958794
-200.152872 -317.557488 50.884223 -183.440965
-221.083209 -341.186496 58.584942 -203.084184
-197.636157 -331.845912 29.407446 -180.733062
-157.839113 -241.493209 -20.005510 -127.936964
-151.133815 -279.377648 -18.807272 -148.736531
-79.546356 -157.726189 1.408232 -88.199413
-129.304766 -248.480069 0.213249 -130.865098
-130.654914 -212.537529 11.946283 -109.952688
-96.218690 -185.064251 -12.726227 -95.646111
-114.734410 -145.237981 -5.844913 -77.991717
-141.625887 -192.469593 4.524000 -100.387040
-150.890027 -242.909313 2.803731 -141.995777
-185.616866 -336.371708 -20.731187 -207.888184
-180.199822 -318.110455 -20.139889 -189.064158
-105.910320 -202.529224 4.604601 -115.945530
-112.690826 -188.288571 -27.515161 -103.432545
-105.666508 -188.388790 -4.924326 -103.958148
-122.918778 -227.601281 -19.072356 -120.550350
-142.383947 -248.895212 -7.702762 -145.274329
-164.503071 -275.277423 -7.967619 -163.942313
-103.907329 -177.456340 -27.893621 -95.618204
-115.876676 -209.516764 -4.691036 -108.028531
-154.069081 -267.560233 -25.903769 -150.277149
-137.367702 -245.821567 -26.158641 -132.692274
-150.014034 -243.078560 -9.919867 -140.916561
-187.309346 -310.267104 0.799231 -190.672089
-152.811385 -282.280648 -15.046900 -165.981544
-149.926238 -281.642779 -12.540669 -149.401984
-168.158290 -271.755277 19.471327 -150.075110
-161.432151 -246.619583 14.289457 -149.039976
-167.699300 -278.735421 21.785245 -169.702723
-115.729553 -191.610085 -16.028046 -118.739709
-107.562318 -205.595043 -11.839155 -105.853454
-191.432842 -330.452342 -7.025091 -182.996219
-107.134534 -161.524044 -34.862876 -89.794744
-126.792781 -226.834317 -0.191847 -117.231715
-181.477879 -317.350199 19.656009 -181.177531
-144.485854 -249.007706 -29.487845 -134.177076
-193.202335 -334.548694 -16.092913 -192.562200
-161.679601 -213.461208 14.338081 -113.110740
-166.853968 -290.982879 -0.446480 -159.154033
-190.059406 -330.464552 17.089388 -193.409166
-203.759884 -356.603747 -16.032917 -194.335514
-176.052916 -217.280946 35.505276 -123.236306
-166.224494 -281.079537 16.196192 -169.555214
-187.144195 -312.644751 15.303237 -193.566669
-173.544854 -285.249540 -0.572808 -160.778461
-123.531858 -212.204666 22.426361 -115.082232
-197.030578 -333.708724 11.518108 -198.733421
-191.170708 -302.927648 22.689938 -185.431202
-183.936671 -288.726278 11.453312 -182.465767
-184.202407 -296.598372 7.209113 -167.643633
-149.046198 -224.410724 -2.383710 -138.277425
-181.367821 -295.969152 33.185876 -183.165455
-147.989822 -253.076396 6.070551 -143.467283
-148.978341 -254.840188 6.034187 -144.053902
-179.970251 -300.720259 10.890120 -170.170850
-199.073382 -335.899361 10.493849 -206.706781
-173.119227 -301.912009 -0.595231 -166.705838
-143.535091 -181.711839 14.442148 -97.574079
-179.868934 -311.903862 -1.052061 -172.941821
-162.812919 -275.924074 6.273844 -169.749803
-144.488137 -219.861670 -23.299592 -116.833573
-129.544353 -169.419536 -0.490130 -89.875028
-133.319499 -205.332655 -11.544740 -105.906071
-133.497080 -177.181991 7.181379 -93.203721
-141.665541 -204.395150 11.370910 -105.481752
-128.108483 -197.780896 0.489086 -100.612216
-208.957330 -363.816422 22.384587 -222.154969
-118.861860 -188.362857 35.214950 -109.320423
-88.464730 -156.402879 15.315080 -87.561505
-115.603020 -193.329512 22.007757 -124.133061
-136.011273 -190.552343 12.903864 -98.160217
-129.675435 -225.733411 -3.526897 -116.555711
-142.126664 -209.869568 42.065147 -118.838497
-130.350236 -213.516915 15.574943 -111.107813
-196.755550 -345.841125 30.467313 -191.562947
-203.776054 -367.952780 27.245921 -201.656997
-146.774730 -256.800182 31.059448 -147.084329
-90.831468 -165.896532 20.587052 -93.476348
-150.331263 -260.587180 20.566743 -162.015559
-208.970254 -351.198630 46.326685 -208.759687
-187.111505 -322.517806 27.304219 -191.829641
-168.394394 -286.059413 -7.190026 -169.385046
-130.690937 -227.417099 29.911664 -123.468275
-147.426893 -238.006063 14.704334 -124.693443
-119.567679 -193.954223 34.451959 -107.400927
-134.651621 -140.369520 33.377984 -85.463202
-146.026357 -254.135946 28.774921 -158.221605
-137.556651 -220.782628 38.809270 -140.554987
-129.197079 -248.181737 1.855879 -130.682138
-131.455494 -252.190654 0.325746 -132.963627
-130.754940 -227.880641 1.381584 -117.669306
-117.004650 -220.950318 -15.243961 -116.243817
-137.913973 -261.722505 9.499580 -138.842166
-122.458620 -227.162049 0.458724 -117.823747
-125.165442 -240.978580 2.851561 -126.615725
-121.338572 -233.551051 -5.626283 -122.442246
-148.411497 -277.827076 14.500913 -148.544163
-138.341851 -263.881727 4.900694 -139.760429
-127.906757 -244.774186 2.766326 -128.940823
-126.868019 -242.470923 -5.888147 -127.515083
-127.874207 -239.462953 -10.828609 -124.892992
-104.721334 -188.214593 -23.493423 -99.830785
-135.661468 -231.742729 -0.981455 -119.834388
-140.420863 -251.012628 -16.629023 -132.374002
-132.278893 -240.985907 -23.060713 -129.148818
-130.190687 -241.415932 -19.108848 -128.550469
-157.610188 -298.060367 2.012836 -163.220367
-130.117000 -219.083012 -9.909807 -113.337585
-170.498917 -311.323344 22.776101 -168.901497
-167.538405 -315.309686 6.339919 -169.671587
-102.843851 -171.107149 -29.700824 -92.930399
-100.671433 -182.355816 -22.269640 -96.224386
-140.244091 -265.481474 10.212722 -155.534288
-129.789261 -245.334663 13.017602 -142.881282
-189.304038 -350.003685 15.965625 -189.907446
-136.664347 -260.016849 8.176958 -152.405934
-128.465960 -246.033075 5.519961 -143.652440
-142.869974 -271.782537 5.701659 -144.317343
-156.411525 -294.448058 9.793812 -157.533643
-158.058004 -295.913361 13.089321 -158.687022
-134.743026 -258.066397 0.314644 -136.308410
-154.843328 -292.931988 5.276499 -156.439611
-138.777987 -212.891058 28.779036 -115.862431
-150.292368 -274.062250 23.095806 -147.864417
-129.415802 -227.666459 26.831186 -121.404564
-133.478718 -254.042134 8.994713 -134.420224
-157.391976 -294.176396 14.082318 -157.800476
-130.775344 -233.852893 26.104243 -126.066807
-165.298474 -293.664661 20.004675 -173.352455
-160.816602 -296.861524 19.168539 -160.398713
-135.721052 -214.567098 6.139692 -110.375614
-142.321225 -216.516441 10.922644 -112.357319
-137.080432 -216.154685 6.480156 -111.303162
-134.530033 -197.790018 14.792030 -102.485115
-144.124116 -220.856056 12.921221 -115.221511
-137.580131 -240.945956 21.311637 -127.923741
-138.858354 -211.246101 8.428039 -108.834198
-142.180178 -222.263965 15.555654 -116.567999
-136.457759 -221.508930 21.528888 -117.904489
-135.549314 -217.077243 12.751823 -112.918576
-139.876242 -218.756577 18.275246 -115.617039
-139.775956 -222.434627 23.387078 -119.263102
-129.965702 -230.269753 22.766440 -122.034950
-152.444957 -281.560161 19.348798 -151.387042
-122.216764 -225.697629 19.950336 -119.965093
-149.514569 -283.578290 5.633371 -151.053606
-128.486516 -229.807047 22.931340 -121.549416
-118.840892 -212.682311 -5.790067 -109.467994
-139.205511 -256.789119 19.180196 -135.731620
-123.784039 -238.241241 3.137703 -125.025242
-141.896558 -269.511997 -7.466402 -143.016397
-133.563447 -212.867043 7.657673 -109.674342
-121.499017 -216.017308 23.500997 -114.120637
-129.987444 -215.690494 18.457330 -113.072958
-132.900285 -227.861519 22.774853 -121.484146
-134.650416 -229.071420 25.106148 -122.384834
-136.619186 -229.015107 19.643576 -120.637881
-128.961419 -222.606940 22.838869 -118.347142
-119.947609 -218.250709 22.499861 -116.382610
-141.365547 -255.139104 25.089197 -137.678960
-133.840891 -203.727135 -2.963751 -104.439151
-139.784493 -216.867102 -1.943159 -111.640777
-137.237452 -245.361496 0.433507 -127.561580
-112.199639 -205.246656 21.391094 -108.821880
-130.157038 -228.724087 26.742677 -121.956626
-125.017409 -227.371849 22.797675 -121.549822
-132.673731 -236.230069 12.664535 -123.741163
-123.482118 -212.273288 27.295990 -113.252840
-126.988758 -227.856371 24.006019 -120.706361
-135.602970 -229.735836 31.328703 -124.072124
-129.791052 -223.315243 23.282629 -118.404686
-131.749527 -232.382673 26.459878 -123.896438
-135.699259 -258.712218 -5.252816 -136.842672
-122.435174 -222.948198 16.642113 -116.655193
-110.242479 -214.458002 -2.055633 -111.454016
-114.706443 -214.871284 -17.376460 -113.188905
-121.616995 -232.539278 -10.284059 -122.166907
-132.618592 -252.615550 8.490623 -133.566358
-122.232420 -235.191395 5.185623 -122.000270
-123.729191 -232.818951 -3.611761 -120.698244
-116.609952 -222.586217 -3.482024 -115.231600
-136.183819 -255.414470 -0.184662 -133.450055
-138.444082 -262.781136 8.525140 -137.717192
-130.460969 -237.445143 15.664378 -124.320689
-126.265943 -230.300280 -22.597818 -123.071071
-108.515225 -186.923956 -2.318236 -94.503352
-117.728862 -226.457715 -8.449065 -118.532984
-128.994903 -246.617979 -2.358161 -129.468752
-114.649149 -222.432823 2.154323 -115.996775
-123.768218 -237.840799 -1.834071 -124.670056
-113.323430 -219.568320 -5.823396 -114.415570
-106.603627 -207.745549 -4.819710 -107.721085
-123.839146 -237.289525 7.991254 -133.509881
-112.389878 -218.550121 1.304640 -113.776751
-138.646322 -258.704410 16.702515 -140.571188
-122.768815 -233.949169 11.032618 -123.180159
-141.685902 -259.437533 18.408597 -137.082064
-139.901383 -257.372616 20.783459 -137.977607
-137.785940 -260.335892 11.881690 -144.946920
-156.862718 -295.737916 8.614387 -171.067640
-142.441848 -260.175473 22.555421 -139.934467
-124.540429 -234.256260 15.340620 -125.294519
-72.777624 -137.946782 6.301547 -71.596588
-146.611199 -264.598033 20.509518 -142.738802
-160.314471 -291.946501 1.427817 -191.433490
-132.842247 -254.163389 4.122842 -143.069681
-91.882012 -175.308013 7.664579 -101.422618
-90.446627 -178.699381 5.937969 -104.557794
-104.606862 -187.229333 -18.837790 -96.943475
-97.038925 -133.965821 -8.665290 -69.301424
-147.998161 -269.247069 11.180652 -167.169783
-97.498506 -165.200465 -18.466034 -84.833666
-90.182248 -156.962196 -24.701413 -82.709516
-108.925893 -173.800144 -5.005989 -87.257516
-118.835268 -218.524347 0.120695 -112.345431
-87.783582 -152.181412 -24.638510 -80.509460
-140.541157 -224.144116 -7.064299 -116.111656
-102.517443 -191.519763 -17.913719 -100.281107
-124.315353 -207.460221 22.172651 -109.222056
-125.149745 -204.821958 20.924797 -108.147501
-137.584851 -253.020516 -7.034829 -132.253712
-124.698738 -207.186425 28.665284 -111.311164
-121.544092 -197.190369 22.203012 -103.927546
-110.328122 -185.197715 30.343327 -100.827118
-126.252281 -223.868949 1.825108 -115.386848
-122.190708 -202.906833 4.202124 -103.631193
-129.050982 -221.654681 0.559816 -120.768179
-148.839941 -251.584076 -1.325048 -140.703378
-152.196591 -251.485546 -8.581257 -140.680327
-148.937676 -255.237158 -11.502855 -139.090228
-128.489370 -199.957447 21.659552 -112.742906
-165.164008 -253.930315 5.603930 -144.245106
-136.464635 -232.965306 0.129647 -125.477208
-158.713984 -232.035459 3.899066 -129.968288
-144.080930 -142.954219 -46.976191 -96.481320
-109.017235 -158.025646 -9.005323 -80.463195
-108.426164 -120.887392 -17.645603 -68.794067
-103.662465 -79.881367 -30.292847 -59.042179
-149.735422 -269.972972 11.301767 -150.516945
-91.362656 -169.605762 -15.126198 -87.917812
-97.010668 -85.197009 18.252835 -54.662303
-118.621121 -165.193227 22.454887 -87.299983
-164.388344 -299.909626 13.770411 -181.620471
-156.039605 -272.328899 30.570651 -149.105070
-104.225648 -189.815547 21.700614 -101.064969
-84.195246 -151.416037 16.989482 -81.435028
-129.836535 -241.187416 18.468478 -131.054003
-105.164761 -195.000780 18.228680 -115.614483
-133.126050 -249.778169 15.329083 -135.832651
-134.076812 -250.998451 15.985973 -146.561583
-169.729718 -306.062799 26.636129 -166.645220
-201.092207 -307.142696 47.712227 -174.343745
-130.054546 -231.377925 26.053750 -124.811913
-126.173707 -232.493579 20.415320 -132.480024
-190.240874 -321.668634 40.066667 -194.157429
-122.158413 -138.270853 -26.783845 -78.204120
-64.000225 -126.817810 3.386229 -65.337447
-98.461629 -138.221169 -20.589614 -71.854749
-173.595090 -310.055631 25.739616 -169.324099
-162.106788 -273.595714 35.605854 -151.898613
-98.062227 -175.610078 19.255037 -102.915302
-102.405313 -179.779567 21.351755 -102.564353
-138.718121 -243.648471 26.857601 -144.107467
-170.821950 -284.098248 38.655675 -174.475526
-132.677044 -237.050408 25.423557 -127.987794
-113.945156 -205.041669 20.771663 -120.714676
-121.535886 -231.493586 11.480679 -133.111332
-108.982762 -198.137627 14.788827 -106.087395
-109.753695 -204.831591 13.513388 -107.480167
-122.355052 -219.313085 23.605304 -129.554099
-107.947810 -206.658208 12.179561 -108.153144
-118.543373 -222.115590 16.815007 -128.290560
-125.274953 -241.373613 -0.311920 -135.829482
-117.115810 -211.018172 20.178329 -123.802913
-122.284783 -214.973705 14.620819 -115.186499
-158.454010 -257.167192 33.148440 -143.079207
-134.929263 -249.092935 0.476045 -131.212024
-161.241001 -254.752837 -45.010822 -154.641251
-115.995460 -210.314978 2.942461 -119.587147
-110.600808 -215.405045 -1.010227 -111.971669
-150.809681 -191.371939 -50.765572 -117.866804
-128.852406 -214.719640 -8.251022 -110.637806
-99.320639 -128.895386 -24.702578 -69.556680
-76.014656 -146.585307 7.599605 -80.118362
-138.972588 -213.891141 0.373100 -112.755959
-97.818351 -154.746716 15.702763 -78.612139
-109.743858 -171.021373 -34.520645 -95.446377
-109.698599 -153.192661 -21.835843 -80.511355
-89.498755 -170.170824 -15.519250 -86.931460
-88.351136 -159.910394 -8.543769 -79.753393
-107.238210 -202.294279 -8.629821 -103.602483
-105.895688 -167.023736 -29.763206 -90.048327
-115.712458 -200.806076 -27.637769 -106.946498
-95.027613 -154.678017 -29.352546 -84.112403
-107.347949 -167.186111 11.454731 -84.504628
-94.297863 -140.485201 2.637689 -70.434919
-105.619271 -174.637877 -3.142576 -87.597930
-103.632797 -173.746736 -15.058282 -88.762828
-89.727293 -151.659516 -23.597552 -79.021465
-94.806137 -142.649324 -32.240697 -79.641729
-129.699245 -244.427279 14.064662 -129.920145
-87.116393 -123.625787 -31.538524 -69.892868
-143.118803 -272.869474 0.489252 -144.801423
-113.080650 -216.137014 11.755616 -117.492867
-109.817190 -213.933681 -2.121979 -120.634039
-115.448188 -222.819688 6.746579 -121.010044
-92.485768 -145.427717 -3.319019 -71.374045
-96.539073 -136.563735 8.973319 -69.930843
-92.817684 -128.854150 -2.339143 -66.501550
-111.200774 -136.035628 -13.129549 -74.170921
-93.954320 -139.570802 2.769016 -70.057537
-88.823631 -120.787708 6.763825 -62.883402
-106.546312 -207.806883 3.528291 -107.702651
-92.743415 -97.034191 12.774874 -56.933282
-90.599860 -128.459209 1.598296 -65.717721
-88.537058 -117.277190 -0.642366 -61.744274
-97.908455 -133.784837 2.885141 -69.507988
-114.096352 -129.608146 3.543401 -73.111349
-89.469081 -102.194767 21.202018 -57.766534
-106.786134 -132.244360 15.746243 -71.709148
-99.424010 -195.144087 3.524405 -111.783926
-95.817677 -185.562102 9.418798 -101.418616
-109.277329 -213.016691 1.307009 -110.613687
-83.583679 -166.881117 4.245829 -93.458486
-116.410860 -225.615594 -1.536809 -117.814157
-121.924214 -235.423745 0.820869 -123.410370
-116.599609 -225.945524 0.112872 -124.619943
-106.055819 -207.279133 1.504712 -115.533201
-126.221915 -242.982605 -1.216371 -127.734902
-113.682526 -220.882502 0.139891 -115.095987
-119.656774 -230.809824 4.153958 -120.292184
-105.690026 -196.217037 13.042720 -111.158659
-112.897225 -212.416846 10.442648 -120.685442
-116.746489 -224.002868 3.951807 -125.914921
-107.941212 -189.955701 10.213440 -100.328074
-115.586563 -204.939700 11.322879 -118.906550
-111.846612 -199.523499 17.217047 -106.396588
-108.251491 -200.593862 10.094942 -105.114371
-108.849662 -195.176955 15.277699 -104.315549
-125.564653 -210.149894 24.030103 -114.996542
-111.215588 -206.502191 17.245039 -108.712458
-110.265915 -200.084529 14.556235 -105.593093
-106.659830 -198.704147 14.602258 -105.519406
-110.862607 -198.601428 17.451104 -106.123124
-119.788459 -222.432506 18.821245 -130.353325
-111.723685 -205.036329 16.075194 -109.009080
-104.943111 -191.769622 12.317026 -101.049052
-115.000540 -207.100399 16.828159 -110.594830
-122.125363 -235.722049 1.782216 -123.593147
-124.332365 -239.474637 2.799489 -125.763731
-120.789791 -222.877681 14.515040 -128.519845
-112.027014 -210.101909 11.920315 -110.120527
-135.336939 -250.018368 -1.485503 -139.318175
-112.595960 -212.712896 1.592344 -110.619722
-124.007444 -236.982351 -1.221606 -133.676271
-110.071609 -204.530098 13.442978 -118.277151
-120.459897 -218.058018 20.949633 -116.306875
-111.332047 -205.306114 17.367878 -108.994358
-111.541920 -206.119550 18.096110 -121.111024
-112.025946 -208.709916 18.284123 -110.048383
-122.468218 -235.540793 6.018369 -132.447577
-111.305647 -206.274494 15.499294 -109.393827
-126.046820 -232.433490 7.130613 -123.068485
-107.814880 -210.195992 3.503080 -109.784549
-114.787504 -208.119662 5.023532 -110.469785
-112.988298 -207.064184 14.728599 -109.381497
-114.966241 -221.661993 7.634555 -116.879475
-122.857372 -232.740779 13.263019 -122.304167
-143.601028 -273.465573 3.825020 -145.210068
-106.872900 -201.540919 16.036678 -106.550236
-104.022616 -188.683474 10.109634 -106.199896
-122.037617 -223.977852 12.664909 -127.400984
-118.553036 -221.648002 6.196716 -116.608333
-116.688246 -208.452145 10.112753 -116.416197
-110.023326 -208.196583 15.033388 -109.140081
-102.464548 -193.923746 7.696592 -111.622044
-105.036743 -191.625954 14.409256 -101.484704
-117.099548 -218.737066 9.958281 -124.791889
-106.688113 -190.820373 11.843940 -108.771725
-142.127876 -223.646667 30.158951 -120.869594
-101.690872 -181.963745 17.044794 -104.000918
-119.948638 -219.900840 10.033668 -123.449084
-122.707722 -211.560106 22.658829 -124.634181
-122.816959 -218.620180 19.672420 -123.787993
-117.785504 -214.564474 13.955459 -121.517842
-112.255219 -202.572597 10.434249 -112.827842
-138.719952 -231.177061 33.559950 -126.162917
-139.257159 -235.606685 29.813619 -129.950317
-81.931667 -132.674750 -10.008045 -64.902646
-121.093990 -213.101753 18.821062 -113.153332
-112.049822 -190.063901 13.047802 -107.170552
-119.805263 -202.962266 14.669878 -115.457246
-111.343329 -192.343421 19.594934 -102.992840
-107.833263 -193.409490 23.296357 -103.952596
-98.621284 -183.724801 18.406561 -97.273324
-132.808833 -197.988409 17.719459 -103.276365
-116.819293 -120.976301 -10.326073 -71.338678
-95.454403 -129.693503 3.649421 -67.544372
-109.705737 -135.836778 -17.348041 -73.662755
-101.343140 -126.430555 0.138317 -68.332108
-95.314272 -126.515243 -10.010592 -66.548855
-95.407494 -121.270446 1.563957 -65.003382
-100.855481 -126.405613 1.402163 -68.178328
-128.750783 -241.467256 15.873953 -128.595704
-107.399252 -130.087884 -1.129072 -71.246141
-75.614782 -151.520062 7.617473 -75.896166
-115.290196 -207.456697 24.014550 -110.843955
-121.428576 -227.443808 16.743058 -120.445339
-99.496701 -116.369218 2.198088 -64.759776
-140.381793 -267.985343 2.135002 -142.070928
-100.830364 -140.353098 2.686396 -72.355038
-94.998764 -131.296407 5.017010 -67.888551
-100.071663 -137.283528 2.183959 -71.206557
-106.483570 -144.309560 12.691845 -75.237939
-137.162851 -259.198549 11.948362 -140.726322
-96.696531 -129.524015 8.268873 -67.866164
-93.119139 -172.645956 18.985121 -92.600319
-98.387763 -109.742160 4.320182 -62.438977
-98.916354 -65.332992 -3.311871 -49.274804
-101.808729 -129.852326 0.894961 -69.498317
-143.057771 -272.622705 3.008532 -144.702265
-103.716198 -98.925601 17.789937 -60.792540
-100.819655 -81.312735 10.469492 -54.639717
-101.468688 -116.809503 9.855420 -65.483457
-100.774102 -146.085636 5.044767 -74.057921
-108.198672 -133.907430 6.469297 -72.631831
-85.949161 -139.766705 7.559273 -68.375020
-111.389235 -157.240642 14.215086 -80.588963
-67.552715 -138.569528 4.499127 -70.252834
-103.381557 -143.321895 10.302084 -74.011035
-99.520660 -142.752087 12.666819 -72.681824
-105.670762 -126.971189 14.476836 -69.792585
-148.242128 -281.958046 0.920281 -150.001361
-107.181914 -148.680842 16.349747 -76.758827
-78.474204 -157.128041 6.570726 -91.411113
-106.788767 -146.679374 15.925276 -76.040442
-145.824515 -277.119506 -5.157187 -147.356643
-73.933598 -149.495521 5.578592 -87.105007
-102.128039 -139.315951 22.481842 -73.519653
-80.385398 -160.231890 7.256126 -93.182978
-104.894153 -145.527864 14.046452 -75.126605
-110.332965 -136.647046 12.291634 -74.094003
-110.128893 -149.813443 17.338621 -77.982701
-117.553222 -132.188161 19.919296 -74.922415
-107.957796 -139.521679 15.750954 -74.243842
-101.888102 -133.261297 12.442546 -70.544820
-110.877458 -201.569547 17.768876 -106.313285
-121.573685 -213.274704 9.200490 -113.281753
-88.677193 -170.938879 13.242953 -101.037746
-97.133515 -181.122243 18.266755 -104.539533
-115.089229 -219.585102 12.051507 -115.510523
-132.355729 -247.595760 16.359480 -143.045740
-108.811043 -201.178623 5.600584 -106.284397
-113.442357 -219.181883 7.039426 -114.478521
-121.718359 -231.486674 12.040537 -121.899603
-114.343398 -219.766364 9.387807 -115.185904
-134.646006 -248.945671 19.553597 -142.294453
-123.428449 -237.784671 3.758291 -124.822106
-149.492704 -266.766526 27.766269 -145.612043
-138.590848 -264.857311 1.664978 -140.236558
-139.021992 -257.414924 19.034903 -138.267267
-139.567615 -263.017816 12.792418 -139.987003
-104.401090 -112.648836 26.266661 -65.149311
-83.290952 -159.395719 14.887621 -85.872905
-157.647251 -296.403875 10.547202 -169.813111
-147.805382 -279.832221 8.116802 -149.319137
-159.980214 -299.059270 13.646436 -174.341846
-117.882439 -192.113443 14.575123 -98.968327
-122.689940 -228.248402 18.338007 -128.954128
-117.557662 -225.517973 9.355386 -129.355390
-150.567091 -268.903807 27.809405 -151.464074
-129.982855 -230.139693 27.534717 -135.175158
-146.566773 -265.251460 24.799508 -148.526894
-140.408892 -257.590188 21.465858 -138.260921
-136.191732 -240.497032 28.529968 -136.767123
-141.480914 -248.958467 29.595580 -143.776636
-168.372687 -313.948169 13.845772 -191.150393
-125.567351 -234.044599 17.775281 -124.659609
-70.506443 -140.011084 10.835291 -84.575169
-162.730627 -296.094347 23.869608 -167.850863
-91.193921 -129.876196 32.602794 -73.628347
-55.296991 -110.414730 12.311372 -53.833492
-110.952778 -173.627509 34.644324 -96.810903
-72.101239 -136.264330 16.554200 -72.659125
-113.598011 -173.770714 18.503786 -89.999772
-92.024820 -140.273471 31.239540 -77.720804
-96.102765 -127.401894 34.882535 -74.532205
-77.445806 -145.916524 16.816091 -78.889043
-114.611700 -182.638693 18.446220 -94.689684
-102.433616 -157.140738 21.502969 -81.825878
-112.567282 -156.140318 15.330493 -80.612280
-117.838086 -156.641099 12.701984 -82.343756
-110.761164 -145.241021 16.258900 -76.800656
-103.930807 -201.098467 4.675743 -116.781482
-117.824025 -173.858109 11.323905 -88.321549
-158.434321 -299.831516 -2.829283 -160.244590
-117.767680 -142.658305 15.412633 -78.127796
-86.941916 -172.894787 4.610716 -97.171382
-164.274214 -305.021951 -12.470898 -164.284691
-142.253236 -267.848747 -4.106703 -161.555964
-159.893189 -301.029302 -8.638923 -161.216083
-95.342839 -187.862722 2.050000 -108.986759
-155.320698 -280.979329 -15.406741 -166.787385
-149.831224 -267.766700 -12.469904 -145.906953
-116.650598 -215.698564 -6.106006 -125.069387
-142.881051 -267.129567 0.264607 -153.515753
-138.624651 -251.039598 2.146482 -146.707668
-128.357863 -242.257018 4.879369 -129.160684
-107.255251 -204.739989 -4.921135 -109.799393
-113.961421 -214.253802 5.349790 -114.342031
-137.646045 -256.382435 -8.855754 -150.972542
-119.331448 -221.433970 3.388714 -128.367661
-144.538238 -274.216963 -7.110695 -146.311072
-102.323757 -196.359389 1.592494 -116.684678
-148.710460 -282.744597 -1.355568 -150.470356
-88.961219 -176.213492 5.441676 -93.715571
-78.525152 -157.290659 6.438375 -95.285221
-142.397405 -271.572090 -1.822694 -144.239169
-95.148110 -188.075336 -1.155900 -111.898428
-90.922046 -179.981519 4.591019 -95.797801
-63.834439 -131.467870 5.685601 -67.901312
-73.829107 -149.564485 4.914392 -77.549814
-71.928928 -144.872878 7.675852 -86.050293
-142.730545 -272.231190 0.070928 -145.620883
-132.012022 -249.875280 12.080678 -132.369836
-78.887315 -155.326472 10.676333 -84.106306
-114.003981 -216.605318 13.429356 -130.234241
-144.616683 -275.208992 -3.966795 -146.252500
-113.888605 -219.854062 -0.416078 -131.413790
-104.672154 -203.493501 7.063797 -122.054818
-145.701060 -274.608438 -0.302365 -160.938664
-121.879767 -225.308813 7.539850 -133.581758
-124.212820 -228.557561 8.516992 -122.055628
-132.381250 -244.691351 6.083191 -130.489796
-141.639333 -254.781123 2.805394 -137.703615
-129.274538 -238.261476 3.892697 -127.367477
-124.268834 -222.611852 13.745863 -120.030158
-132.197813 -237.179057 9.571291 -140.899546
-131.825443 -235.201021 6.142120 -140.441216
-117.466446 -207.393240 15.317576 -113.739670
-112.623659 -197.237227 17.017956 -107.151785
-127.041370 -223.911933 12.854658 -122.088784
-120.296370 -222.462875 9.644193 -119.550805
-114.436795 -200.128094 13.658068 -108.895741
-109.211512 -196.273216 20.358786 -116.445133
-109.550882 -195.929720 16.696688 -107.379467
-123.103399 -223.356723 19.210992 -134.301489
-123.661747 -225.090783 13.816197 -120.373466
-126.959024 -234.052806 17.103973 -125.050930
-108.176963 -198.009940 18.432799 -108.600089
-122.797066 -225.273601 18.987837 -136.314631
-126.533201 -228.610757 17.936950 -122.734967
-109.050291 -201.165286 18.511631 -110.234270
-127.169446 -232.188423 20.766911 -125.181013
-125.972407 -226.251198 10.579902 -131.706785
-134.921575 -244.061580 11.081636 -131.466209
-118.992626 -215.151986 20.410304 -128.063718
-127.223610 -227.934867 18.198826 -124.142441
-121.079543 -215.304128 18.011800 -116.794582
-122.055527 -217.238311 15.822919 -117.123954
-125.075592 -224.701370 16.894668 -120.978325
-128.391684 -231.494640 18.050633 -125.277094
-126.520540 -225.931569 15.039780 -121.771279
-132.287901 -236.297310 17.858388 -127.718797
-120.257743 -217.707204 20.430596 -119.258381
-122.414003 -225.292037 19.157093 -135.028047
-123.915033 -225.579358 20.364180 -121.479012
-117.490996 -214.370037 20.019030 -115.361615
-120.404224 -219.675961 20.744390 -118.580236
-122.316641 -227.679935 16.545344 -122.881264
-123.635071 -229.021508 17.576646 -122.798756
-130.335979 -240.959012 17.193144 -145.503242
-113.702208 -210.358137 18.079921 -114.888961
-109.387070 -198.945073 20.536837 -118.767128
-130.249472 -241.777722 16.684525 -129.706784
-93.459265 -133.954840 33.056231 -75.964831
-118.790515 -221.716622 16.225076 -120.063525
-118.524770 -181.892601 37.232259 -102.610413
-111.100549 -215.148315 5.878653 -120.295569
-106.032482 -178.452026 29.429709 -96.813568
-95.365707 -133.753765 33.949518 -76.590151
-110.667821 -210.554867 13.245181 -114.317872
-120.334679 -179.288400 38.861470 -102.323351
-106.621793 -171.116140 18.929935 -105.908767
-93.005640 -156.913806 16.638656 -88.744378
-103.090367 -173.577424 19.635430 -100.921987
-108.840352 -189.569277 21.389398 -101.752617
-124.971026 -212.804941 22.470145 -126.506273
-118.389496 -219.722398 13.358598 -125.273135
-111.952953 -196.154769 19.625580 -104.679845
-138.029519 -253.885161 5.260806 -134.720189
-122.001994 -228.491754 16.268566 -121.245992
-114.670295 -214.751391 15.309939 -119.726198
-99.555193 -194.552571 6.559394 -100.428329
-141.239068 -269.403608 -0.630897 -153.858860
-149.062965 -278.354283 15.185209 -148.981088
-128.459878 -226.089360 18.328169 -130.353239
-115.695326 -204.271938 14.986362 -118.076830
-118.372179 -216.496340 13.030295 -121.057184
-111.953933 -202.693365 22.292254 -108.555904
-128.367047 -227.844235 10.005823 -131.017815
-119.103644 -220.238449 18.874446 -116.866994
-109.797187 -195.834442 22.260458 -106.896169
-103.084672 -164.957391 31.811426 -90.806264
-104.628830 -181.292847 26.963260 -97.333391
-112.115343 -197.388201 20.685553 -104.898052
-118.813884 -209.926150 26.567461 -112.982049
-111.749469 -201.203995 16.086409 -106.666357
-89.906378 -178.241761 -3.114939 -90.888507
-121.328772 -234.277603 -1.170842 -129.869941
-92.049501 -182.599539 1.148374 -93.226755
-95.493075 -186.086754 9.362084 -95.756939
-105.001195 -202.820218 -9.771983 -105.335474
-103.163931 -198.140171 -11.462514 -102.799736
-108.549002 -189.910032 26.595245 -101.909424
-93.242672 -154.368583 27.642189 -83.099667
-102.108524 -173.805775 27.968641 -93.685069
-97.955451 -189.839859 10.170920 -98.023686
-103.333673 -182.848398 24.889333 -97.423451
-116.621253 -208.028393 25.275283 -112.212987
-118.633607 -220.237345 15.403999 -117.396917
-96.762285 -182.532316 13.511830 -95.319384
-118.950647 -218.326315 17.062656 -120.522166
-94.147974 -135.534004 33.140843 -76.801448
-111.775279 -207.968311 11.726276 -118.037403
-120.990521 -187.940758 37.221969 -105.726048
-102.859963 -167.023649 31.038187 -91.482076
-101.707128 -166.214966 30.421025 -89.827178
-123.033503 -227.540925 17.770434 -122.813828
-101.942602 -195.562150 10.676955 -113.444586
-122.259495 -227.551159 15.431392 -121.505219
-127.676427 -237.011803 16.729990 -126.996820
-121.831368 -225.760792 15.045701 -121.488395
-98.329815 -186.529250 13.302904 -109.688566
-94.893626 -178.864918 14.317004 -96.501246
-124.681616 -233.643047 13.663515 -123.786371
-91.529269 -171.913124 14.644912 -101.386070
-104.798054 -196.643625 14.176431 -114.128532
-96.138556 -180.032754 11.149951 -102.903731
-123.202343 -230.051908 14.076712 -122.976931
-96.375873 -179.216359 15.778740 -105.670374
-122.100854 -229.110650 12.396373 -121.154085
-93.893733 -176.286113 14.275901 -101.067887
-97.446055 -191.379420 3.907678 -106.998000
-118.776735 -225.581415 10.242009 -130.574125
-120.894593 -226.826096 12.757475 -133.178156
-109.181642 -206.701050 13.946065 -110.743759
-117.049781 -219.356883 14.136264 -115.774946
-88.830944 -136.611908 30.148457 -75.262196
-96.263637 -180.727465 14.217342 -93.881127
-102.205111 -159.540071 31.527730 -86.907732
-112.903429 -208.272612 17.206228 -112.450519
-93.449025 -136.744304 32.599051 -76.996834
-103.574128 -174.310466 28.339263 -94.078440
-106.965580 -183.978371 27.899232 -99.162787
-84.824912 -157.097702 18.851798 -81.277352
-106.816068 -194.793491 21.669558 -103.062046
-112.368716 -196.920410 26.901227 -105.858097
-89.445565 -176.826934 6.051090 -90.129038
-85.857201 -163.596926 15.452490 -84.001804
-103.907948 -195.630537 -10.584439 -100.288478
-100.166266 -196.394604 4.357710 -101.204447
-78.899768 -159.130058 -2.310562 -79.845010
-99.546071 -176.174939 1.572186 -88.844896
-65.254409 -111.282453 -15.514298 -54.937257
-65.151206 -113.582873 -20.566657 -58.139957
-99.482917 -180.013230 22.055117 -94.925897
-77.104259 -154.570120 6.926129 -77.530379
-98.552020 -186.587042 15.748963 -97.049118
-92.341412 -176.504185 14.543583 -91.075062
-94.772059 -185.732288 5.633133 -95.064143
-90.391068 -178.193592 7.160769 -90.984441
-90.520824 -179.944633 0.974419 -91.690031
-74.285636 -136.049017 9.585486 -66.512907
-75.234796 -152.612388 3.375045 -76.114004
-59.699707 -125.425496 -1.077827 -60.549717
-83.522398 -166.377286 6.250810 -84.160386
-94.967137 -171.512044 22.165725 -90.178437
-65.402318 -91.392335 3.211389 -47.038396
-157.831866 -283.427815 21.010384 -153.620771
-67.391068 -137.821968 4.862041 -67.857247
-80.070697 -161.038223 3.573109 -80.979602
-93.356382 -168.916720 21.826073 -88.660338
-97.748216 -178.696699 20.919068 -93.864471
-76.519061 -128.599432 24.334518 -67.841917
-77.316943 -136.618605 9.550114 -66.868512
-84.920701 -144.615567 18.335580 -73.556059
-77.148155 -142.682346 10.088203 -70.347949
-66.473868 -136.745491 3.589988 -70.474964
-118.123478 -227.095237 6.024000 -130.025256
-117.691009 -226.842958 -0.404496 -118.732749
-64.342287 -133.044580 2.392129 -68.873520
-95.362732 -158.736659 28.226218 -85.715116
-109.612540 -210.635891 10.282204 -111.704377
-80.360610 -144.873182 20.773213 -75.138290
-78.009680 -140.919669 19.945168 -71.745140
-92.212003 -173.197178 13.446426 -100.633553
-118.366408 -223.557173 9.951412 -129.186509
-88.149799 -171.000300 10.247728 -88.240409
-89.916757 -169.994610 13.769758 -96.011792
-92.235071 -174.891338 12.288774 -91.414714
-113.916548 -218.362005 7.884035 -125.042798
-84.725411 -164.275917 10.717735 -92.368588
-116.105771 -221.797678 10.202591 -116.551874
-118.548621 -228.731479 2.779866 -119.714787
-75.330081 -150.484844 7.266746 -77.383616
-111.337943 -209.133607 3.988932 -110.211570
-95.777463 -186.912343 7.870809 -96.145981
-105.173654 -202.673157 7.430288 -106.538853
-107.511657 -207.377882 8.113877 -108.796112
-113.218196 -216.082514 1.048409 -113.785743
-103.341156 -198.993606 6.132933 -114.931512
-103.014566 -195.870502 7.709932 -103.434825
-95.035585 -185.006881 7.593062 -96.574348
-116.402751 -217.231201 1.065233 -128.112443
-101.509277 -194.274186 5.494622 -103.175661
-106.275134 -200.009028 6.273300 -105.753512
-118.690020 -222.218257 9.151789 -117.879220
-108.441061 -200.904920 7.364092 -107.902130
-98.844157 -187.218804 8.332884 -104.922257
-104.305793 -191.659298 10.582247 -102.419609
-111.870336 -212.958989 8.414508 -121.914057
-107.953354 -202.814710 6.611862 -108.149738
-113.719999 -201.071612 11.753077 -109.022337
-110.738699 -209.115174 7.722446 -111.197039
-98.092091 -183.080404 12.591463 -97.623832
-120.087445 -222.532171 9.351815 -117.881950
-121.908264 -220.940767 12.178946 -119.094270
-115.715929 -214.369718 8.269298 -113.441828
-111.295346 -197.277497 15.634363 -115.862983
-121.903737 -213.476510 9.335194 -115.723846
-123.186946 -215.168381 11.116076 -128.964883
-102.222138 -188.276794 10.550862 -111.619212
-114.890431 -213.350819 7.635864 -113.608209
-125.649998 -226.459914 2.284102 -121.991827
-130.632815 -236.280842 4.828632 -127.070810
-105.965478 -198.067859 8.669100 -105.332559
-109.223448 -198.802603 8.347246 -117.922036
-118.485547 -214.776527 5.642594 -114.770591
-115.263158 -206.509788 6.594700 -112.731016
-110.467869 -209.676101 14.082399 -111.445386
-97.968061 -189.206623 11.365023 -111.675776
-112.912219 -206.123540 11.800105 -122.668018
-100.135069 -190.589339 14.589123 -100.738866
-127.673849 -233.944919 7.905101 -125.258611
-119.631112 -217.890522 6.497474 -128.966091
-133.526638 -241.849370 5.269827 -129.980860
-111.305414 -202.487549 9.826342 -120.186143
-145.983440 -276.280858 8.975422 -147.104919
-139.883335 -266.459703 5.864738 -142.986898
-141.492214 -267.961152 9.808272 -159.642921
-73.828831 -146.574601 10.183205 -79.663281
-125.510460 -236.649526 14.512546 -127.001859
-133.836499 -244.619779 22.248894 -131.553413
-122.850795 -220.705602 24.799613 -118.388166
-77.246366 -151.014448 12.244067 -80.471372
-135.193102 -251.553558 17.792472 -134.141150
-82.614029 -158.828661 14.260869 -86.532397
-90.831110 -170.940537 16.997362 -90.371912
-119.182151 -221.917602 18.247838 -119.007463
-102.358658 -193.487607 15.809503 -115.447527
-102.072495 -192.767255 16.029552 -100.817458
-116.168107 -222.243504 10.664354 -117.333292
-103.457235 -197.067756 14.089726 -117.367281
-125.766172 -237.276833 3.665697 -125.334577
-114.708657 -216.936263 1.449159 -114.472281
-100.305805 -185.224496 19.684323 -98.904583
-100.991200 -193.590209 12.854872 -114.522245
-108.927195 -210.045051 4.027927 -121.040223
-96.441403 -186.552247 11.256870 -98.157917
-122.956034 -225.309741 21.489846 -120.671568
-103.325380 -191.752571 19.017008 -102.708217
-92.579394 -175.045158 16.255174 -92.553514
-105.620537 -203.894809 9.923801 -107.373076
-98.368078 -188.254764 13.589840 -99.288884
-89.232627 -172.120960 13.061601 -88.770112
-99.077046 -187.614704 15.691424 -97.624240
-97.652539 -183.021767 17.494235 -96.688404
-104.621623 -194.959750 18.350110 -104.910566
-115.063869 -218.894208 13.003292 -114.875007
-91.648187 -177.128148 12.321910 -93.956568
-99.030085 -191.575251 10.758255 -99.850760
-101.850884 -197.904316 8.503637 -103.673509
-112.658075 -218.665506 1.526427 -125.887956
-95.457544 -182.091835 14.564029 -96.067379
-94.430684 -181.420625 13.225127 -95.041907
-92.845412 -179.118021 12.538528 -94.401414
-93.214663 -179.052327 13.413721 -92.856339
-89.986798 -167.219999 18.637684 -87.863271
-118.174070 -209.034357 26.478858 -112.411401
-91.786164 -173.918184 15.957023 -91.845727
-98.168664 -188.754795 12.547645 -99.836906
-97.956627 -183.812242 17.306964 -96.493953
-92.405522 -174.780556 16.202242 -90.943094
-91.439750 -176.017798 13.197765 -90.670646
-97.943331 -184.381967 16.779943 -96.901744
-93.453181 -180.771786 11.842082 -93.480019
-91.329878 -175.716814 13.312193 -92.555901
-84.423947 -163.775382 12.605868 -93.199858
-93.470647 -178.723180 14.288122 -102.102472
-91.400023 -179.729620 7.557994 -91.942796
-92.303837 -178.742038 11.793280 -91.939577
-91.150056 -176.366294 12.155305 -91.897962
-89.946135 -177.256569 7.303408 -92.079521
-84.263305 -166.083612 9.168297 -87.059053
-89.925432 -176.192588 9.229278 -91.764412
-102.413861 -199.448326 7.326240 -103.159594
-77.719957 -154.226077 9.321708 -81.090854
-103.169347 -202.303482 0.249563 -104.477906
-83.833300 -165.912509 8.158806 -86.055753
-90.449575 -178.703743 4.957704 -102.363337
-91.278334 -178.732378 9.033096 -92.864537
-94.555991 -184.834910 6.225497 -96.342637
-88.663144 -171.946648 12.041518 -88.606601
-90.627049 -178.650967 6.894252 -92.467565
-96.131586 -189.804536 0.301684 -97.754813
-86.719240 -170.656075 8.879100 -88.195614
-81.093060 -160.797330 8.510980 -81.549701
-98.262546 -191.814184 7.666562 -99.051995
-90.262252 -177.924207 5.683216 -91.023539
-97.141902 -191.313012 1.402297 -98.225167
-102.207169 -199.298073 5.451060 -103.020365
-90.713968 -177.854323 8.659281 -100.310911
-91.235272 -180.456913 4.900800 -102.776325
-92.613293 -181.941787 5.674735 -93.196406
-93.718859 -184.629322 4.737874 -95.867805
-89.294405 -177.410929 2.552338 -92.242552
-98.151716 -189.723264 8.352807 -107.227973
-99.673848 -193.888487 7.949063 -101.127723
-95.474983 -186.301321 8.357936 -96.730190
-98.413606 -192.611502 2.067895 -100.236701
-98.434468 -193.830279 1.831656 -99.815110
-88.640674 -175.019731 6.100056 -90.379931
-105.230404 -203.679318 3.164912 -105.901359
-98.057391 -191.187236 2.651561 -111.069348
-111.217003 -211.638012 4.461594 -111.721925
-108.461840 -210.913808 1.586678 -109.670423
-105.188562 -202.441819 6.435286 -116.956234
-94.874263 -184.341040 5.940119 -107.791257
-103.464371 -197.868370 5.420705 -103.868779
-93.459894 -182.622019 4.206585 -95.108360
-96.831445 -189.726795 5.376765 -98.430670
-92.991125 -180.501114 9.701935 -92.723188
-94.152075 -184.783883 6.660311 -96.068474
-83.996351 -166.008501 6.942846 -84.911420
-95.898700 -187.310974 7.446455 -97.584419
-111.021209 -214.543697 5.884947 -112.213255
-77.097231 -155.209645 2.285569 -80.038455
-88.577526 -174.434663 6.537804 -89.154609
-81.579353 -163.134238 1.917599 -83.295377
-70.331486 -143.427260 2.228309 -80.228382
-75.734748 -146.734175 6.615087 -80.507128
-95.833724 -186.460655 3.637402 -96.839591
-106.035862 -206.102006 4.427034 -107.097277
-107.443173 -207.747213 1.253022 -108.028558
-70.239613 -141.837176 4.366610 -72.739307
-109.295722 -211.179883 -0.926656 -109.837373
-113.243635 -218.580606 6.062096 -114.109221
-64.751937 -132.980109 4.393719 -68.103924
-84.943634 -134.228816 23.010437 -69.811299
-161.973873 -168.209560 21.652834 -99.055030
-75.624605 -153.026724 4.035875 -75.694433
-82.974060 -133.402923 27.368489 -72.443049
-51.967674 -110.193841 -5.845338 -52.162682
-103.478294 -174.806961 28.646617 -95.144392
-102.919170 -171.818860 26.997384 -91.211117
-92.971744 -164.145172 24.004640 -86.769408
-81.826848 -148.595362 20.472349 -80.164230
-97.502141 -145.565141 18.610676 -74.670532
-61.391338 -127.369227 5.671120 -61.828366
-96.667925 -165.980569 26.403303 -88.553968
-109.357522 -200.550068 20.961052 -106.095504
-93.744941 -126.730330 16.464705 -66.142581
-90.731757 -109.164626 26.603257 -61.360911
-43.218633 -82.532091 -7.716894 -37.725217
-77.378985 -78.261778 28.684854 -49.138941
-80.571579 -135.074045 16.782453 -68.197809
-125.113706 -172.885785 29.241054 -94.375579
-71.950639 -144.239152 6.825235 -72.429708
-80.784547 -142.442151 22.291991 -74.524297
-79.928707 -90.732847 30.320007 -55.227347
-103.870863 -160.539337 17.038603 -82.311993
-122.400597 -207.825863 31.382428 -113.509790
-73.368725 -139.894661 15.705692 -70.624072
-70.548681 -144.167947 4.922335 -72.281920
-87.643909 -164.778031 16.620030 -85.050050
-91.024475 -163.622625 22.103300 -85.911301
-82.316856 -124.977888 15.274534 -62.196774
-75.780154 -143.981386 15.742502 -73.139601
-72.469070 -145.501858 9.241163 -72.331726
-108.051008 -209.859168 -4.249850 -108.781909
-91.777455 -118.862131 31.898408 -67.968804
-87.352662 -105.671473 24.661588 -58.687787
-69.907839 -122.294775 21.487519 -63.113915
-89.545604 -169.591003 8.566920 -95.497875
-93.414238 -183.905439 3.659599 -94.331879
-98.605908 -187.085772 2.096865 -96.596253
-78.778333 -150.334568 5.064600 -82.582850
-74.355180 -147.602923 5.033714 -74.953661
-99.086957 -186.626405 5.447027 -97.188128
-84.935783 -106.972390 20.203584 -57.572452
-87.829870 -102.959227 25.743464 -58.038772
-80.011305 -158.459581 2.561393 -80.186807
-97.559171 -190.792616 5.232360 -99.191429
-75.036273 -149.774463 3.352145 -76.838871
-77.078971 -151.706592 3.368008 -83.925897
-76.095789 -153.272005 -0.835730 -77.888062
-79.191231 -158.942158 0.859774 -81.049591
-88.907315 -174.512908 3.224026 -89.167921
-92.684138 -182.806649 0.563714 -93.521889
-81.852196 -160.127090 2.955579 -87.483836
-93.679842 -181.920840 3.310512 -93.550300
-84.585317 -166.966503 2.016100 -84.873741
-69.066956 -138.358120 2.677670 -70.416281
-72.562309 -145.313865 1.205357 -73.601171
-81.456487 -156.455774 5.220588 -79.760025
-100.183621 -194.944538 3.194798 -106.988374
-99.247483 -195.011991 2.308918 -100.372220
-95.981773 -188.009792 1.508147 -96.561344
-80.663701 -158.344506 1.880274 -81.688448
-74.733300 -146.543617 1.812949 -74.416589
-77.981771 -152.551138 -3.536329 -83.543856
-83.262046 -165.003461 3.601579 -87.698632
-82.045806 -155.397021 7.365622 -83.264138
-91.803005 -179.821333 4.345185 -92.079669
-83.624439 -163.407326 3.503938 -91.457484
-80.729922 -155.437148 10.251819 -79.762167
-86.143814 -171.374191 5.145184 -86.968365
-75.713181 -149.380164 7.005864 -79.325177
-91.911245 -178.325741 5.625779 -91.050288
-85.189985 -101.028543 24.893075 -56.202883
-73.164430 -146.976895 5.413062 -76.566808
-86.718217 -107.245323 21.955037 -58.189062
-84.703639 -154.058918 20.572258 -79.834475
-64.982744 -133.087051 7.446607 -65.092917
-58.418515 -114.952985 13.551293 -56.172684
-56.925592 -118.736513 7.438419 -56.903641
-62.868069 -130.496948 5.653771 -63.308953
-54.410532 -116.396383 -1.580625 -55.195538
-59.760631 -125.450797 3.143989 -60.485548
-82.445061 -152.972011 7.636931 -82.858628
-88.839083 -175.969243 5.744572 -89.633572
-88.490650 -174.478295 7.879182 -88.959978
-81.014373 -161.844170 6.211623 -82.397373
-68.866170 -92.955420 14.585787 -48.546477
-65.516405 -135.619779 2.030602 -69.386592
-71.128582 -146.439739 1.132980 -72.129590
-97.845702 -192.882442 2.204415 -106.498689
-57.842821 -121.598313 4.971542 -58.316527
-51.567581 -111.825481 1.031790 -52.348657
-64.661924 -131.741461 8.597288 -64.504169
-55.297274 -116.360285 6.307540 -55.476579
-61.706198 -127.207480 7.317774 -61.781055
-97.020952 -173.224012 23.183049 -91.950161
-60.955088 -126.298924 6.393612 -61.210975
-86.453945 -152.797408 23.036138 -80.391521
-67.072865 -135.320488 9.240621 -66.777459
-61.563553 -128.130944 3.923588 -62.174482
-63.743108 -132.969248 1.794914 -64.613271
-67.066053 -139.207762 -0.963490 -68.012676
-55.915395 -117.852847 5.307197 -56.301014
-59.773894 -126.017010 -2.206594 -60.579518
-63.234355 -131.779143 -3.729690 -63.970685
-68.382716 -140.588105 2.670521 -73.481596
-58.533267 -123.517041 0.777575 -62.696285
-53.847923 -115.835810 -0.071272 -54.678865
-95.022991 -185.370810 1.534264 -95.545776
-76.250092 -149.034799 3.069076 -75.420336
-101.800248 -198.801188 6.406721 -102.692964
-62.097580 -129.565840 2.044998 -63.911971
-85.377726 -168.688474 1.595373 -91.210832
-58.897930 -120.031614 3.997691 -59.931813
-82.863158 -166.202202 2.573657 -83.891291
-69.511767 -142.152832 4.176801 -76.054603
-57.026475 -118.124297 6.259750 -58.865705
-56.648186 -119.037644 4.585953 -59.382647
-93.046910 -184.227954 2.465528 -98.919217
-53.577777 -113.120145 4.982816 -56.229405
-70.706443 -144.761165 -3.837884 -71.503032
-79.427620 -160.271027 -1.571749 -81.503333
-68.878601 -139.049788 8.241887 -69.942854
-70.145724 -141.538489 7.912887 -71.798388
-74.434906 -148.551014 8.973616 -75.990668
-85.891831 -171.137794 4.394395 -86.794503
-85.201767 -168.010030 8.782030 -85.401024
-72.045377 -145.015911 7.795025 -73.137360
-84.207368 -166.705803 7.916669 -84.563835
-78.529868 -157.122430 6.831588 -79.997334
-84.627353 -166.658756 9.297220 -84.990282
-75.113109 -150.512644 7.796524 -75.404452
-79.206290 -158.305542 6.877497 -81.315526
-67.665283 -137.532758 7.139986 -68.878474
-78.358469 -157.014923 6.383644 -79.118493
-68.600950 -139.806636 1.632913 -77.491557
-81.638703 -163.944997 1.765180 -82.857052
-60.121663 -124.282350 3.978931 -67.890236
-89.002077 -176.557928 4.661877 -89.901848
-95.500878 -188.193299 3.530066 -96.487502
-65.768723 -135.246209 3.487626 -68.334720
-93.682338 -184.907979 0.691096 -94.636469
-92.351658 -182.319557 5.174793 -93.226545
-87.130868 -172.461609 5.767899 -88.249143
-86.912023 -172.710671 4.757596 -87.708028
-75.287793 -152.104103 3.051060 -84.167545
-90.250778 -178.061790 6.713278 -90.914737
-87.775293 -172.086279 9.648217 -87.829738
-81.050384 -159.576372 10.236505 -82.942212
-76.617023 -153.924823 6.368896 -79.466478
-86.969935 -171.272559 8.602398 -87.238714
-78.094497 -154.751074 9.540833 -79.331769
-83.518348 -164.186198 10.011166 -85.092289
-89.614186 -177.759603 4.312344 -90.860262
-97.075472 -190.683711 5.371195 -98.011868
-96.503564 -190.510561 -0.037778 -97.731238
-86.262438 -168.573363 10.812274 -86.012702
-82.882361 -163.134423 9.889130 -83.755911
-76.009593 -150.374455 10.387778 -75.988423
-82.818330 -162.604787 10.478206 -84.328565
-80.182777 -156.822410 11.736999 -88.706382
-84.267366 -166.503080 8.493416 -84.562976
-86.052246 -168.356753 10.581779 -87.444888
-88.561778 -174.064361 8.707096 -89.752028
-88.838591 -171.934916 12.451402 -89.618302
-90.204984 -175.642817 10.850263 -92.051505
-89.843940 -174.239236 11.863807 -89.805442
-81.805445 -159.875959 11.614034 -82.089978
-78.245953 -154.391708 10.407449 -84.667166
-83.724132 -164.882202 9.543073 -83.725332
-81.550274 -159.659265 11.306545 -88.855058
-87.095297 -169.633250 11.384325 -86.786716
-90.972547 -176.522509 11.538894 -92.003239
-74.637471 -146.761846 11.709593 -82.070502
-77.665480 -152.801137 11.086525 -77.212331
-80.171275 -137.837376 22.562022 -71.864770
-90.038985 -175.575349 10.519885 -90.263378
-83.235299 -163.709129 9.979646 -84.180288
-86.403553 -169.975966 9.093173 -87.349378
-78.545517 -155.297374 9.926788 -78.338793
-79.349794 -155.215602 11.846351 -78.603321
-88.479662 -173.144408 9.975373 -89.402261
-84.319670 -166.645718 8.401817 -84.838423
-62.366241 -127.240821 8.380483 -63.346753
-90.178470 -176.177577 10.007372 -98.493031
-85.784468 -168.313306 9.949176 -85.739533
-78.037549 -153.720064 10.784468 -84.174989
-79.128624 -155.693184 10.794034 -78.694310
-74.711984 -147.354255 11.190895 -74.231817
-80.527882 -160.324238 7.574922 -81.567112
-72.361192 -145.092989 8.588986 -73.463835
-68.398964 -137.974632 8.581840 -76.027696
-80.280634 -159.543360 8.166184 -81.410614
-73.374605 -137.285438 17.700424 -69.768855
-75.708129 -132.231934 22.569901 -68.755262
-63.817826 -118.836917 17.601373 -59.532398
-73.892932 -128.631975 22.448008 -66.802941
-76.576175 -125.775842 24.138065 -66.445226
-83.202973 -146.813852 22.897079 -76.858057
-83.925856 -164.584192 10.483000 -84.236148
-62.714409 -125.411395 11.045132 -61.567937
-87.718154 -170.627816 8.285822 -85.713735
-67.615801 -127.990096 14.095626 -62.948935
-72.755288 -124.863071 20.959820 -63.900781
-80.955939 -149.169446 18.084641 -75.732570
-52.613848 -109.512735 -2.280830 -51.879939
-74.390604 -133.734567 20.427448 -68.919541
-62.725943 -129.511661 -4.753961 -62.853801
-80.206919 -139.736945 -3.806755 -67.909834
-78.078235 -134.481433 -4.077437 -65.022257
-81.170189 -134.941200 -3.207345 -65.167723
-100.773657 -179.600255 12.951561 -94.178502
-85.144358 -169.759866 3.869053 -93.108640
-79.961530 -126.824460 1.939471 -62.035797
-65.930429 -100.161516 20.163227 -51.055777
-79.653894 -126.436809 -4.363042 -61.827211
-48.175122 -104.195784 -4.277422 -51.149573
-81.622990 -142.384875 0.943118 -69.623209
-93.460789 -129.178668 6.683429 -66.791837
-60.040284 -111.186853 16.774742 -54.556584
-77.108682 -116.483315 1.159942 -58.077599
-83.531992 -135.488625 -3.932330 -65.706185
-84.288519 -141.011245 -2.180704 -68.540509
-81.233877 -145.394930 -0.311953 -70.973980
-68.371215 -136.069198 7.735165 -66.191588
-64.842368 -133.774828 -1.613683 -64.419502
-87.954843 -145.160183 -0.457614 -70.914331
-85.166528 -142.473185 -2.222555 -69.369771
-82.035374 -139.532229 2.981751 -67.743949
-85.357485 -139.885856 -2.321017 -67.912294
-86.094762 -146.649959 12.520463 -73.354759
-97.812566 -192.702800 2.193412 -99.015347
-85.787842 -138.888746 -2.364068 -67.430289
-84.397949 -134.128332 -1.105124 -65.557884
-84.082951 -161.250929 10.545629 -80.900557
-78.756467 -150.413680 -1.602584 -74.327390
-84.521385 -139.440723 -2.139163 -67.652172
-86.052722 -171.767881 -3.103858 -87.074739
-89.814064 -145.157746 14.017081 -72.833576
-85.614926 -144.362884 -2.384054 -70.444119
-87.314201 -145.488316 -1.070045 -71.036657
-87.553535 -144.625390 0.915697 -70.546293
-76.903116 -123.284060 17.375669 -62.456503
-76.666908 -138.176467 6.778671 -67.307509
-95.002809 -156.698761 28.746194 -84.512769
-70.573783 -123.252325 18.005079 -61.944575
-82.811109 -151.167982 6.439393 -74.580380
-80.894732 -139.499800 0.179443 -67.638821
-86.592203 -147.610974 10.542934 -73.332494
-85.894154 -147.845351 2.477420 -72.415394
-87.546585 -152.044580 24.493516 -80.373272
-83.764973 -164.011650 10.866304 -88.845112
-85.849996 -168.768696 9.420947 -85.917034
-88.485438 -170.706251 13.129302 -88.202163
-82.657213 -164.908533 5.875673 -83.409346
-69.586245 -120.462506 22.024026 -62.266390
-91.289438 -174.242854 14.795578 -94.118950
-89.790750 -175.228381 10.372186 -90.733451
-90.785653 -177.319277 9.912062 -91.019113
-89.510978 -173.247969 12.330422 -95.389956
-87.657321 -173.361864 6.906108 -96.545424
-88.242998 -171.129408 12.112182 -87.733662
-94.566458 -180.072300 14.957262 -93.256521
-86.740161 -170.578692 9.083484 -87.578148
-81.672253 -126.505407 15.389692 -63.168821
-81.052933 -135.867932 10.480118 -66.786287
-68.037151 -112.340005 23.490006 -58.760240
-71.639744 -101.960113 27.405366 -56.308468
-98.897004 -142.293001 10.733018 -72.445717
-88.383876 -142.290423 4.203185 -69.401151
-87.437355 -126.844826 5.961401 -64.284654
-87.007971 -135.167129 0.069891 -66.652530
-122.858346 -211.095394 30.306278 -122.014979
-98.613919 -121.005429 1.084231 -65.885804
-91.809024 -175.107742 14.867532 -99.261361
-93.618139 -180.058926 13.095435 -99.953772
-105.367490 -200.236667 14.455737 -104.526859
-109.333191 -203.754614 18.278073 -107.278174
-86.273289 -163.756970 15.909402 -92.997316
-101.234801 -193.079423 14.046661 -100.731562
-98.732540 -189.312027 13.123327 -106.302145
-102.792116 -123.167484 2.159783 -67.787880
-103.228324 -195.644359 15.232194 -102.459498
-100.250244 -190.887242 14.506959 -109.431041
-92.278747 -129.768529 -5.281089 -66.614183
-99.636448 -128.227879 -0.382943 -68.359298
-97.616990 -125.851624 -1.248075 -67.040584
-116.987150 -216.883447 19.192637 -114.848941
-88.745064 -117.549944 6.303047 -61.888502
-88.118336 -134.647418 6.009396 -66.829726
-96.776350 -182.465182 16.553953 -95.931687
-92.922189 -100.179115 2.641496 -57.930391
-117.493117 -217.171184 19.770714 -125.674979
-89.001805 -171.567239 13.204146 -88.522424
-87.737079 -154.567254 -6.459383 -76.510909
-86.434740 -134.508841 3.773169 -66.283074
-82.630848 -144.558407 -7.789139 -71.044683
-93.259677 -137.913913 -3.622075 -69.352077
-95.345006 -173.340744 19.546864 -91.351641
-91.612802 -151.377193 -6.756390 -74.782454
-69.041317 -131.260914 -16.030563 -66.078192
-91.769932 -164.754216 -14.005100 -83.388890
-100.879643 -179.655302 15.169129 -101.689827
-116.492940 -208.876041 17.086718 -111.720227
-141.620862 -237.662887 33.559330 -131.456551
-84.967045 -153.068750 14.165078 -87.430325
-79.768232 -143.927145 11.797162 -76.314492
-76.823021 -154.773308 -5.295269 -77.503397
-89.755192 -164.367954 15.528793 -94.748094
-80.804333 -148.249591 -8.003091 -73.304232
-79.471028 -152.757555 -6.468054 -75.667033
-76.536257 -153.192316 -7.617591 -76.817858
-110.193499 -214.116920 4.717199 -111.291087
-144.058549 -243.534854 27.121530 -134.259830
-85.758407 -158.776075 -6.448376 -78.943568
-83.759304 -160.548017 -4.340817 -79.890979
-83.692104 -146.254252 -4.463652 -71.637820
-84.787995 -150.175457 -2.904122 -73.812722
-84.326428 -141.531723 -4.026951 -68.945006
-89.875199 -145.540276 -1.908904 -71.088561
-88.067529 -148.973333 -3.300469 -73.097091
-91.124585 -143.936177 1.426644 -70.619209
-85.229495 -139.988663 0.370867 -67.915499
-85.260713 -140.394615 -1.300444 -68.160206
-91.996159 -181.892953 4.672502 -92.946217
-93.529766 -185.280801 0.041847 -94.740540
-84.554745 -150.943086 -1.665081 -74.328899
-77.821510 -152.276007 -5.025157 -75.211246
-86.157125 -144.601867 -2.437741 -70.582146
-84.062196 -149.955598 -3.493570 -73.657859
-101.683418 -199.549779 -1.949895 -102.911854
-109.679201 -211.828979 7.786771 -110.897239
-104.672067 -204.898589 1.431519 -105.920515
-108.917740 -196.923171 8.869909 -104.967871
-95.560424 -154.718307 29.262920 -84.005729
-94.182128 -170.782713 -2.787398 -85.635594
-90.887291 -179.922711 -4.607647 -91.808696
-107.391237 -208.533809 5.861458 -113.905292
-107.803534 -209.335034 4.981577 -108.682065
-97.998789 -171.167846 25.359639 -91.220702
-81.884667 -163.829803 2.807429 -82.713509
-123.071729 -203.125868 21.461100 -111.846011
-111.679416 -212.630498 13.190020 -111.196631
-65.705998 -134.036738 5.955837 -68.689644
-75.338307 -152.677477 -3.528675 -76.200201
-70.827110 -144.245096 -4.914362 -71.476829
-95.228278 -187.434387 3.325407 -96.578657
-106.050989 -188.762272 7.315075 -100.394759
-80.486407 -144.776979 10.737791 -76.360149
-64.683542 -127.055014 5.411622 -64.354872
-115.774822 -203.794615 11.424544 -119.797687
-105.431611 -186.033225 14.527451 -106.217266
-112.690356 -194.640136 17.174201 -105.412980
-113.582557 -199.692044 18.581764 -107.228660
-111.493345 -216.278756 4.864806 -120.910356
-108.900202 -211.883616 3.692822 -115.930403
-110.048918 -199.141966 6.637401 -113.515611
-107.362437 -206.024317 10.646896 -107.313260
-113.397478 -215.620420 12.496729 -113.024069
-111.399030 -216.443174 0.169699 -112.515313
-108.793767 -211.417469 4.372814 -114.247332
-124.473538 -239.150213 3.846266 -125.641445
-102.115274 -188.242722 6.995501 -99.177833
-115.947683 -214.296645 6.143665 -112.752160
-97.299396 -189.575765 8.174008 -104.380379
-70.132519 -99.195658 -23.539518 -52.264398
-124.173752 -233.699902 13.796981 -123.544718
-113.343487 -217.214378 9.810581 -113.587775
-133.100314 -244.543165 19.795449 -130.904292
-115.751028 -223.990016 3.792633 -126.389990
-128.678724 -247.264401 1.539771 -130.190110
-115.706533 -223.296036 5.860935 -116.797584
-85.891447 -128.451358 2.484145 -64.302841
-104.298479 -136.072073 24.417579 -74.155660
-134.778289 -256.619107 7.620796 -146.479183
-82.324610 -163.842614 6.066778 -82.790915
-84.570252 -134.227709 8.818066 -65.782915
-114.169320 -172.414053 4.889203 -91.065286
-89.754442 -130.155060 11.843617 -65.972850
-102.295234 -171.943648 26.992181 -91.411475
-86.170840 -145.018608 9.654405 -71.772527
-135.062302 -200.937681 24.055111 -108.057049
-88.342658 -145.540413 25.660356 -76.825675
-100.214964 -166.569596 15.758409 -85.029988
-86.448238 -144.720291 26.195295 -77.350999
-112.573995 -214.358400 11.914137 -112.296380
-93.923679 -162.666384 25.453325 -86.632879
-76.070909 -149.225719 9.947558 -75.657176
-103.243236 -139.851798 17.182177 -80.803184
-88.002370 -137.346173 28.995639 -74.367100
-98.742466 -172.039418 25.418801 -91.617822
-95.154789 -162.706084 26.375187 -86.967763
-114.182614 -190.362693 4.250211 -97.747349
-121.408816 -171.799089 4.037788 -92.067240
-82.267776 -147.140094 21.172925 -75.542078
-88.810662 -147.522207 26.537402 -78.527211
-94.494158 -161.372519 25.205901 -84.867760
-98.324497 -169.434510 25.858804 -89.393631
-88.051802 -57.914206 17.137689 -43.789802
-105.187085 -136.956789 17.828935 -74.439061
-119.627939 -171.272121 13.655240 -99.210849
-114.210833 -156.349905 21.301718 -96.383105
-127.781928 -181.894282 7.979448 -97.882987
-121.330599 -177.801752 0.773396 -96.171864
-114.342894 -172.926851 0.878248 -91.171379
-98.579099 -161.861935 1.749749 -87.560505
-108.585376 -168.262301 9.403838 -90.614840
-90.144119 -145.019646 28.601058 -78.596212
-101.050044 -145.268375 14.739876 -86.412308
-139.677401 -259.459281 15.721864 -138.453393
-94.325465 -145.681464 11.216030 -84.728950
-107.712001 -142.826401 21.372845 -83.585739
-120.084741 -184.291065 8.996416 -102.625868
-92.302875 -162.519014 23.973786 -85.955644
-99.886123 -163.635009 27.950071 -87.522649
-93.089373 -184.461971 0.899329 -94.241419
-82.296809 -154.171320 16.530086 -78.037029
-113.349285 -215.304772 9.049344 -110.996354
-95.864244 -189.371257 -0.042913 -97.069821
-95.988784 -189.595678 -0.230196 -97.203468
-118.122745 -222.253569 -15.755780 -117.211908
-87.583805 -173.568458 6.083704 -88.297229
-153.304349 -287.058820 11.090407 -153.448856
-95.984093 -189.533140 1.571608 -97.190489
-58.298996 -115.254022 12.109077 -55.956845
-123.020525 -222.421628 -21.599710 -118.311553
-118.379040 -187.380817 6.674932 -101.419495
-99.244951 -172.438321 22.563549 -90.237006
-89.749075 -145.596708 14.864422 -79.713683
-65.247713 -101.306607 23.439908 -52.731126
-68.649548 -140.608043 2.725621 -70.794342
-61.372989 -122.575836 -11.155955 -59.496973
-52.372505 -111.420604 -4.051637 -52.647584
-92.595387 -157.851809 12.273827 -88.107971
-112.184847 -218.035061 -0.025887 -113.451595
-131.897894 -239.974073 19.867227 -128.374460
-65.078738 -122.009013 -16.987237 -64.064731
-71.538685 -146.047167 1.736915 -81.790447
-132.769813 -254.307049 -3.314552 -134.277335
-38.985171 -87.608805 4.415269 -41.315348
-29.019293 -70.009882 -0.539031 -29.708753
-61.911915 -125.238152 -2.473303 -61.474907
-64.018558 -116.726365 -16.076377 -59.519190
-60.768613 -123.749464 -9.018553 -61.846662
-58.639672 -79.664116 -12.051082 -41.491136
-62.944633 -115.436561 -17.196239 -56.927889
-26.619338 -65.885455 0.168167 -27.751438
-63.846991 -110.000100 -14.083076 -53.194365
-54.187391 -110.585777 5.852469 -54.782903
-101.451392 -180.911208 16.983710 -101.050499
-79.555458 -155.058825 12.398169 -78.615863
-84.538567 -163.436006 10.492346 -90.320939
-57.942564 -122.057730 -0.469897 -58.631323
-90.083075 -145.000274 -2.247296 -70.825291
-101.622062 -193.452514 -4.775800 -104.964257
-101.641029 -158.879776 17.816217 -92.749126
-78.148783 -154.156043 6.363640 -76.316330
-118.699014 -196.199434 23.645283 -118.320107
-86.100313 -102.386921 18.214803 -56.546170
-101.957977 -161.693969 -1.077234 -82.874436
-108.239184 -183.512716 -6.066711 -97.396055
-105.722291 -186.610608 3.112311 -98.889698
-89.178930 -120.568772 5.287272 -62.924310
-108.592060 -170.359751 -1.127727 -88.803793
-63.430578 -118.411579 16.748217 -58.407679
-92.633749 -183.347062 -0.079988 -93.641693
-62.350414 -127.253056 8.189926 -62.181933
-87.776884 -159.669267 7.129888 -79.508834
-93.602028 -82.440055 -1.668021 -52.812625
-64.698914 -97.478614 5.957748 -48.653259
-79.313137 -99.010167 8.765614 -53.496991
-52.728651 -82.118230 -20.890130 -41.312572
-111.867508 -194.176104 -26.386592 -104.504248
-78.324757 -144.237044 -4.259880 -71.743124
-95.432843 -77.413470 -8.383976 -51.853894
-88.581245 -55.143088 -8.495229 -43.117300
-103.890375 -191.455923 -19.892065 -104.348677
-70.869733 -137.807447 5.913596 -75.453331
-93.897792 -170.414590 -21.406168 -94.793087
-82.355983 -141.890824 -24.104202 -75.041500
-100.264665 -81.003224 -2.443867 -54.380367
-90.816721 -61.851533 -4.354505 -45.800476
-91.700759 -82.600006 -3.476008 -52.290229
-94.507722 -105.464383 7.375437 -59.991631
-97.073468 -79.805659 -3.600959 -53.063738
-102.577584 -92.052640 13.570413 -58.389067
-86.847277 -88.468693 3.137070 -52.594791
-84.751373 -74.495733 5.731350 -47.774132
-97.867127 -79.589955 -1.533725 -53.237125
-139.717430 -144.726888 -9.573897 -85.333295
-107.191109 -78.917481 3.534164 -55.832577
-105.801582 -91.765293 -15.001631 -59.270063
-102.723572 -85.589595 -4.968540 -56.493950
-95.347962 -84.130233 0.536960 -53.843458
-99.592977 -77.084654 -3.272471 -53.003289
-121.403917 -86.201290 -6.098815 -62.281562
-91.709175 -174.011364 -15.286653 -95.099591
-105.060311 -83.536792 0.126179 -56.579131
-85.444761 -161.934750 -15.797718 -88.323758
-118.733522 -218.660989 -20.243036 -116.047085
-89.142579 -76.934287 -2.101806 -49.823060
-95.740155 -74.211482 -2.170601 -50.985491
-98.436420 -185.646507 -5.628039 -95.902363
-95.174989 -166.336126 6.359432 -94.672270
-116.107439 -209.603652 -21.538053 -110.995205
-102.232390 -187.930465 -11.852852 -97.907945
-125.823324 -232.108794 -0.536573 -129.529419
-85.885373 -163.037031 3.643134 -89.876294
-108.424308 -197.968513 -10.362936 -111.003525
-88.985040 -161.046646 4.246413 -83.574934
-118.787407 -203.290495 -2.526819 -114.860575
-64.906190 -130.039556 6.383471 -68.409194
-106.889800 -183.265405 5.009455 -104.329487
-104.204714 -186.827553 0.987749 -105.423213
-94.509007 -174.228416 7.143860 -90.306082
-99.091827 -173.634258 9.593582 -90.934946
-97.763513 -172.673783 -1.536346 -98.855417
-69.319931 -137.280312 6.411044 -69.184105
-89.756309 -169.110128 8.199972 -93.203749
-92.671313 -169.224246 6.217423 -87.868557
-85.991515 -159.448093 2.247226 -83.168755
-98.311575 -180.497177 -2.015373 -100.811049
-94.578979 -174.491136 -3.467114 -90.774372
-90.890583 -167.665231 -14.980240 -86.934779
-97.101836 -184.130514 -4.766509 -99.350503
-74.137533 -144.387986 -1.392967 -72.640729
-81.776020 -155.682499 -9.806155 -81.440224
-67.586000 -137.853105 5.174361 -70.589777
-113.880794 -202.032431 -23.514906 -110.384608
-76.611974 -153.470759 -0.804698 -80.340444
-69.797748 -136.766958 0.664914 -68.943005
-85.509236 -159.929660 9.926642 -87.988140
-77.102806 -148.909031 3.768446 -75.523810
-88.540349 -165.681286 7.330255 -85.311971
-95.073487 -177.150489 -2.708068 -91.955612
-94.655550 -181.393341 1.901902 -93.611772
-94.083852 -170.094373 2.842535 -93.497133
-92.148770 -174.238861 4.785063 -89.762548
-94.208810 -172.810895 5.846700 -89.091409
-77.356638 -146.497451 2.976377 -80.448677
-86.212501 -158.185345 2.250494 -80.873235
-98.314323 -169.482991 2.162085 -94.984553
-76.254383 -144.535644 1.305710 -77.633935
-95.598034 -172.325187 5.172452 -95.790619
-100.224711 -171.107154 -4.905853 -89.610487
-94.802289 -164.579647 -1.357348 -90.282664
-93.545193 -164.249106 -0.068816 -89.649237
-95.459899 -168.753909 2.067352 -93.266295
-89.606150 -154.104977 -2.758084 -84.228511
-95.876082 -165.655187 -4.518594 -85.918576
-92.585286 -161.062678 -2.912611 -83.406493
-95.378586 -164.922457 -1.503831 -89.395019
-94.470369 -158.958106 -5.407309 -86.164136
-89.651309 -149.831779 -3.856188 -78.351452
-90.973969 -153.280462 -4.061277 -81.342991
-91.979107 -157.264878 -3.200305 -86.286231
-91.015004 -149.940526 -3.769333 -79.207520
-90.987044 -147.146036 -2.467139 -78.500549
-88.763042 -145.150578 -3.176815 -76.728273
-90.795628 -149.892080 -2.949625 -83.008915
-97.137430 -159.676745 -2.174280 -85.576297
-93.800281 -154.121071 -2.805788 -84.876248
-100.564446 -165.315186 -6.683686 -87.515109
-97.671343 -159.506906 -5.182583 -87.635840
-87.432320 -149.787448 -2.871639 -79.906021
-96.650225 -164.347807 -7.337072 -85.736845
-101.283154 -170.735884 -7.087926 -96.413243
-94.995154 -162.759983 -3.110041 -84.562002
-97.746241 -168.423701 -4.902242 -87.811462
-96.921107 -164.902439 -6.116009 -91.169533
-99.574294 -161.783927 -3.612935 -88.769620
-104.817568 -178.113052 -2.678969 -95.124332
-100.214462 -165.530033 -6.189056 -86.944524
-104.029050 -169.454745 -6.561171 -93.856657
-105.557736 -168.896478 -1.991238 -91.630614
-98.243328 -158.273789 -4.607702 -86.935387
-94.858280 -154.768793 -3.721489 -80.656053
-96.521697 -163.067544 -3.401409 -85.604630
-110.159256 -185.006518 -0.355402 -103.339922
-101.003702 -163.124136 -4.000851 -89.399973
-102.058618 -162.961268 -4.626877 -89.714574
-109.735042 -176.562137 -0.323026 -95.093726
-101.655704 -165.204614 -5.264409 -91.931078
-108.021355 -175.975976 -6.361568 -98.671791
-97.647917 -162.571051 -4.563381 -85.037132
-101.557485 -168.778805 -6.771815 -94.184890
-98.846497 -166.822206 0.351981 -93.321157
-96.302126 -166.697040 1.194708 -92.685016
-98.554097 -169.230147 -2.621399 -88.929885
-99.449667 -168.954839 6.513032 -96.179653
-102.829474 -175.304571 -4.687010 -92.246159
-98.924520 -169.231857 -0.860963 -94.248360
-97.640339 -165.731624 -1.413468 -87.825379
-97.530692 -167.877953 0.319413 -93.765751
-90.952920 -163.759289 2.478974 -90.254925
-94.979035 -166.818630 1.734437 -92.565919
-86.104355 -158.397289 5.595860 -81.610830
-96.969089 -170.668300 3.957635 -95.210304
-99.063251 -170.262708 4.990603 -96.096973
-91.890021 -164.895850 5.262579 -91.859645
-98.758177 -169.983791 9.018750 -96.639215
-97.098861 -170.962440 6.804153 -96.097908
-97.019145 -171.142591 10.385704 -89.311964
-85.201658 -156.147544 5.671601 -80.534803
-96.162699 -167.918423 3.580810 -94.145056
-102.277148 -173.127022 0.632030 -98.570213
-97.729508 -168.763044 5.773906 -95.314100
-99.426100 -169.999255 4.777187 -96.659362
-103.392217 -172.448159 5.260337 -98.205189
-99.312010 -169.120734 1.343400 -95.639046
-115.682554 -187.979175 -0.665176 -108.273784
-103.135030 -174.390878 2.782098 -99.900659
-113.053852 -187.151947 -2.329284 -108.472244
-100.127770 -171.949141 2.066262 -97.089623
-105.140863 -176.479983 0.255537 -100.466524
-104.967017 -174.607649 2.794948 -99.666676
-102.714347 -174.880656 0.852018 -99.404376
-101.124531 -172.387121 -0.508653 -96.390348
-101.994635 -172.062407 1.920720 -98.391137
-100.192733 -169.649465 3.774195 -96.210037
-105.210977 -174.699727 -6.389599 -99.520729
-105.138115 -174.881185 -5.703440 -98.149225
-99.972143 -167.883285 -1.777399 -89.456268
-103.305833 -174.623257 -0.768715 -97.974934
-104.188798 -166.507168 -3.675484 -91.381975
-106.596160 -179.111175 -0.213782 -94.269371
-107.117782 -178.250616 -4.764213 -101.874600
-99.855794 -166.562209 -3.838477 -87.791608
-112.788163 -180.849703 -4.133983 -99.794948
-108.473539 -174.451174 -3.355501 -95.354532
-103.495879 -167.215692 -4.659543 -93.164465
-113.768539 -181.689046 -1.668082 -98.249852
-105.612676 -171.561506 -3.807468 -95.553173
-107.756361 -173.840173 -5.305278 -96.298566
-106.698935 -179.402678 0.586101 -101.399825
-104.092084 -170.920273 -3.428188 -96.999079
-106.122773 -173.995242 -2.229612 -99.336908
-101.430784 -170.543959 -2.356252 -90.070750
-113.813508 -189.867197 -2.467542 -107.984242
-114.320207 -184.540793 -3.428341 -103.559447
-103.903444 -175.806367 0.726817 -93.717535
-111.202793 -183.338409 -3.346549 -104.136472
-117.740852 -189.037238 0.829417 -101.167036
-107.383717 -173.970310 -2.751383 -95.248055
-107.685309 -177.905185 -2.488878 -99.168186
-100.788358 -187.872141 9.383268 -98.500881
-112.965562 -189.648066 2.397180 -102.838046
-131.052671 -224.678213 15.038170 -118.862276
-116.929527 -190.418706 -1.028497 -106.992640
-111.007892 -192.697128 2.633136 -106.840477
-121.200784 -210.286470 4.807908 -118.695393
-108.923998 -184.154200 1.158343 -105.591391
-107.020107 -190.831586 -1.640941 -110.281157
-104.187674 -174.771915 -0.414726 -93.522941
-113.700525 -188.379967 -0.750991 -101.059780
-104.136550 -175.121775 1.408455 -100.238857
-109.184495 -181.905697 1.238775 -103.257628
-112.429853 -189.807466 0.496169 -108.901037
-110.416992 -181.705753 -3.301863 -105.156358
-102.998996 -173.378259 -1.035896 -92.890254
-106.200941 -179.040078 -1.118813 -96.176339
-110.414678 -186.081372 -0.787979 -99.881433
-106.861611 -180.429520 1.274605 -103.432070
-110.463672 -185.634842 0.667642 -106.636069
-107.867142 -175.989547 0.881571 -101.540885
-104.984477 -175.539605 0.911707 -101.219688
-105.907081 -179.171110 1.458865 -102.103577
-107.502916 -180.947833 1.563452 -104.013047
-107.113452 -180.091971 1.413367 -102.828838
-109.882366 -184.993339 1.317241 -105.843079
-115.722491 -192.711782 -3.761793 -111.644626
-110.766338 -183.822929 0.044459 -105.938540
-106.052282 -175.460293 -1.060765 -101.583068
-108.543176 -183.550876 -2.215692 -105.610298
-109.928949 -181.067178 -2.565280 -104.241942
-119.205424 -212.957566 -7.104962 -119.625598
-117.746120 -205.843056 -7.773250 -116.489939
-117.528039 -195.844916 -6.335608 -112.326790
-121.825245 -217.824981 -4.391304 -121.392021
-113.731421 -188.456766 -6.600263 -108.019830
-102.506431 -172.407601 9.124140 -98.836230
-111.913626 -182.841138 -1.487612 -105.128562
-117.569215 -196.932391 -4.598894 -112.553808
-121.907831 -207.335760 -6.871485 -117.444842
-107.931791 -175.057231 3.191882 -101.105221
-121.099160 -196.159077 -4.849921 -113.201961
-121.970423 -201.203681 -6.116206 -115.048073
-120.612069 -195.414263 -3.845080 -112.240307
-104.796400 -171.616209 4.112106 -98.699945
-110.075409 -180.750422 1.334481 -103.998336
-108.954082 -178.466356 3.513013 -102.542866
-120.960897 -198.678849 -4.718900 -113.585665
-101.478954 -170.300104 6.481909 -97.222159
-101.869454 -173.980134 2.335669 -99.753595
-106.275428 -176.415292 4.187767 -101.224475
-113.187440 -185.854116 0.269719 -106.582150
-108.571466 -179.349387 5.568625 -102.909158
-104.483966 -195.380350 -9.719558 -101.139872
-102.254428 -183.240405 -7.730691 -103.967599
-108.636822 -185.910318 -3.139687 -106.324005
-111.926102 -184.798233 0.011613 -106.301001
-115.072508 -187.082109 0.307702 -107.531918
-121.895489 -214.693226 -8.307893 -120.611196
-114.024582 -193.429470 1.935697 -109.678875
-112.651384 -198.244191 -1.639306 -111.790405
-127.523424 -242.276340 1.784615 -126.668397
-112.140608 -202.626180 -5.816712 -114.508126
-114.420236 -207.900234 -4.158682 -116.911244
-123.845553 -231.462847 -10.400678 -121.502227
-126.092168 -237.404982 -5.175839 -124.526227
-114.247745 -208.007004 -5.338668 -116.337137
-124.622004 -228.389202 -8.815040 -128.010497
-90.983790 -173.796224 -13.023677 -95.121844
-108.953185 -198.367063 -13.931511 -112.465310
-121.637167 -226.205369 -17.104506 -119.379658
-131.527081 -248.039962 -9.779782 -140.196729
-100.180943 -85.400275 -3.292148 -55.674366
-84.476039 -164.659573 -10.649143 -83.676408
-98.043127 -90.647057 -2.673506 -56.607055
-132.242980 -248.368376 -14.504617 -143.043198
-97.753735 -94.408267 -7.901546 -57.648600
-134.332128 -256.425629 0.964306 -146.339656
-97.976151 -115.328795 -9.688760 -63.991484
-91.284610 -115.867752 -7.156428 -62.145709
-97.377632 -96.478608 -10.885979 -58.156872
-95.678217 -105.237794 -5.386669 -60.274803
-100.867090 -101.776746 -6.089762 -60.793151
-95.980300 -97.487701 -7.431006 -58.040401
-125.901644 -232.235206 -5.293045 -130.262147
-128.557069 -244.478741 8.595183 -128.174524
-83.253626 -165.044693 -2.303326 -90.308968
-100.337774 -96.437516 -9.688779 -59.032587
-121.418539 -218.186722 -1.681944 -121.622309
-104.286570 -196.853654 -3.972892 -101.517230
-91.747485 -173.526709 11.421815 -92.583157
-126.950496 -237.393154 3.288835 -135.023342
-97.580770 -186.754034 -0.208794 -102.653385
-104.034443 -194.335577 3.859008 -100.855939
-88.128018 -173.072033 4.109342 -93.905713
-99.065390 -90.701188 -9.658731 -56.929973
-99.887634 -87.458381 -6.487087 -56.203804
-89.700388 -131.843482 1.228502 -66.463161
-104.182424 -100.242505 -7.356569 -61.327479
-97.594423 -135.982418 2.633292 -70.073053
-97.257954 -129.109857 -2.639148 -67.910343
-101.563355 -121.897384 1.893751 -67.038222
-99.074284 -78.367241 8.803934 -53.232458
-100.569219 -108.758016 -2.921617 -62.798170
-90.092176 -116.898744 0.735869 -62.097276
-112.084634 -113.252516 6.815540 -67.601145
-96.732529 -170.108094 19.396025 -91.802704
-100.044140 -83.848396 -0.379877 -55.167761
-138.128337 -249.651757 23.812005 -143.202549
-98.798972 -96.908282 -5.731263 -58.712176
-127.561277 -235.684367 13.007776 -133.050999
-131.454830 -245.911692 15.247944 -129.229066
-108.505105 -106.326670 -1.907817 -64.449533
-96.892591 -101.604269 -1.608224 -59.549058
-118.431097 -210.481025 -6.476777 -117.135197
-121.765495 -213.988375 -7.275643 -120.407158
-127.745854 -233.669458 8.058629 -122.761039
-108.044270 -200.801442 1.498777 -113.665908
-114.740643 -196.481255 -9.770903 -112.233734
-121.260172 -209.950159 -6.877105 -121.024734
-119.646135 -209.728845 -9.703930 -119.007876
-116.749296 -207.673511 -8.236611 -116.277385
-120.426943 -213.129035 -10.609148 -121.198741
-120.806727 -208.957611 -9.296307 -119.446644
-120.376918 -213.389477 -9.086185 -119.569560
-113.036882 -202.200406 -10.191980 -115.143380
-130.709159 -217.932189 -3.998534 -121.326056
-116.058734 -208.930114 -0.859990 -116.082181
-130.915934 -224.772236 2.483053 -119.780410
-110.389649 -201.682599 1.864112 -111.080525
-129.151136 -212.747854 15.453472 -114.311979
-111.222213 -201.748275 9.860024 -112.990030
-128.678935 -219.559765 -7.426951 -116.228063
-125.795743 -217.750954 -8.393335 -122.424765
-119.818963 -208.921698 4.611412 -109.448866
-113.212928 -197.527324 0.065229 -107.717114
-119.142153 -216.560129 -11.227126 -122.808659
-117.501131 -208.480074 -13.193111 -117.295567
-129.676029 -222.564815 -11.089525 -124.794392
-116.772233 -203.393716 -9.667046 -113.205708
-116.908671 -200.741841 -12.727918 -111.380490
-126.360407 -214.992712 -9.880873 -119.498140
-133.155978 -222.050257 3.246758 -118.056965
-117.490286 -193.400080 -3.883354 -106.638487
-119.784816 -198.964165 4.220202 -112.871666
-158.785965 -241.601709 42.155409 -142.788053
-135.439635 -210.217465 6.336296 -113.925210
-118.764498 -190.126168 21.940501 -99.833901
-111.696927 -186.560211 23.008201 -99.262930
-116.268614 -176.061081 29.047142 -95.091012
-122.227237 -181.554728 37.584295 -101.850879
-120.182327 -124.098486 18.390505 -73.284244
-122.701120 -189.441874 23.710704 -106.844528
-99.980680 -160.364762 31.011896 -87.820518
-171.101492 -274.159171 45.064321 -165.270986
-121.901784 -183.001592 32.079368 -100.281843
-103.970278 -80.610526 20.560338 -55.462609
-92.135497 -125.440614 4.911699 -65.272833
-99.726750 -118.779172 10.072411 -65.551777
-108.499647 -153.275682 12.451018 -78.698629
-142.952157 -152.662975 35.107467 -92.659474
-107.056918 -137.127448 14.684559 -73.293464
-115.373176 -159.387080 30.933210 -88.149939
-103.811523 -143.484050 14.876752 -74.262487
-98.570018 -137.266918 8.383012 -70.751081
-102.658469 -158.193161 4.573706 -78.431999
-117.954834 -184.522061 30.505563 -99.832322
-129.570689 -168.276624 34.939681 -95.787406
-105.730557 -157.457951 25.604383 -83.857990
-108.956073 -191.297140 19.069713 -99.319335
-132.067928 -208.216690 -2.005887 -114.700057
-111.430656 -203.000609 20.313602 -106.009017
-100.511773 -164.914693 28.685833 -88.231576
-104.659885 -154.289108 32.029722 -85.042177
-98.192400 -175.239356 23.451264 -92.716360
-96.249443 -174.803523 19.711465 -90.270400
-113.041459 -148.546576 13.027739 -78.743421
-113.367734 -163.824828 29.018775 -88.975827
-114.269125 -163.114871 33.053829 -90.552353
-103.560717 -158.667609 33.327967 -87.359266
-129.399467 -178.323060 38.695713 -101.759020
-141.815122 -226.754137 -8.515247 -123.688702
-131.183364 -178.061193 20.815072 -94.502005
-169.227482 -314.762753 -4.201145 -166.861114
-139.210333 -157.198662 30.188822 -90.802584
-117.644705 -77.350883 16.061295 -58.588755
-112.693670 -140.745105 6.281830 -76.031632
-124.954783 -183.221714 1.894549 -93.370569
-138.789817 -225.380578 12.618469 -127.594606
-150.413810 -157.123402 3.868783 -92.261164
-105.552910 -199.183998 10.143121 -102.100768
-115.964183 -194.427361 6.285292 -99.036101
-101.515117 -180.175454 13.420286 -91.935482
-105.895320 -188.559838 9.360732 -96.020022
-97.429311 -189.786646 8.872307 -97.799267
-105.750793 -200.709514 11.811542 -103.111685
-109.295063 -198.833537 14.804798 -102.580938
-101.180724 -191.067916 12.999327 -97.886998
-104.301047 -163.441592 17.487723 -83.929278
-106.915239 -170.237591 9.511247 -85.848111
-104.465129 -204.350441 2.948692 -105.696513
-123.965042 -238.514886 4.738352 -125.280228
-103.173385 -195.647592 10.399586 -100.180545
-99.955639 -190.628681 12.746765 -97.576109
-104.650105 -196.177113 13.587940 -100.920243
-106.592780 -198.057605 13.137488 -102.198960
-104.116634 -196.944329 11.622621 -101.031489
-106.037441 -199.360678 9.238862 -102.381089
-114.304235 -218.720082 11.148151 -114.529068
-116.473608 -225.003216 5.663557 -117.615593
-110.090639 -207.867731 6.766770 -106.951945
-114.797126 -216.812896 9.039259 -112.050273
-138.188093 -260.506728 -11.790747 -137.664146
-126.860515 -243.884934 -0.523118 -128.098767
-116.965940 -226.543939 -1.952887 -118.304910
-134.707286 -257.581216 -4.571870 -136.162565
-124.567725 -230.874502 -14.035863 -131.714163
-113.384979 -220.329947 1.130834 -114.785141
-129.683859 -246.301211 -9.848770 -130.032743
-143.621245 -258.513566 -21.912343 -138.084069
-119.281986 -220.982050 -13.874719 -125.306261
-121.236593 -224.112584 -17.420789 -125.101415
-108.723146 -191.536791 -1.610694 -105.668262
-99.924008 -195.495488 6.055021 -100.803786
-104.732052 -200.006811 13.175177 -103.313859
-107.579777 -189.067190 10.942660 -102.660932
-107.945624 -189.627656 2.424933 -98.834012
-118.335498 -208.679606 -12.431817 -114.011134
-120.483461 -207.924317 -6.156107 -110.329483
-130.812133 -211.900077 -6.176858 -118.393951
-122.764291 -226.653790 -11.570239 -129.599023
-121.379772 -231.216851 -7.257827 -129.625454
-119.203912 -218.447318 -16.136878 -121.641360
-129.589702 -232.633094 -15.584165 -132.877838
-130.306665 -229.330621 -15.542207 -120.933649
-121.937065 -217.471013 -14.359650 -120.681271
-119.045048 -223.891280 -3.380514 -125.836169
-119.510465 -230.613972 4.498056 -120.663518
-121.707422 -228.659201 -4.093292 -128.821476
-124.724491 -226.441526 -2.305859 -130.942379
-110.537016 -194.411842 -0.127710 -113.414421
-116.251371 -200.485167 -5.491637 -116.971478
-107.534657 -204.532008 -6.218362 -118.277724
-115.531513 -218.545132 -3.644179 -123.633808
-136.310435 -254.901368 -16.181694 -135.764144
-130.016966 -232.139910 1.836670 -138.097484
-110.556797 -212.785058 -9.214688 -110.949629
-129.247390 -237.643283 -2.049191 -138.434581
-126.080553 -237.623044 -14.128745 -124.149075
-127.452240 -236.961931 -4.985930 -135.661313
-123.411829 -236.934443 -4.619595 -132.277183
-130.575019 -242.288736 -16.515048 -127.301551
-125.456171 -240.030190 -6.985049 -134.005324
-117.296886 -224.569503 -6.438047 -126.588139
-132.315695 -250.685647 -7.148786 -139.845260
-126.456130 -237.947711 -13.659833 -124.384909
-137.628784 -254.596490 -18.874492 -135.632431
-131.009745 -246.013824 -14.597857 -130.059764
-130.271602 -243.712974 -15.931015 -128.913895
-131.712062 -249.450116 -11.622436 -131.861578
-122.571517 -233.047715 -10.547966 -121.194752
-128.303608 -242.829092 -12.804513 -128.438493
-127.257775 -241.878762 -10.942050 -127.585281
-125.379948 -229.981589 -21.178675 -122.632648
-116.249792 -225.050647 0.801825 -117.346973
-129.609725 -242.892998 -15.652365 -128.663026
-124.984182 -240.510039 -3.533661 -126.354510
-134.771108 -249.757206 -18.931198 -133.327708
-113.280963 -214.936458 -13.998062 -112.778008
-115.628258 -221.058019 -10.840989 -115.673095
-132.534492 -252.573204 8.176145 -133.393930
-119.845912 -231.366419 4.036782 -121.165930
-119.151015 -230.543482 0.426369 -120.614622
-102.239774 -200.244097 -2.660284 -103.374345
-102.944174 -201.852088 1.060423 -104.226888
-112.368117 -216.925151 -7.889883 -113.171002
-117.384031 -227.173544 -3.200163 -118.741246
-115.592211 -223.340159 -6.046808 -116.685030
-127.252334 -190.018481 -5.219481 -97.906612
-122.210910 -200.326154 -1.136562 -103.613749
-125.402420 -241.364678 -3.059904 -126.459591
-131.554057 -220.108236 -0.311709 -114.763298
-124.827157 -196.064551 -6.048606 -100.722280
-131.198908 -203.356139 -3.587600 -105.107859
-100.105003 -192.551129 -9.577508 -98.225312
-104.085119 -186.167461 -23.821836 -98.917114
-109.310234 -164.920746 -12.382512 -84.087836
-111.963629 -189.305458 -10.704276 -97.395067
-125.910067 -229.915756 -11.785180 -119.573079
-122.275192 -235.092550 6.281827 -123.403017
-96.147566 -184.434245 -3.897074 -101.739790
-126.026447 -241.622788 -6.741368 -127.168309
-107.334873 -209.655052 0.469583 -108.677713
-104.435496 -204.427933 -1.571872 -105.712284
-132.502695 -247.922634 5.373317 -142.214254
-107.035117 -199.844473 -1.434417 -115.560658
-130.617306 -234.803606 2.850956 -138.419905
-95.815115 -181.323849 -2.800872 -100.541415
-166.115860 -310.122083 11.981126 -165.691674
-104.643997 -181.234615 -14.876701 -93.527824
-104.569665 -197.615859 -15.728454 -103.272992
-149.673281 -261.772656 23.252831 -142.364101
-95.238293 -184.732856 -0.226202 -101.976806
-127.948795 -223.243385 10.281610 -127.878067
-103.325588 -176.943056 -27.696588 -95.268228
-84.587796 -154.848885 -19.967203 -80.369043
-105.384065 -164.002208 -22.216640 -86.186394
-98.402901 -170.366867 -16.555763 -87.636465
-89.651288 -134.580472 -31.011845 -74.819639
-86.950577 -147.314994 -25.774563 -78.483487
-107.248770 -196.709749 -20.861116 -103.919715
-146.597687 -262.776698 17.632861 -153.875861
-113.750102 -193.100900 1.462028 -110.636269
-119.858907 -199.295906 1.024757 -112.089733
-108.466433 -188.085635 -0.220848 -108.076392
-113.460757 -201.219594 6.816409 -114.722344
-162.894711 -299.664948 14.709810 -178.106991
-85.189567 -150.706485 -22.809513 -79.078748
-92.772512 -177.083592 5.244068 -98.607884
-139.221124 -253.443414 9.074475 -146.894402
-106.767553 -190.793378 -3.417117 -101.055466
-121.950035 -206.714140 0.504832 -122.201506
-124.085637 -214.605343 1.190263 -127.514448
-105.163546 -188.695266 -1.840504 -99.951354
-112.996604 -207.471441 -1.061548 -118.446772
-125.318394 -219.049940 -0.102089 -129.741253
-121.319792 -225.167540 -6.269579 -127.159314
-121.235880 -212.572019 -1.401217 -122.512021
-114.039995 -200.380770 0.141123 -114.796039
-113.824144 -193.407611 0.890653 -111.810478
-115.945511 -211.383127 -1.348080 -119.990942
-123.012407 -214.987421 -0.486953 -125.421670
-122.916013 -219.435214 -2.403961 -126.761290
-106.876209 -198.618311 0.508876 -114.225661
-112.003485 -191.670514 -2.096114 -112.754660
-120.068963 -203.711607 0.459551 -118.921584
-113.877591 -192.483046 -0.130837 -112.346776
-116.435334 -195.103941 0.512212 -113.148119
-113.714924 -197.140448 1.836592 -112.896391
-115.179064 -192.534582 -1.175597 -111.394214
-113.066831 -190.005206 0.373918 -109.407787
-114.458388 -193.532922 0.486366 -111.175481
-110.281280 -193.734289 -7.766054 -110.578394
-109.354881 -184.149740 -3.967462 -105.988726
-121.350905 -216.294778 -9.805625 -123.703018
-122.861532 -213.905300 -9.540079 -122.736650
-108.094200 -187.803037 -5.297946 -107.815102
-110.867136 -187.239384 -0.706991 -108.217534
-117.786705 -200.629301 -4.420992 -115.823407
-120.776590 -204.484600 -7.668382 -117.944677
-117.492062 -197.243087 -0.841223 -105.596198
-112.969031 -189.664918 1.482184 -108.795661
-109.084829 -183.425832 0.644118 -104.849627
-108.547367 -184.920484 1.098414 -105.940537
-113.256738 -191.937705 -0.737157 -110.420814
-114.851957 -194.182750 0.427466 -111.916292
-106.833589 -179.720581 0.533928 -100.072987
-108.117522 -183.707501 2.488935 -97.262704
-108.231929 -183.927814 0.968149 -104.542721
-110.810758 -196.169221 2.191546 -111.156950
-108.585453 -185.876374 0.742320 -104.292912
-118.025897 -198.514423 -0.860628 -113.603443
-119.891907 -207.422010 -1.138808 -119.840766
-111.323248 -192.544713 -0.907663 -109.473919
-108.649323 -185.124768 4.594447 -100.691881
-99.184661 -187.941316 6.941034 -102.048413
-124.855129 -218.416228 7.875764 -117.289916
-118.952893 -200.151098 0.391894 -107.270647
-127.164211 -204.645858 9.346026 -105.990066
-105.881735 -145.410650 -29.905491 -80.611092
-122.865030 -211.273823 4.654452 -117.852561
-120.918489 -209.905745 2.089171 -111.567870
-105.752860 -183.698684 2.139124 -102.066201
-105.169982 -176.745924 1.793066 -97.277090
-97.439819 -148.133606 -32.541055 -82.537720
-90.582055 -128.616955 -32.271510 -71.925928
-122.419017 -204.945130 4.728431 -110.985339
-90.278945 -128.937885 -32.245802 -72.989484
-88.901218 -140.813208 -29.183739 -76.821520
-95.189695 -136.979281 -30.714808 -75.736882
-99.587503 -160.163727 -30.825569 -87.778240
-108.530455 -202.428091 9.076649 -108.656896
-102.247748 -137.962398 -36.183815 -80.520840
-97.851215 -141.126207 -30.339438 -77.906165
-96.649869 -131.765610 -30.849590 -73.838591
-101.549503 -135.687126 -29.750303 -75.765615
-94.042576 -137.146144 -32.700200 -77.276436
-95.721929 -140.567293 -32.280633 -77.799958
-94.977789 -130.657032 -31.895022 -73.593385
-100.852510 -140.630871 -31.607510 -78.621740
-108.011819 -205.733767 2.787964 -119.326835
-104.671544 -198.799154 2.778651 -112.598174
-121.329050 -222.136625 9.710776 -128.969443
-103.562704 -199.408353 -1.769327 -103.692226
-111.601503 -203.151450 1.401925 -117.284962
-118.052046 -201.082756 -5.373368 -118.903018
-115.550387 -213.828051 7.006596 -123.499348
-101.013566 -195.920124 -0.772745 -112.675803
-120.140942 -212.590365 2.652520 -125.825000
-117.061010 -208.932718 0.686658 -122.679099
-120.144212 -219.923224 7.191743 -128.525706
-118.046503 -217.609308 5.255568 -126.245515
-114.340993 -218.745605 0.427777 -126.976284
-116.560200 -220.625578 3.532726 -127.537666
-104.686984 -199.350974 -7.041381 -106.401672
-120.798638 -226.658270 8.334119 -131.093968
-90.510340 -174.191257 -8.720951 -100.641468
-122.716301 -231.676756 -9.300987 -123.360348
-122.429016 -227.859185 4.275149 -133.233682
-124.705683 -219.526908 6.910092 -117.421893
-115.621532 -219.839228 -0.231268 -129.756262
-134.220591 -247.672262 8.345541 -143.575317
-117.773147 -205.467880 0.744419 -110.302397
-117.546433 -203.553477 -0.089243 -120.808655
-126.509867 -229.120668 12.122535 -132.860889
-111.604458 -211.983230 4.141913 -124.011800
-130.067297 -221.588167 -3.065333 -135.267327
-119.325738 -203.603885 -5.155257 -110.258574
-108.849299 -192.777377 -5.808711 -111.409973
-129.813742 -231.690950 4.681534 -136.139466
-133.659134 -235.032971 0.963862 -141.708929
-134.686138 -243.304448 10.716659 -130.218691
-126.076994 -231.596419 5.202687 -135.985320
-148.874348 -274.630984 11.204469 -146.554758
-104.932941 -123.845550 -34.333101 -73.817542
-110.099550 -210.225849 -4.427207 -121.508965
-113.323896 -144.358966 -35.339703 -83.689681
-110.477772 -120.685238 -32.638727 -73.231051
-129.572263 -243.572042 1.693719 -128.745220
-140.525416 -260.737103 9.321172 -151.902501
-96.793703 -117.613197 -34.754840 -69.988618
-108.578008 -144.132534 -37.127053 -83.604623
-98.206541 -142.158792 -29.237930 -77.876325
-111.548058 -147.832598 -27.838308 -81.577706
-99.215742 -145.089876 -28.455690 -79.103378
-105.985764 -145.334000 -26.052892 -79.021366
-119.524369 -142.202951 -32.826800 -82.958532
-100.190581 -162.585536 -20.461965 -84.729287
-103.442682 -152.784500 -25.908199 -81.987778
-129.414760 -142.990184 -28.021535 -83.012193
-108.871054 -148.257717 -23.692500 -79.588040
-105.165726 -173.735583 -17.366397 -89.840992
-125.783743 -152.899523 -16.925128 -83.604980
-107.889396 -152.894605 -20.152422 -80.357522
-122.637362 -166.973547 -9.903678 -87.011119
-108.456720 -162.902137 -13.834876 -83.330875
-120.316705 -150.538230 -24.159942 -82.528448
-106.413785 -133.206854 -28.117481 -74.804657
-118.095376 -129.148164 -16.461571 -74.173062
-112.530294 -133.210113 -23.040312 -73.835334
-179.010413 -311.817154 28.477244 -168.434259
-150.985365 -200.267439 23.793484 -107.454938
-132.990030 -157.254712 -8.432025 -87.073423
-141.286515 -140.703913 -20.566349 -84.597128
-123.383520 -132.867825 -7.293611 -76.875404
-110.947670 -146.214266 -15.547743 -77.261919
-131.015744 -186.180376 -4.494695 -95.934301
-117.613310 -178.439514 -7.149007 -91.072370
-124.492075 -168.015600 -8.797921 -87.752302
-117.855938 -153.347871 -10.200689 -81.361142
-124.388636 -174.784990 -5.304077 -89.989381
-122.485592 -183.232464 -8.904312 -94.104182
-125.698493 -178.727792 13.686660 -92.280586
-129.031880 -165.296220 -1.178245 -88.298430
-148.963827 -155.669114 14.839627 -91.389882
-138.824689 -186.006286 5.413080 -97.449292
-101.465580 -165.007273 30.671847 -90.241836
-133.664702 -245.524029 3.749630 -144.914153
-127.033291 -78.827269 -3.322679 -61.758168
-171.743909 -241.837697 14.858745 -132.950123
-158.150451 -290.495756 11.607051 -165.068504
-121.917762 -217.002528 -8.403549 -115.327484
-159.240572 -294.970193 -2.534809 -159.368315
-121.749177 -231.446781 0.231174 -121.277445
-126.579348 -99.567909 -19.172247 -67.844177
-130.725837 -248.649258 4.823901 -133.270683
-147.567408 -265.702580 -9.107837 -158.120930
-114.369031 -210.923286 -8.175596 -122.919166
-116.333496 -213.456247 -2.587147 -111.922718
-112.069563 -201.365414 -10.480225 -106.933398
-122.720132 -217.288168 -21.513289 -129.035482
-127.660231 -231.311116 -10.168764 -123.872499
-120.856443 -214.974150 -15.253207 -125.997480
-155.794059 -281.179395 -8.519807 -165.441193
-117.954810 -219.525536 -5.349582 -129.029923
-134.646858 -244.470638 -13.920452 -131.686804
-140.439694 -257.160108 -9.206793 -139.729140
-123.212068 -229.041995 -7.909845 -131.799976
-126.556196 -227.193668 -1.208197 -132.812543
-137.839762 -249.723641 -4.605965 -136.803905
-111.833485 -205.351196 -5.834110 -118.654434
-115.797947 -207.867757 -8.557751 -120.811799
-133.041504 -237.712771 -3.689366 -130.286071
-117.951718 -214.511903 -5.354348 -124.190570
-124.032996 -223.649995 -2.008945 -129.441467
-133.184508 -230.338975 1.827232 -138.727628
-144.064680 -256.663225 -4.520769 -151.920425
-118.147425 -212.693664 -3.255591 -123.677433
-128.607857 -236.478405 0.284373 -125.463061
-130.639873 -239.809059 3.476066 -127.318090
-129.891592 -232.391305 4.429467 -138.366414
-130.236040 -236.929631 3.742014 -126.995591
-140.170827 -255.577014 10.143965 -136.386997
-135.816209 -248.572447 9.189924 -141.908416
-128.956282 -228.316477 -7.596182 -124.145889
-112.248784 -196.516614 -4.746469 -114.170716
-111.311542 -192.136804 -4.425737 -110.523374
-136.049031 -236.810493 -5.621129 -128.460626
-126.924048 -227.397652 2.369626 -120.603945
-117.459148 -210.060882 -4.573029 -112.950822
-131.630667 -227.915658 -0.745301 -123.950985
-122.343765 -209.364740 -6.236879 -123.827866
-123.279107 -215.014597 0.205908 -117.342256
-129.184088 -222.797976 -3.730613 -121.352817
-129.624387 -228.695439 -0.640106 -124.175978
-119.129507 -206.314363 2.894716 -113.689081
-133.223922 -230.474278 -1.453222 -141.045740
-121.462746 -210.153439 -0.286665 -113.228860
-152.989084 -278.675765 9.033121 -163.055147
-119.813829 -216.251782 12.912581 -117.040542
-144.794677 -261.954694 8.010471 -155.858068
-132.247533 -235.357213 -3.027303 -127.771836
-119.254901 -208.418109 1.619305 -113.335481
-115.257090 -206.671587 7.587916 -111.558154
-117.616641 -203.123257 -0.026136 -111.118053
-120.033741 -207.549378 -0.246870 -113.241806
-138.588445 -252.233057 -2.571955 -136.653206
-132.250392 -238.022028 -3.441364 -130.304505
-126.243450 -222.109329 1.315601 -122.210787
-112.390394 -205.646726 2.320025 -121.747808
-113.932665 -213.073557 -0.160270 -126.735492
-115.464308 -212.924760 -6.422200 -126.500875
-134.031810 -243.769580 3.675092 -133.552483
-127.466662 -229.550029 0.285755 -136.257507
-150.968240 -270.368843 14.227514 -161.454091
-159.942686 -287.229465 18.718946 -156.607637
-118.222226 -214.799132 2.387310 -124.751963
-150.753656 -272.101072 13.039832 -166.365400
-125.289344 -218.227773 8.441340 -128.030130
-145.604529 -268.810377 8.139465 -155.861021
-150.029882 -264.850520 9.151712 -144.979468
-119.227794 -213.262612 12.559138 -127.108042
-136.243157 -240.297530 2.292771 -146.840993
-147.535373 -263.327406 8.260501 -159.984744
-161.246295 -292.338160 15.725026 -172.937261
-151.672107 -264.992361 7.358058 -160.399341
-130.745611 -240.524248 11.682838 -139.555815
-124.901819 -225.551210 16.098099 -122.411915
-149.609326 -277.299618 12.944019 -160.108510
-122.475200 -225.074127 -14.203387 -122.190433
-159.741069 -297.472657 5.587743 -171.993437
-134.014187 -243.683467 19.356456 -140.888745
-166.725083 -308.287627 -17.229343 -166.271138
-121.220390 -165.634894 -15.589337 -87.130251
-145.417921 -272.873815 7.733075 -155.171678
-119.132287 -115.824192 -29.201571 -71.750340
-122.856902 -159.164349 -5.458390 -84.846208
-125.904490 -151.298000 -15.562977 -83.468453
-120.167107 -147.389106 -18.128533 -80.568248
-137.123135 -159.528502 -32.102914 -91.916172
-122.159891 -142.322352 -4.477248 -79.344673
-120.861732 -147.298147 -5.333890 -80.447964
-134.341283 -141.436148 -23.710159 -83.059058
-145.025518 -270.347174 9.003541 -157.468745
-152.947976 -289.140307 3.735636 -166.221846
-134.342883 -256.093402 3.296797 -144.141297
-129.029627 -229.962671 12.762297 -123.453571
-137.627391 -247.579035 5.445268 -132.467198
-128.152448 -240.905235 11.436427 -127.307283
-122.166753 -112.038638 -21.471305 -70.261618
-141.199969 -249.776077 1.049655 -134.842572
-137.493562 -242.493450 -2.467546 -130.925364
-128.083603 -126.308123 -14.649884 -76.317518
-123.860830 -117.839824 -4.662087 -72.510196
-148.813548 -271.845362 18.213296 -157.133930
-126.804393 -117.331439 -12.380672 -73.240749
-132.229671 -243.413294 14.347361 -142.206896
-124.029419 -102.959703 -11.884490 -68.096737
-124.658719 -113.204800 -3.303542 -71.359056
-125.803249 -102.623723 -1.963833 -68.528092
-128.909761 -97.468674 -5.085239 -67.913531
-125.103979 -94.749147 -1.992678 -65.955938
-127.735540 -94.068208 -0.809876 -66.541125
-143.364854 -264.334380 12.328160 -143.143062
-139.190196 -93.042412 1.567782 -69.669782
-124.503104 -79.408494 -4.472119 -61.173479
-128.213843 -236.688634 14.404489 -135.136280
-134.729578 -244.455522 16.328480 -128.827243
-121.799711 -227.108514 2.208527 -129.884783
-121.560759 -223.583741 19.705326 -118.430722
-130.458985 -108.778366 -9.148337 -71.771205
-132.554309 -248.092685 12.993375 -141.830086
-137.265829 -246.747271 24.276938 -137.295324
-125.131793 -225.957026 -3.114654 -130.809051
-134.918281 -249.986420 8.478173 -131.706452
-126.454109 -234.542897 0.733377 -124.568687
-134.313381 -243.541189 1.477923 -130.479398
-126.383652 -228.806900 -2.976810 -133.232591
-126.341143 -221.118123 -5.576877 -130.837138
-118.104347 -204.348649 -2.931300 -112.001725
-126.566279 -215.080591 -3.654685 -117.277304
-121.929540 -208.595942 -0.640796 -112.819929
-116.891395 -196.025708 -5.523799 -117.217834
-126.193665 -212.704513 -4.998067 -128.255763
-123.215981 -206.215473 -2.146880 -125.622882
-117.467327 -222.159100 2.606597 -116.450351
-132.270382 -244.449081 6.306115 -142.891802
-119.188973 -212.680460 -2.097584 -123.152980
-117.879915 -215.414655 -0.116614 -124.615773
-125.574573 -224.103583 -4.804632 -131.799526
-124.350688 -213.455903 -2.723969 -126.645267
-120.112738 -223.086132 2.733760 -118.018424
-116.751227 -214.847377 -0.531937 -123.907352
-127.526317 -214.849136 -5.180777 -127.836213
-127.260042 -214.442607 -4.037509 -128.806576
-116.375088 -197.990076 -3.870870 -106.551766
-111.869635 -191.850641 -4.720985 -113.653609
-122.329181 -206.316199 -4.258323 -124.815897
-121.024892 -208.472016 -2.105413 -124.832125
-115.440046 -202.780025 -7.348545 -117.995469
-98.427060 -179.946826 -1.347150 -94.675585
-120.122448 -205.919684 -5.846528 -123.037856
-113.317746 -197.261939 -1.261123 -116.294902
-106.593052 -199.525881 3.790018 -111.071150
-107.297448 -201.420827 3.624566 -114.323308
-106.861525 -195.802470 2.690391 -111.285036
-117.283328 -213.230386 1.964734 -123.060820
-110.727878 -192.156228 -2.793613 -112.279283
-112.004942 -199.765299 0.761878 -115.706939
-120.906658 -230.872823 1.559780 -129.885333
-114.122213 -95.247734 10.690641 -62.810984
-125.424820 -235.572334 4.623624 -124.195514
-113.708914 -218.802858 -0.033661 -113.758265
-105.574467 -199.627937 6.449244 -103.328332
-114.450343 -214.253830 0.624224 -120.785998
-118.432994 -219.078562 2.392369 -115.797880
-106.278853 -202.269172 4.072755 -104.988535
-122.583948 -78.658615 8.485442 -60.372769
-124.171676 -86.653709 0.806786 -63.247615
-125.056947 -238.504793 8.269135 -132.991317
-109.497154 -200.117672 8.874777 -109.108300
-125.547682 -90.759054 1.452923 -64.892021
-115.293906 -86.784974 12.146325 -60.623664
-108.751208 -97.328899 3.204887 -61.824032
-122.984389 -236.367781 -3.835245 -126.844570
-123.800606 -91.476509 8.455867 -64.583135
-116.907962 -93.197968 2.494037 -63.031779
-115.831153 -222.617367 -3.978266 -123.368810
-111.390576 -92.686229 4.995648 -61.223042
-117.363851 -225.997503 -4.524587 -126.068646
-107.313761 -99.868381 12.754343 -62.154643
-117.287261 -215.560660 0.698290 -114.137550
-119.425452 -225.133239 1.730495 -129.900469
-111.965212 -215.929309 0.538593 -122.530360
-124.887676 -235.152570 14.472850 -124.347219
-110.904198 -211.684424 0.100357 -109.367552
-110.903431 -211.521199 -0.105106 -121.280104
-107.035418 -90.450699 13.901832 -59.245835
-103.499387 -96.763103 5.865678 -60.078747
-124.135879 -238.764808 -2.220252 -133.314152
-124.432899 -239.350523 2.291005 -125.699023
-123.979322 -237.475906 7.134887 -124.856347
-99.490025 -91.692562 16.291706 -57.354776
-98.854386 -113.439861 20.043372 -63.688274
-95.586043 -108.455968 4.872710 -61.212603
-99.166395 -164.143944 17.719675 -84.157817
-90.444471 -115.496966 5.870850 -61.782431
-78.037910 -154.405266 9.286242 -78.270259
-101.822364 -198.294479 6.264210 -110.053943
-85.202061 -169.949174 2.151548 -90.455599
-111.075669 -212.352840 -1.731015 -119.342693
-84.502587 -89.696782 24.406530 -52.494361
-92.350042 -91.914938 19.545622 -55.279494
-85.050590 -167.842837 7.767033 -94.742113
-118.853166 -229.445892 -0.917136 -120.020687
-114.009030 -216.529199 0.331914 -124.742063
-96.383464 -188.718234 5.768069 -97.221338
-89.014089 -169.345095 -12.668174 -94.150648
-90.335383 -175.161737 -10.745382 -89.790268
-94.108074 -178.961980 -7.482694 -92.540442
-105.657728 -200.014557 -8.780315 -104.641812
-89.772063 -173.301230 -11.983230 -88.957478
-89.777312 -175.886637 -8.644966 -89.917567
-99.242665 -188.159835 -5.897763 -97.804348
-96.802677 -187.332882 -8.692440 -106.607607
-88.525513 -170.965705 -0.359893 -87.877866
-90.840667 -175.827803 -5.164394 -90.586578
-83.778497 -165.866218 7.942791 -84.852923
-96.683097 -188.725172 -2.725747 -107.225524
-90.352185 -179.541958 0.460765 -91.997100
-93.950165 -183.659365 -0.975008 -94.130948
-88.173301 -171.410057 -0.828600 -88.768454
-96.584624 -186.060321 5.415693 -105.322240
-101.933776 -189.165633 -3.775993 -98.797511
-119.009907 -219.360069 -8.831306 -114.361735
-98.621409 -192.116382 -4.035215 -98.811096
-110.530467 -197.503202 -2.597413 -115.574032
-89.631982 -169.033814 -10.948071 -87.235662
-90.106444 -168.807536 -11.852624 -87.461765
-96.705206 -174.425720 -5.326917 -91.246442
-91.145896 -172.457697 -7.840706 -89.419255
-113.647567 -217.415749 -0.948983 -113.277688
-107.481861 -201.583015 2.705343 -105.185731
-111.581845 -198.202609 -0.769045 -115.518577
-116.043395 -205.806604 -2.315859 -109.875449
-103.821258 -181.166905 -3.841989 -106.510478
-98.137193 -181.460195 -3.710144 -94.957998
-108.998259 -191.272881 -4.877174 -112.662122
-102.239332 -185.515986 -1.284031 -97.797299
-105.607719 -184.994851 -4.233573 -109.109657
-110.873054 -204.294967 -2.611610 -118.376657
-109.242275 -187.471817 -6.667357 -110.235753
-117.990083 -202.410302 -9.352516 -119.551136
-117.390968 -211.468463 -8.971140 -113.101052
-109.303161 -193.846912 -3.081108 -112.587647
-96.445003 -179.684144 1.763087 -93.533062
-102.524693 -180.946517 -3.545112 -104.679647
-106.916269 -199.583699 -1.694516 -113.676015
-114.658923 -207.321334 -0.959366 -121.171846
-105.145796 -201.478837 1.763764 -115.716336
-90.410027 -179.282571 -2.144504 -100.060237
-108.899490 -210.011614 -0.496902 -109.986177
-111.400065 -213.200057 0.354152 -112.362319
-117.023273 -209.622892 3.559267 -121.839437
-115.575708 -215.236178 3.209097 -123.696505
-101.921075 -196.669059 0.291905 -110.041962
-108.582860 -209.238459 -0.416841 -120.356074
-112.641287 -215.716191 -0.737011 -125.000353
-118.107694 -224.414122 -6.990728 -118.854126
-90.866183 -130.292032 -31.476834 -72.304109
-95.809931 -137.717142 -31.589263 -76.507984
-115.228695 -196.552989 9.049868 -104.127490
-119.704028 -177.119813 3.359661 -89.823545
-119.080731 -194.810222 0.844871 -106.335908
-118.720465 -190.462534 5.479362 -100.059261
-93.179589 -132.992732 -33.020116 -75.345724
-120.446326 -182.010911 1.708376 -96.712432
-121.705462 -196.437620 4.243917 -103.838228
-110.385811 -181.753555 -0.800806 -99.143824
-106.948568 -207.024532 -0.994429 -108.387062
-99.188505 -192.007725 -3.836764 -112.179677
-86.565956 -129.566318 -30.285312 -71.859288
-102.161521 -198.990032 -2.558002 -102.889275
-88.118577 -123.381702 -31.166534 -68.835947
-89.495453 -123.889072 -32.216610 -70.344725
-103.147795 -133.828871 -0.958389 -73.670556
-87.455277 -130.091599 -30.644980 -72.372780
-107.750717 -142.175872 -0.365593 -76.523659
-90.891000 -133.021609 -31.770144 -74.425025
-118.334659 -183.088614 3.436932 -94.921193
-119.924919 -172.445072 -0.511119 -94.787947
-113.538016 -184.006442 2.084531 -98.190770
-108.572296 -170.273816 0.490312 -91.574360
-113.303046 -168.145227 0.971055 -91.041921
-98.355239 -146.613262 -1.117863 -82.250777
-110.360354 -166.971497 1.278713 -88.386206
-114.012044 -165.713840 2.426274 -85.872800
-116.607586 -164.383357 -5.947027 -96.894219
-83.448085 -117.577414 -30.566369 -66.342575
-87.974541 -125.564348 -31.162618 -69.763313
-90.011136 -127.519888 -31.874867 -71.194561
-118.708827 -167.750302 -3.172847 -95.805499
-96.789574 -152.044508 0.969971 -84.477990
-117.862523 -222.064466 -9.263408 -126.448839
-98.767741 -192.453799 -0.399970 -107.051131
-82.582326 -165.748600 -0.904162 -92.139103
-103.675842 -202.322420 -0.905164 -105.115254
-99.605068 -195.360082 -0.809362 -108.383742
-102.469343 -199.608739 -3.568319 -115.692450
-88.087320 -130.999238 -30.813245 -72.934202
-105.852638 -206.357579 -1.848226 -109.306476
-88.870445 -171.278259 3.747732 -88.203131
-104.866152 -193.424089 -1.209548 -101.786892
-99.287841 -194.502027 -2.502624 -106.943577
-92.602140 -172.853287 1.401855 -95.019720
-89.978751 -178.402300 4.051339 -91.425651
-88.855952 -172.583088 6.456599 -88.850554
-101.883412 -189.714411 1.863774 -109.442166
-102.145173 -183.520696 -4.124738 -104.593532
-98.773656 -194.283404 -0.906986 -101.482265
-90.158671 -175.806777 6.512133 -97.098624
-72.848445 -144.899855 9.990096 -80.634264
-90.692854 -176.567177 8.637478 -99.017065
-114.477841 -215.920540 -11.189524 -121.815791
-90.207754 -176.108939 -1.085226 -97.682097
-85.780483 -169.498322 1.196138 -84.676848
-78.422172 -156.860563 4.771880 -85.065149
-85.039964 -127.684542 -29.835911 -70.621240
-97.330065 -187.998608 -11.081257 -104.416053
-98.795873 -131.349959 -9.371194 -76.169126
-87.583354 -111.218438 7.267320 -59.640538
-83.236049 -118.703721 -30.353975 -66.684869
-155.813782 -198.010017 -36.558532 -127.971384
-81.364694 -118.024735 -29.607533 -65.750729
-81.609935 -117.004324 -29.852760 -65.471750
-115.672296 -169.417723 -8.470122 -101.576678
-85.120459 -123.528585 -30.544789 -69.134543
-101.844667 -148.116533 -4.237151 -83.434911
-98.002407 -128.629615 0.268858 -70.339024
-103.525031 -142.013771 -0.783390 -77.457557
-105.434432 -154.889459 0.363183 -83.359622
-106.065264 -161.335331 1.357423 -87.297894
-104.871612 -164.976829 -0.254757 -89.239705
-109.215648 -173.624496 -0.449198 -93.337217
-101.440269 -165.899621 -3.298851 -91.321052
-102.809881 -163.766909 -0.377990 -88.820875
-100.978094 -162.026601 -2.422882 -88.449748
-95.340228 -153.169530 -0.147206 -84.788378
-103.492662 -167.011395 -1.444552 -90.995939
-97.027653 -138.736813 -4.503601 -78.467879
-89.001576 -117.878438 -14.461511 -66.058897
-105.169464 -144.566222 -9.341551 -82.158910
-104.791499 -151.048778 -1.032204 -84.559122
-96.251212 -143.361619 1.500574 -80.355427
-102.159009 -151.158189 2.246525 -82.289288
-123.445586 -176.416849 -24.951782 -110.230370
-62.433647 -117.106850 3.906639 -55.619466
-106.534368 -152.089296 -10.183486 -91.365255
-121.903231 -151.081483 -20.054963 -93.031406
-94.998913 -145.935335 -2.098289 -82.715558
-102.493730 -159.673388 -12.018780 -94.662580
-98.981740 -157.921326 -0.340278 -86.972117
-96.226138 -160.035967 -0.711296 -84.107833
-114.319707 -154.426401 -9.914655 -87.965313
-110.332495 -155.196342 -12.673995 -88.099811
-92.979785 -151.374272 -1.584201 -79.775541
-91.558270 -145.975497 -2.688473 -78.429754
-114.436723 -164.253763 -13.002590 -96.285842
-68.118634 -110.687010 13.758365 -53.963180
-73.493911 -122.796911 -3.512830 -63.684300
-85.402295 -124.082330 -9.196501 -67.060473
-67.479511 -113.092019 8.209875 -54.567447
-53.206976 -101.237676 15.573527 -49.351073
-68.738613 -92.491489 20.303624 -48.369031
-78.319146 -108.360364 14.465158 -56.003853
-73.049482 -148.659755 3.323800 -73.902957
-69.911769 -142.675388 -4.669692 -70.576793
-77.092068 -122.935534 -11.295657 -60.722460
-73.021285 -123.916225 6.471402 -59.999900
-75.176840 -150.193748 2.008742 -73.830221
-78.219113 -157.534565 4.376330 -79.029233
-81.971507 -157.763313 4.133304 -78.293320
-84.583230 -169.444596 -0.453275 -85.698570
-82.608153 -164.470025 -5.919433 -82.891700
-79.069966 -157.062627 -8.212832 -79.142601
-81.672798 -163.302046 -5.245815 -82.022749
-85.989945 -171.870942 -1.438043 -87.098450
-69.507459 -140.400198 7.884922 -69.593622
-72.856258 -142.367281 -1.741544 -69.317938
-88.415465 -175.679634 -3.960922 -89.270972
-82.346463 -164.843037 4.383602 -83.201527
-88.421544 -175.704851 -2.511655 -96.667938
-86.241960 -171.729218 -4.447162 -86.969354
-83.768872 -167.807930 2.425270 -84.802849
-72.614247 -145.127963 3.702698 -71.006125
-88.222244 -175.525301 -3.164724 -89.116670
-85.312976 -170.054193 -4.450429 -86.087268
-88.867628 -175.083418 -7.113885 -99.966910
-93.993232 -184.296917 -6.725820 -107.037097
-92.784278 -182.961782 -5.634853 -93.623479
-84.331998 -168.820600 -2.302993 -85.377122
-88.544467 -176.087368 -3.290060 -89.510036
-86.637937 -172.643936 -3.632726 -87.613857
-85.226860 -169.839724 -3.768437 -85.744575
-83.965476 -167.427444 -5.250932 -84.449585
-90.861928 -179.973496 -0.910643 -100.400626
-89.612446 -178.192512 -1.789036 -90.614147
-89.740385 -178.442204 -1.885898 -90.539587
-87.049647 -173.403962 -3.424547 -87.876810
-93.646174 -184.403066 -0.139345 -103.924027
-91.134195 -180.864042 -2.260331 -91.866925
-97.505166 -192.076612 2.140467 -98.672167
-100.643372 -196.814762 5.783739 -110.319273
-96.275542 -184.608441 -9.455445 -106.694737
-96.493811 -185.952297 -6.664316 -96.152470
-99.704558 -189.680326 -5.128894 -98.342895
-94.779815 -183.405693 -3.753189 -94.284719
-89.998717 -173.415187 -11.091831 -89.073140
-71.704004 -137.689487 2.249345 -67.057876
-86.147038 -172.199161 0.057892 -87.271308
-92.492171 -182.152377 -3.837854 -104.736154
-92.140148 -182.366239 -3.768944 -92.721415
-92.331695 -182.348222 -1.976903 -93.103536
-84.273692 -168.430213 -2.219937 -92.899245
-88.919004 -148.833771 6.967894 -74.022843
-85.742832 -171.371888 1.034374 -86.680854
-80.274477 -161.782460 -0.927881 -81.323868
-71.334179 -144.608708 6.067043 -71.784454
-90.661578 -175.615471 8.395592 -88.548210
-73.935220 -150.062920 1.626573 -74.452259
-75.194080 -152.813288 0.522910 -76.192400
-95.315994 -120.754454 3.373911 -64.821135
-90.724339 -120.594758 21.510012 -63.868720
-68.237127 -129.794676 15.923589 -65.229126
-72.649106 -140.086819 8.809114 -68.817821
-97.169880 -118.275192 4.769288 -64.633522
-91.496629 -119.513734 2.465824 -63.303109
-99.076711 -127.671034 5.706931 -68.024324
-83.735815 -162.069439 3.170058 -80.630416
-81.299037 -141.804411 0.929826 -69.499214
-80.910529 -140.960496 -0.961890 -68.936376
-84.328412 -120.529069 -0.094016 -61.457244
-71.030055 -144.092828 4.421935 -70.537866
-81.347981 -163.677028 -0.618069 -82.404013
-76.586352 -154.352087 4.462224 -77.043272
-78.814124 -158.169061 1.736583 -78.285312
-82.832300 -166.270781 -1.311240 -83.893014
-77.188417 -154.807118 6.636667 -77.654347
-102.118406 -198.341669 8.060082 -102.623379
-73.171905 -149.053028 1.256066 -73.677493
-77.631817 -156.715612 2.918395 -78.334586
-83.833977 -167.897144 2.515156 -84.855047
-89.529240 -119.691897 0.522049 -62.766341
-68.086823 -115.315304 -5.474783 -55.075934
-78.945224 -115.248881 -1.964021 -58.258232
-55.407925 -94.971012 -18.920783 -46.766756
-66.960202 -132.167735 -5.649103 -63.945523
-83.367570 -115.837214 -0.913319 -59.761435
-76.275104 -117.093220 -0.583721 -58.010497
-71.515279 -108.521479 -0.346271 -54.011027
-74.468508 -110.028187 -1.592565 -55.349008
-66.604914 -137.155818 2.109788 -67.864521
-67.696918 -105.522780 -4.611145 -51.965910
-56.753600 -88.566470 -17.779021 -43.615783
-69.396473 -110.287893 -6.132427 -53.943930
-76.481098 -154.273804 4.607293 -76.919279
-97.366789 -187.205292 12.357380 -96.823647
-84.028629 -124.256197 0.228615 -62.485448
-79.063622 -125.733675 -1.273862 -61.439189
-66.380167 -137.246989 -0.370206 -67.288977
-67.887958 -116.697097 -15.764881 -57.398417
-72.089589 -146.463902 4.887273 -72.741196
-71.989038 -142.465403 8.753408 -70.961164
-78.233662 -156.103220 7.620023 -78.421213
-82.728419 -161.358789 11.435005 -82.046649
-86.094211 -169.400309 8.122428 -93.527170
-67.112144 -136.647396 6.199269 -67.969241
-88.012369 -175.301025 -2.499130 -89.057593
-79.615501 -158.774650 -5.296110 -79.894697
-88.477648 -175.403796 3.718870 -89.275514
-78.528511 -158.138239 -2.776718 -79.336488
-72.767754 -148.103848 1.208754 -73.598254
-83.808607 -167.704473 0.909599 -84.753118
-64.006993 -122.327359 -13.773749 -59.695646
-81.580505 -161.010182 -3.576932 -79.911384
-67.498974 -137.374412 6.204527 -73.531702
-53.328285 -113.339730 3.684955 -54.078251
-84.266987 -164.259139 11.210577 -83.668197
-66.840769 -133.760347 6.697871 -66.315543
-75.920470 -146.229055 0.438091 -73.791868
-76.578139 -151.466927 6.903911 -81.892437
-78.774643 -149.755837 3.811438 -76.260262
-70.435004 -142.849986 5.529681 -76.110304
-81.904990 -162.899109 5.460227 -82.332821
-78.144990 -152.267353 5.051280 -77.545261
-57.922730 -120.802359 4.487923 -61.649602
-78.843410 -158.399483 3.300240 -79.554589
-64.536481 -123.175919 -3.736008 -60.929102
-61.723851 -123.149536 4.024221 -60.517740
-70.476714 -143.890112 0.069203 -71.952699
-59.057504 -123.895148 -0.980959 -63.987492
-70.049341 -137.105123 5.490996 -67.962875
-66.040516 -134.708503 6.384828 -70.901719
-75.256755 -142.653085 2.306509 -72.538735
-70.839151 -136.045139 4.555415 -68.903451
-56.928967 -119.074441 5.332074 -57.302143
-63.935200 -89.436340 -1.494522 -46.011462
-66.717566 -134.146399 7.330321 -69.595481
-63.804507 -85.597931 -0.973144 -44.820731
-91.644829 -177.123526 11.911733 -91.047936
-84.451117 -162.901077 13.171923 -83.020986
-76.438026 -147.818653 6.760171 -74.173266
-75.461688 -152.583528 3.349271 -76.358185
-67.010481 -102.631518 -2.343167 -50.892600
-60.201813 -84.113980 -6.487799 -43.294738
-62.685075 -94.891387 -7.923740 -47.272939
-63.483099 -94.186757 -1.680740 -47.300957
-64.115582 -95.789332 -1.357684 -47.971474
-68.016730 -89.977064 -9.088008 -47.398138
-52.527573 -67.584849 16.864304 -36.033727
-57.055929 -76.996238 -14.652559 -40.215650
-75.292037 -147.207858 12.210604 -74.167814
-64.043281 -81.137302 1.341175 -43.554175
-56.177550 -58.713372 -9.865389 -34.467277
-85.471468 -170.845944 -0.018355 -86.517550
-81.729577 -85.680072 0.949482 -50.222895
-50.805653 -108.650703 4.401092 -51.536919
-82.560800 -158.003630 14.743922 -82.141227
-70.656303 -136.170448 6.067400 -67.947675
-68.841805 -133.340903 3.600194 -66.324980
-58.648069 -121.974960 5.703803 -62.915830
-63.088213 -130.880046 -0.911088 -63.710134
-63.388501 -127.847058 3.038660 -62.783089
-73.580651 -137.564074 -0.820928 -73.961943
-59.705452 -84.335084 3.486798 -43.212161
-55.925649 -54.633556 12.026266 -33.167761
-63.707110 -82.065761 12.432926 -43.731861
-79.574426 -160.363310 -0.288417 -80.536986
-58.164947 -97.307653 16.480719 -47.186198
-80.822173 -162.610335 1.466575 -81.820019
-57.173025 -82.666933 2.377379 -41.951987
-54.107987 -84.080509 4.536798 -41.456549
-52.043937 -110.563967 5.082329 -53.501363
-55.435269 -101.637343 16.780792 -49.311994
-38.172904 -83.476775 8.072259 -39.137358
-39.291708 -85.609304 -1.263895 -37.542012
-46.947389 -102.762962 0.762501 -47.593827
-59.846816 -118.938676 12.179507 -59.274105
-71.636191 -146.250288 1.596043 -74.509970
-66.863217 -135.694617 3.814181 -66.186227
-50.971949 -107.561641 6.919514 -52.962251
-54.197146 -114.180893 4.459758 -56.433596
-64.846881 -133.514291 4.795394 -66.316387
-58.602145 -119.098202 4.434080 -59.405205
-72.478673 -139.481229 10.544720 -70.089293
-66.156354 -127.921543 -4.552277 -63.239455
-61.036636 -117.321793 3.707918 -57.772267
-52.470040 -107.289541 -3.847893 -53.492516
-40.235485 -89.365377 -1.623391 -40.980748
-52.079630 -104.640876 0.182281 -51.843270
-60.331852 -117.968721 -2.605827 -58.335085
-67.949927 -132.284673 -4.720759 -70.771385
-59.460634 -119.528831 -4.404516 -58.263472
-69.497891 -129.987529 -4.106184 -65.378727
-69.337520 -134.354175 -1.258624 -70.969336
-57.270160 -112.574428 -2.420673 -54.774179
-60.305695 -120.527667 -5.430812 -58.986876
-64.966061 -121.826995 -1.978126 -60.555451
-66.146449 -127.046449 -4.100705 -67.546388
-60.701670 -121.213457 7.323459 -61.913623
-60.725769 -116.937282 -1.140071 -57.722487
-55.854537 -115.089615 -2.908848 -58.854950
-56.439877 -114.555520 -3.869986 -55.610795
-67.117245 -132.837651 -4.731822 -65.862460
-62.310852 -120.998741 2.208602 -59.862846
-70.979526 -139.157534 5.203402 -69.028711
-60.641253 -118.805381 -5.098920 -58.478526
-63.525108 -121.306310 1.369041 -60.042381
-73.327270 -136.337875 6.447580 -72.899181
-71.446543 -140.570975 0.580794 -69.485982
-68.371523 -130.308150 -0.066138 -68.089801
-66.603937 -130.447923 2.883121 -64.697629
-67.692433 -128.950699 -0.911190 -63.948581
-78.666568 -148.392270 4.733998 -79.340067
-56.293599 -113.336341 -2.424137 -57.803087
-70.985790 -138.364181 -1.955768 -69.375916
-54.758175 -114.607022 0.182731 -58.736955
-56.297799 -118.384039 -3.480776 -61.056846
-67.137086 -135.440115 -7.825474 -70.672664
-63.034308 -122.524777 6.415978 -60.501132
-84.181979 -167.071462 -4.828896 -84.646310
-62.653359 -130.120551 -2.714567 -64.248730
-76.116918 -153.384101 -2.133300 -80.934639
-78.168829 -156.537306 -0.130066 -77.457905
-61.089696 -63.504655 -16.373863 -37.378305
-89.002426 -174.349956 7.877757 -89.027799
-62.661867 -126.928868 3.754748 -62.351797
-69.650274 -141.847938 2.192695 -70.400146
-80.545556 -161.469924 0.888750 -83.341196
-81.170262 -161.704956 6.044632 -81.627544
-55.643041 -114.296962 1.184286 -58.277591
-64.937983 -130.916354 -0.326635 -64.732135
-55.868871 -117.161645 1.138746 -58.901270
-68.599416 -139.874492 -1.722130 -69.089114
-56.312137 -112.280471 -3.031462 -54.643669
-51.746848 -108.597546 3.467759 -51.904785
-62.265896 -122.912281 2.254667 -60.522265
-64.855906 -128.964998 7.556751 -67.163975
-68.178900 -129.187845 10.198346 -68.449861
-59.502647 -111.742967 0.506791 -56.707042
-70.991296 -140.612183 5.036241 -71.504735
-61.464276 -120.411860 5.933091 -59.035408
-44.509738 -93.050693 -10.095467 -43.187356
-56.776009 -119.191305 0.560947 -60.688541
-45.639223 -92.143628 -12.322254 -43.270464
-63.907563 -110.489765 -20.603621 -55.641099
-63.306251 -129.495559 3.315454 -63.253051
-69.105920 -141.512551 -1.545697 -70.100887
-70.282943 -142.190666 4.028565 -71.044562
-66.839414 -137.311180 1.668677 -67.737565
-62.033370 -100.723772 -10.317320 -48.919875
-55.943872 -110.727539 -12.997778 -53.813789
-62.265905 -106.092553 -3.541805 -50.507537
-61.752984 -97.835214 -5.016404 -47.876459
-64.447032 -120.537403 5.069989 -57.195201
-62.173754 -103.639679 -4.881891 -49.744030
-50.266435 -90.211880 -4.771269 -42.143494
-51.264750 -92.822205 -10.723964 -43.357711
-59.924486 -95.144053 -5.813659 -46.520562
-58.208611 -91.674417 -11.218183 -44.964908
-70.762331 -143.392868 6.485351 -71.129733
-64.981501 -114.811706 -10.856353 -55.534376
-42.750552 -94.307235 4.751210 -44.646430
-49.538325 -105.244064 6.798786 -50.885631
-54.957249 -116.487315 3.718697 -55.551132
-51.098934 -109.997695 -2.428992 -51.778921
-60.801474 -127.411911 0.358550 -61.677607
-54.496908 -116.294311 -0.258099 -55.311014
-54.927748 -110.770364 -0.301153 -51.523478
-63.162372 -117.742120 2.793751 -63.443271
-53.597421 -114.528949 1.861586 -54.346711
-55.971235 -114.574241 9.686958 -55.226463
-63.746363 -104.683304 3.495391 -50.528900
-67.239293 -98.718426 -8.666340 -49.787316
-65.695578 -107.867328 -2.661472 -52.068872
-44.663054 -96.863313 5.989109 -45.475745
-72.119770 -92.872130 -15.375150 -49.497570
-64.079781 -95.590662 -6.402753 -47.901133
-60.203869 -121.641421 10.394660 -59.349010
-59.166572 -104.333970 -1.481916 -49.101947
-62.160935 -125.287085 -0.031721 -59.629538
-54.173277 -94.954543 19.027565 -47.410663
-60.322639 -126.485235 1.462406 -61.164426
-96.865668 -161.885262 -11.015686 -86.376486
-51.849097 -111.615470 0.249253 -52.636751
-47.414483 -99.703040 5.230096 -47.716947
-56.122430 -118.965336 2.025300 -56.888390
-64.438615 -133.164746 4.186309 -65.098698
-60.193881 -125.350948 4.850427 -60.704607
-62.942874 -130.937518 -0.626749 -63.296320
-65.497770 -135.532790 -2.167106 -66.286700
-61.249630 -110.890247 2.298992 -51.856459
-83.379481 -158.163547 -2.921011 -81.635921
-97.745365 -188.446988 -3.397057 -106.993743
-61.650663 -124.237668 10.439924 -60.825817
-61.815156 -96.523743 -2.970982 -47.501670
-45.322121 -88.758494 13.935662 -41.916619
-39.581035 -87.742635 0.715524 -40.782113
-68.994609 -100.852697 -4.906007 -50.954192
-57.181620 -102.784681 2.980461 -47.989890
-45.226031 -90.988369 12.561133 -42.693430
-59.173300 -109.685312 2.992681 -51.294543
-97.536904 -187.393837 12.705619 -96.937507
-66.086706 -135.740578 0.275266 -66.799090
-62.682650 -84.677959 -10.393991 -44.208183
-78.495491 -92.441008 -8.312278 -51.280950
-81.427171 -160.939709 -8.426186 -81.418398
-68.711643 -103.390995 14.270015 -51.630791
-73.676980 -144.081196 -5.852015 -71.521677
-95.142661 -183.704994 10.824887 -94.634110
-64.639130 -133.108463 -4.395064 -69.446723
-81.962833 -159.145415 -11.560806 -85.203217
-57.089902 -111.082591 -13.887548 -57.194369
-84.670527 -163.590209 -12.721190 -90.260824
-68.944503 -139.019235 -6.729847 -69.099953
-63.993212 -123.966093 -10.690518 -61.880250
-66.259345 -135.858666 2.393203 -66.706986
-59.049317 -117.555662 -11.586061 -59.446941
-59.048364 -93.564403 3.752877 -45.783830
-60.793262 -81.787579 -3.476216 -42.774252
-88.892860 -174.261393 -5.496413 -88.378698
-63.218210 -120.350063 -15.365976 -61.125087
-98.883645 -187.967430 -14.355798 -104.918990
-69.212760 -121.387287 17.147705 -60.294142
-82.968075 -165.212220 -5.749689 -83.541309
-84.668145 -167.562199 -7.059568 -84.992346
-63.996432 -129.282496 -8.829609 -66.703061
-89.160405 -173.938522 -9.415701 -89.016288
-69.345305 -142.117498 -1.295014 -70.704409
-78.978771 -155.904342 -8.161203 -78.584148
-77.674205 -152.952439 -10.348820 -77.165321
-76.210806 -152.232270 -7.460716 -76.313584
-70.426849 -140.932186 -9.086765 -70.426322
-91.818177 -174.595682 -14.827667 -90.450426
-58.594860 -114.746799 -12.566376 -59.538156
-76.304716 -154.265812 3.919181 -77.133559
-95.568848 -183.977487 -8.719992 -93.477037
-52.700780 -107.886343 10.361180 -51.591487
-66.965313 -105.591488 13.090513 -51.767040
-67.879031 -134.445543 11.645607 -66.807600
-58.149034 -95.154783 21.595100 -48.167860
-63.868288 -96.166968 21.351961 -49.131055
-59.542383 -44.906176 -4.993976 -31.334568
-83.380738 -162.524675 0.046071 -80.683263
-64.483374 -107.562457 17.506620 -53.085866
-63.940428 -103.411334 14.454217 -50.205529
-52.460870 -105.713519 0.648954 -50.764808
-65.467575 -119.099948 12.018707 -57.550103
-59.932561 -116.851184 6.651137 -60.983378
-95.373830 -173.256554 -6.943255 -98.849508
-61.792299 -117.875170 -0.765544 -61.509684
-111.083645 -157.994756 -12.919306 -94.332800
-90.388424 -139.570599 -6.557072 -74.904455
-100.627613 -152.768552 -9.681815 -83.890728
-83.118344 -140.163563 -6.398666 -77.493785
-62.515634 -119.136321 -2.281200 -60.740541
-91.068365 -147.027623 -3.265701 -77.310590
-86.377774 -140.099943 -4.619322 -74.398547
-89.786770 -143.125849 -3.448208 -75.943246
-90.222362 -148.006634 -2.796649 -79.116518
-86.225530 -142.596149 -2.629918 -73.675701
-91.583117 -155.945138 -4.473061 -82.577259
-87.690605 -147.371906 -3.067578 -77.845864
-89.561897 -151.093729 -3.176024 -81.063680
-86.426363 -143.983604 -2.953649 -73.183612
-87.095776 -144.606482 -2.091839 -74.674234
-88.506782 -146.966679 -2.812041 -75.176749
-92.999207 -159.553862 -5.512416 -85.809204
-80.741107 -142.463674 -1.056121 -76.199900
-82.894098 -138.960506 -3.067529 -72.853656
-87.476003 -143.582615 -4.183479 -75.017242
-88.415140 -146.900026 -3.930901 -76.309356
-68.262715 -129.671149 -0.288319 -67.176550
-87.663820 -154.896659 -8.293389 -81.114831
-82.921875 -139.180256 -1.961104 -70.912600
-53.055456 -111.558834 -0.283905 -56.464408
-59.845274 -120.633795 4.537754 -61.254744
-60.806841 -125.838144 6.143000 -61.105362
-69.218891 -132.876268 2.974031 -65.678134
-85.742103 -141.404477 -0.584610 -70.622641
-64.446774 -131.637837 6.152967 -63.505681
-74.766295 -137.555937 1.134744 -68.822731
-64.144415 -130.754265 6.262563 -63.019972
-80.193332 -137.005485 1.385638 -67.605647
-78.135340 -141.706210 -2.051193 -71.710888
-84.321893 -139.810431 -0.883527 -70.018114
-77.450579 -134.945643 2.226708 -66.268175
-80.627751 -138.526129 -1.331840 -68.758276
-85.238143 -135.119290 1.124048 -66.327315
-84.553905 -140.888719 -1.102716 -69.492345
-87.085494 -142.786729 -0.643921 -72.434023
-85.504188 -142.319794 -6.992845 -73.471977
-69.717543 -134.020008 -9.036715 -65.676554
-87.780486 -145.281110 -0.959622 -75.274434
-61.638223 -120.570013 3.236752 -57.028947
-87.019170 -137.358371 2.415947 -68.031133
-67.379599 -125.714117 -5.374478 -60.785357
-91.863428 -140.173257 -1.214709 -70.180682
-86.153719 -138.086317 -2.080735 -70.678359
-87.025618 -150.026118 -3.402573 -77.842154
-72.982204 -143.074159 -11.594951 -71.656044
-75.059292 -138.873068 -13.557160 -71.290398
-85.882770 -144.374926 -5.489325 -77.419294
-90.227391 -152.429130 -7.081099 -82.056047
-81.616630 -139.784113 -17.067280 -73.792543
-70.698040 -135.543570 -6.693904 -68.355093
-86.405431 -157.572958 -4.186925 -80.638927
-90.094908 -157.405174 -1.778658 -81.384829
-81.872092 -148.895597 -11.147332 -81.739752
-79.953687 -143.089459 -13.235917 -79.718633
-90.346791 -148.534048 -2.235656 -77.716739
-89.289523 -145.270596 -1.623032 -73.429178
-92.875425 -155.961899 -4.825155 -84.305265
-87.852282 -147.550454 -2.185075 -79.217850
-96.542334 -163.271057 -6.838127 -90.129982
-89.182093 -148.448410 -1.906706 -76.903780
-87.763517 -150.835108 -1.822659 -82.394782
-94.981032 -159.649788 -5.315222 -86.975475
-89.546057 -154.032023 -2.611153 -80.086080
-90.793317 -157.870327 -2.065191 -81.538830
-89.156566 -158.721210 -7.933668 -82.223256
-95.594120 -164.629156 -5.326833 -85.469220
-72.686675 -140.581494 -0.762526 -76.153225
-90.187509 -162.962976 -0.390679 -89.182560
-87.245457 -165.208273 -6.137869 -90.625957
-86.815893 -162.264160 -4.045056 -83.560501
-69.562688 -137.941499 -2.251304 -70.004031
-77.746298 -150.546632 6.185085 -76.239046
-71.471750 -134.076087 -11.161136 -73.723371
-81.231076 -149.234615 -9.319958 -76.646006
-77.622339 -156.013332 4.214476 -78.760867
-80.474602 -156.748364 -6.033378 -79.549938
-71.921417 -146.708796 -2.491304 -72.771767
-77.014644 -153.920933 1.948549 -77.397899
-77.972633 -154.701294 5.572552 -78.179663
-67.701558 -139.363344 0.183818 -68.519178
-74.748740 -147.735080 3.544601 -74.683995
-82.248178 -159.995932 5.180815 -88.190650
-66.191718 -134.279255 7.114224 -66.145663
-71.750495 -144.995164 4.385023 -72.608829
-83.735195 -165.692434 4.552140 -88.615946
-87.321266 -172.946659 -0.595649 -91.481257
-76.909746 -102.983675 -9.719034 -53.968026
-108.572353 -154.039261 -29.665061 -85.400223
-96.515845 -87.604136 -14.621731 -55.235994
-82.437111 -100.199088 4.849802 -54.790860
-90.466596 -100.120427 -1.204489 -57.176107
-86.402374 -119.186605 1.795448 -61.676694
-79.493711 -120.208817 -6.454487 -59.910758
-88.647675 -101.775342 -6.029112 -57.126905
-80.203803 -100.382396 -6.995527 -54.175860
-73.303423 -129.313727 5.078467 -64.917103
-74.494382 -150.761958 3.339861 -75.546344
-72.156210 -145.298545 -2.078529 -70.993761
-58.411810 -120.573870 -7.560171 -58.276365
-73.930691 -92.433333 -2.781170 -49.909207
-57.909840 -106.681369 -17.525041 -52.344496
-95.775683 -127.833027 -19.402183 -67.082613
-60.161027 -126.036719 -1.470788 -60.917264
-60.282563 -125.273638 2.762112 -60.759737
-59.212959 -121.756844 -2.974947 -57.741761
-64.807047 -113.755846 -5.415181 -53.568868
-73.876118 -132.333913 -1.134020 -63.690958
-70.395879 -98.428340 -3.107610 -50.647266
-80.160374 -101.290039 -5.297467 -54.435124
-75.699630 -101.052836 -3.809047 -53.025740
-72.018003 -81.187226 -8.148031 -45.961569
-74.911820 -91.425061 -9.734604 -49.901064
-89.989628 -156.809098 18.143558 -80.742881
-75.224666 -100.093003 -12.805537 -52.595301
-57.399400 -121.270938 0.333341 -58.189687
-62.172961 -85.830402 4.449710 -44.401009
-56.850521 -117.038062 3.456756 -55.118529
-63.563382 -106.966567 1.501877 -51.158985
-73.871626 -131.064791 4.679595 -63.208664
-76.722328 -112.742441 -0.960748 -56.839431
-73.265691 -148.155073 -5.617789 -73.818055
-64.993097 -134.130077 -3.735968 -65.644709
-66.277383 -135.675751 -5.748915 -66.697219
-65.313899 -132.754482 -1.058378 -63.946161
-68.022617 -139.989955 -0.906412 -68.906116
-69.607267 -139.619257 -9.034131 -69.364906
-66.377508 -137.126206 -0.561134 -67.256249
-65.280274 -134.647069 -3.338810 -65.903677
-79.313439 -154.987830 -11.646731 -78.140189
-73.144986 -143.197369 -9.680066 -72.178815
-73.590159 -148.091932 0.508299 -74.264810
-73.706018 -148.674153 -5.978728 -74.157020
-75.040832 -151.824634 -4.183117 -75.795187
-80.423177 -160.861423 -5.355080 -80.507935
-72.498434 -147.622017 -2.666909 -73.317676
-68.908527 -140.353737 -5.684292 -69.366431
-70.159492 -142.162169 -6.554118 -70.479228
-66.986038 -134.516511 -9.568034 -66.544115
-74.191567 -148.477842 -8.021059 -74.189433
-81.815548 -153.328549 -15.119204 -78.787766
-76.862218 -142.425713 -14.539062 -72.955776
-82.297786 -152.309664 -15.177618 -78.678419
-67.151106 -130.883483 -11.159683 -70.305986
-72.852672 -137.275443 -9.900918 -70.225802
-64.895925 -124.691152 -12.336567 -63.182668
-68.874418 -128.816802 -13.253400 -65.644658
-64.586539 -131.887089 -7.010360 -64.663088
-77.437080 -144.969089 -15.810407 -74.236273
-60.198514 -117.658125 -11.992305 -58.246358
-76.404568 -148.606007 -12.335032 -75.093859
-78.817740 -149.303666 -14.715990 -76.220049
-67.381514 -135.628318 -9.007661 -66.943706
-64.552075 -133.386272 -3.607527 -65.221877
-67.442090 -136.359412 2.305443 -65.966356
-54.743789 -116.621286 0.522699 -55.512275
-68.829726 -121.888898 13.549485 -59.623391
-69.104066 -88.014425 0.114005 -47.135547
-51.453903 -68.677684 21.777475 -36.148025
-61.738634 -82.888091 5.039498 -43.388017
-66.943269 -75.620617 -3.404289 -42.769166
-77.888530 -75.762830 -2.895690 -46.095408
-66.879409 -51.169801 -13.319213 -35.414763
-55.500882 -75.198319 14.641194 -39.209760
-61.011813 -35.905722 -2.056457 -29.075260
-72.614725 -74.391312 9.536654 -44.101811
-92.820173 -143.495170 20.121212 -77.099052
-69.747599 -140.823338 -6.131302 -69.822643
-51.505876 -80.808919 14.842751 -39.694439
-69.622394 -78.275590 11.992617 -44.369395
-90.689609 -179.321678 -2.506672 -91.527890
-57.840903 -76.114792 14.340392 -40.186708
-60.745800 -90.591623 12.789486 -45.401227
-56.239278 -69.186943 16.150371 -37.627866
-67.790002 -122.517952 -13.080267 -64.663049
-56.137069 -69.679360 16.057037 -37.744929
-55.638010 -71.852195 15.712784 -38.247061
-50.148610 -69.371364 16.673025 -35.855992
-55.887643 -71.452714 15.179152 -38.202107
-56.286921 -78.571518 19.618850 -40.457532
-67.685340 -115.080071 -3.443210 -54.829623
-53.199234 -65.259198 15.973781 -35.537530
-59.853136 -119.547205 -10.820583 -58.482345
-52.670198 -68.341376 15.255903 -36.303472
-50.037723 -106.534233 -5.321115 -50.964674
-78.913492 -156.657257 -8.063683 -78.953675
-75.152896 -149.498099 -8.864374 -74.968718
-49.630889 -106.870408 -2.179974 -50.854635
-62.180156 -117.666032 -12.404508 -59.162227
-88.492659 -173.691273 -5.749466 -88.543774
-72.397503 -139.325171 -14.140931 -70.239345
-56.759522 -116.376050 -8.085197 -60.430492
-75.289380 -141.933028 -16.352141 -72.236444
-71.104014 -144.561118 -1.501302 -71.742276
-37.108093 -84.841558 0.187904 -37.996639
-87.478849 -170.473118 -10.017087 -87.117830
-86.920822 -171.619213 -6.503513 -87.343109
-70.296459 -134.496181 -11.882870 -67.915489
-76.469651 -137.289375 -13.143301 -71.269167
-61.817760 -121.569639 -11.344395 -62.772337
-62.864532 -124.145074 -8.162585 -65.385350
-77.594950 -139.514196 -13.153289 -71.815179
-66.039200 -118.476221 -8.548225 -59.706905
-64.089855 -119.480158 -14.637482 -60.255350
-71.134444 -137.190491 -10.094567 -71.155410
-73.221494 -132.743620 -12.718659 -67.831611
-78.425067 -150.709190 -12.169830 -76.343116
-61.585517 -122.658512 -11.348035 -60.264118
-69.924988 -129.858936 -9.194299 -66.177234
-64.612112 -121.250448 -5.655961 -60.917543
-62.156664 -113.411274 -10.250538 -59.942121
-54.406587 -76.960442 3.338825 -39.410109
-48.275783 -96.104018 13.028190 -45.189881
-73.369849 -139.401902 -6.619189 -70.835231
-61.668597 -108.184732 -5.973238 -51.482747
-87.043352 -162.905534 -9.906288 -84.206763
-64.323097 -95.416259 -8.365068 -47.934423
-62.284002 -120.538708 1.911951 -60.727933
-69.287780 -134.148502 -11.178055 -66.039895
-69.901886 -134.171262 -0.145647 -67.767050
-67.436930 -133.328640 -11.583341 -66.293987
-59.340993 -115.700273 -0.868019 -59.438232
-63.171966 -123.180141 -0.817254 -65.659548
-72.692097 -137.041183 -0.487107 -72.176301
-65.618792 -127.339113 -10.526848 -62.161889
-76.965250 -146.337495 -3.512414 -74.638243
-75.786780 -143.053322 -2.227950 -72.955606
-72.063931 -140.210032 -13.022940 -69.994141
-68.388572 -132.082221 -13.915729 -66.102875
-62.625635 -122.756531 -0.752455 -60.859077
-80.151014 -153.453070 0.065740 -78.329824
-67.788154 -125.695743 1.244912 -59.890707
-62.189593 -126.543308 -6.201281 -60.728696
-63.414528 -121.408508 -7.046163 -58.610617
-65.446103 -129.874966 -9.342830 -63.127451
-60.957238 -113.352368 -10.880946 -55.019697
-67.410950 -115.102224 -8.153485 -56.072536
-55.891145 -110.542922 -12.420847 -53.740299
-67.445017 -128.134559 -9.474347 -62.817619
-71.098300 -141.491221 -9.685933 -70.555636
-67.665047 -135.043656 -9.498926 -66.874408
-61.231331 -111.451001 1.610866 -51.804700
-64.408312 -127.843430 8.601796 -61.713506
-63.866942 -117.290413 -4.990158 -56.405739
-65.368353 -112.267600 0.664051 -53.290786
-62.062278 -127.325108 4.477599 -60.923469
-61.773792 -127.367843 2.011413 -60.830880
-70.231258 -138.737420 -2.560253 -67.379237
-60.774294 -118.856574 -1.529605 -56.160789
-64.562174 -133.591724 3.362319 -65.236378
-58.667817 -122.259579 5.690567 -59.015259
-65.844265 -135.318342 5.054874 -66.048386
-63.555199 -130.095867 7.304767 -63.662115
-63.545896 -129.636312 7.991323 -63.490981
-66.306521 -125.340815 5.431941 -59.907674
-62.547829 -128.688649 6.630994 -62.006538
-63.450147 -130.381947 6.486041 -62.923522
-61.672215 -123.162112 5.983831 -58.721346
-61.236711 -119.207660 8.731747 -56.885287
-55.364823 -115.554852 7.074253 -55.360853
-60.795604 -125.317643 7.041988 -60.907417
-59.278040 -121.014568 9.207415 -58.784857
-60.245667 -119.364116 8.316636 -57.086131
-60.839506 -110.379362 8.277694 -51.923949
-60.723919 -118.567557 8.376031 -56.467412
-58.882450 -91.073351 4.830230 -44.986740
-66.824056 -118.414497 5.233858 -56.005727
-59.484124 -102.541440 6.863065 -48.607669
-56.049927 -95.553406 3.131049 -45.481000
-66.176405 -107.026704 1.996696 -51.960933
-52.723456 -88.048138 5.998722 -42.231478
-63.263293 -129.031080 8.128101 -63.168676
-56.726513 -118.241101 6.680130 -56.840860
-55.623543 -114.118315 9.500175 -54.931574
-61.933094 -126.682430 8.076806 -61.821960
-56.270680 -113.927906 10.742910 -54.956334
-54.841244 -110.614067 11.361184 -52.867349
-42.810441 -91.804926 8.334265 -42.973568
-55.492124 -115.042169 8.115535 -55.221194
-51.038255 -105.507969 9.736030 -50.113802
-60.303489 -119.607989 12.451803 -58.644074
-55.767350 -94.045647 8.368757 -44.943899
-53.154997 -95.787084 17.947415 -46.659136
-59.806109 -107.243379 11.750699 -50.944220
-47.712109 -69.216086 7.488770 -35.078458
-83.491151 -166.052902 6.652692 -84.193607
-47.815819 -97.605008 11.396314 -46.054468
-40.341344 -59.184374 14.451416 -29.857715
-49.100561 -83.108048 7.885551 -39.662583
-49.614610 -106.794707 4.191183 -50.698924
-56.200780 -117.356736 6.559041 -59.439635
-67.150443 -137.331057 5.782632 -67.617089
-39.321969 -88.461131 4.216150 -40.161210
-45.081428 -95.421088 8.878383 -45.807587
-51.718049 -110.325102 4.675971 -52.126308
-18.070518 -50.695780 3.770030 -20.629889
-33.262307 -78.015802 3.435686 -34.069000
-46.022687 -101.069433 1.917903 -46.664188
-54.230958 -114.895518 4.460992 -55.249594
-62.260998 -129.804081 2.073159 -63.082976
-80.297864 -161.871259 0.515861 -81.372539
-39.721739 -63.010595 7.883715 -30.819700
-37.703842 -61.356960 5.437215 -29.718240
-40.183971 -67.078061 5.274876 -32.178609
-35.409208 -64.395146 4.937033 -29.941306
-49.392619 -78.850898 15.600877 -38.473055
-77.559115 -156.395486 -4.278622 -78.374452
-40.289924 -55.379352 12.776952 -28.700783
-44.939446 -74.449665 6.645637 -35.816733
-46.534743 -71.632439 3.488809 -35.450155
-41.582321 -66.751112 5.683567 -32.500030
-62.751659 -130.909062 0.093798 -63.667430
-45.494227 -71.925762 12.532328 -35.225997
-65.951957 -136.380547 -1.990619 -66.826985
-64.906075 -117.797940 -8.581209 -59.457063
-38.741351 -55.837636 11.508662 -28.373696
-46.832077 -102.666167 1.471199 -47.542469
-36.677726 -83.830335 4.129380 -39.906223
-49.686578 -107.698796 -1.551856 -50.430806
-36.618284 -83.067621 5.299763 -38.245470
-66.830798 -128.342444 -2.981947 -69.357957
-51.983586 -111.192598 -3.745969 -52.541065
-58.007102 -121.357210 -5.092156 -58.447263
-38.319592 -86.869336 3.824434 -40.512406
-29.087671 -67.893019 7.117918 -31.625156
-38.891592 -88.441005 2.144845 -40.869991
-66.308572 -120.150670 -10.329882 -61.365156
-44.506568 -56.275714 7.593869 -30.234685
-64.714014 -129.075512 -4.968829 -63.889794
-46.161396 -99.906098 -0.806076 -46.940278
-43.632284 -96.953164 1.524180 -46.447130
-47.006843 -69.800666 4.332812 -35.042253
-71.262802 -145.901409 -0.901453 -72.241168
-55.552353 -72.721397 2.700295 -38.482125
-52.611443 -49.541423 -4.353818 -30.645860
-53.233460 -81.357496 1.390795 -40.377287
-63.641322 -79.813247 -2.178401 -43.036371
-46.997053 -99.553813 3.464585 -47.226397
-51.308477 -54.932167 3.158243 -31.872193
-54.478995 -109.711148 -1.301077 -56.997342
-36.142765 -81.117794 6.726980 -38.322972
-68.938465 -139.074145 -5.060351 -69.072333
-67.545579 -129.633502 -6.000444 -68.080376
-55.522858 -112.392789 -2.283863 -54.741176
-61.484552 -118.414010 -3.147834 -59.095334
-55.067601 -105.758636 -5.293543 -51.799022
-64.233969 -121.437631 -6.447586 -63.317358
-68.079876 -121.097332 -9.675524 -62.057557
-63.607853 -117.503687 -6.738055 -59.348952
-58.058891 -112.235048 -7.492616 -55.462945
-61.558569 -112.848762 -9.893247 -58.523966
-66.161696 -117.366288 -7.383965 -59.274569
-69.167206 -122.015003 -12.662260 -64.455781
-54.310227 -102.009422 -4.916767 -50.088883
-54.753795 -101.013631 -6.935755 -51.807165
-63.757054 -115.124540 -11.607579 -57.952400
-64.056985 -114.930788 -6.281166 -57.953071
-62.274236 -111.701595 -6.857020 -56.081235
-67.752257 -119.500120 -10.922321 -61.274526
-69.366132 -127.755858 -10.484177 -64.856422
-61.173905 -119.530933 -10.024402 -62.778333
-63.973356 -118.097815 -11.743890 -59.518526
-73.983438 -135.515109 -14.517349 -69.076379
-74.596642 -138.888446 -16.007808 -70.408843
-57.427067 -110.326958 -14.157425 -54.657927
-75.127405 -146.091104 -12.962213 -73.716031
-40.952170 -61.884934 18.703798 -30.851131
-48.684777 -64.884379 14.840621 -34.070747
-51.336296 -70.950588 15.932754 -36.686065
-46.753645 -67.819853 14.800886 -34.372049
-79.201016 -147.154080 -18.156521 -75.594544
-47.546956 -64.558584 13.643869 -33.631662
-49.362385 -68.140419 14.183207 -35.250841
-62.340328 -115.195276 -13.124177 -57.738695
-71.166075 -127.337860 -15.452549 -65.071153
-74.728621 -135.640365 -17.964427 -69.279219
-48.212944 -100.767972 -8.801270 -49.066301
-48.543037 -59.870775 13.490481 -32.524144
-70.544874 -128.802892 -17.190863 -65.363328
-55.972737 -107.787162 -9.232838 -52.922725
-53.726244 -104.493873 -7.284656 -50.891348
-47.539178 -63.872571 13.971411 -33.423525
-57.936517 -109.295994 -14.594776 -53.985759
-47.925404 -60.028144 13.180058 -32.386064
-47.553662 -61.936652 12.780320 -32.847094
-45.692208 -67.362254 15.198569 -33.916339
-47.528372 -68.525459 14.466009 -34.816150
-76.187910 -126.130722 -24.877453 -66.827073
-46.658130 -59.300237 13.490304 -31.787510
-46.889800 -63.614551 12.793596 -33.151305
-45.124310 -53.413001 14.301608 -29.561193
-75.962791 -135.055083 -21.090049 -69.959269
-59.810035 -111.453108 -12.885173 -55.515145
-68.397122 -120.580792 -20.700697 -62.621654
-55.152277 -106.032840 -11.139168 -51.243864
-44.985326 -94.072411 -3.629106 -44.005926
-64.388233 -115.341435 -9.744354 -58.681216
-57.252927 -110.850625 -10.370789 -56.204270
-46.657844 -97.542352 -5.096901 -46.001563
-56.149319 -106.628246 -7.154361 -52.435801
-60.623285 -111.373030 -6.545675 -55.266671
-60.954510 -111.753405 -10.275986 -55.883118
-60.825460 -110.148130 -8.782690 -55.663715
-62.427091 -114.096666 -6.103993 -56.943815
-60.974583 -116.857260 -8.071881 -57.920515
-58.136454 -108.204216 -8.153912 -53.690768
-54.227397 -106.012209 -6.774943 -52.801353
-43.819503 -95.007929 -2.499050 -44.009259
-48.656585 -97.670657 -4.559539 -46.778009
-39.733418 -87.460474 -1.979177 -40.574204
-46.856835 -97.621385 -1.558184 -46.554584
-60.260323 -109.599878 -7.159435 -55.068641
-53.496517 -103.375219 -5.404516 -50.262198
-37.643745 -86.022368 -2.845912 -39.165240
-39.740822 -90.188790 -0.039082 -41.324691
-40.661040 -88.755965 -2.947416 -40.883302
-46.355360 -97.529025 -5.803595 -45.701750
-31.495554 -75.633860 0.731315 -32.138824
-28.894684 -69.683839 4.525505 -31.472789
-45.757198 -97.856372 -5.021140 -45.749811
-38.016347 -87.077109 -1.081654 -39.355103
-41.522947 -90.733349 -5.486841 -41.767850
-40.721678 -88.741730 -5.420516 -40.770496
-38.948029 -88.300851 -1.500757 -40.155470
-42.460329 -94.185515 -3.119125 -43.160330
-50.222458 -102.430597 -6.086631 -49.061407
-52.346785 -104.058763 -7.416690 -50.344191
-39.744903 -88.547737 -2.321850 -40.693551
-35.649669 -82.486308 -1.158593 -36.977653
-52.279268 -100.238529 -9.785489 -49.069795
-52.957863 -108.090259 -6.744937 -52.006778
-54.229501 -104.120216 -14.986220 -51.066148
-55.861411 -106.119585 -11.455851 -52.173537
-55.610808 -102.159948 -17.382773 -50.699004
-58.172772 -104.545805 -14.132374 -51.670446
-70.803022 -118.431452 -23.473909 -62.052543
-52.981621 -101.982238 -14.087502 -48.555935
-49.378308 -92.803413 -10.265446 -42.654516
-45.998207 -97.547818 -8.229496 -45.468039
-47.846704 -57.648715 12.313673 -31.648626
-44.706450 -56.246227 6.872760 -30.285803
-50.965825 -103.929880 -6.754168 -49.845661
-37.528661 -85.756087 -1.960452 -38.537731
-32.027982 -76.529885 -0.629770 -33.364379
-35.432235 -81.300594 -2.469402 -35.996637
-43.854254 -95.098750 -6.423565 -43.755075
-46.516948 -99.223155 -7.146992 -46.816373
-31.267652 -74.837193 -2.362578 -32.242011
-34.816015 -80.319816 -4.291229 -35.682941
-38.134759 -86.032589 -4.680777 -39.055858
-40.311107 -89.672014 -5.033110 -41.179751
-65.235310 -112.093947 -21.479030 -57.707331
-44.701809 -49.903004 14.022270 -28.381444
-43.624050 -92.409584 -9.158674 -42.826947
-38.059836 -66.477286 -7.690466 -31.361136
-28.198235 -69.255523 -2.819369 -29.236128
-45.432784 -95.118056 -9.712533 -44.284655
-23.696897 -52.241222 -9.284686 -22.781436
-32.350758 -76.501112 -2.986203 -32.842988
-34.867793 -81.296328 -1.990802 -35.614314
-34.126024 -67.674381 -3.573518 -30.540121
-37.478256 -84.248275 -5.657046 -37.747109
-44.238013 -94.823753 -7.766360 -43.801859
-42.382885 -94.754176 -1.346848 -43.801461
-32.746057 -76.908465 -3.826801 -33.211741
-38.607082 -87.281853 -3.605511 -39.681859
-36.420048 -83.109221 -4.165191 -37.049811
-31.280019 -74.699725 3.078442 -31.793923
-41.442549 -92.172401 -2.842623 -41.957815
-33.209833 -78.261789 -1.022993 -34.079319
-23.717914 -61.801574 1.039340 -25.655846
-35.247264 -82.134972 1.700254 -36.100174
-28.858850 -70.960442 0.850383 -29.945788
-29.535649 -71.982244 1.881155 -30.455368
-36.826302 -84.701657 -2.412213 -37.525146
-30.286454 -73.425425 1.349690 -31.113563
-31.328305 -75.333444 -0.778526 -31.998525
-29.873163 -72.655635 1.548747 -30.758640
-36.659939 -84.753917 0.852584 -37.893467
-36.774381 -84.756130 2.067610 -37.498391
-30.853331 -74.455448 0.629187 -31.921915
-28.352130 -69.904165 1.797944 -29.476889
-34.122784 -67.364635 8.064813 -30.446226
-25.133344 -53.714409 2.136230 -23.654326
-32.358424 -76.603092 3.083446 -32.743206
-30.614712 -62.834437 5.572167 -28.034745
-30.954677 -59.549300 5.351118 -27.151193
-32.099953 -70.415245 9.482453 -30.754559
-22.484659 -57.859002 4.853918 -24.103098
-32.035439 -59.220947 4.864000 -27.376916
-33.300882 -62.861342 4.267354 -28.848667
-45.450372 -100.042236 2.451205 -46.065268
-31.558055 -64.640143 6.546755 -28.859460
-33.935990 -71.481745 11.101250 -31.625321
-28.747749 -70.079209 3.319026 -29.648087
-25.781453 -64.284075 4.255770 -27.019658
-33.978371 -80.067301 0.049324 -34.711771
-42.379405 -94.135156 3.818391 -42.804619
-30.510233 -73.117363 3.554723 -32.457455
-31.759428 -75.847646 2.158833 -33.386593
-41.421881 -92.630229 -3.274376 -41.912692
-28.389754 -61.048536 10.742945 -26.831487
-31.513870 -63.700227 12.524050 -28.564229
-29.331339 -70.140419 5.053962 -29.841527
-44.268214 -98.141432 1.384770 -45.489030
-39.921678 -68.133860 6.557233 -32.416661
-35.439285 -64.115134 5.624261 -29.866326
-38.353115 -64.525619 8.228414 -30.863620
-52.068269 -112.029905 0.184490 -52.870659
-34.772333 -72.748319 -1.269825 -32.256196
-39.916046 -68.021697 8.676235 -32.381323
-35.550832 -64.687312 1.810288 -30.071443
-36.401492 -66.491801 9.236896 -30.867988
-37.511998 -74.041646 13.423139 -33.548067
-34.862746 -64.545072 14.803749 -29.822346
-35.856765 -66.774940 1.852837 -30.789512
-38.754803 -57.484112 2.571927 -28.871675
-39.902941 -67.821043 4.034879 -32.317195
-26.079214 -61.260763 -7.980223 -26.201993
-51.539893 -106.315661 8.151177 -50.663201
-39.648437 -89.662976 2.528228 -40.178750
-39.499120 -70.569264 0.097154 -33.020515
-60.919468 -119.908544 -13.095462 -58.975632
-35.871363 -80.311377 4.911771 -35.267471
-45.204617 -98.550468 4.980025 -45.862477
-32.381084 -75.997520 2.241599 -32.556658
-39.768696 -89.838623 2.524580 -40.281935
-47.290435 -100.147955 1.422681 -46.837284
-45.323119 -96.560254 3.492145 -44.673787
-57.706641 -116.868362 4.937972 -56.808101
-52.031610 -107.671417 5.328517 -51.372271
-37.584702 -80.924331 -2.885749 -35.552710
-55.348762 -111.967833 4.694883 -55.074062
-41.746486 -93.672933 0.838790 -42.229560
-30.935406 -69.869601 1.450393 -30.241502
-30.411779 -72.156918 -4.542521 -30.770609
-32.925528 -76.616873 -4.712779 -32.910249
-34.895670 -80.529335 -3.888878 -35.038567
-30.173708 -71.489174 -5.069622 -30.498865
-32.165586 -65.966859 -0.313252 -29.439734
-37.867605 -86.528559 -1.716752 -38.286484
-23.788375 -61.619388 2.175063 -25.622329
-31.473174 -72.595308 -3.945589 -31.220545
-32.026916 -49.868253 6.923479 -24.568551
-42.687537 -93.642301 4.737339 -42.629905
-29.444998 -71.326269 -3.172806 -30.231380
-37.302903 -77.024673 -7.703584 -34.428150
-31.521347 -72.362841 -1.399178 -31.165256
-33.735643 -78.053635 -4.540567 -33.585663
-33.348539 -66.265426 -2.201123 -29.884189
-33.374829 -66.615447 1.728771 -29.997083
-38.871969 -88.597125 0.576259 -39.459491
-32.545774 -74.991868 -4.330847 -32.261293
-33.910516 -69.100526 5.982511 -30.903312
-41.478073 -93.239340 -0.289640 -42.085069
-40.452203 -72.471217 10.938658 -34.000428
-37.755465 -81.787222 8.905677 -36.612848
-36.569447 -79.604094 8.753995 -35.374463
-48.546713 -101.916991 3.874049 -48.103456
-34.813149 -75.042891 9.494530 -33.035224
-41.087291 -81.414374 4.126629 -36.750500
-38.752388 -83.786417 8.328419 -37.481860
-36.423635 -78.333514 9.530941 -34.828821
-43.622359 -84.493977 7.827813 -40.063092
-43.673343 -81.415523 4.094236 -37.526660
-34.936418 -76.052766 5.169589 -33.565526
-42.827397 -79.822745 8.176137 -37.435150
-37.679871 -71.456644 3.650149 -32.740955
-38.814299 -78.157367 3.352908 -35.091500
-38.191970 -75.134258 5.210137 -33.997868
-44.418249 -82.117607 3.696370 -37.960757
-27.172118 -61.762341 -1.510292 -26.680338
-29.837040 -66.314790 -6.006629 -28.845549
-25.998181 -62.191830 -6.679173 -26.457003
-29.573865 -69.789555 -5.244428 -29.809026
-30.829628 -56.135332 -3.322707 -26.089488
-36.107579 -80.856968 6.951859 -35.670489
-32.904647 -72.254748 -2.977630 -31.547818
-31.157088 -70.321844 -6.393746 -30.443679
-31.443131 -70.954349 -4.546167 -30.719244
-36.415133 -80.111829 -6.982775 -34.983165
-38.429221 -65.801957 2.958901 -31.269353
-32.125811 -74.641506 -5.236468 -32.030195
-39.249519 -76.329283 3.926812 -34.673641
-36.883978 -79.895355 8.525399 -35.311976
-33.363622 -76.058152 -6.436280 -32.847542
-40.966016 -87.001693 -8.064719 -38.771675
-34.389206 -78.552484 3.505652 -33.882507
-39.115428 -88.765447 -2.161408 -39.642743
-38.055382 -83.088174 0.455791 -36.396327
-36.466715 -78.394929 -3.872789 -34.464992
-31.022611 -68.558388 -4.127330 -29.874300
-40.146722 -87.056231 -4.624950 -38.413789
-33.836403 -75.621630 -4.359253 -32.837410
-42.106385 -86.647300 -8.210365 -38.757074
-34.873216 -76.613678 -7.540851 -33.446068
-32.976263 -73.979287 -5.896863 -32.086665
-43.540455 -83.461630 -2.300234 -38.100626
-36.397722 -79.927446 -7.834944 -34.923023
-34.092331 -78.946006 -4.494341 -34.231082
-42.360517 -85.576842 -7.033681 -38.396813
-39.492553 -83.217972 -3.641297 -36.813157
-46.686260 -86.158238 -4.898963 -39.853350
-50.618255 -82.029024 9.579841 -39.794184
-37.996032 -80.233613 8.734875 -35.541523
-41.523495 -77.557772 9.890711 -35.724380
-35.048859 -76.870537 6.219759 -33.575819
-40.006906 -84.094722 9.884534 -38.022188
-40.563839 -84.530943 9.603825 -37.917652
-39.267224 -86.729506 -0.371403 -38.879452
-41.091313 -88.180358 8.369297 -40.000895
-56.192434 -116.377673 -3.148057 -56.354065
-54.111730 -112.244532 1.081112 -53.807599
-45.242437 -97.260542 -4.052103 -45.355746
-45.638375 -91.146871 11.722298 -42.076894
-51.135525 -106.553595 2.683093 -50.525281
-44.686994 -95.840365 -0.654189 -43.977772
-42.141058 -91.506119 1.623120 -41.659492
-50.407804 -105.858813 1.921848 -49.923202
-48.023711 -99.826638 4.735314 -46.882949
-51.585649 -78.150887 -1.707105 -38.920961
-53.893405 -113.571432 4.576746 -54.230778
-54.065468 -114.551545 4.456056 -54.681868
-49.220273 -104.255633 -4.519551 -48.898359
-62.362082 -127.678684 -5.963006 -62.200835
-36.693059 -47.742391 11.411185 -25.330635
-61.284915 -124.573108 3.454446 -60.736757
-65.893393 -133.130435 -8.998783 -65.601709
-46.205755 -82.519489 -7.092412 -38.617573
-50.721120 -77.835806 -5.853626 -38.567078
-56.813373 -120.285525 -1.391079 -58.105141
-41.035552 -89.383656 4.399448 -41.008171
-62.035712 -127.218311 -2.581147 -62.494486
-55.264259 -114.962257 7.634049 -56.202209
-59.637021 -122.280862 4.998969 -59.611262
-43.986566 -95.776733 5.949709 -44.932624
-45.413809 -97.607158 0.454068 -45.238538
-60.242579 -125.504628 4.663931 -61.101263
-50.157319 -106.374465 3.121291 -50.059972
-48.158487 -99.865037 10.039361 -48.481866
-59.399666 -123.477885 5.748342 -59.722522
-64.931573 -134.641675 1.367952 -67.083648
-54.560153 -115.076898 5.371261 -54.913250
-60.790503 -119.997122 -12.866155 -59.842375
-72.632110 -142.756268 9.743416 -71.866052
-56.908622 -118.534165 -6.720218 -57.018152
-58.832492 -123.365924 -2.486686 -60.302847
-48.520266 -87.258872 -5.683906 -40.733741
-38.103457 -61.087434 -16.541339 -29.757267
-52.442743 -91.411764 -12.478487 -43.156352
-52.908849 -89.023679 -7.779442 -42.579758
-44.859933 -88.535026 -5.438199 -40.018488
-34.408762 -74.945385 6.233777 -32.810536
-46.093816 -84.912864 -5.239989 -39.302004
-47.807593 -92.190064 -7.335405 -42.219168
-54.543498 -91.035494 -5.199799 -43.673698
-44.675996 -82.210457 -8.828434 -38.065936
-54.496801 -100.291248 -9.272330 -47.043029
-47.571030 -89.803439 -5.821101 -41.212341
-49.891489 -92.240199 -7.016340 -42.639506
-56.667577 -95.912741 -7.031851 -45.774095
-48.529117 -101.752307 2.887053 -48.056574
-51.094527 -109.952778 2.059989 -51.647162
-69.890757 -139.162950 6.629618 -70.177306
-44.084201 -93.131981 -9.335798 -43.060241
-44.931541 -91.592972 -9.325471 -41.870445
-51.778883 -110.688786 2.471762 -52.175320
-50.054135 -104.984082 -8.369670 -49.564894
-42.864732 -92.850782 -5.687086 -41.698834
-52.883856 -108.639817 -9.970482 -51.935438
-47.741053 -92.834962 -9.451771 -42.758157
-38.388917 -85.879698 -4.448613 -38.162384
-38.306316 -87.160682 -3.025637 -38.769135
-48.930825 -98.719991 -9.939958 -45.820982
-43.192118 -87.879662 -8.218558 -39.621939
-47.457859 -89.397210 -6.519395 -41.063418
-39.890337 -83.916452 -7.619018 -37.182361
-45.226350 -88.176038 -6.391216 -40.056369
-40.845623 -76.685928 -1.248662 -35.259466
-45.627828 -88.488066 -6.982751 -40.312337
-41.259125 -83.491861 -5.207247 -37.425296
-38.087555 -80.252891 -3.637056 -35.502134
-42.039238 -84.216598 -5.959602 -37.889819
-32.185884 -73.738063 -2.209667 -31.777184
-44.006877 -95.551786 6.313775 -43.807567
-44.934479 -98.487494 -2.220709 -45.162803
-36.685506 -81.907107 -5.373308 -35.745190
-38.260318 -82.233260 -8.292950 -36.197432
-39.992296 -84.226799 -8.036216 -37.341426
-41.354663 -88.384182 8.392265 -40.140419
-19.375835 -46.408800 9.154800 -19.735390
-43.637505 -95.069073 5.591951 -43.526041
-41.776944 -89.899791 7.873375 -40.961338
-30.371342 -68.705039 -8.078627 -29.722914
-30.431557 -64.551632 -8.209959 -28.494957
-47.613217 -101.327056 7.421252 -47.342152
-41.475312 -90.991932 6.430965 -41.328810
-53.758027 -114.356941 -3.455169 -54.087670
-49.275448 -106.576679 1.148814 -49.754799
-46.682100 -100.339585 5.125570 -46.337375
-59.341941 -113.974718 0.685012 -57.313363
-45.890071 -97.607073 7.162617 -45.061675
-44.858939 -97.109935 5.285989 -44.513126
-44.369324 -98.377706 -0.012281 -45.081888
-48.652900 -104.296916 4.741656 -48.616667
-47.783162 -102.477123 4.348202 -47.361495
-53.067969 -104.837078 -0.429078 -51.436310
-48.168840 -103.786205 3.810234 -48.201272
-58.880608 -116.212945 1.407187 -56.341129
-50.389594 -108.180266 3.261016 -50.629948
-49.929002 -107.530066 3.545501 -50.165233
-58.092598 -118.204169 0.883272 -57.626442
-51.493379 -110.287485 3.669482 -51.874177
-43.108108 -95.685679 0.558947 -43.529092
-48.070484 -104.100462 3.743643 -48.051774
-49.622765 -106.587968 3.201672 -49.409074
-59.199272 -115.445655 -1.677214 -56.087320
-36.202807 -83.798412 1.558459 -36.780924
-46.437881 -100.376344 4.894643 -46.486605
-42.964503 -93.674782 5.839611 -42.773146
-48.275425 -103.907458 3.862880 -47.910670
-47.435166 -101.639547 4.848831 -46.807135
-47.910837 -102.957064 4.390998 -47.383810
-43.470198 -93.559505 7.073852 -42.679694
-40.621307 -91.540396 -1.110043 -40.986076
-42.747256 -95.283577 1.914573 -43.354620
-51.544444 -111.011424 0.900871 -52.309765
-55.884026 -89.875093 8.790026 -43.727736
-48.177765 -104.206262 4.256611 -48.593593
-51.049877 -108.042717 1.701567 -49.901565
-58.983638 -122.531399 5.591359 -58.439666
-57.313585 -83.184276 2.387179 -42.149358
-57.598929 -91.172661 7.764682 -44.631477
-55.538655 -90.810812 7.819500 -43.904840
-56.779610 -88.629084 5.650053 -43.622608
-56.100513 -82.768597 1.663901 -41.660733
-57.582449 -85.041502 2.304049 -42.787185
-50.882108 -83.361972 2.128676 -40.273224
-55.075174 -84.030492 2.131607 -41.731700
-47.027751 -87.098562 4.566452 -40.237894
-43.935477 -81.780464 1.972063 -37.714782
-54.001313 -101.063237 6.939856 -46.519365
-39.866343 -80.590435 -1.033654 -36.137033
-44.006760 -95.059433 2.124579 -42.636291
-46.764516 -98.568509 -1.196547 -44.795385
-41.665812 -83.123793 0.474280 -37.436882
-40.661478 -75.168722 0.874696 -34.749060
-48.161965 -90.359650 4.095588 -41.556485
-45.239861 -91.787767 0.565530 -41.108288
-47.334482 -80.300084 0.347617 -38.290370
-45.398704 -79.725701 1.213648 -37.537322
-36.826269 -70.953570 0.413429 -32.333952
-42.754071 -76.861635 -0.035027 -35.884712
-44.037315 -82.929200 2.258274 -38.089955
-40.885404 -78.023660 0.655853 -35.672719
-40.674718 -75.167528 0.504847 -34.752674
-36.509304 -70.861469 0.770168 -32.211232
-43.084214 -78.834750 1.545377 -36.575689
-39.683470 -73.457589 0.219856 -33.942318
-34.658461 -68.581108 -0.120401 -30.971871
-41.229468 -77.972161 0.505585 -35.760489
-34.925109 -68.730901 1.229065 -31.096803
-61.898208 -128.472526 3.655994 -62.980296
-36.938739 -69.594725 1.417302 -31.960039
-54.291012 -114.536467 5.208610 -54.585845
-34.079258 -79.548860 2.824492 -34.447256
-31.629855 -69.866166 -7.466683 -30.448806
-41.109653 -77.000398 -2.424169 -35.433015
-42.393082 -88.578342 -3.882150 -39.391898
-44.952381 -99.251448 0.851601 -45.606039
-49.424277 -104.487716 6.779907 -49.147205
-40.339910 -88.049094 7.526900 -39.840837
-51.618273 -110.459692 2.769466 -54.767590
-42.413104 -92.440935 6.758116 -42.200213
-35.675382 -80.762105 5.580446 -35.391761
-30.283710 -67.470526 -0.299078 -29.326271
-40.055803 -90.665458 0.949075 -40.681019
-32.191743 -76.425736 -2.607311 -32.626455
-21.776182 -58.310706 -0.158174 -24.026067
-37.952592 -86.190866 3.837401 -38.291694
-34.054661 -78.905143 4.465908 -34.208334
-28.571721 -70.307709 0.083086 -29.663829
-24.250558 -62.438518 0.472182 -26.006723
-37.670779 -83.795201 6.216054 -37.724567
-50.012019 -106.407804 5.961825 -50.082885
-52.081065 -111.704816 1.513036 -53.140935
-25.796183 -62.106696 6.829467 -26.370864
-43.404750 -96.417547 1.510529 -46.014889
-45.545003 -100.285322 -0.606934 -46.577304
-44.816005 -98.925305 -1.521413 -46.108782
-27.890927 -68.935950 -1.601208 -29.048063
-30.859223 -74.315678 0.143693 -31.552470
-50.008133 -108.207346 0.472421 -50.731600
-33.208007 -66.776096 0.362656 -29.995231
-46.290320 -101.690056 -0.134507 -47.455062
-18.748661 -50.185686 5.830442 -20.680304
-28.681110 -70.142329 0.413495 -29.647032
-19.627107 -54.084984 -2.143901 -22.113627
-36.814024 -84.577299 1.501789 -37.697012
-42.540201 -94.611451 -2.250150 -43.146532
-28.926416 -70.878766 -0.850309 -29.941555
-35.978176 -82.786827 3.191161 -36.458301
-30.708157 -74.087538 -0.167538 -31.438709
-36.676387 -84.607139 0.739828 -37.243469
-18.561773 -52.475791 0.582371 -21.311269
-14.802179 -45.489099 -2.288373 -18.087383
-22.879017 -60.247623 0.510901 -24.937992
-32.591379 -77.318124 1.161822 -33.090446
-38.379608 -86.349979 4.802325 -38.504242
-36.291804 -83.681426 2.224450 -37.090598
-37.043960 -84.993625 2.167884 -37.672095
-30.943013 -73.605131 3.754205 -31.364443
-47.369142 -103.158832 2.897666 -47.911389
-33.447488 -77.079605 5.429009 -33.364834
-35.595116 -68.892940 0.542978 -31.346417
-31.325555 -60.497255 2.038149 -27.546843
-40.647404 -70.236772 -1.093434 -33.265253
-35.418746 -59.328033 1.105608 -28.424034
-31.816629 -64.322558 1.200380 -28.841756
-28.304499 -59.517828 1.243854 -26.346698
-33.659443 -64.888915 1.056706 -29.564507
-28.409208 -59.680861 -0.046677 -26.427021
-35.085128 -62.150740 2.832041 -29.170761
-42.455482 -94.542548 2.552241 -42.974947
-25.648456 -55.174732 -0.123906 -24.246956
-30.876905 -61.497328 1.840620 -27.712270
-23.450254 -56.068678 2.494808 -23.855679
-29.407063 -61.488298 0.778429 -27.268608
-22.585278 -54.911368 1.345380 -23.248994
-30.793688 -56.859635 4.684778 -26.295997
-24.167109 -58.366171 4.513101 -24.759984
-29.108481 -59.188712 2.837148 -26.489158
-30.712968 -59.237334 4.406506 -26.985090
-31.523144 -74.762557 3.464659 -31.885710
-13.336577 -43.045605 1.483185 -16.914655
-25.647396 -56.070947 0.914613 -24.515503
-25.099724 -53.631260 0.055061 -23.619295
-26.591396 -57.314140 0.499275 -25.171661
-26.582805 -58.302670 2.115918 -25.465643
-23.669221 -50.036239 -0.432097 -22.111638
-23.686015 -53.024778 0.036228 -23.013238
-21.895268 -47.244665 -1.077308 -20.741980
-21.351003 -44.341793 -0.644055 -19.707839
-21.163903 -52.049160 0.105677 -21.963919
-22.830054 -47.930038 -0.093666 -21.228028
-19.255346 -53.318616 2.513106 -21.772189
-11.497674 -39.865859 0.338200 -15.409060
-12.050285 -39.718250 3.676934 -15.530561
-14.456340 -42.263759 5.680935 -17.016030
-24.149519 -53.391775 -0.191033 -23.262388
-26.111505 -57.107220 1.932482 -24.965617
-21.095504 -57.080732 0.875174 -23.452871
-21.381679 -57.138850 -2.581317 -23.556158
-20.358850 -53.519023 5.306233 -22.163362
-25.905005 -62.564971 6.362581 -26.540993
-36.819082 -84.213280 2.911148 -37.289511
-24.283395 -61.504251 3.930309 -25.736294
-28.822606 -70.350651 1.748755 -29.751977
-28.473428 -69.333460 3.108027 -29.342067
-15.897159 -47.597803 1.363510 -19.048488
-22.338820 -58.381033 3.221824 -24.215956
-28.215398 -69.327477 1.134002 -29.262862
-14.614121 -45.442206 -1.595419 -18.016898
-12.743194 -40.029685 -4.886236 -15.831864
-14.670768 -34.869115 0.023150 -14.861965
-18.726257 -39.158228 -2.215406 -17.365346
-14.699942 -33.628709 0.481669 -14.498595
-20.582045 -26.590459 -4.781345 -14.151751
-23.568960 -34.381819 -5.662583 -17.385234
-22.425439 -20.546724 0.857501 -12.891649
-21.046760 -21.392542 2.599854 -12.731791
-10.214625 -37.625024 0.910643 -14.351895
-24.251588 -62.423946 -0.485233 -26.002660
-28.105493 -33.245093 -4.799281 -18.405176
-24.400409 -26.613322 -2.897516 -15.304119
-15.189082 -46.180201 2.217774 -18.410785
-32.993336 -77.454961 3.100947 -33.424914
-17.106881 -48.961642 3.350744 -19.820557
-33.142493 -78.192442 1.645754 -33.624529
-40.219391 -90.460152 2.706663 -40.880828
-33.688780 -79.250251 -0.037211 -34.423563
-30.042608 -72.827387 -0.960130 -30.860999
-22.458307 -59.259406 -1.312761 -24.515314
-38.188131 -87.098789 -1.322174 -38.889637
-34.498393 -80.574913 -0.487509 -35.700958
-27.154988 -28.817687 -5.560916 -16.791802
-27.821341 -68.465558 1.699364 -28.886070
-29.723642 -34.854433 -5.920541 -19.373422
-27.169028 -22.317447 -2.565327 -14.845942
-30.428264 -32.469906 -5.099953 -18.869451
-34.541928 -80.561877 -2.115099 -34.988163
-30.255698 -51.831003 1.085085 -24.626010
-33.879581 -56.200608 1.910413 -27.024057
-30.213169 -30.841127 -5.815048 -18.316289
-42.328237 -79.833836 -5.377139 -36.648622
-30.900058 -29.943512 -3.860826 -18.253071
-29.669126 -24.205316 -4.211630 -16.162333
-31.393590 -64.179121 4.915627 -28.671813
-14.891365 -46.011719 1.157832 -18.270925
-32.948298 -72.501886 4.142716 -31.635055
-22.227406 -57.269014 4.563756 -23.848926
-30.580196 -59.215014 0.704404 -26.938563
-43.054918 -80.594043 2.555152 -37.094688
-28.305221 -62.397747 4.361993 -27.210890
-33.434334 -63.229060 2.919710 -28.999018
-34.941544 -70.209159 4.436745 -31.545211
-37.720601 -76.143565 3.850377 -34.159250
-41.879248 -74.528886 9.750328 -35.219264
-26.608199 -64.850036 3.339880 -27.437471
-31.993650 -64.182389 7.072155 -28.852811
-30.587991 -70.684239 3.412526 -30.381669
-32.580193 -68.399373 7.035021 -30.293870
-40.833874 -84.736036 -2.151381 -39.325729
-28.839933 -63.650871 7.131065 -27.747241
-35.936109 -75.249889 4.653455 -33.449986
-31.785559 -73.393319 3.303693 -31.553664
-36.312821 -82.941220 0.223467 -36.685470
-39.219741 -76.334099 3.355660 -34.666152
-27.310693 -62.941043 5.788177 -27.075521
-33.838931 -73.992155 4.465096 -32.349326
-40.120886 -77.722041 6.678040 -35.352878
-32.251241 -71.476963 4.383299 -31.118461
-32.684543 -68.489213 5.816256 -30.352127
-34.166469 -73.954634 5.264860 -32.436331
-25.174620 -62.890340 3.018823 -26.419488
-24.664585 -62.490451 1.334236 -26.146511
-29.040498 -68.379371 2.234400 -29.225961
-27.093953 -64.694582 4.626580 -27.536560
-27.937194 -67.484757 2.197973 -28.626585
-31.320265 -74.353224 -0.035902 -31.702047
-20.214503 -51.492835 -1.099160 -21.512201
-27.656399 -68.079094 -0.840334 -28.720648
-29.349830 -69.582719 2.855868 -29.679765
-18.179801 -48.467621 2.926002 -19.994227
-24.349237 -60.286872 2.481301 -25.390833
-23.914787 -61.107449 1.494483 -25.506671
-26.192896 -64.659784 2.321887 -27.255804
-14.976471 -45.526687 -1.471725 -18.150948
-11.925986 -40.646057 0.342189 -15.771613
-26.500702 -62.517085 3.015334 -26.705336
-25.708387 -61.764645 6.271895 -26.241910
-27.422120 -62.502367 4.761264 -26.977346
-30.449987 -67.197940 4.752467 -29.294378
-30.230279 -62.192629 2.746337 -27.726872
-31.393747 -68.371510 4.578240 -29.929577
-31.798176 -69.296558 4.925569 -30.328420
-26.311535 -63.815695 5.285018 -27.038169
-27.018819 -32.589556 -2.058478 -17.882513
-37.851349 -83.377335 -1.771166 -36.368605
-25.590504 -58.116759 0.716375 -25.112179
-26.708460 -63.481664 3.312684 -27.057037
-18.429165 -48.509829 -0.280361 -20.081698
-34.859225 -81.450260 0.778941 -35.431509
-32.003654 -73.914635 2.580031 -31.775487
-22.125612 -55.921855 1.519288 -23.414240
-28.352826 -69.672044 1.889886 -29.407461
-25.624268 -58.733607 4.028004 -25.307363
-27.135306 -67.758022 -0.302616 -28.467999
-25.970714 -64.007253 1.940048 -26.993390
-9.953442 -36.586542 2.966283 -13.961995
-16.911821 -48.540853 3.755754 -19.635802
-14.764863 -23.141286 6.965107 -11.371845
-28.615756 -70.379958 0.999498 -29.698714
-3.937898 -25.482551 3.336947 -8.826134
-8.929261 -33.777948 4.203386 -12.812163
-25.849902 -65.481843 1.234080 -27.399523
-25.622061 -62.578310 5.626827 -26.460111
-22.492108 -58.368878 3.359642 -24.258296
-17.197702 -49.304902 3.212619 -19.950781
-12.861513 -42.375161 0.792682 -16.571002
-27.072936 -67.266967 2.386718 -28.301971
-19.064719 -52.264562 3.311513 -21.398784
-22.650911 -57.567768 4.133612 -24.065604
-21.291463 -57.057504 0.901573 -23.504690
-12.470523 -41.322887 -1.594447 -16.138023
-25.643529 -64.684611 0.521365 -27.098442
-21.728796 -57.508399 1.802559 -23.771158
-19.596749 -53.895928 0.996277 -22.047803
-21.593827 -55.697452 2.495522 -23.187384
-24.980434 -62.465708 2.146226 -26.233843
-15.564153 -45.260584 2.136945 -18.247421
-18.209001 -49.810780 1.132690 -20.405934
-16.793313 -48.293101 0.363322 -19.525924
-16.569582 -46.753595 2.590428 -18.996953
-13.340690 -41.007665 0.314252 -16.304506
-15.295011 -46.199138 2.454582 -18.448245
-15.232175 -45.132346 1.972407 -18.109356
-18.116139 -51.571665 -0.325750 -20.906341
-13.909226 -43.857942 -1.667822 -17.330150
-13.751944 -42.908976 -0.079368 -16.998276
-23.257336 -60.262009 2.139011 -25.055803
-13.185084 -42.498082 2.209396 -16.704950
-11.643993 -39.894194 -1.727630 -15.461456
-10.378343 -37.616853 1.649166 -14.398559
-16.924340 -49.507606 0.800122 -19.929584
-11.463319 -38.129146 0.855467 -14.877739
-18.867913 -52.327237 2.718585 -21.358545
-15.292996 -45.228470 0.618114 -18.156440
-19.070577 -52.224261 1.840679 -21.388451
-9.886776 -37.204658 0.111012 -14.127430
-14.609142 -44.901591 2.237608 -17.853220
-5.164252 -28.998326 0.204336 -10.248773
-13.796940 -42.809208 1.340643 -16.981844
-6.905870 -31.456269 2.487031 -11.508642
-11.983622 -40.273164 2.576756 -15.677036
-10.400633 -37.034785 0.386605 -14.230626
-6.890491 -31.557145 2.078344 -11.534291
-4.368721 -26.530628 3.048773 -9.269805
-7.888786 -32.454751 3.606111 -12.103061
-5.284772 -28.320476 2.823968 -10.081575
-14.304486 -44.226352 3.108143 -17.559251
-13.975915 -44.358355 1.660382 -17.500281
-13.841060 -42.153668 4.843178 -16.798418
-16.173491 -47.669011 2.796499 -19.152750
-20.587119 -56.222898 0.191614 -23.043005
-7.136638 -25.222378 4.691799 -9.707705
-13.765185 -29.027069 3.478999 -12.837676
-6.710807 -23.274513 7.704525 -8.995596
-11.244652 -25.792586 9.420147 -11.111172
-13.161102 -34.521465 8.717444 -14.304770
-10.203823 -29.517383 1.211923 -11.916362
-10.215489 -28.552044 2.181851 -11.630260
-11.702720 -30.365305 3.716543 -12.620407
-13.031459 -36.898484 7.501028 -14.978983
-21.083703 -56.001451 3.899805 -23.125546
-11.353436 -26.849041 2.709522 -11.460743
-7.783550 -18.525305 2.616765 -7.892656
-10.549679 -27.375716 2.929373 -11.377619
-9.712754 -25.661354 2.112902 -10.612232
-4.985720 -25.176390 2.135590 -9.048633
-4.543853 -27.278732 -1.346261 -9.546775
-4.234157 -23.949675 4.962192 -8.455150
-16.716331 -45.745657 2.098972 -18.738597
-17.916642 -51.050622 2.481605 -20.690179
-4.564864 -25.658888 1.627796 -9.067125
-16.091695 -47.602452 2.566877 -19.108244
-25.328336 -60.578451 4.583018 -25.772036
-11.732808 -33.726414 0.027510 -13.637766
-11.347940 -35.862626 3.962992 -14.163170
-12.102528 -30.652229 1.306553 -12.826427
-11.849247 -32.750763 0.216252 -13.380003
-11.828415 -40.094660 -1.174743 -15.576923
-18.422830 -35.401833 1.050308 -16.147399
-15.502161 -38.516941 -1.557917 -16.205731
-21.190368 -44.904070 -1.935936 -19.828331
-16.052482 -39.524225 -1.135974 -16.673012
-14.556268 -41.371039 -0.697166 -16.778192
-25.641699 -30.575095 0.629363 -16.865038
-24.447802 -34.562001 2.705289 -17.702941
-27.198416 -67.117990 2.687475 -28.294922
-22.611485 -59.070455 2.950859 -24.504582
-20.020784 -53.625328 4.166439 -22.093834
-14.585011 -45.536097 -0.924180 -18.036332
-17.976036 -50.389993 3.198313 -20.509809
-18.841997 -51.850588 4.065771 -21.207776
0.538255 -17.556560 2.589591 -5.105491
-26.900996 -66.871143 2.233615 -28.131642
-16.171129 -47.635384 3.050463 -19.141954
-17.769885 -50.156955 3.606218 -20.378052
-19.276709 -42.534455 -1.790896 -18.543349
-22.883241 -56.142679 7.282346 -23.707776
-34.538752 -79.563740 4.407769 -34.815983
-5.314432 -28.642112 1.807041 -10.186963
-15.447548 -46.315070 -3.103987 -18.528785
-20.594312 -54.254287 5.012268 -22.454580
-10.939773 -39.017049 0.207214 -14.987047
-14.183243 -42.487486 5.148544 -17.001219
-22.169118 -49.257686 -1.592363 -21.428041
-19.756361 -41.039344 -0.092658 -18.238711
-19.530155 -47.477859 -3.603608 -20.102404
-21.785900 -52.945944 -0.254148 -22.419553
-18.438449 -38.638074 -0.697309 -17.122957
-17.166255 -36.521480 -0.116535 -16.106320
-16.313478 -38.308286 -2.805281 -16.386529
-19.923873 -42.693433 -1.745341 -18.785192
-14.373362 -35.522134 -4.106072 -14.968649
-12.492587 -28.938511 0.541408 -12.429329
-18.234952 -49.679216 4.926322 -20.374250
-17.805075 -31.761545 -1.580435 -14.869986
-20.370980 -55.311785 2.003164 -22.704829
-11.866207 -27.085787 -3.608138 -11.685598
-16.659021 -49.033045 -0.586409 -19.707620
-24.705189 -61.969880 4.229842 -26.002521
-12.500837 -41.577401 -0.876843 -16.223471
-13.837872 -43.598693 2.273402 -17.230970
-16.802789 -49.129856 0.220710 -19.779793
-10.778368 -38.537807 0.647074 -14.794852
-10.974802 -28.200843 -0.067539 -11.752694
-9.916641 -37.044848 0.306843 -14.088447
-16.820517 -49.313027 0.322128 -19.840063
-6.160138 -30.270149 0.776614 -10.929086
-6.718387 -20.426580 4.774249 -8.143490
-8.199942 -23.539127 1.117181 -9.521721
-10.582567 -38.229194 0.032971 -14.643528
-10.078078 -25.194559 3.301912 -10.581791
-9.239428 -18.390030 2.661499 -8.288837
-7.559581 -24.304493 0.941916 -9.559222
-6.520313 -24.401188 3.682445 -9.276450
-7.707303 -32.854305 1.787113 -12.168482
-4.598191 -27.567166 -0.560036 -9.649607
-12.748031 -41.907481 1.103583 -16.396653
-10.690805 -36.173102 0.180115 -14.059172
-4.232405 -19.322779 2.121039 -7.066555
-6.608864 -31.037042 0.764904 -11.293772
-14.610052 -45.122557 1.400260 -17.919783
-14.912743 -44.333003 0.632255 -17.773724
-12.043052 -40.407408 -0.174112 -15.735138
-15.718617 -42.853086 -0.358976 -17.571511
-5.553273 -28.482693 -0.144738 -10.210790
-15.911919 -44.955693 1.385843 -18.260284
-9.312069 -28.183756 2.459504 -11.248748
-7.864830 -23.169684 4.558109 -9.310354
-6.595690 -20.967766 0.738174 -8.269037
-9.003597 -26.609327 3.309091 -10.683877
-6.719806 -23.578088 2.944283 -9.089368
-8.817769 -23.930752 2.379027 -9.824556
-4.649889 -17.175071 1.139080 -6.547488
-2.770742 -21.070060 4.414355 -7.152240
-5.788112 -21.132648 3.553680 -8.076228
-10.558193 -34.337942 1.662768 -13.468840
-2.022071 -19.731235 1.164152 -6.525992
-4.996868 -24.445160 -2.352485 -8.832608
-4.573577 -23.748541 -1.689294 -8.496635
-7.747039 -31.075434 -0.862625 -11.646742
-6.593873 -21.287995 3.160191 -8.364560
-5.095484 -27.893326 -0.358529 -9.896643
-5.036486 -24.147947 -0.201951 -8.755330
-10.057563 -36.698163 1.486505 -14.026718
-4.495359 -24.061556 -0.383225 -8.567075
-8.807966 -31.246851 2.737522 -12.016445
-5.735230 -18.268207 1.574859 -7.201031
-5.869468 -21.325382 2.227167 -8.158455
-4.632761 -17.344096 3.012581 -6.593057
-5.874512 -23.388872 -0.130081 -8.779015
-3.997515 -15.529484 1.323980 -5.858100
-5.849303 -18.899838 1.666657 -7.424742
-4.663460 -17.576221 3.064574 -6.671904
-6.162183 -24.361984 -0.047097 -9.157250
-2.524288 -13.234094 0.462673 -4.727515
-1.054437 -9.213739 0.708956 -3.080453
-1.213646 -10.288485 0.216252 -3.450639
-4.498085 -25.630267 2.365326 -9.038506
-1.582530 -15.102490 1.980179 -5.005506
-4.435772 -23.709472 1.637939 -8.443573
-5.392061 -27.872164 1.157262 -9.979267
-1.913745 -22.274491 2.707188 -7.256471
-4.159412 -26.071773 -2.246693 -9.069355
-8.152072 -33.450510 1.701168 -12.480775
-7.203672 -32.035160 0.469367 -11.771650
-6.988833 -23.021308 1.085674 -9.003042
-6.337954 -21.603302 0.786319 -8.382377
-5.268860 -21.906299 4.119690 -8.152548
-5.296592 -18.528217 0.588201 -7.147443
-5.582479 -21.113571 2.251924 -8.008815
-2.570425 -19.061752 2.494161 -6.489653
-3.848318 -15.195597 1.715328 -5.713174
-4.333274 -19.387110 1.779377 -7.116115
-4.868626 -17.243862 0.716760 -6.633747
-3.178051 -15.854216 1.776810 -5.709680
-2.955849 -9.271683 0.305325 -3.668259
-4.152771 -16.116528 1.388523 -6.080790
-2.097475 -6.464589 0.731877 -2.568619
-2.940549 -15.155881 2.325309 -5.428929
-4.226037 -21.552098 2.118889 -7.733441
-1.972748 -6.745783 1.142626 -2.615559
-3.506869 -15.871183 2.070693 -5.813416
-2.895616 -18.953656 1.032107 -6.554782
0.126965 -6.378181 0.729587 -1.875365
-3.749980 -13.298938 0.451335 -5.114675
-2.411056 -6.805176 0.213827 -2.764870
-3.208792 -11.575564 1.139063 -4.435307
-3.241709 -11.087119 0.328685 -4.298648
-2.600422 -5.032989 0.546214 -2.290023
-2.526565 -5.228859 0.127034 -2.326627
-1.868622 -2.443830 0.198719 -1.293736
-1.372926 -1.652334 0.308327 -0.907578
-3.308827 -1.817903 0.035544 -1.538019
-2.526631 -1.945239 0.194608 -1.341561
-2.696491 -9.031654 0.973113 -3.518444
-3.001846 -11.023922 1.537894 -4.207730
-1.245549 -10.686430 1.737085 -3.579594
-2.365798 -11.052581 1.490803 -4.025514
-1.914787 -11.223896 0.909115 -3.941605
-0.255564 -6.343658 1.063430 -1.979767
0.323846 -2.383274 0.270958 -0.617828
-0.759250 -7.058289 0.431479 -2.345262
1.537642 -2.080759 -0.010969 -0.162935
0.739180 -2.316166 0.055511 -0.473096
0.766244 -2.160529 -0.011335 -0.418286
1.491981 -2.117387 0.012408 -0.187622
2.501581 -2.054367 0.420766 0.134164
1.600722 -6.095631 1.374660 -1.348473
0.805760 -1.986475 0.094763 -0.354215
-2.766034 -13.614478 0.775445 -4.914154
-0.474144 -8.952692 1.393569 -2.828051
-0.193471 -6.013712 0.247980 -1.862155
1.254991 -1.921789 0.279947 -0.200039
1.787279 -2.073462 0.198288 -0.085855
0.276897 -6.167390 0.356476 -1.767148
0.582655 -6.463122 0.201410 -1.764140
-1.955696 -11.934558 1.367675 -4.167076
-1.557750 -10.535201 0.326864 -3.627885
-1.756227 -12.098948 0.294112 -4.156552
-0.464386 -6.766582 0.134149 -2.169290
-2.649246 -15.396514 0.091105 -5.413728
0.229357 -6.480298 0.031988 -1.875282
-1.796217 -14.824914 0.908614 -4.986339
-3.685619 -19.128849 -0.346013 -6.844340
-3.142990 -18.295581 -0.579751 -6.431572
-4.362682 -19.159572 -0.057482 -7.056676
-0.931965 -11.383619 -0.023233 -3.694675
-2.619747 -14.876177 -0.203525 -5.248777
-2.618569 -13.293630 1.971769 -4.773660
-0.321670 -14.016235 3.371861 -4.301371
-1.498160 -12.553880 2.294911 -4.215612
-2.129637 -14.197021 2.992918 -4.897997
4.157413 -10.658235 2.504133 -1.950247
0.154595 -17.788421 2.764507 -5.290148
7.234293 -6.324503 1.350033 0.272937
1.007333 -17.128347 2.302687 -4.836304
3.130972 -14.317720 0.861041 -3.356024
2.535455 -14.827822 2.073203 -3.687710
2.057305 -16.211294 0.864610 -4.246197
7.649620 -6.280357 0.953418 0.410779
2.283923 -11.027082 2.902646 -2.622948
6.411202 -6.726617 1.726267 -0.094624
7.165941 -6.727619 0.393813 0.131497
7.294914 -2.141289 0.719972 1.546087
1.013972 -9.849260 2.496519 -2.650586
1.912468 -5.823057 1.496828 -1.173177
1.285235 -10.529081 2.810847 -2.773154
4.750705 -2.113725 0.753343 0.791094
3.699979 -6.425316 1.908083 -0.817601
7.042155 -2.166824 0.714089 1.462599
4.203409 -6.650805 1.785623 -0.734219
4.967902 -6.438810 1.731485 -0.441272
3.473386 -2.076231 0.628905 0.419146
5.325937 -2.159461 0.713235 0.949943
6.138006 -2.129828 0.758728 1.202453
8.801683 -2.633795 0.721719 1.850366
10.541023 -1.364123 0.102411 2.753070
3.919795 -12.169458 1.506013 -2.474899
5.326318 -6.726323 1.570630 -0.420001
5.952587 -7.477105 1.070937 -0.457355
9.684563 -2.182853 0.628481 2.250513
9.656388 -2.085541 -0.263952 2.271254
5.197439 -10.401733 1.504710 -1.561288
5.180901 -10.658431 0.975271 -1.643259
8.116118 -5.617722 0.323734 0.749519
8.540446 -4.931982 0.104586 1.082539
10.068420 -1.979243 -0.314016 2.426753
10.682828 -1.097427 0.162036 2.875620
10.506008 -1.345667 0.239049 2.748103
4.366490 -11.206053 -0.993669 -2.051869
7.234432 -6.399282 -0.277280 0.250545
9.689508 -2.772208 -0.357114 2.075190
5.331604 -10.108774 -1.212941 -1.433151
10.384820 -1.486328 0.311917 2.669548
7.462209 -6.661010 -0.526421 0.240360
7.944503 -5.675294 0.026767 0.680763
2.494304 -15.505915 -0.078150 -3.903483
5.239392 -10.522364 -0.877146 -1.584891
4.427679 -10.312976 -0.565083 -1.765589
7.172083 -7.313667 0.128183 -0.042475
9.747051 -2.803878 -0.022922 2.082952
4.634884 -11.743532 0.460850 -2.132595
7.156842 -7.299776 -0.317414 -0.042880
6.084140 -9.219046 0.301488 -0.940472
2.133980 -16.102882 0.210288 -4.190671
3.495216 -13.776239 -0.170771 -3.084307
6.161415 -9.075424 -0.019993 -0.874203
-0.108501 -19.857825 -0.021500 -5.989898
-0.745500 -21.253653 -0.342158 -6.599746
4.932132 -11.217715 -0.382445 -1.885675
2.476999 -15.513072 -0.644660 -3.910822
1.805433 -16.645743 -0.801316 -4.452093
3.222736 -14.206141 -0.341888 -3.295021
-2.139644 -23.661471 -0.724402 -7.740335
0.598555 -18.801747 -0.813345 -5.460958
-12.140383 -41.207567 1.353622 -16.004385
0.099285 -19.571766 -1.175684 -5.841744
-4.548268 -23.717098 0.850385 -8.479610
-1.883224 -23.227509 -0.118829 -7.533220
-9.233883 -35.811247 1.823021 -13.513539
-1.063554 -21.708774 -0.892769 -6.831698
-6.304030 -30.602457 1.886899 -11.071946
-2.495983 -23.465320 0.686998 -7.788391
-2.571251 -24.066721 1.606593 -7.991392
-1.957641 -23.241892 0.562628 -7.559860
-1.152021 -20.480630 0.627969 -6.489795
-4.839457 -23.544502 0.853942 -8.515188
-0.806030 -19.515019 0.536283 -6.096315
-2.449070 -24.183421 -0.155742 -7.989747
-1.723132 -21.945861 2.779995 -7.100698
-1.601385 -21.730379 2.696869 -6.999529
-4.881911 -25.100829 0.820309 -8.994822
0.156801 -19.401071 1.411525 -5.773281
-2.810926 -16.310187 3.460358 -5.736334
-3.919931 -19.209007 4.343533 -6.938681
-0.711442 -17.152941 4.067099 -5.359315
-3.277908 -22.061037 4.345188 -7.601684
-4.908818 -21.510298 4.294237 -7.925735
-2.119032 -18.619304 4.067457 -6.221501
-3.715963 -23.937569 4.292826 -8.296059
-3.257654 -24.009665 3.536477 -8.180196
-1.471613 -19.453467 4.124042 -6.277524
-4.854922 -26.595336 3.713022 -9.435077
-4.933304 -28.411252 1.461768 -10.003367
-3.407214 -25.725393 1.393028 -8.739782
-3.571451 -25.436965 2.616988 -8.702525
-2.841825 -24.572175 1.774990 -8.224200
-5.360702 -28.846820 2.243243 -10.262257
-5.803860 -29.549631 2.361918 -10.606047
-8.943325 -35.019087 2.500380 -13.188724
-6.191257 -30.001158 2.625725 -10.857725
-8.891214 -25.020740 4.075866 -10.173586
-5.259664 -25.550510 5.004827 -9.243052
-6.477367 -24.879903 4.882176 -9.407181
-6.366457 -28.217657 4.515986 -10.375234
-11.475586 -29.790264 3.633853 -12.379755
-8.264870 -28.218705 5.745423 -10.945072
-10.296267 -29.763301 4.749956 -12.017870
-9.972837 -31.440540 6.564938 -12.424013
-13.801357 -44.240370 1.008452 -17.412518
-8.145087 -32.352273 4.218008 -12.149208
-7.142290 -31.704977 2.798911 -11.654180
-6.577859 -30.177070 3.479908 -11.026479
-14.023305 -44.197835 2.309638 -17.466342
-10.876999 -39.094410 0.845921 -14.991423
-14.295099 -44.890029 1.198963 -17.755538
-12.793587 -40.801066 4.057281 -16.078396
-10.797712 -37.878588 2.902352 -14.602890
-6.013068 -30.205804 1.509086 -10.865661
-13.259386 -43.184642 1.012963 -16.933208
-5.994013 -30.332974 0.835585 -10.898096
-8.595168 -34.814423 1.151918 -13.022877
-4.462833 -27.157905 2.201522 -9.486221
-9.754007 -36.926009 0.176125 -14.004005
-7.275774 -32.489346 0.998582 -11.929536
-9.058757 -35.132067 1.053623 -13.257247
-13.463328 -42.471066 3.526125 -16.780318
-10.750259 -36.852762 0.663676 -14.280907
-6.381754 -30.927858 0.834465 -11.192883
-11.120520 -38.251458 0.993025 -14.811594
-5.584544 -29.437655 -0.320017 -10.506660
-10.906985 -38.604977 2.148955 -14.853589
-10.077322 -37.243413 0.083543 -14.196221
-12.809263 -42.523180 0.692685 -16.599733
-4.170979 -27.111802 -1.296982 -9.384834
-1.916627 -23.305345 -0.191198 -7.566592
-15.231474 -46.732626 0.886901 -18.589230
-0.133256 -20.033838 -0.967913 -6.050128
-0.369988 -20.486281 -0.835733 -6.256881
-1.908537 -22.424694 -2.411348 -7.299969
-0.278013 -19.759158 -2.186000 -6.011151
-1.349865 -19.081017 -1.889307 -6.129265
-1.861481 -21.885426 -3.033218 -7.124072
-3.982961 -26.606088 1.761528 -9.176715
-7.936926 -22.418993 2.725578 -9.106776
-5.925280 -24.351503 -2.057228 -9.083035
-4.719744 -27.983360 -1.596403 -9.810931
-6.774796 -7.965773 1.001155 -4.422171
-3.303155 -11.172814 3.702925 -4.342791
-13.617047 -41.988457 1.031553 -16.681651
-6.761802 -31.735524 1.147073 -11.549198
-12.829717 -41.051275 2.858315 -16.164297
-2.515655 -24.248219 -1.047162 -8.029162
1.702962 -16.798621 -1.198699 -4.528698
-4.646144 -27.949461 -1.163576 -9.778681
-1.454889 -21.962150 2.111753 -7.025111
-6.454286 -31.177014 -0.915005 -11.289390
-7.716642 -33.565865 -0.408007 -12.384752
-4.812203 -28.358537 -0.817715 -9.951222
-6.585879 -31.459875 -1.333517 -11.413726
-7.825874 -33.587504 0.368460 -12.424014
-12.777070 -42.450541 0.667977 -16.568283
-3.219896 -24.600178 2.875740 -8.346022
-6.156589 -30.674475 -0.877059 -11.049319
-10.259032 -37.842853 1.483063 -14.430566
-5.431314 -29.427379 -0.676845 -10.457608
-1.055988 -21.274142 -1.986956 -6.699039
-3.826813 -22.426704 4.306691 -7.876055
-0.911403 -20.408200 2.667149 -6.395881
-1.573555 -15.123471 5.597050 -5.009108
-5.229495 -29.074287 0.998145 -10.291135
-0.953679 -21.628994 -0.158687 -6.774802
-3.685132 -25.460419 2.826664 -8.743665
-5.978337 -30.152872 -1.973423 -10.839362
5.743512 -9.822770 0.101068 -1.223777
0.536002 -18.162291 -2.517819 -5.287886
-2.166076 -23.756925 -0.339068 -7.776900
-5.114024 -28.509348 -2.025576 -10.087011
-0.369519 -20.572727 -0.492530 -6.282674
-3.895528 -25.691488 3.024856 -8.876105
-0.890574 -20.915474 2.127231 -6.541814
2.607233 -15.370243 0.337232 -3.828903
2.669009 -14.919099 1.397988 -3.675027
0.745471 -17.282904 -1.344082 -4.961230
1.669507 -14.730253 1.619262 -3.918224
-0.933990 -15.500422 0.911692 -4.930323
0.137161 -18.026060 2.641799 -5.366670
-0.393046 -15.273449 -0.461391 -4.699948
-2.081676 -16.843019 0.214222 -5.677409
-2.901531 -18.261093 -0.766426 -6.348787
-2.955365 -17.266290 1.110898 -6.066496
-4.895897 -28.582453 0.367710 -10.043505
-2.898899 -24.818282 -1.404355 -8.315154
-3.409467 -24.181609 -2.265288 -8.277323
-0.711285 -16.676762 -1.117750 -5.216414
-0.535078 -20.791529 -0.852704 -6.397982
2.621814 -14.362760 -1.136146 -3.522284
-1.033487 -20.872047 -2.095496 -6.571660
0.946709 -17.166818 -1.391247 -4.866033
0.176687 -16.646504 -1.135959 -4.940945
-2.074184 -22.926943 -1.189704 -7.500338
2.620077 -15.122127 -0.992351 -3.750615
2.051117 -16.111312 -1.110098 -4.218058
2.117709 -12.418069 -0.339569 -3.090108
1.734962 -14.972476 -1.442137 -3.971254
0.456254 -13.375060 0.055936 -3.875642
3.010031 -13.674357 1.999564 -3.199298
1.777413 -12.289004 0.525643 -3.153477
-0.408676 -14.251549 1.503403 -4.398067
2.497541 -13.119353 -0.837680 -3.186544
8.376070 -2.180409 -0.200995 1.858698
3.729330 -10.139620 -0.686328 -1.923087
1.556482 -13.437634 -0.754369 -3.564345
9.336623 -2.670064 -0.397240 1.999968
7.389589 -6.435803 -0.727089 0.286136
6.831990 -5.800011 -0.307964 0.309594
4.355562 -11.198332 -0.689795 -2.052831
6.077742 -6.446523 -0.594775 -0.110634
10.009523 -2.062202 -0.099513 2.384196
4.488756 -9.147659 -0.261490 -1.397671
8.237724 -2.149052 0.093810 1.826602
6.824984 -6.710762 -0.710527 0.034267
9.364183 -2.019758 -0.247847 2.203328
8.765252 -2.302378 -0.356473 1.938862
9.211771 -1.797369 0.227096 2.224320
6.928237 -5.740565 0.515313 0.356301
5.776471 -6.125196 -0.189045 -0.104618
3.264606 -9.746090 -0.018027 -1.944445
5.641880 -6.077812 0.391762 -0.130780
3.473263 -10.629318 1.343204 -2.146816
4.496179 -9.765559 0.935054 -1.580814
9.948337 -2.156505 0.265031 2.337550
10.639284 -1.217314 -0.210302 2.826591
4.849685 -10.854868 1.048072 -1.801555
6.308438 -7.446277 1.101365 -0.341352
7.789174 -6.365274 -0.082048 0.427170
8.845115 -2.931901 0.603122 1.773964
10.119510 -2.195164 -0.387409 2.377304
9.675570 -2.574998 0.078166 2.130172
10.495330 -1.394628 0.035228 2.730211
7.059599 -2.141315 -1.217000 1.475485
9.718432 -2.617353 -0.097932 2.130324
4.378390 -11.903547 -1.361084 -2.257547
9.843292 -2.556504 0.152466 2.186037
7.973865 -5.882910 0.061332 0.627287
7.916475 -5.935925 0.316098 0.594165
6.131580 -9.298222 -0.126195 -0.949993
5.912367 -9.207949 -0.754102 -0.988675
7.467798 -6.547748 -0.590117 0.276015
7.341780 -6.463154 0.678618 0.263588
5.949666 -6.390708 0.796699 -0.132312
10.335927 -1.683660 0.036156 2.595680
7.599044 -6.605530 -0.637570 0.298054
6.181522 -8.902770 0.896935 -0.816374
7.767176 -6.287562 -0.037920 0.443884
0.746063 -18.665334 0.178707 -5.375781
4.638052 -11.796903 -0.146875 -2.147655
1.827486 -16.278186 -1.896323 -4.335210
4.958595 -10.861453 -0.995560 -1.770857
0.739225 -17.923590 -2.343195 -5.155310
2.190692 -15.644544 -1.695312 -4.036156
3.019088 -14.296785 -1.417282 -3.383309
2.876664 -14.571930 -1.205194 -3.508580
-5.640173 -29.734424 0.530391 -10.612379
5.738615 -8.940896 -1.936393 -0.960684
3.705787 -11.737151 -2.273378 -2.409409
5.736016 -5.768517 -1.191869 -0.009750
4.414925 -5.635719 1.618563 -0.366238
4.751354 -9.328488 -2.249676 -1.373140
3.880586 -5.060979 0.625366 -0.354118
5.444823 -5.935230 -0.134626 -0.147122
4.654794 -8.232710 -1.361384 -1.073375
5.503006 -8.773649 -1.607480 -0.981193
5.434046 -9.019531 -0.998298 -1.075645
5.523213 -6.319727 -2.071762 -0.238954
2.764531 -14.408357 -1.571925 -3.493148
4.625102 -11.431170 -1.294759 -2.041820
3.859737 -11.519684 -2.004283 -2.297984
6.115609 -7.195926 -2.441835 -0.324095
8.798937 -2.807892 -1.303809 1.797313
9.868817 -1.985608 -0.891050 2.364963
4.311039 -2.006673 -0.882665 0.691310
8.902705 -3.345771 -0.247731 1.667080
6.845190 -2.722486 -0.936932 1.236811
4.508286 -4.926852 -1.538130 -0.125570
5.749078 -1.999736 -0.876070 1.124802
5.165656 -2.007273 -0.329118 0.947515
6.071358 -6.135722 -2.134004 -0.019309
5.583052 -8.183289 -1.961667 -0.780071
3.884184 -4.970357 -0.512676 -0.325852
2.480152 -1.753680 -0.458580 0.217942
4.502345 -8.176426 -0.091462 -1.102224
5.146668 -2.058024 0.290664 0.926593
6.359612 -6.576156 2.129149 -0.064963
2.000098 -1.795833 0.104394 0.061279
5.899914 -7.767720 1.527773 -0.560342
2.854787 -1.876948 0.652101 0.293352
5.870815 -2.151872 0.875847 1.115683
4.789581 -2.209068 0.962662 0.774154
7.241410 -2.252171 1.095087 1.496772
8.243362 -2.317720 0.910167 1.777693
7.105412 -7.701989 0.391598 -0.178973
7.063824 -2.540156 0.942881 1.357100
5.154659 -7.252219 1.856400 -0.629268
8.898566 -2.676156 0.642704 1.866723
3.724863 -12.559320 1.709902 -2.650337
4.180295 -11.649041 1.988451 -2.240624
6.996610 -6.997687 1.469601 -0.000323
3.435328 -13.489280 1.273413 -3.016185
3.878213 -12.879956 1.219199 -2.700523
4.492812 -8.566249 1.255870 -1.222031
5.513497 -6.148098 1.150149 -0.190380
5.472424 -9.292617 0.387476 -1.146058
5.381939 -9.394115 2.051713 -1.203653
2.957630 -14.007076 0.409848 -3.314834
1.431159 -16.740158 2.031671 -4.592700
2.690150 -14.776584 0.968462 -3.625930
2.216783 -15.545694 1.453441 -3.998673
4.282380 -11.400994 2.050077 -2.135584
4.593897 -11.452024 1.602460 -2.057438
6.664296 -7.114510 1.829473 -0.135064
1.760012 -16.462066 1.434365 -4.410616
4.209759 -11.980666 1.623706 -2.331272
0.094737 -19.472068 1.674088 -5.813199
1.427123 -16.835174 -0.006136 -4.622416
0.523833 -18.713744 0.170003 -5.456974
2.080717 -15.542413 1.280029 -4.038509
-0.180574 -20.080744 1.008755 -6.078395
-0.761555 -20.844613 0.084023 -6.481850
3.545229 -12.644813 0.372210 -2.729875
-0.313556 -20.382026 0.890119 -6.208675
-2.669863 -24.617793 1.358065 -8.186297
3.692047 -12.281762 -0.581902 -2.576915
-4.998013 -28.619716 1.065091 -10.085319
4.363502 -11.575121 0.837674 -2.163486
0.915016 -17.784842 0.526986 -5.060948
1.149901 -16.565888 -0.871052 -4.624796
1.692054 -15.410393 0.223821 -4.115502
3.840157 -11.641932 -0.258392 -2.340532
0.309335 -18.718039 0.204206 -5.522611
2.340055 -15.065728 -1.973949 -3.817702
-0.412663 -20.469441 -1.241630 -6.264631
4.793842 -11.052697 1.082533 -1.877656
3.849259 -11.431883 -1.430648 -2.274787
1.936536 -16.107803 -1.548189 -4.251380
2.939008 -13.906735 -2.095284 -3.290318
-4.518986 -27.673188 -0.887767 -9.657652
2.303735 -15.662220 -0.975942 -4.007546
-6.272290 -31.038742 -0.060316 -11.193310
1.879267 -16.335735 0.546322 -4.336940
0.509945 -18.092280 -2.446081 -5.274701
1.142978 -17.780464 -1.016492 -4.991246
0.486729 -18.976532 -1.125738 -5.546941
-6.255891 -30.535094 2.028255 -11.037296
-0.705677 -20.855041 -1.043858 -6.468215
2.098268 -16.088360 0.464457 -4.197028
-1.284099 -21.287140 -0.655042 -6.771372
1.840983 -14.764376 -0.321568 -3.877018
-2.746152 -23.740249 2.120479 -7.945920
-14.140904 -45.105979 0.332241 -17.774065
-2.004629 -23.110698 0.877372 -7.534598
-3.448074 -25.387678 -0.449481 -8.650726
-6.297933 -30.951112 1.023209 -11.174713
3.124217 -14.432519 -0.195755 -3.392490
2.182627 -16.041843 -0.138014 -4.157765
-0.705778 -19.693412 3.252509 -6.119757
-12.615094 -34.771235 3.994111 -14.215899
-12.098939 -40.997595 1.926851 -15.928960
-1.781202 -23.012941 0.776632 -7.438243
-6.007200 -30.587530 0.006590 -10.978419
1.224745 -16.599751 2.820516 -4.612502
-10.791318 -38.124917 2.786307 -14.674871
-2.788143 -24.401731 0.135249 -8.156962
-12.668312 -42.259157 1.227587 -16.478241
-4.301339 -27.416874 -0.601673 -9.515464
4.986617 -10.799472 1.454796 -1.743857
-4.022452 -26.784107 -0.459655 -9.241968
-4.295710 -27.460705 0.263367 -9.526925
-4.150319 -27.139725 -1.154233 -9.387013
-1.570238 -22.451988 -0.390465 -7.206668
-3.556557 -26.013204 -0.678627 -8.870928
-2.385425 -23.419921 -0.265423 -7.741604
-3.265452 -25.736378 -0.485941 -8.700549
-1.941393 -23.388675 0.344135 -7.599020
-1.223635 -20.385908 3.667152 -6.482863
-1.683547 -22.905773 1.221390 -7.376796
-3.511755 -26.363145 0.303145 -8.962470
-1.335688 -21.939631 2.012485 -6.982596
-9.958564 -30.999734 -0.969636 -12.287489
-5.361043 -29.613818 -0.146800 -10.492458
-4.675987 -28.413507 0.003444 -9.926848
-6.311489 -28.596464 2.072122 -10.472386
-14.470650 -45.654311 0.688573 -18.037488
-5.566464 -23.738936 3.269313 -8.791620
-6.981197 -31.366479 -2.985764 -11.504303
-6.680593 -31.683590 -1.026545 -11.509255
-14.284839 -43.854962 4.081439 -17.441940
-6.321455 -24.445461 2.895077 -9.230075
-6.255726 -30.970545 -1.216929 -11.167881
-4.334234 -27.423323 -1.721303 -9.527267
-8.103267 -33.165623 -3.305690 -12.380667
-10.041733 -37.453464 -2.045643 -14.248559
-11.539503 -40.225080 -1.677856 -15.529375
-4.420672 -27.614634 0.102000 -9.610592
-15.168503 -38.342900 -4.340444 -16.053421
-11.566249 -40.022729 -2.343653 -15.476693
-19.117209 -52.299505 -4.238781 -21.425014
-10.629450 -24.575655 -4.470018 -10.561532
-12.801068 -41.752473 -3.069641 -16.366062
-11.781048 -19.363912 -5.818027 -9.343488
-14.705701 -38.775579 -5.517160 -16.044384
-23.011056 -60.656568 -0.243748 -25.100287
-22.826425 -43.647938 -7.626345 -19.942309
-34.852256 -67.087098 -6.272911 -30.581806
-24.149245 -60.238522 -5.650553 -25.316330
-28.933825 -63.800795 -9.130167 -27.820386
-14.866922 -21.918480 -8.205997 -11.035621
-19.152779 -44.649321 -7.212412 -19.140630
-18.999019 -53.609640 -0.731688 -21.782598
-23.870943 -61.990850 -1.574893 -25.758538
-16.680375 -47.924271 -4.185321 -19.381394
-11.164162 -39.458513 -1.855490 -15.186802
-15.511308 -47.070153 -2.131904 -18.774438
-6.136305 -30.785882 0.510845 -11.076656
-11.660997 -38.668348 -4.376933 -15.098804
-15.420304 -47.013077 -1.967125 -18.730014
-10.654492 -35.792885 -4.443457 -13.934213
-14.536512 -44.771031 -3.253326 -17.792263
-18.507936 -52.471523 1.823208 -21.293838
-24.524332 -63.270901 0.532990 -26.338570
-15.631175 -47.580235 1.342947 -18.963423
-17.164611 -50.452628 -0.365887 -20.285172
-17.241581 -50.573961 -0.126492 -20.344662
-16.773868 -49.408953 1.604264 -19.854846
-13.959971 -44.607653 1.482265 -17.570287
-17.149436 -50.303853 0.932692 -20.235987
-15.495205 -44.036664 5.551760 -17.859561
-2.111273 -18.870488 5.628434 -6.294528
-20.235309 -52.194777 6.414503 -21.729026
-18.246854 -50.897696 3.934292 -20.743365
-15.805048 -43.376708 6.797096 -17.754527
-20.431184 -55.349561 3.075866 -22.734224
-17.902149 -48.808705 5.595666 -20.013256
-10.365176 -35.951002 4.705441 -13.894853
-7.221977 -32.097760 0.533898 -11.795921
1.987359 -11.690263 4.606136 -2.910871
-16.956633 -49.816678 1.309100 -20.031993
-28.324888 -65.182888 7.947142 -28.052333
-12.583120 -42.345021 -0.490137 -16.478442
-2.814826 -24.426152 2.020537 -8.172294
-11.566039 -40.459704 0.805479 -15.607723
-6.295748 -30.682296 0.125142 -11.093413
-6.611661 -31.241325 1.979734 -11.355896
-5.380843 -28.603100 2.570552 -10.195183
-10.685601 -38.723467 0.920437 -14.822721
-6.910440 -32.153135 -0.109221 -11.719072
-10.270288 -38.021557 1.111983 -14.487553
-18.156049 -51.438355 2.820495 -20.878321
-19.147982 -52.873977 3.391790 -21.606588
1.197546 -17.181873 2.120842 -4.795298
-7.333082 -32.905237 0.210677 -12.071496
-23.285527 -59.899535 4.065760 -24.955519
-12.428722 -40.713656 1.570995 -15.942713
-8.701759 -35.197523 0.778820 -13.169785
-13.825214 -40.970975 2.771285 -16.438856
-8.360761 -34.603257 -0.176316 -12.889206
-10.910083 -38.987245 -0.781529 -14.969198
-15.789876 -42.608813 2.688700 -17.519607
-12.456908 -41.813801 1.199675 -16.281213
-18.562218 -51.958406 -0.951225 -21.156187
-16.289156 -47.021113 -4.325196 -18.993081
-14.230164 -28.101624 -8.110050 -12.699536
-15.454650 -44.857832 2.200355 -18.093745
-12.083465 -37.882165 3.527993 -14.989689
-7.493457 -33.170985 0.107854 -12.199332
-14.456314 -40.288074 1.143818 -16.423317
-12.523178 -40.839969 3.086364 -16.008944
-13.462066 -42.030379 0.600234 -16.647734
-6.966505 -31.841248 -1.926738 -11.642326
-13.655014 -43.897441 1.314224 -17.265736
-11.622137 -22.674122 -0.108232 -10.288878
-4.041633 -25.928535 -3.052089 -8.991050
-14.519137 -44.567668 2.654071 -17.726042
-15.372015 -46.427981 2.679250 -18.539999
-2.962148 -25.097988 -0.641272 -8.418041
-6.764770 -31.854812 0.169661 -11.585874
-15.733434 -47.078400 2.593981 -18.843550
-9.342836 -36.080771 -1.780587 -13.627082
-9.434793 -36.523841 0.454460 -13.787590
-10.145876 -37.723302 0.835243 -14.360753
-14.066796 -44.723888 0.715382 -17.637205
-10.532458 -37.128242 -3.639514 -14.298210
-9.118917 -24.443196 -7.923111 -10.068634
-7.646062 -32.112258 -3.456070 -11.927496
-11.612577 -35.245894 -2.752148 -14.057541
-6.387367 -22.876774 -5.038239 -8.779242
-10.256489 -37.481633 -2.268101 -14.321437
-12.419750 -25.232289 -8.193006 -11.295612
-27.308431 -67.747144 -2.342862 -28.516673
-13.515758 -27.916451 -8.052402 -12.429663
-18.532018 -49.839946 2.108747 -20.511589
-12.883215 -42.121522 1.336299 -16.501421
-12.295010 -41.464206 -1.133099 -16.127765
-21.844637 -58.246470 -1.736000 -24.027332
-17.413666 -47.261346 2.301643 -19.402504
-16.870175 -47.805567 2.398798 -19.402723
-21.442305 -54.603251 2.219762 -22.813667
-24.393426 -62.766129 1.598792 -26.147866
-13.457951 -43.620302 0.289143 -17.123476
-16.765650 -49.409993 -0.290271 -19.852693
-20.725195 -55.556585 2.813701 -22.884534
-35.522480 -82.340589 1.977772 -35.979425
-22.899535 -59.674594 2.914837 -24.772239
-20.786373 -56.392916 -1.268813 -23.153787
-23.269898 -33.106222 -6.171376 -16.912836
-14.641587 -43.419136 -4.990426 -17.418217
-19.419925 -53.913484 1.758072 -22.000023
-19.234745 -50.665396 -1.155854 -20.970042
-13.144812 -27.027166 -9.263803 -12.051593
-16.250813 -28.802507 -8.329560 -13.515996
-18.107058 -48.037894 0.445899 -19.843486
-18.505012 -50.152817 2.057988 -20.597349
-14.729696 -39.780519 2.649163 -16.353065
0.512889 -16.275219 0.422134 -4.728699
-26.324838 -61.560095 1.657520 -26.365480
-32.165048 -75.075812 -0.650391 -32.172258
-17.354470 -47.855002 4.834403 -19.562841
-23.567054 -57.767266 0.489106 -24.400296
-18.157220 -49.599830 4.904348 -20.327115
-17.971712 -48.688354 5.504304 -19.998020
-18.819474 -51.441104 4.210985 -21.078174
-17.919382 -49.316628 4.854582 -20.170803
-20.950844 -50.252368 1.834740 -21.360963
-22.005383 -50.321957 -4.611438 -21.698202
-20.128234 -54.237588 3.639447 -22.309747
-17.648609 -49.691725 3.565942 -20.202100
-21.492034 -55.999702 3.737973 -23.247521
-21.922877 -56.817521 4.933238 -23.622120
-20.992153 -54.106361 5.681449 -22.529554
-21.186140 -54.988785 5.496681 -22.852477
-22.437001 -37.983967 0.369041 -18.126290
-34.340693 -79.115803 -1.444234 -34.036949
-31.897701 -42.052935 0.624844 -22.185191
-20.847967 -34.223972 -2.595667 -16.521582
-31.360130 -74.983377 2.016958 -31.903052
-17.081534 -47.901326 -4.986777 -19.494858
-39.691817 -89.995673 -0.180238 -40.303623
-27.354007 -36.667520 -3.436088 -19.206458
-21.587506 -55.437063 -0.150598 -23.107371
-39.798004 -70.819658 -2.748703 -33.185299
-27.415429 -67.237459 3.817904 -28.395866
-29.200593 -71.202474 1.427659 -30.120920
-29.041364 -68.046310 2.249183 -29.126302
-21.419598 -56.125116 -0.774060 -23.263414
-21.003692 -52.069926 -1.627920 -21.922085
-30.354398 -69.004418 -2.516826 -29.807645
-14.510456 -43.369684 1.197865 -17.364042
-32.201176 -72.171936 -1.883375 -31.311934
-25.839812 -63.187723 -1.928246 -26.708261
-27.150928 -61.099787 -5.755408 -26.475214
-23.285472 -54.264803 -3.165234 -23.265082
-19.287847 -48.436475 -2.290779 -20.317297
-20.394022 -54.728687 -3.814381 -22.536813
-28.847013 -67.298758 -2.980742 -28.843731
-28.319584 -67.048940 -4.180671 -28.610557
-33.710404 -68.062266 -2.808569 -30.531801
-38.300911 -82.228251 -6.270003 -36.782075
-39.734624 -82.336761 -8.456894 -37.261066
-30.544637 -65.945862 7.476835 -28.947150
-22.429228 -59.436950 -0.443649 -24.559853
-28.553461 -66.250897 -0.319493 -28.441307
-26.620133 -65.354460 -2.171148 -27.592378
-33.181691 -72.733153 -4.532575 -31.774453
-25.267665 -55.324922 -6.329713 -24.177776
-43.195071 -89.463298 -7.982766 -41.351584
-29.551547 -69.470403 -3.055434 -29.706585
-40.623775 -82.581830 -7.891091 -37.716379
-30.353571 -66.604160 -7.800749 -29.087319
-31.314409 -66.121661 -9.452036 -29.230821
-26.144310 -66.118731 -0.617733 -27.678912
-35.560302 -66.540665 -5.730271 -30.630290
-31.146270 -65.385667 2.649250 -28.959581
-32.236603 -61.182175 6.209506 -28.025633
-23.432348 -18.919641 3.503220 -12.705597
-32.156405 -60.085242 4.408742 -27.672494
-31.529477 -71.266517 7.928301 -30.838798
-26.764592 -48.582592 0.648993 -22.604155
-26.678126 -57.903413 1.796703 -25.374462
-23.371187 -58.369003 1.745018 -24.522057
-24.153806 -59.131655 6.714426 -24.985638
-22.087042 -57.989437 3.158210 -24.022944
-22.601762 -56.427564 4.827972 -23.708798
-23.158648 -58.395825 4.982262 -24.466342
-20.441855 -54.085297 4.119607 -22.358145
-29.159601 -64.873147 5.078663 -28.209824
-27.924312 -61.580128 5.444989 -26.851332
-26.694030 -64.793853 4.211659 -27.446365
-29.436064 -70.205222 5.046542 -29.892386
-21.889399 -56.780692 4.886298 -23.601027
-28.826173 -70.786976 1.600558 -29.883945
-23.739757 -61.076513 3.488179 -25.444881
-29.074948 -70.606342 3.458537 -29.904387
-41.728983 -90.921716 -7.112773 -41.399544
-28.998497 -71.210770 0.900159 -30.062780
-27.898558 -69.120452 -1.442349 -29.105703
-28.029678 -69.249368 -1.569923 -29.183714
-18.637829 -52.674654 1.835729 -21.393745
-32.353658 -76.371197 -3.096807 -32.905398
-18.306050 -51.968864 2.207808 -21.082474
-24.554582 -62.950758 2.557189 -26.251602
-37.642038 -86.261472 2.210083 -38.628369
-32.855281 -77.700092 -2.314290 -34.470373
-28.863471 -70.760181 2.041283 -29.887095
-27.614069 -67.555936 4.294427 -28.551001
-21.668338 -56.522404 4.777825 -23.457222
-21.660823 -57.477196 3.266163 -23.741406
-21.866875 -56.476514 4.567595 -23.503017
-23.638223 -59.725883 5.157533 -25.009232
-22.111701 -57.967406 3.842083 -24.023732
-22.240131 -58.517582 3.247961 -24.227314
-20.016861 -51.888646 6.081396 -21.571652
-20.262527 -53.499062 5.283382 -22.128477
-16.149729 -44.104339 6.819007 -18.076221
-20.496790 -54.064857 5.139385 -22.368494
-26.168051 -66.256465 0.409956 -27.727355
-18.282922 -52.360607 0.387200 -21.193059
-19.269517 -54.024448 0.721309 -21.988190
-26.856139 -67.467513 -0.314540 -28.297096
-26.848016 -66.765904 3.179344 -28.084176
-24.238554 -62.160482 3.086549 -25.919711
-24.570186 -62.323042 3.912768 -26.067968
-31.326945 -75.330691 0.899130 -31.997291
-31.562760 -75.629737 -1.611596 -32.157749
-29.914115 -70.773172 -5.544558 -30.206186
-20.300242 -55.901887 0.153350 -22.860639
-33.864508 -78.457435 -4.674940 -35.229490
-24.293457 -62.040656 -3.508973 -25.900234
-24.953640 -64.037256 -0.592572 -26.697269
-20.516670 -55.987846 -2.081502 -22.951355
-22.300770 -59.136920 -2.116613 -24.431307
-26.992957 -67.234235 -2.563500 -28.268158
-20.416569 -55.614574 -2.464039 -22.809343
-21.419184 -52.759885 -5.451895 -22.253721
-15.530649 -44.260785 -5.785153 -17.937430
-27.950295 -57.877218 -11.241909 -25.748254
-26.104841 -47.755617 -9.461523 -22.158137
-29.581604 -67.985257 -7.820160 -29.270058
-28.042674 -60.878151 -8.468472 -26.676248
-27.796595 -61.405352 -10.033362 -26.760584
-31.842698 -64.857459 -11.304942 -29.010047
-24.996830 -55.253356 -10.018181 -24.075056
-24.733866 -48.756718 -9.643219 -22.047175
-33.386635 -77.368955 -5.058546 -33.530865
-24.378371 -57.100317 -8.648020 -24.443606
-35.766583 -80.604186 -6.426757 -35.455408
-29.242578 -60.471217 -11.888115 -26.914139
-26.762313 -66.523252 -3.266850 -27.985670
-31.135130 -74.396709 -3.047126 -32.216415
-27.777004 -67.589488 -4.609169 -28.609948
-28.020454 -69.246041 -1.835205 -29.179948
-35.330865 -79.695301 -6.588192 -35.760139
-31.627382 -74.587366 -4.448170 -32.472708
-32.249480 -76.179413 -3.491549 -32.956904
-34.781967 -80.515724 -3.883593 -35.164506
-38.018627 -85.348134 -5.562226 -38.252339
-40.867976 -89.779354 -6.516149 -40.745279
-27.793916 -63.020769 -9.052451 -27.244405
-29.432930 -71.070054 -3.691380 -30.150895
-37.262842 -79.546563 -9.910809 -35.613699
-37.020091 -72.919445 -13.359735 -33.091478
-32.122223 -64.578273 -7.923385 -29.010149
-38.154641 -58.038605 -2.660913 -28.857974
-30.183568 -61.066369 -6.800508 -27.374981
-33.972797 -64.398496 -6.210278 -29.511388
-31.989258 -65.084911 -4.790222 -29.122251
-29.417252 -62.086738 -2.893074 -27.451197
-28.794491 -67.123832 -0.724054 -28.775497
-27.173584 -65.341759 -0.065882 -27.754603
-25.533638 -61.676576 0.940546 -26.163064
-28.297164 -63.155492 -5.929478 -27.435797
-27.043754 -67.116195 2.268349 -28.247985
-27.620904 -60.758530 -1.768899 -26.513830
-30.089112 -62.052569 -10.970189 -27.642504
-32.914600 -68.599415 -11.493452 -30.454205
-28.798338 -60.303490 -9.992630 -26.730548
-28.496653 -58.347544 -10.955794 -26.053259
-30.178796 -62.533809 -8.244963 -27.813781
-24.283883 -51.858696 -10.146984 -22.842774
-29.042059 -61.500070 -7.776901 -27.162639
-26.962110 -57.417151 -9.692883 -25.313778
-26.753593 -54.913300 -10.428923 -24.500068
-28.938786 -60.346510 -10.011109 -26.785589
-27.313817 -58.864001 -8.522700 -25.853345
-25.052967 -55.658287 -9.349315 -24.213376
-27.273984 -57.958212 -8.604992 -25.569659
-26.714321 -59.763629 -5.462314 -25.943385
-33.166704 -55.759439 -1.074352 -26.677843
-33.083911 -58.797365 -2.277858 -27.564383
-29.386923 -63.045740 -4.310887 -27.729799
-24.404626 -56.400061 -7.818731 -24.241406
-27.508457 -60.581334 -1.708350 -26.426937
-25.311631 -58.473755 -2.718553 -25.135616
-22.776287 -59.658833 2.033239 -24.730536
-28.192772 -69.639947 -0.094434 -29.349816
-33.995483 -66.558616 2.355261 -30.166230
-27.953342 -64.327243 8.178405 -27.684176
-23.246172 -53.819633 6.261567 -23.119742
-28.202434 -66.988618 6.297226 -28.557315
-35.873624 -74.025838 -5.818724 -32.969839
-16.535874 -36.233287 6.975076 -15.830748
-21.098910 -42.967522 4.848209 -19.219930
-20.451877 -37.115049 4.877672 -17.270078
-22.431552 -44.087029 4.191833 -19.955574
-23.479014 -33.315387 5.876753 -17.038320
-22.121442 -38.777441 4.274700 -18.269665
-21.366640 -36.452033 7.085364 -17.345602
-23.300603 -42.230041 3.292957 -19.659193
-28.121043 -50.844609 1.707492 -23.689696
-26.364523 -41.486006 5.563681 -20.355159
-32.960144 -77.954806 2.281670 -33.460438
-28.585141 -63.025084 2.920867 -27.483068
-24.074675 -43.815709 3.547678 -20.367115
-29.002713 -58.143661 0.694922 -26.143912
-29.131169 -44.135368 2.562751 -21.979961
-22.639668 -55.942000 7.070920 -23.574500
-28.786984 -65.283585 4.733268 -28.221171
-27.989066 -57.609661 3.182758 -25.679618
-25.101362 -49.297917 3.790851 -22.319784
-26.125438 -65.416017 3.041514 -27.462437
-30.715187 -74.023829 1.752460 -31.421705
-40.811718 -80.766576 -12.854747 -37.260150
-25.202084 -47.315023 0.453514 -21.755132
-31.021902 -49.405303 0.154519 -24.128162
-28.016856 -68.516132 3.870799 -28.959896
-26.192391 -52.991978 -0.865451 -23.755311
-31.310042 -72.524082 -1.155518 -31.150237
-25.025689 -39.015201 -3.798300 -19.212267
-32.188117 -73.531875 4.714488 -31.715998
-24.897404 -45.812496 -6.930849 -21.212970
-36.892107 -84.484785 2.183447 -36.565394
-27.993837 -68.657377 3.520034 -28.995364
-53.224721 -109.796785 -6.963481 -51.311695
-34.616471 -80.330864 3.810615 -34.915125
-41.226807 -91.562205 4.929744 -41.544318
-28.535966 -70.072793 2.393305 -29.582628
-41.492899 -92.486128 3.948618 -42.649892
-19.035695 -53.635591 -0.217212 -21.801386
-31.666065 -74.685648 2.520114 -31.905514
-28.909470 -70.845835 1.921587 -29.926591
-42.138239 -94.285804 -1.517694 -42.694696
-37.053895 -84.601608 3.904241 -37.616062
-29.764491 -71.772756 3.551288 -30.461174
-42.714166 -94.436430 4.370772 -43.042064
-25.786594 -65.525039 -0.033075 -27.393490
-29.298760 -71.764192 -0.028641 -30.318886
-44.626610 -98.287778 0.359503 -45.106524
-28.308694 -69.980848 1.129647 -29.486863
-36.096986 -83.520662 2.204438 -36.622673
-22.746883 -60.276854 -1.036432 -24.907121
-43.688916 -97.168128 2.053045 -44.348774
-38.556101 -87.878639 -3.381851 -38.988146
-38.909282 -87.610596 -4.974379 -39.206690
-30.503807 -73.479043 2.803796 -31.194855
-35.320013 -82.238402 2.043881 -35.894318
-31.436644 -75.234635 -2.773037 -32.001384
-15.633179 -47.368427 -2.731919 -18.900482
-32.091246 -76.308025 2.420859 -32.546535
-30.504685 -73.552798 2.323525 -31.217245
-24.720142 -63.488247 1.620358 -26.462517
-36.323329 -83.925181 2.101433 -36.863905
-30.235104 -73.453700 1.060294 -31.106641
-36.173253 -83.786161 1.746774 -36.758191
-20.306656 -55.825118 -1.843837 -22.839532
-26.321826 -66.498485 1.280516 -27.846093
-20.978566 -57.160310 -1.185215 -23.441663
-14.173016 -43.715626 -4.114646 -17.366592
-32.742504 -75.564132 -6.506958 -32.491991
-17.742258 -51.373567 -1.535414 -20.734748
-10.020945 -36.687466 -3.712460 -14.012523
-38.791628 -86.824319 -6.112229 -38.888584
-13.658822 -42.738221 -4.362202 -16.919113
-26.861535 -65.902305 -5.286883 -27.829152
-18.191360 -51.926365 -1.819990 -21.035317
-28.671278 -69.384776 -4.754748 -29.416816
-31.831936 -76.326402 -0.104611 -32.447501
-31.192329 -75.104986 1.056972 -31.889194
-16.030046 -48.435887 -0.509787 -19.339780
-28.447408 -70.370070 0.443555 -29.645243
-25.438780 -64.969109 0.481914 -27.122367
-30.967327 -74.672311 -0.999671 -31.691892
-24.661149 -63.704354 -0.263350 -26.509651
-23.659340 -61.777157 1.324886 -25.630949
-39.234458 -89.247992 1.089183 -39.875948
-19.206674 -54.004654 -0.102053 -21.963398
-21.715110 -58.495457 0.484570 -24.063170
-27.668486 -68.963578 -0.001532 -28.989619
-30.265916 -73.396935 1.330370 -31.098855
-34.796017 -79.999329 5.013159 -34.879231
-32.972592 -77.167490 4.263039 -33.246235
-27.827144 -68.710852 2.688136 -28.961399
-27.177879 -67.983637 1.060152 -28.548455
-21.990960 -58.492853 2.271896 -24.145144
-24.592575 -63.483045 0.741530 -26.422686
-28.184153 -69.660348 1.632889 -29.353350
-22.408977 -59.015755 2.878986 -24.427420
-26.171347 -66.262417 0.541503 -27.730129
-19.490721 -34.468659 5.211200 -16.187814
-21.449542 -38.952205 6.494854 -18.120524
-18.254503 -52.159527 1.367500 -21.124209
-15.721187 -47.093127 2.884820 -18.844294
-16.316325 -29.489537 2.590163 -13.741759
-19.168815 -36.887067 7.011393 -16.816764
-16.095443 -38.248058 6.063838 -16.303050
-19.177135 -37.702565 6.718269 -17.063910
-13.972310 -44.818979 0.015245 -17.637387
-25.411290 -65.018194 0.273598 -27.128845
-19.828504 -55.110574 -1.211673 -22.481723
-15.236028 -47.056716 0.011536 -18.687823
-25.140594 -64.281886 1.676554 -26.826744
-23.309972 -61.253657 -0.171052 -25.369089
-20.541900 -56.386319 0.420820 -23.078466
-24.166118 -62.760767 0.309437 -26.078065
-12.094968 -41.446871 -1.330308 -16.062552
-21.830094 -58.743616 -0.326043 -24.172113
-19.215026 -54.161217 -0.232770 -22.012873
-14.183789 -45.029233 -1.744721 -17.763906
-22.228546 -58.684070 -3.301554 -24.273785
-28.023651 -69.531430 -1.676627 -29.266524
-26.765616 -66.285763 -4.095116 -27.915414
-17.445658 -50.164046 -2.835048 -20.282911
-16.034205 -47.677156 -3.159036 -19.113408
-11.168846 -39.696017 -1.903138 -15.259459
-11.504580 -39.796602 -2.670281 -15.390354
-10.241816 -37.700502 -2.458982 -14.382696
-18.276810 -52.491098 -0.532333 -21.230372
-13.740144 -44.381215 -0.978158 -17.436408
-20.037023 -55.148146 -2.750594 -22.555551
-19.787253 -55.078045 -1.279291 -22.459589
-15.619636 -45.872219 -4.868352 -18.447556
-18.539636 -52.814204 -1.779546 -21.406152
-17.561460 -50.430630 -3.516726 -20.397627
-14.971315 -44.720903 -4.620552 -17.907665
-8.459843 -33.579582 -3.741693 -12.611827
-10.767609 -38.530185 -2.609962 -14.789338
-7.613334 -33.167921 -1.937940 -12.234377
-14.861540 -45.441962 -3.278547 -18.091050
-17.469024 -50.905164 -0.871703 -20.512257
-10.863999 -39.074084 -1.522739 -14.981425
-8.293244 -31.424754 -5.555728 -11.915400
-14.503868 -43.161819 -5.378349 -17.299706
-6.509323 -31.607560 0.027078 -11.435065
-9.457424 -36.630886 -1.250256 -13.826493
-8.395012 -34.597780 -2.430372 -12.897838
-11.858202 -41.044808 -1.411773 -15.870903
-11.586658 -37.744863 -5.430152 -14.799456
-14.277198 -43.958141 -4.326947 -17.470602
-6.385066 -30.812675 2.392879 -11.159322
-13.996386 -34.401273 1.577512 -14.519298
-15.339579 -47.226401 0.111263 -18.769794
-18.348051 -52.292228 -1.951492 -21.192084
-11.489990 -40.081960 1.798791 -15.471585
-14.759669 -45.934550 1.610097 -18.208266
-11.102784 -39.073467 -3.052960 -15.052875
-19.706924 -54.606020 -2.423745 -22.293883
-12.863426 -36.790984 5.078214 -14.896323
-14.618961 -36.426380 5.710719 -15.313602
-25.012176 -64.184728 1.179405 -26.759071
-13.535969 -37.368868 5.453160 -15.271451
-15.304985 -25.462433 -4.164012 -12.230225
-19.213860 -26.739280 -2.027959 -13.785942
-8.872544 -35.637321 1.288287 -13.352960
-12.491161 -33.061695 2.185976 -13.665857
-14.422116 -45.291438 1.756533 -17.914066
-8.062304 -33.966198 1.728596 -12.608551
-12.357296 -37.433128 -2.198670 -14.937127
-23.993632 -47.882362 -3.170817 -21.562798
-11.498238 -16.076702 -5.964185 -8.272482
-8.953607 -23.124044 -0.519967 -9.623295
-19.331114 -42.519794 -2.966240 -18.555272
-11.435741 -38.954537 -2.274439 -15.117084
-7.068738 -17.123540 -7.711405 -7.257683
-16.577972 -40.043955 -2.569281 -16.986578
-19.356050 -42.303705 -2.288262 -18.497926
-14.893633 -37.497008 -3.331836 -15.717192
-22.815703 -44.757121 -3.367084 -20.271847
-24.739237 -42.411191 -3.333134 -20.145128
-23.079942 -47.478533 2.994374 -21.167542
-16.507742 -40.172418 -0.087788 -17.004048
-13.401445 -23.677551 -0.858413 -11.123699
-21.748799 -31.669225 2.986207 -16.025407
-25.822325 -46.135541 -2.973103 -21.587360
-21.155960 -45.402996 5.335658 -19.967687
-20.219805 -33.141239 4.790954 -16.008313
-20.602823 -35.890398 4.636704 -16.947966
-26.641241 -48.778126 -3.135882 -22.625810
-16.609807 -40.532978 8.481219 -17.142836
-16.450680 -30.459235 7.103249 -14.072974
-22.006916 -38.510442 4.252652 -18.155208
-22.769113 -48.297191 -3.993677 -21.319891
-28.209439 -57.928194 -3.622113 -25.841290
-20.628461 -43.594381 -3.394460 -19.266853
-27.189015 -49.743812 -4.663786 -23.079848
-19.308488 -42.855749 -3.931692 -18.649271
-27.876477 -50.532445 -2.495224 -23.522677
-26.215557 -53.363946 -4.030379 -23.873851
-21.634204 -46.993167 -3.780628 -20.588211
-23.751828 -47.482548 -4.254300 -21.370313
-22.470513 -44.390396 -3.554315 -20.058273
-22.230835 -39.994728 -4.287968 -18.667669
-32.103533 -54.979654 -1.906080 -26.124956
-24.138178 -47.432686 -2.914285 -21.471259
-29.996262 -55.140046 -3.178581 -25.540892
-29.588952 -60.401798 -2.849493 -26.997225
-32.339021 -55.074027 -1.898791 -26.223914
-29.044382 -53.389758 -1.148645 -24.730242
-32.274491 -58.793119 0.841118 -27.320283
-25.863238 -55.030341 -9.598652 -24.268074
-32.829099 -64.797241 -2.232698 -29.287902
-30.148668 -55.237906 -1.974259 -25.615972
-33.295303 -60.273084 -2.223849 -28.070516
-26.321007 -51.483258 -4.747455 -23.341280
-15.996077 -38.923805 -1.417636 -16.475965
-28.482113 -54.829448 -2.829285 -24.993468
-26.549199 -48.589159 -4.046452 -22.541507
-23.127099 -50.694760 -3.551664 -22.146558
-28.335866 -54.432529 -5.599156 -24.830518
-16.113235 -47.305667 -2.365066 -19.025670
-22.155814 -55.620895 0.406726 -23.333013
-24.907398 -50.236265 -3.439835 -22.543099
-13.597767 -41.188543 -3.555972 -16.435893
-28.836720 -52.195977 -2.060312 -24.309809
-19.964583 -45.347214 -4.137104 -19.593539
-25.275869 -49.883748 -3.214183 -22.547885
-25.703990 -52.440811 -3.151660 -23.443440
-22.711580 -45.348074 -2.882772 -20.417896
-18.641608 -43.048681 -3.381251 -18.507087
-6.166647 -30.206764 -2.370291 -10.912024
-16.774893 -42.502646 -3.510306 -17.783262
-16.263677 -43.873725 -0.398410 -18.041221
-16.801264 -49.778256 0.703003 -19.973856
-9.251939 -36.213960 -1.125189 -13.639770
-14.035350 -44.449624 1.971949 -17.545492
-12.932576 -42.541281 -1.289243 -16.642157
-21.385107 -46.929867 -3.112885 -20.494492
-10.776774 -38.938681 1.027529 -14.914636
-6.374566 -31.406344 -0.147876 -11.334273
-14.765860 -45.510322 -2.836009 -18.082855
0.166893 -19.373217 -1.697374 -5.761897
-12.081681 -40.852598 -2.269454 -15.880284
2.256283 -15.964017 1.147497 -4.112320
-6.553587 -31.667281 0.674863 -11.466260
-9.649977 -36.967948 -0.856016 -13.985377
-13.403620 -43.200560 -1.592739 -16.981254
-12.793349 -41.318583 -3.608624 -16.233580
-14.408305 -37.803106 -2.509416 -15.663423
-4.508105 -27.482771 -1.903283 -9.597263
-9.390270 -36.082353 -1.259973 -13.641787
-13.880782 -40.872198 -4.711770 -16.425894
-11.579449 -37.089890 -2.270089 -14.600802
-10.742261 -34.130314 -2.248545 -13.461772
-17.941606 -40.610563 -2.958314 -17.565651
-4.713937 -20.380390 -2.277608 -7.528298
-14.924641 -39.117374 -1.083426 -16.212604
-18.284806 -44.462226 1.017247 -18.824110
-10.478846 -25.627581 -5.283764 -10.831928
-15.033036 -28.342511 0.048369 -13.012664
-10.833107 -21.705143 -2.231853 -9.761475
-11.956585 -26.340530 1.435943 -11.489134
-7.668770 -20.182373 -2.397341 -8.355343
-11.307812 -23.865208 -0.799250 -10.551906
-7.734355 -23.687661 0.483029 -9.426605
-4.646188 -28.077698 1.489753 -9.817166
-8.015680 -32.511588 -3.808237 -12.158181
-12.706291 -37.811136 -0.554869 -15.155228
-2.733868 -21.535399 -4.955119 -7.280780
-8.212171 -34.434661 -0.547633 -12.794049
-4.242485 -22.674915 -5.947812 -8.075220
-12.917642 -38.736044 -1.472855 -15.496106
-7.928671 -33.617347 -1.795834 -12.463805
-9.014161 -35.813602 -0.820204 -13.448329
-4.023618 -24.357663 -4.675907 -8.514385
-6.078505 -26.372002 -4.804028 -9.735152
-7.355620 -20.589514 -1.505960 -8.383540
-7.795001 -20.824296 0.332660 -8.585789
-4.577162 -15.921565 -1.085194 -6.149618
-5.088041 -19.126751 -0.535919 -7.264438
-3.413740 -16.966625 -2.099604 -6.114110
-3.962644 -15.603713 -0.944876 -5.869907
-1.235387 -11.926463 -0.052225 -3.948555
-2.408086 -16.006178 -1.241318 -5.524279
-1.878348 -19.711966 -3.511217 -6.477094
4.445929 -5.737511 -2.075568 -0.387475
-3.649952 -20.168121 -3.690808 -7.145422
-4.056411 -19.972117 -3.244957 -7.208558
-6.864134 -31.973438 -1.416172 -11.651272
0.787196 -18.819737 0.474365 -5.409762
-10.240845 -36.612015 -3.737214 -14.055858
-2.152999 -21.005170 -4.601514 -6.947451
-6.690323 -31.707760 -0.782292 -11.519425
-8.991902 -33.426925 -4.699098 -12.725648
-7.087124 -31.901729 -2.265266 -11.696656
-6.003131 -30.265885 -1.608818 -10.880705
-1.138428 -22.010939 1.138952 -6.944810
-9.688367 -37.120115 1.184672 -14.042545
-12.789398 -40.564151 -4.646365 -16.006065
-6.278742 -30.692527 -2.077299 -11.091381
-9.325176 -36.397977 1.526304 -13.716946
1.850906 -16.757310 0.831601 -4.471921
0.886611 -18.246737 1.542637 -5.208038
1.312615 -17.328319 1.631349 -4.804711
0.844433 -18.520180 -0.725449 -5.302724
1.779808 -16.775000 -1.233721 -4.498558
2.882935 -15.272283 -0.158433 -3.716804
4.708370 -11.731035 0.623470 -2.106800
4.132612 -12.678959 -1.309260 -2.563904
5.769785 -10.278817 0.195827 -1.352709
1.297340 -17.867203 -0.411724 -4.970959
1.940726 -14.877992 -3.411092 -3.881180
1.009380 -17.019899 -3.048662 -4.803156
-0.029611 -16.982430 -4.519138 -5.103612
3.059005 -14.757876 0.400453 -3.509661
9.876318 -3.062474 -0.474579 2.044153
6.137761 -9.515230 0.055483 -1.013241
4.555868 -11.317794 -2.213391 -2.028578
4.725487 -11.999976 0.517358 -2.182347
9.770923 -2.657952 0.669368 2.133891
5.610846 -10.356317 0.301653 -1.423641
10.806672 -1.236185 -0.103355 2.871146
9.119699 -3.041162 0.864065 1.823561
6.250594 -8.451827 0.932596 -0.660370
9.789564 -2.822262 0.365443 2.090191
7.184015 -7.317141 0.279263 -0.039938
10.025886 -2.256455 -0.295763 2.330829
10.424572 -1.639341 -0.327883 2.635569
9.608466 -3.291991 0.332788 1.894943
11.076769 -0.924332 0.270400 3.045731
8.002316 -6.013620 -0.043501 0.596609
8.429324 -5.395324 0.170005 0.910200
6.845242 -8.368001 0.416944 -0.456828
6.763227 -8.384125 -0.987205 -0.486269
9.886877 -3.110644 0.085815 2.032870
8.622353 -5.339290 0.248887 0.984919
7.623873 -6.144877 -1.736005 0.443699
-1.200294 -14.934651 -2.942325 -4.840484
5.341800 -7.990429 -2.217287 -0.794589
-1.276162 -12.430146 -1.230976 -4.111892
11.059695 -0.675204 0.746988 3.115347
9.861900 -2.681940 -0.633892 2.153988
7.538705 -2.208710 -1.121433 1.598999
4.861562 -1.675726 -1.009363 0.955751
4.168518 -4.458412 0.504656 -0.086968
4.632875 -2.118063 -0.770164 0.754444
2.912899 -1.241852 -0.462219 0.501314
2.023578 -16.310227 -1.281580 -4.285995
3.666223 -6.124868 -1.932828 -0.737593
5.238870 -7.615312 -2.027181 -0.712933
2.207203 -8.789039 -1.313036 -1.974551
3.601476 -5.396961 -0.766849 -0.538645
1.346513 -10.438977 -2.681807 -2.727739
4.014461 -12.516535 -1.949490 -2.550622
-0.386613 -15.051972 -2.660657 -4.631575
4.032930 -6.949681 -2.556038 -0.875025
2.058641 -14.981021 -3.056114 -3.876714
3.083621 -13.191904 -2.704578 -3.032485
-0.246966 -18.331928 -3.857199 -5.573668
2.737057 -10.101661 -2.645654 -2.209381
0.963042 -12.580887 -3.589293 -3.485353
2.867425 -7.944160 -1.815239 -1.523021
0.316061 -11.943481 -1.945080 -3.488226
-0.554890 -10.487463 0.164859 -3.312706
-0.666589 -12.574074 -1.613693 -3.972199
2.460502 -5.832594 1.217967 -1.011627
3.215998 -6.087430 -0.473633 -0.861430
4.053455 -4.632276 1.368553 -0.173646
2.504091 -7.417903 0.531530 -1.474144
4.624633 -8.847330 -3.895988 -1.266809
2.895478 -14.973220 -0.195701 -3.623323
5.897948 -7.013176 -3.611084 -0.334568
-5.194337 -29.347541 -0.505958 -10.362563
0.753512 -7.917400 -1.516008 -2.149167
0.134280 -4.599569 -1.292078 -1.339587
4.346795 -7.783989 -1.441082 -1.031158
3.650721 -2.853403 1.163799 0.239195
0.754470 -6.944697 -1.167212 -1.857068
-0.258573 -7.209864 -1.453794 -2.240531
5.443497 -10.332956 0.793588 -1.466838
4.094059 -1.948923 -0.049467 0.643541
3.820278 -11.383135 -1.906249 -2.268857
3.937475 -2.719593 1.438437 0.365365
3.049335 -13.860173 -2.256828 -3.243251
0.074105 -3.867666 -0.066709 -1.138068
7.398417 -6.925921 -0.583276 0.141749
2.152875 -1.118247 -0.453070 0.310388
2.847510 -0.884244 0.528357 0.588980
2.104442 -3.980546 -0.825568 -0.562831
4.798551 -1.490552 -0.327734 0.992400
0.238359 -6.114424 -0.734445 -1.762820
3.258748 -1.911323 -0.550853 0.404228
7.598332 -5.666649 -2.179896 0.579505
0.868072 -4.072631 -0.606726 -0.961368
4.661913 -0.951949 0.269062 1.112989
0.197649 -3.632972 -0.372571 -1.030597
2.450005 -0.969893 -0.614400 0.444034
0.580371 -4.957658 -1.415249 -1.313186
-1.466921 -1.363150 -0.813240 -0.849021
0.057599 -2.637346 -0.931308 -0.773924
0.919898 -2.250283 -1.055327 -0.399116
0.715979 -1.989542 -1.043535 -0.382069
-2.041654 -1.612191 -0.014234 -1.096153
-0.196436 -2.779689 0.360107 -0.892838
-1.164751 -13.219071 -1.156694 -4.315146
-0.128402 -2.523225 0.017736 -0.795488
1.613707 -2.167167 0.182476 -0.166038
1.966539 -6.076008 -0.594374 -1.232841
-1.640673 -5.949449 -0.379730 -2.277037
-0.486379 -7.546908 0.022307 -2.409986
1.100466 -2.278510 0.510858 -0.353413
-1.641997 -10.502028 -1.606923 -3.643208
-0.764541 -6.750319 -0.849226 -2.254458
-0.550090 -4.375275 -0.107249 -1.477610
0.846174 -18.495516 -0.276980 -5.294803
-1.533602 -2.050193 0.469602 -1.075138
0.958209 -1.902723 0.291221 -0.283354
2.199646 -13.692985 -0.624627 -3.448002
1.521407 -5.798862 0.068423 -1.283237
3.137618 -9.758069 0.779061 -1.986136
1.804295 -5.857599 0.723200 -1.215991
1.609403 -13.170292 -0.279805 -3.468267
0.096900 -10.045068 0.454570 -2.984450
1.755583 -13.823370 0.279562 -3.620336
1.406493 -11.457598 -0.082649 -3.015331
-1.445817 -14.859410 -3.204815 -4.891568
-2.085488 -12.431682 -2.630283 -4.355151
-4.172997 -26.262607 -3.127212 -9.130681
0.551254 -14.417242 -0.183328 -4.159796
-0.252909 -20.511022 -0.162978 -6.229180
-0.764081 -20.254472 -2.916217 -6.305566
-5.276878 -28.750355 -2.417408 -10.208170
2.747655 -14.564243 0.991115 -3.544976
-5.142311 -28.077977 -3.124757 -9.966086
-7.605098 -32.376417 -3.288852 -11.994455
-2.639992 -24.758188 0.850133 -8.219454
-8.449956 -32.493772 -5.010996 -12.283118
1.785179 -16.093761 -1.983769 -4.292574
1.692514 -13.924646 -4.376261 -3.669640
3.549474 -12.246163 -1.392547 -2.609007
3.604887 -8.292912 0.717068 -1.406407
0.323570 -17.003766 -0.720120 -5.004059
1.923732 -15.211844 0.125218 -3.986434
1.493988 -17.408595 0.392294 -4.774382
0.961124 -18.236934 -1.086137 -5.182743
4.906190 -10.494118 -2.400312 -1.676378
6.918130 -7.404047 -1.556742 -0.145775
1.147583 -17.975484 -0.676854 -5.048370
-0.933611 -21.556513 -1.133372 -6.747037
6.059909 -8.854018 -1.666547 -0.838233
2.019817 -16.532219 -0.423250 -4.353721
-5.338496 -20.510704 -1.507987 -7.754760
5.532929 -10.423315 -0.143944 -1.467116
-10.604721 -38.812195 -0.750306 -14.825075
2.184723 -15.010118 2.883213 -3.847619
1.029233 -18.102845 -1.264395 -5.122084
-1.832877 -23.161597 -1.060802 -7.498342
2.872500 -14.225099 -2.257172 -3.405780
-5.576370 -29.907592 0.902761 -10.645189
5.308351 -10.327231 1.557325 -1.505664
5.382129 -7.694209 0.921278 -0.693624
-8.188420 -34.541340 0.847244 -12.818928
-12.843255 -42.271741 2.224482 -16.534499
-0.832138 -21.722938 0.102362 -6.766523
-6.458139 -31.675986 -0.176772 -11.440237
-3.601788 -12.715652 -1.691763 -4.895232
2.741897 -15.186892 1.012353 -3.733499
-7.273653 -30.916136 0.743024 -11.456937
-7.729173 -31.791541 1.248727 -11.856214
-6.785076 -31.931373 1.556191 -11.614935
-6.163752 -30.459089 0.954947 -10.986852
-9.297459 -35.766532 2.734908 -13.519197
-10.323143 -38.072654 1.792196 -14.518739
-7.459051 -32.695160 2.388457 -12.046263
-7.219032 -32.705641 1.517563 -11.977402
-11.344872 -39.658620 2.317690 -15.301048
-10.432027 -38.558185 1.003217 -14.697064
-8.645012 -34.863823 2.374584 -13.052651
-3.966685 -27.060517 1.214698 -9.308161
-6.281855 -27.397800 -5.689981 -10.103897
-10.725856 -37.761469 -3.998840 -14.546198
-12.193460 -38.952880 -5.234667 -15.343902
-9.848701 -35.544692 -4.394393 -13.618018
-3.826868 -21.313686 -3.220509 -7.542166
-4.884805 -28.665478 -1.386875 -10.065085
-5.941368 -28.420012 -4.321293 -10.308414
-3.658140 -19.929545 -3.064768 -7.076305
-2.164057 -22.499240 -3.319827 -7.398989
-10.294906 -36.522609 -4.207663 -14.045255
-7.077711 -31.295539 -3.476330 -11.511975
-2.471634 -23.937511 -1.974692 -7.922743
-7.781866 -32.313872 -3.755300 -12.028721
-7.658668 -31.702822 -4.197409 -11.808447
-13.914130 -42.054866 -5.304685 -16.790699
-11.893540 -40.735012 -1.986010 -15.788565
-9.971580 -37.493870 -1.443110 -14.239635
-5.798013 -22.231665 -0.932769 -8.408903
-7.091775 -30.324489 -2.888803 -11.224879
-6.462523 -20.934676 2.160896 -8.219160
-4.766821 -17.031381 -3.944628 -6.539461
-10.672274 -23.725347 -10.043614 -10.319287
-4.317468 -14.906772 -3.522104 -5.767272
-8.423538 -23.534193 -2.047505 -9.587319
-5.528899 -20.206107 -2.261546 -7.720502
-3.191314 -11.358700 -1.709870 -4.365004
-5.506515 -24.133196 -3.646754 -8.891914
-15.296815 -43.625795 -0.000062 -17.676783
-4.033611 -17.861624 0.826343 -6.568571
-9.599063 -21.536580 -0.600097 -9.340693
-4.430025 -17.892721 -2.573048 -6.696824
-7.152030 -28.061778 -3.267482 -10.564142
-4.647446 -11.254322 2.065376 -4.770531
-22.020235 -55.786766 -5.442942 -23.342100
-13.341285 -35.587133 -1.346598 -14.678525
-17.968801 -47.070090 -6.682809 -19.511667
-9.112021 -23.590517 -1.221278 -9.810762
-1.860154 -18.573922 -5.118658 -6.130223
-8.413078 -29.657816 -6.028968 -11.421268
-16.133775 -40.494645 -2.141870 -16.988526
-13.469717 -23.691360 -3.657576 -11.148323
-7.516441 -22.076642 -3.513689 -8.877925
-10.840532 -23.897184 -1.241442 -10.421315
-9.499608 -28.416014 1.812378 -11.374687
-2.698662 -22.866272 -3.735983 -7.669480
-6.507538 -27.546332 -0.518395 -10.216161
-11.340327 -30.796689 -0.693313 -12.641105
-17.665155 -47.251332 -6.111949 -19.474946
-6.035558 -28.759329 -2.617354 -10.438466
-7.475067 -23.005160 -0.205370 -9.144068
-13.200973 -33.007146 -1.389211 -13.862436
-8.714221 -22.601351 -3.457015 -9.394672
-6.909614 -19.805500 -4.969277 -8.014534
-0.500118 -1.375826 0.664754 -0.562783
-10.016350 -20.420645 -1.879109 -9.131099
-9.305338 -23.068247 -3.447679 -9.712075
-8.361278 -18.371385 -1.898527 -8.019799
-11.223021 -23.905164 -3.198796 -10.538455
-8.991663 -20.781897 -2.559714 -8.932068
-3.611779 -23.670394 2.599972 -8.184652
-6.909191 -15.824452 -2.080438 -6.820093
-9.187085 -18.556241 -2.244657 -8.322998
-7.869890 -14.055829 -3.107136 -6.577716
-9.697662 -18.244498 -2.133635 -8.382648
-3.833812 -18.466779 -0.195579 -6.690177
-8.339329 -20.715989 -3.209984 -8.716595
0.009614 -8.784656 -1.417506 -2.632513
-8.709275 -27.509876 -1.894678 -10.865745
-3.493613 -14.374684 0.646720 -5.360489
-2.605295 -6.232789 0.023270 -2.651425
-5.169620 -18.648314 -0.473602 -7.145380
-8.673978 -24.361451 -1.146669 -9.910629
-10.269056 -25.568656 -2.429675 -10.751313
-5.961161 -19.097197 -0.187261 -7.517507
-7.268066 -20.351741 -1.377312 -8.285942
-7.228025 -18.861503 -1.746154 -7.826858
-5.264440 -18.383201 -2.597033 -7.094292
-6.521638 -17.109906 -0.811746 -7.089463
-5.413851 -16.574161 -1.952393 -6.596403
-6.231149 -17.981013 1.802984 -7.263649
-4.051622 -11.898953 -0.588306 -4.785173
-3.078287 -13.058863 -2.360379 -4.841145
-5.036176 -14.922084 -2.009210 -5.987478
-5.122407 -14.554903 0.127443 -5.903193
-2.767463 -8.488832 -0.712552 -3.376889
-4.999006 -14.398760 0.583616 -5.819330
-3.501823 -12.663852 -1.290113 -4.849703
-3.039803 -9.670843 0.077706 -3.813194
-4.263961 -14.635281 0.560966 -5.669773
-2.972876 -12.346073 0.736984 -4.595685
-2.954381 -14.119062 0.280019 -5.122033
-1.910730 -1.239372 0.277507 -0.945031
-2.363488 -12.260610 0.012731 -4.387229
-3.413349 -14.253811 -0.613611 -5.300148
-1.493185 -6.059139 0.076770 -2.265697
-2.898112 -10.506936 0.359747 -4.021514
-2.128531 -8.710795 -0.195869 -3.251798
-1.957789 -7.822396 -0.456176 -2.934055
-1.218683 -9.983249 -1.839782 -3.360580
-2.231527 -8.861052 -1.418359 -3.327774
-2.410809 -5.597563 -0.222137 -2.402512
-2.976039 -9.879372 -0.058803 -3.856623
-2.017490 -5.339597 -0.695971 -2.207126
0.218074 -2.011203 -0.384593 -0.537939
-2.220681 -2.030628 -0.032661 -1.275393
-0.594291 -2.021551 -0.248673 -0.784753
-0.525210 -2.210099 -0.324057 -0.820593
-1.427959 -1.916914 -0.347103 -1.003462
-2.033811 -2.190355 0.053135 -1.267250
-2.032965 -2.066213 0.023493 -1.229754
-0.871995 -2.028610 -0.028963 -0.870181
-0.516863 -1.930915 0.076914 -0.734333
-2.540459 -6.704001 0.087985 -2.773338
-2.394893 -5.370009 0.018760 -2.329471
-0.934305 -1.951617 -0.004092 -0.865777
-3.614732 -3.830058 -0.627882 -2.233437
-1.178788 -5.052269 -0.104008 -1.869317
-0.192677 -2.018896 0.729494 -0.663472
-1.680585 -4.777193 -0.123518 -1.937333
-1.248980 -4.463852 0.014834 -1.713850
-0.157259 -2.259813 -0.400402 -0.725122
-7.634082 -13.550790 -2.484011 -6.355462
-2.691856 -3.548868 -1.210872 -1.872217
-8.047696 -2.222265 -1.665262 -3.080988
0.312589 -1.486157 -0.161358 -0.352070
-0.736909 -2.335557 0.208469 -0.921740
-1.013683 -2.614193 -0.706805 -1.088363
-8.354969 -16.205175 -2.882990 -7.368043
-1.323376 -4.237969 -0.421862 -1.668403
-2.071768 -6.259034 1.062792 -2.499241
-2.605381 -3.479673 -1.240826 -1.825516
-5.819487 -8.823957 -2.833741 -4.393033
-2.154332 -4.036456 0.533180 -1.857236
-2.726314 -8.952514 -0.113270 -3.503648
-1.859644 -4.772346 1.311572 -1.989597
-2.202847 -2.938736 1.580575 -1.542475
-3.879106 -14.140722 -0.574830 -5.405948
-5.473933 -9.353059 -0.210884 -4.448097
-7.602078 -13.571929 -2.344836 -6.352202
-0.941573 -9.686176 2.416329 -3.188325
-3.227490 -8.675301 -2.133152 -3.570837
-3.423159 -7.946565 -1.480337 -3.410917
-4.972925 -8.310051 -1.934699 -3.984893
-7.384305 -13.583467 -2.497786 -6.290331
-7.643175 -14.995529 -3.992577 -6.791611
-6.148573 -10.248987 -2.634964 -4.919268
-4.832668 -12.754859 -6.148743 -5.276258
-7.198336 -15.546653 -3.766482 -6.823497
-8.743555 -7.171719 -3.330830 -4.774582
-7.922348 -9.974909 -2.504711 -5.369177
-5.991896 -8.239561 -2.045528 -4.269437
-3.032567 -15.361239 -1.184075 -5.518142
-5.441611 -9.022593 -0.830955 -4.339261
-2.600710 -11.515913 -1.254110 -4.234987
-8.176035 -5.789050 -2.873021 -4.189526
-7.883657 -8.079057 -3.016321 -4.788814
-8.300063 -5.705158 -0.909914 -4.201566
-9.316805 -8.117124 -2.050707 -5.230179
-7.345374 -9.405450 -4.218757 -5.025247
-6.997498 -10.780596 -4.062282 -5.333428
-8.971120 -5.415137 -3.104334 -4.315877
-4.719973 -6.326621 -2.295439 -3.313978
-5.086477 -2.153441 -1.703827 -2.171975
-5.919263 -5.074733 -2.336322 -3.298199
-11.955481 -5.055780 -1.395018 -5.103378
-4.020111 -2.278953 -1.293027 -1.889719
-7.514627 -2.179391 -1.626650 -2.908205
-11.446949 -1.584039 -1.448370 -3.909296
-14.407482 -1.542866 -0.946623 -4.785104
-9.549688 -8.545799 -1.179498 -5.428646
-10.715053 -4.391537 -2.340943 -4.531977
-9.729364 -2.009809 -1.114433 -3.521752
-8.192899 -5.557160 -1.643922 -4.125018
-15.980476 -1.818049 -0.475626 -5.339558
-10.587797 -1.930768 -0.591765 -3.755570
-9.512268 -8.880685 -0.158675 -5.517886
-11.068103 -1.889874 -0.259713 -3.887393
-10.973706 -1.872177 0.088685 -3.853765
-6.829331 -12.314811 1.229491 -5.743243
-8.166020 -5.727196 -0.133374 -4.167965
-16.520525 -1.935699 -0.104442 -5.536867
-16.152319 -2.058289 0.272953 -5.463183
-10.483318 -1.899477 0.458450 -3.714839
-15.022630 -2.124107 0.621806 -5.144021
-2.639596 -12.963960 -0.576950 -4.681067
-8.023010 -1.954844 1.086864 -2.993356
-7.008667 -6.147997 2.233139 -3.946999
-13.156307 -2.171474 0.930102 -4.598335
-5.845978 -6.200582 2.766033 -3.613968
-10.649138 -2.121555 1.224261 -3.831208
-8.358758 -9.342399 2.867911 -5.310347
-11.123265 -5.808859 1.804731 -5.079637
-7.426375 -9.920182 3.666351 -5.203967
-9.776522 -6.110790 2.391845 -4.766194
-12.068028 -5.648276 1.071555 -5.314891
-12.536320 -5.554146 0.271522 -5.427140
-7.747869 -6.041629 1.482686 -4.136850
-5.600374 -9.539012 0.260148 -4.541816
-3.887847 -13.095993 1.936367 -5.095152
-9.377520 -9.043020 0.838711 -5.526162
-6.825280 -12.356738 2.507932 -5.754605
-5.684510 -9.642231 1.344561 -4.598022
-4.661005 -13.630594 3.162360 -5.487480
-5.463677 -10.135424 3.413901 -4.679730
-6.561071 -12.705824 3.639083 -5.780068
-4.253880 -10.154113 3.886791 -4.322398
-3.494059 -10.583942 4.012665 -4.223400
-4.535811 -6.079459 3.093851 -3.184581
-5.390153 -15.286788 2.797358 -6.203082
-4.932271 -18.189769 4.256532 -6.936612
-6.137894 -14.536290 4.510295 -6.202255
-3.702656 -16.954160 3.275784 -6.197045
-3.408963 -13.205643 0.527330 -4.984382
-6.431673 -31.525143 0.079719 -11.387045
-4.847592 -15.544462 1.294956 -6.117616
-3.170220 -20.337422 2.082866 -7.052293
-1.146983 -21.500334 -2.106997 -6.794195
-3.865496 -15.786900 -1.071920 -5.895719
-1.559554 -22.405903 -1.768729 -7.189637
-4.414025 -15.327964 0.002234 -5.922597
-6.683637 -12.195838 -0.695172 -5.663842
0.073189 -15.705047 -1.351216 -4.689557
-0.485670 -16.412656 -0.564841 -5.069498
-6.793449 -12.310726 0.179192 -5.731253
-0.946492 -4.244319 0.440229 -1.557244
-12.525583 -18.119966 -7.582365 -9.193665
-3.026331 -11.989139 -1.842702 -4.504641
-7.306927 -12.033030 -1.394860 -5.801987
-11.756000 -31.022459 -7.170448 -12.833538
-7.723587 -18.956538 -3.969556 -8.004037
0.572251 -8.458243 3.354613 -2.365798
-0.839704 -4.107891 0.487683 -1.484279
-8.431948 -20.711066 -3.323857 -8.742904
-8.129375 -22.387430 -2.005743 -9.155042
-2.054789 -23.366909 1.293272 -7.626510
-5.335288 -16.481693 -0.213102 -6.545094
0.804037 -8.724046 3.672104 -2.376003
-2.891079 -23.557241 -1.137298 -7.934496
-1.232366 -21.155745 -2.100091 -6.716433
-3.735533 -15.245263 -2.055383 -5.694239
0.008110 -19.811145 -1.290977 -5.940910
-1.208027 -16.345852 -2.502735 -5.266164
-1.825418 -23.270134 -0.742123 -7.528666
-0.014856 -19.650540 -1.775715 -5.899619
0.168685 -19.131198 -2.205665 -5.688754
-3.226548 -25.645560 -1.214126 -8.661633
-9.347493 -36.007336 -1.875403 -13.606449
-8.047331 -33.304178 2.849889 -12.405453
-7.507414 -27.310664 1.128744 -10.445423
-4.905104 -28.423122 1.470174 -9.998468
-3.888976 -26.346445 2.051381 -9.070626
-5.353707 -26.771579 2.048855 -9.637586
-9.577992 -36.663451 1.658391 -13.872433
-6.481184 -30.526762 2.846957 -11.102384
-11.463708 -40.034050 1.726406 -15.449327
-8.072050 -34.344063 0.486693 -12.724834
-4.616554 -28.098820 -1.065502 -9.814612
-10.196956 -37.949615 0.968763 -14.443971
-3.088891 -25.442889 -1.070513 -8.559534
-5.489486 -29.723013 0.119954 -10.563750
-0.443184 -20.398948 -1.811724 -6.252639
-2.951761 -25.253936 -0.797912 -8.461709
-2.929367 -25.191420 -0.391408 -8.436236
-4.556830 -28.143004 -0.297530 -9.809950
-1.979857 -19.693735 -1.296628 -6.502078
0.367343 -18.971994 -1.778326 -5.581395
-0.839336 -21.223933 -1.517384 -6.618981
-2.851712 -18.137642 1.140672 -6.296806
-3.356807 -16.555432 2.368381 -5.973672
-2.787581 -19.099081 -0.102889 -6.565998
-5.617137 -16.134010 4.233067 -6.525344
-4.671199 -18.908199 2.960388 -7.073819
-1.139553 -21.393171 0.012703 -6.759817
-2.933305 -20.490900 1.140277 -7.027262
-3.283570 -25.829766 -0.933451 -8.734001
-7.679666 -33.692362 0.018922 -12.411608
-3.409673 -22.542516 2.002413 -7.785657
-2.965213 -24.853460 1.290880 -8.345602
-4.027341 -25.447697 1.724322 -8.842511
-1.458832 -22.412820 -1.145005 -7.161496
-4.402365 -25.524043 2.034240 -8.977922
-4.770266 -28.324077 0.823738 -9.928303
-5.858194 -30.504709 -0.351341 -10.908871
-5.096565 -29.090766 -0.128494 -10.256199
-5.799664 -30.133990 0.750641 -10.780096
-3.915540 -26.784780 0.945960 -9.210096
-6.242762 -31.186061 -0.455529 -11.228647
-9.176116 -36.269479 0.891110 -13.633679
-11.390503 -40.105078 1.425700 -15.448674
-5.901040 -30.469656 -0.023278 -10.911209
-4.063626 -27.203968 -1.053302 -9.380278
-1.431094 -21.610038 -2.722037 -6.912340
-6.674017 -30.979464 1.649799 -11.296044
-3.128370 -25.496205 -0.833802 -8.587372
-9.785922 -37.335939 1.229339 -14.136558
-10.698465 -38.862222 0.055281 -14.868206
-13.617838 -44.185305 -0.585753 -17.340943
-16.727015 -49.249595 -2.384020 -19.792983
-12.324363 -41.698226 1.616504 -16.206777
-19.637533 -53.634324 3.846672 -21.981557
-7.747778 -33.583850 -0.709263 -12.399488
-6.283316 -30.740032 -2.163219 -11.107004
-13.785946 -43.771455 2.869824 -17.267220
-11.297014 -36.642205 5.699655 -14.381766
-13.090495 -43.242451 0.795214 -16.899884
-16.567863 -48.172583 3.813005 -19.422134
-11.584000 -40.247864 1.808389 -15.549559
-12.277350 -41.519738 1.749271 -16.139126
-12.071044 -41.202645 1.710854 -15.982107
-10.639717 -38.783966 1.294386 -14.827105
-9.759089 -37.332077 0.990502 -14.127350
-9.436564 -36.798399 0.872673 -13.870489
-14.399921 -44.052194 4.095862 -17.535635
-12.749615 -42.113602 2.336546 -16.458965
-10.489597 -38.501956 1.238738 -14.697466
-14.803861 -44.208799 4.763506 -17.703798
-20.372251 -55.919249 -0.945137 -22.887450
-30.698610 -68.182464 1.055686 -29.664322
-20.152423 -55.180163 2.564535 -22.599776
-13.165586 -42.896103 2.188403 -16.818507
-18.361015 -44.660998 3.092788 -18.906604
-17.573058 -46.384275 0.463440 -19.187200
-20.104141 -54.478700 -1.175521 -22.374852
-19.211085 -48.619455 -0.710427 -20.349162
-15.144784 -44.833914 3.237751 -17.993609
-11.759410 -40.309759 2.203744 -15.620751
-10.418736 -37.624215 2.763233 -14.412885
-14.155164 -44.757248 1.701906 -17.673724
-14.562200 -45.342524 1.628621 -17.971417
-14.527275 -45.275610 1.983609 -17.940865
-22.121044 -58.976033 1.398658 -24.329123
-14.103638 -44.593363 2.024027 -17.609100
-8.359294 -32.554808 4.590941 -12.274231
-13.470396 -43.447755 2.074490 -17.075445
-18.531485 -50.646163 5.156898 -20.753294
-11.808215 -40.561239 1.883356 -15.710836
-9.015671 -35.921960 0.406213 -13.481289
-7.398450 -32.969719 1.245731 -12.110451
-6.631573 -31.821601 -0.270481 -11.535952
-8.593288 -35.108778 0.997791 -13.110620
-12.402601 -41.416858 2.198855 -16.145838
-9.346827 -35.836801 2.550147 -13.555088
-9.694155 -36.325592 2.789611 -13.805924
-6.113328 -29.999072 2.631377 -10.833720
-13.982743 -44.380765 1.784532 -17.509052
-11.729055 -40.351031 1.983439 -15.624026
-8.477651 -33.577068 2.698151 -12.616416
-7.527318 -31.305772 3.316220 -11.649927
-9.228720 -35.033799 3.202600 -13.278756
-10.088640 -37.025612 2.763954 -14.134275
-10.127077 -33.431851 3.885432 -13.067678
-17.038572 -49.507428 1.660272 -19.963800
-10.346821 -37.202063 2.334599 -14.264665
-7.148087 -29.618596 -0.663081 -11.030005
-13.459376 -43.025736 -2.186961 -16.945534
-17.401937 -42.180919 -3.080505 -17.874857
-28.040118 -65.753693 -7.178746 -28.138143
-9.444802 -12.365558 -3.953946 -6.543108
-10.628563 -20.583563 7.000534 -9.363638
-9.747944 -35.734007 -2.735000 -13.644585
-17.261418 -48.855806 -3.744094 -19.835167
-12.201295 -28.127499 2.788232 -12.098638
-5.904488 -10.283950 -0.225152 -4.856532
-6.972241 -26.580007 -2.661472 -10.065674
-17.225034 -45.770760 -6.405112 -18.898738
-6.284129 -25.623806 -6.016278 -9.572380
-6.761897 -28.686193 -0.365920 -10.634427
-15.747979 -47.792586 0.717669 -19.062170
-9.652362 -23.529279 -4.411872 -9.954492
-10.407926 -33.294824 -1.789629 -13.110825
-10.422918 -35.896794 -2.969917 -13.895913
-11.699813 -39.636410 -3.389500 -15.400867
-7.469922 -29.377111 -5.418764 -11.054110
-23.210297 -56.582530 -7.509170 -23.937848
-13.803577 -42.922755 -3.923857 -17.017900
-15.326987 -42.497246 -6.886936 -17.347270
-18.152385 -48.016807 -6.489510 -19.850757
-1.255306 -18.220779 -4.907516 -5.842825
-15.768524 -43.011694 -0.659744 -17.634065
-17.145199 -42.977762 -2.868830 -18.036888
-11.285739 -32.669270 -7.922192 -13.186503
-12.460089 -40.685814 -2.116545 -15.943771
-26.027219 -60.837957 -7.805941 -26.059553
-13.888963 -35.355489 -9.044344 -14.773335
-22.070012 -58.758258 -2.096924 -24.248481
-11.464918 -40.171733 -1.330888 -15.490995
-15.456917 -39.266483 -1.862958 -16.417020
-13.026399 -39.565938 -1.588228 -15.777701
-7.861783 -32.240480 -4.025433 -12.030679
-10.692545 -38.228176 -2.897081 -14.676216
-27.882851 -68.090381 -4.356760 -28.791970
-11.327969 -38.759668 -3.649726 -15.026291
-25.429144 -64.661916 -2.219828 -27.027318
-7.323719 -32.058147 -2.982950 -11.814560
-16.469103 -48.108634 -3.540589 -19.373321
-20.039669 -54.069451 -4.221178 -22.232736
-13.968064 -39.152995 -7.267368 -15.936318
-10.634600 -38.229152 -2.424120 -14.659126
-17.126370 -48.149443 -4.926278 -19.582744
-17.292207 -48.487030 2.370983 -19.733771
-15.463742 -45.005269 -2.587085 -18.140703
-14.609877 -39.860006 6.056259 -16.340965
-12.559033 -34.336043 5.946676 -14.068523
-16.092625 -45.291284 -5.177415 -18.415173
-14.940831 -42.978339 -3.349614 -17.375751
-12.151706 -41.029560 0.382573 -15.954380
-13.893582 -35.333639 5.365730 -14.768166
-13.653151 -34.846076 6.680637 -14.549768
-15.852500 -45.731693 2.799566 -18.475258
-13.815829 -43.842738 1.746310 -17.297570
-12.322112 -27.633723 7.766010 -11.986750
-14.114260 -44.004015 -3.044635 -17.435483
-13.436458 -39.973738 3.621081 -16.023059
-33.342066 -75.902934 -6.873100 -32.850504
-26.730516 -63.429629 -2.947807 -27.048044
-14.203007 -44.537106 1.791383 -17.622034
-15.100162 -36.594112 7.569627 -15.508282
-12.624379 -34.276776 7.083152 -14.070347
-27.914639 -59.683447 0.132484 -26.279426
-23.120426 -52.277465 -0.579140 -22.619367
-27.405041 -65.059650 0.179168 -27.739407
-19.575078 -44.874607 5.494048 -19.334905
-25.496624 -60.096765 -4.321183 -25.678017
-23.210890 -54.121454 -4.889828 -23.199703
-14.882599 -31.563727 5.652220 -13.933898
-22.873261 -56.277909 -3.273900 -23.745351
-32.068072 -73.692477 -6.276508 -31.728165
-29.012115 -67.500902 -5.556947 -28.953905
-15.510314 -42.655041 -7.002223 -17.449607
-13.896372 -38.563220 -7.594002 -15.737877
-17.813460 -46.489691 -1.562367 -19.290946
-20.754692 -43.983258 5.408487 -19.421385
-15.508408 -45.196071 -4.960739 -18.211344
-24.007933 -61.403201 -3.824003 -25.623340
-19.188952 -50.420539 -6.354369 -20.882847
-21.437810 -56.116964 -4.754505 -23.266432
-17.365775 -50.669405 -1.254923 -20.410554
-20.720416 -54.363338 -5.424193 -22.525126
-23.089023 -58.929163 -5.063001 -24.605456
-21.515706 -55.915431 -5.184020 -23.229341
-8.440166 -34.096304 -3.176900 -12.760941
-31.782087 -76.115463 -2.318927 -32.369265
-23.042555 -60.123825 -3.219464 -24.949914
-13.140849 -43.071032 -1.979400 -16.863564
-23.245454 -60.946955 -2.091424 -25.257723
-21.373528 -56.414325 -4.374830 -23.336356
-23.513848 -59.774649 -5.017757 -24.986549
-20.227371 -54.591396 -3.893136 -22.445630
-21.116501 -40.545804 -0.696450 -18.498691
-18.545053 -51.091354 -4.492461 -20.890922
-27.741252 -68.103151 -3.984380 -28.753321
-21.322932 -56.523612 -4.023845 -23.353963
-23.822374 -61.221051 -3.780603 -25.513028
-31.398822 -74.353093 -4.522025 -31.725574
-34.709017 -81.291143 -2.136599 -35.326147
-35.521572 -82.524349 -3.028396 -35.970456
-23.730071 -61.222248 -3.533496 -25.485696
-30.171409 -71.825458 -5.100465 -30.599060
-27.281410 -67.737087 -3.334970 -28.505549
-38.546750 -88.001181 -3.117357 -39.172755
-27.477493 -67.377671 -4.505529 -28.456549
-20.176463 -55.710272 -1.709467 -22.766021
-29.165554 -69.907971 -5.228459 -29.722058
-34.641931 -79.162402 -6.112357 -34.472912
-31.803760 -74.942078 -4.770286 -32.023751
-31.017937 -73.996696 -3.579864 -31.504390
-29.264131 -71.023758 -3.653826 -30.086367
-29.583076 -54.635146 4.423842 -25.265467
-30.313182 -71.441784 -5.796618 -30.526490
-27.363439 -29.318914 2.988612 -17.004706
-27.252153 -66.813175 -4.592012 -28.219598
-26.395463 -65.292339 -4.585656 -27.506341
-20.457918 -28.373738 5.315775 -14.649497
-29.894819 -36.658711 0.732538 -19.966059
-29.845502 -72.052234 -3.174925 -30.569321
-21.958464 -56.661907 -4.248528 -23.586111
-28.220118 -66.637535 -5.087539 -28.457296
-21.064405 -52.139071 -2.854591 -21.961043
-25.918280 -65.724665 -0.784823 -27.492884
-22.949175 -60.241579 2.102065 -24.957226
-23.024447 -59.321883 4.206276 -24.703899
-37.047099 -85.328495 -1.684087 -37.640445
-25.097780 -61.077126 0.389029 -25.852472
-26.955058 -62.558329 -2.650159 -26.854016
-11.040205 -37.890005 3.975950 -14.679063
-31.345260 -75.302034 0.859941 -31.994188
-37.734086 -86.702759 -0.048902 -38.387126
-33.564472 -78.620537 3.371823 -33.926682
-35.696013 -81.614980 4.945483 -35.790491
-17.225837 -46.909566 6.318305 -19.240621
-25.977206 -63.693247 5.516120 -26.901136
-27.229628 -66.343137 5.071755 -28.071830
-33.293064 -78.030470 3.593383 -33.606052
-32.871174 -77.768309 2.184926 -33.362739
-15.469116 -45.773971 4.173443 -18.372926
-32.190104 -75.111637 5.344312 -32.190522
-12.496530 -38.916268 5.591649 -15.423839
-14.140007 -41.393714 6.051020 -16.660116
-38.196177 -86.901763 3.206321 -38.640096
-27.589910 -68.528592 1.830890 -28.835550
-35.848378 -82.779455 3.056471 -36.278183
-14.529921 -41.857066 5.320459 -16.916096
-13.385917 -41.129031 5.107112 -16.354485
-12.651518 -38.857443 5.873086 -15.452688
-11.678987 -34.913079 7.194752 -13.977620
-11.490369 -37.543337 5.152938 -14.710112
-31.102195 -73.706851 3.086264 -31.442714
-12.030724 -36.957043 6.387076 -14.696330
-13.071589 -38.609522 6.663578 -15.504333
-26.508949 -66.357910 2.748488 -27.860058
-24.049314 -59.715908 6.142579 -25.129567
-13.083466 -41.083762 4.721798 -16.250168
-12.953298 -37.757008 7.046314 -15.213092
-22.349058 -57.831424 4.769469 -24.054144
-30.886275 -71.238042 7.131009 -30.637295
-22.894085 -58.189660 5.464730 -24.325123
-21.882117 -55.555661 6.326608 -23.231333
-18.215486 -49.368875 5.770070 -20.275308
-24.436309 -60.670704 5.860270 -25.532104
-27.740639 -67.019006 5.395850 -28.427893
-21.445487 -56.537713 4.250783 -23.394960
-24.544998 -61.498581 5.099005 -25.813074
-14.434435 -44.527076 3.490526 -17.688453
-19.816188 -53.596930 4.367529 -22.023936
-20.860517 -56.008859 3.490571 -23.060813
-15.983631 -47.842976 2.540805 -19.147982
-13.856269 -44.223083 2.197110 -17.423806
-16.835692 -49.162995 2.929420 -19.799606
-12.500250 -42.203938 0.685679 -16.411256
-18.314042 -51.899896 2.672388 -21.064181
-14.286043 -45.309060 1.094281 -17.878531
-18.188614 -51.715262 2.683785 -20.971163
-27.725857 -68.601189 2.761179 -28.898114
-18.989892 -51.811516 4.687871 -21.240423
-20.018756 -55.012166 2.489465 -22.509276
-12.240121 -41.453201 1.854204 -16.107997
-28.142762 -68.645803 3.991782 -29.036569
-25.426064 -63.749204 4.088002 -26.752580
-22.589200 -59.391912 2.816389 -24.594334
-25.852447 -65.241103 2.710920 -27.328065
-32.608042 -76.226460 4.697203 -32.703615
-22.892416 -59.330337 3.946215 -24.666826
-24.936122 -62.112953 5.163224 -26.114722
-24.123375 -60.496977 5.375395 -25.386106
-27.741350 -66.391002 6.129698 -28.239706
-29.028448 -70.508592 3.379529 -29.861112
-27.800579 -66.850853 5.684481 -28.395430
-33.007067 -77.367106 3.869670 -33.268440
-27.573017 -67.757863 3.702042 -28.599264
-29.669970 -71.879765 2.916554 -30.464920
-30.218575 -73.281113 1.909338 -31.049907
-25.656468 -65.168481 2.016100 -27.247485
-29.594866 -72.181680 1.908124 -30.532964
-35.238980 -81.874307 3.112768 -35.732161
-29.724755 -71.443546 3.975034 -30.350490
-44.965963 -97.512911 5.957658 -44.978335
-28.785122 -70.423492 2.581119 -29.762584
-29.444083 -71.478218 2.914468 -30.276690
-35.334127 -82.303383 1.386013 -35.980258
-31.713828 -75.528363 2.855749 -32.172657
-32.076935 -75.759989 3.840449 -32.351077
-26.073897 -65.764165 2.484601 -27.551419
-30.294388 -72.088143 4.635076 -30.714759
-32.598230 -76.114000 4.817665 -32.664183
-33.788598 -77.859845 5.405921 -33.733036
-29.949065 -71.373775 4.707127 -30.396852
-19.605698 -53.959003 2.907985 -22.069410
-39.522623 -89.033813 3.734533 -39.904975
-26.757063 -65.465088 5.016734 -27.666645
-40.843539 -90.037870 6.086699 -40.750996
-19.637902 -54.620128 0.846851 -22.277409
-32.983730 -77.279092 4.064113 -33.248276
-37.104363 -85.322673 2.091605 -37.666325
-23.325702 -59.580396 4.628076 -24.871829
-27.165682 -67.643340 2.449550 -28.442707
-32.519355 -76.740550 3.510927 -32.882710
-30.204215 -72.651667 3.434577 -30.856765
-36.023179 -83.223211 2.599094 -36.672897
-37.522576 -86.273943 1.373655 -38.478933
-37.503603 -85.871208 2.793696 -38.097588
-35.151004 -81.957231 1.864826 -35.719035
-35.706476 -82.700316 2.518393 -36.458278
-31.024284 -74.180807 3.225392 -31.561527
-31.750947 -75.433153 3.329017 -32.155230
-24.199042 -62.705575 0.911376 -26.071385
-27.372179 -68.214050 1.441415 -28.675869
-40.240738 -90.423610 3.465077 -40.672175
-41.367999 -92.298725 3.818694 -41.764649
-38.249765 -87.136834 2.727301 -38.973673
-30.847397 -73.749699 3.278024 -31.379129
-29.286798 -71.520513 1.711389 -30.242193
-37.883997 -86.719633 1.695605 -38.554852
-37.064580 -85.389791 1.854950 -37.664471
-29.905230 -72.645111 2.047766 -30.765102
-36.368453 -83.312244 4.059397 -36.884281
-38.882452 -88.475647 2.201705 -39.955863
-47.505758 -104.002108 0.807824 -48.277985
-34.738977 -80.955530 2.712734 -35.208759
-35.329852 -82.449391 0.974685 -36.576146
-44.617328 -98.507801 2.664560 -45.479189
-39.962522 -90.564320 1.209046 -41.424176
-36.297283 -83.566155 3.065858 -37.004956
-38.907039 -88.374227 2.535692 -39.773318
-44.414589 -98.398015 0.777333 -45.741670
-38.030935 -87.140354 0.737283 -38.803852
-39.815223 -89.519243 3.638019 -40.182876
-41.879254 -93.894436 1.030524 -42.667401
-44.808826 -97.186892 5.706317 -44.784861
-34.947012 -81.658776 0.817204 -35.536861
-35.588210 -82.148637 3.266997 -36.107333
-40.653538 -91.528064 1.995415 -41.220469
-49.701477 -107.280603 2.429803 -50.810256
-31.585834 -74.842255 3.808874 -31.928427
-34.306014 -79.574709 3.929631 -34.861941
-43.215538 -95.155793 4.643706 -43.479775
-43.235237 -94.457363 5.993279 -43.237693
-33.899727 -79.479869 2.294618 -35.051281
-36.527098 -83.176491 4.716088 -36.843825
-38.871895 -87.513437 4.444830 -39.258915
-45.482096 -97.592709 7.220100 -45.204072
-40.849950 -91.266508 4.022093 -41.209564
-32.838298 -76.999943 4.060811 -33.428035
-40.280526 -90.638118 2.611714 -40.746614
-51.064293 -109.166926 2.797812 -51.675840
-34.494941 -79.167863 5.347373 -34.789612
-51.381857 -109.420230 0.504064 -51.266826
-39.132748 -89.118750 0.138235 -40.338562
-46.966851 -102.930870 1.076879 -47.956382
-40.107932 -90.324401 2.843414 -40.911636
-37.163726 -85.525240 -1.220447 -37.756537
-42.608144 -93.947574 4.581894 -43.139619
-36.258119 -83.894159 0.506134 -36.804551
-37.361787 -85.418866 0.775885 -37.735750
-36.621357 -81.010609 5.051695 -35.806933
-33.345339 -77.320834 4.842607 -33.617846
-53.262670 -111.288332 5.198315 -52.799727
-34.572105 -78.748661 5.881486 -34.738624
-58.243673 -117.152776 1.698227 -56.722806
-48.898991 -94.317810 6.079101 -43.032394
-38.158863 -82.200574 3.846105 -36.792082
-50.058784 -103.852395 8.616906 -49.199753
-63.593902 -118.110621 2.392313 -58.364043
-43.966065 -96.663714 -3.395807 -44.249697
-41.374789 -92.415269 -0.331475 -41.564775
-55.855537 -105.328513 1.664503 -48.647207
-44.129768 -95.974073 4.446529 -43.752214
-46.941391 -102.790866 1.904264 -48.292444
-54.710716 -116.156882 3.234957 -55.916840
-44.040135 -97.359183 -1.912786 -44.564617
-50.045494 -107.760360 3.305087 -50.545330
-50.187804 -108.656343 1.045644 -51.229623
-45.987398 -100.533249 3.768677 -52.702560
-38.663940 -83.110571 2.779995 -37.347810
-37.407710 -85.864744 1.843004 -38.050355
-46.987302 -102.280126 1.834388 -47.829781
-45.069241 -95.445802 5.514363 -44.048042
-51.377764 -110.545509 2.523560 -52.151830
-50.185066 -108.493515 1.825200 -51.500853
-58.618704 -123.191802 3.287137 -59.805509
-47.553340 -103.749879 2.361101 -49.456012
-54.321784 -116.122917 -0.253773 -55.139188
-50.206503 -108.712520 -0.717625 -52.550022
-48.195883 -105.187468 1.260488 -48.923790
-47.506180 -103.108847 4.041114 -47.935707
-46.411631 -102.253833 -2.354044 -47.056938
-45.357340 -99.846530 -3.537412 -45.855610
-46.405930 -100.999182 -4.641663 -46.747045
-43.977330 -96.662300 -4.642369 -44.276958
-42.529076 -94.021058 -4.832629 -42.770072
-51.966668 -111.727879 1.840371 -52.756925
-44.418457 -97.465483 -4.633455 -44.731033
-46.893527 -101.568558 5.180133 -47.366018
-41.935311 -92.751706 -5.275533 -42.086184
-22.057667 -59.013349 -0.951718 -24.321305
-34.321922 -80.661295 -0.789904 -36.745117
-53.426037 -114.457219 -0.400183 -54.240084
-43.863837 -96.750317 3.818355 -44.563361
-43.389075 -96.046726 3.535921 -45.050743
-45.702738 -100.235931 3.253609 -46.242041
-49.050729 -106.528094 1.728865 -49.764122
-47.130175 -102.983137 2.471456 -47.769146
-44.002855 -97.079477 3.606633 -44.687763
-48.352608 -104.759735 3.667825 -49.026745
-40.904326 -91.948021 2.452446 -42.097812
-57.224032 -121.022774 -2.029127 -58.036670
-38.350018 -87.614515 1.907979 -38.941737
-33.424011 -79.106863 0.555323 -34.715634
-45.040707 -99.543148 1.366111 -45.738732
-35.033742 -81.316955 3.163980 -35.471487
-39.695983 -90.045780 1.588799 -41.204625
-36.047653 -83.880584 -2.244593 -36.584522
-54.327008 -116.151687 -0.935191 -55.130857
-36.677511 -85.156699 -1.209700 -37.307348
-10.087478 -37.821657 -1.457341 -14.372740
-39.266570 -89.879105 -1.329141 -39.912584
-32.099746 -76.839534 -2.301942 -32.681784
-37.101570 -86.232536 0.165904 -37.776137
-43.378825 -96.823339 -1.981998 -44.009838
-37.811865 -87.380599 -0.629336 -38.452430
-43.877430 -97.535951 -3.171775 -44.425578
-37.694214 -87.163731 -1.734332 -38.304515
-44.683884 -98.447003 -3.693331 -45.148009
-41.714913 -93.820557 -2.811011 -42.254578
-47.149470 -103.206022 -3.576712 -47.681918
-12.867926 -41.927961 -3.195439 -16.438766
-39.733746 -89.341210 -4.336093 -40.025454
-41.781954 -94.172286 -2.642289 -42.358528
-41.647237 -93.195182 -3.830054 -42.052678
-36.943333 -84.590975 -4.090460 -37.241930
-46.278884 -101.496548 -3.773822 -46.765507
-50.465380 -109.834067 0.877941 -51.258415
-49.768240 -105.522704 7.526872 -49.535594
-46.326334 -102.060163 -2.560149 -46.944644
-43.352649 -96.444682 -3.190243 -43.866395
-39.718898 -90.755190 -0.848296 -40.396967
-67.981750 -132.946035 13.421191 -66.245185
-48.690836 -106.497061 -1.772319 -49.409721
-50.802933 -110.233884 -1.462003 -51.575673
-46.514709 -101.267296 5.445166 -46.716941
-44.583214 -97.724694 5.510770 -44.744165
-42.461295 -95.385556 -2.285351 -43.078020
-41.332536 -93.638657 -1.322673 -42.009048
-45.747826 -100.597211 -4.103131 -46.195897
-41.485531 -93.725921 -1.798105 -42.118911
-50.726097 -97.865401 13.586089 -46.783985
-44.260071 -95.796105 7.238353 -43.980631
-47.833402 -101.410384 8.278857 -47.320226
-52.710482 -108.245749 10.348560 -51.631207
-47.513157 -96.792544 11.595817 -45.638587
-57.550531 -116.992494 10.205829 -56.674452
-56.043116 -112.341476 11.958069 -54.413286
-51.202352 -106.774649 9.085416 -50.540474
-52.294920 -105.877280 8.745999 -49.975566
-49.961002 -96.698309 11.190830 -45.490145
-50.791975 -98.427367 12.127633 -46.836328
-53.869790 -108.752669 10.873367 -52.128919
-47.473559 -103.805828 1.081896 -48.376073
-51.147746 -101.678497 11.772714 -48.143774
-54.457156 -106.141538 11.970634 -50.822359
-45.665325 -91.669316 12.060149 -42.804139
-63.881957 -122.732474 3.297134 -60.657702
-58.187222 -120.515140 3.078844 -58.091085
-58.205725 -115.864178 -2.860818 -55.977389
-45.218934 -72.932803 3.817970 -35.445521
-53.027244 -113.289440 3.036980 -53.764511
-51.761953 -102.849171 12.298957 -48.737232
-20.029711 -55.095569 2.303242 -22.537584
-49.850035 -101.931289 10.968184 -48.166513
-47.266430 -100.583975 7.824561 -46.873488
-22.823588 -50.416588 10.756785 -21.972053
-33.982671 -79.664177 4.173507 -34.228121
-11.722784 -40.989817 1.031081 -15.813781
-62.999952 -128.240813 8.590217 -62.781561
-40.974394 -88.686413 1.697399 -39.944234
-24.639729 -57.463732 6.281351 -24.631038
-16.651315 -48.020423 4.150352 -19.401522
-62.901044 -128.197757 8.598069 -62.693122
-61.631679 -126.354724 8.211576 -61.535153
-51.002570 -108.560238 -5.742499 -51.294082
-40.873917 -92.188759 1.117031 -41.558510
-43.774675 -97.358170 0.574219 -44.833000
-42.606051 -95.265972 0.207515 -43.592660
-45.936586 -101.185255 -0.225418 -46.675412
-53.806191 -115.213586 0.307610 -54.636742
-57.449956 -120.699443 4.701881 -57.984722
-35.457774 -80.863470 -5.911385 -35.380730
-56.813298 -120.712731 -0.225973 -57.687342
-57.652801 -122.238995 0.903558 -58.524368
-25.229668 -64.515814 1.395264 -26.923645
-38.501050 -85.908835 -6.511003 -38.319483
-25.833384 -65.696992 -1.222569 -27.459113
-59.214217 -123.823407 5.135706 -59.800598
-38.484960 -84.887217 7.892027 -37.836904
-20.709241 -56.996918 -0.612719 -23.311848
-39.133917 -89.297076 2.164640 -39.715829
-37.045867 -84.804115 -3.987570 -37.441066
-13.104763 -41.895520 -4.047163 -16.500085
-13.390518 -42.778599 -3.432693 -16.850735
-51.420063 -110.996859 -0.722214 -52.226974
-12.964659 -42.829301 -1.784386 -16.738188
-43.959101 -97.580454 2.031024 -44.598238
-16.783179 -49.609660 -1.583780 -19.917852
-16.277958 -48.911626 -0.347960 -19.556875
-23.693091 -61.871569 -1.325103 -25.669398
-29.107020 -71.496651 0.672021 -30.181101
-25.823829 -65.717006 -0.563088 -27.462250
-23.223626 -56.611229 7.698261 -23.950457
-27.429001 -57.211049 2.637455 -25.392015
-29.554507 -36.262177 2.359847 -19.745005
-28.240400 -69.732454 -2.410923 -29.391856
-32.155069 -77.015461 0.202457 -32.751159
-34.145705 -78.817262 -5.315231 -34.374867
-30.870183 -48.218547 2.595618 -23.726619
-23.774117 -62.225150 -0.615254 -25.799780
-30.587865 -46.686305 2.408194 -23.182251
-34.487239 -80.535222 -3.129136 -34.997912
-29.251730 -71.210271 -3.115287 -30.138600
-33.966014 -78.838882 -4.457631 -34.219842
-29.204179 -71.655930 -1.170325 -30.258033
-32.098090 -76.882836 -0.042306 -32.694278
-38.313994 -87.727566 0.512659 -38.963717
-20.013057 -54.139315 3.899403 -22.245712
-19.112613 -52.802025 3.571056 -21.574391
-16.860855 -47.055944 5.558486 -19.175040
-28.523780 -69.693617 -3.421944 -29.465219
-27.315367 -66.955924 -4.425080 -28.281387
-32.131114 -75.239760 -5.028415 -32.211262
-20.630839 -54.965417 4.372395 -22.678877
-36.639858 -84.745147 0.345068 -37.288592
-35.539318 -82.751215 -0.901635 -36.160386
-27.822796 -67.078725 -5.899530 -28.470456
-19.456618 -54.691851 -1.058219 -22.244541
-32.646820 -77.068194 -4.064218 -33.041953
-34.016051 -78.630864 -5.277370 -34.072036
-40.320650 -90.829080 -3.458485 -40.925710
-31.997805 -74.537439 -6.007032 -31.960573
-39.632664 -90.237018 -0.651633 -40.430288
-33.429403 -77.890007 -4.737237 -33.951352
-30.178731 -73.061453 2.248345 -30.972055
-42.604202 -95.045570 2.337757 -43.203639
-49.372271 -107.175172 -2.807956 -50.023653
-26.121011 -66.070444 -2.461175 -27.657437
-41.965363 -93.771917 -3.581746 -42.531332
-38.803589 -88.531389 -2.408356 -39.455880
-35.902018 -82.111360 -5.263918 -36.339044
-35.494798 -81.480623 -5.146572 -35.881313
-29.243410 -71.210214 -3.662375 -30.136087
-34.753005 -80.413309 -4.876786 -35.022153
-27.729533 -68.774821 1.826725 -28.951306
-55.302996 -113.943820 5.469488 -54.555388
-46.867378 -102.777843 0.864019 -47.599023
-42.066794 -94.328614 1.434790 -42.741727
-28.729688 -68.046479 5.324166 -29.032850
-34.933247 -81.409418 2.210908 -35.447135
-38.936460 -88.539144 2.173216 -39.508563
-27.598403 -67.943854 3.399605 -28.662677
-49.916200 -106.921281 4.239903 -49.962866
-42.391614 -94.019535 3.941713 -42.650410
-28.972403 -67.505129 6.218454 -28.943260
-28.288120 -69.297120 3.092606 -29.275572
-30.033726 -72.303562 3.409309 -30.701186
-23.435744 -60.846187 2.823353 -25.284579
-46.007877 -100.063007 4.997813 -46.288255
-38.764849 -88.544000 0.394933 -39.806357
-40.385057 -91.089006 2.142420 -41.402949
-28.048862 -69.234042 2.113947 -29.184871
-43.291360 -96.432604 1.358002 -43.967136
-43.266487 -96.385842 1.053243 -43.955134
-39.186609 -89.027210 1.956671 -39.774687
-50.237944 -108.269957 3.152852 -50.803637
-51.180244 -108.951765 -5.701324 -51.440395
-44.013709 -97.433380 2.717953 -44.603211
-47.333311 -103.152870 -0.256103 -47.738525
-49.416740 -105.533999 3.996388 -49.329657
-35.790490 -80.576139 6.582423 -35.443414
-37.203569 -84.055795 5.331401 -37.239478
-29.517733 -67.393249 3.818219 -29.073294
-50.228797 -108.277966 3.084081 -50.834764
-54.703765 -114.191173 6.749136 -54.391422
-31.894513 -75.260026 4.030845 -32.146362
-33.037187 -75.679758 6.441261 -32.636169
-43.510128 -95.708984 4.673536 -44.272357
-36.246000 -72.845555 -12.452163 -32.742164
-42.606451 -94.217843 4.545455 -43.608419
-65.325818 -130.210173 9.020010 -64.236035
-34.363018 -77.201127 3.996368 -33.507301
-70.635649 -111.506372 9.933288 -55.593984
-59.180210 -109.014635 6.978196 -52.032139
-31.505415 -69.492582 -9.023514 -30.299399
-32.471055 -73.118763 -7.408587 -31.676946
-40.873146 -85.070413 0.648857 -37.783068
-66.000939 -113.976259 -6.399038 -53.993159
-35.347586 -63.590768 -15.315197 -29.681506
-49.455522 -90.347302 -7.122362 -41.940847
-58.355862 -115.350766 3.224047 -54.815587
-38.136719 -84.007963 2.039635 -36.643405
-41.082221 -74.416913 -15.714686 -35.182642
-31.565175 -66.324455 -0.055211 -29.366889
-35.898588 -78.448946 1.559701 -34.304260
-34.764322 -81.277372 -1.425826 -35.213084
-37.918517 -84.238817 -1.845241 -37.518311
-36.205485 -78.815979 -9.080318 -34.966272
-52.511030 -109.504512 4.039442 -52.208985
-43.989930 -97.114676 0.521226 -44.472917
-43.516041 -94.406455 0.573273 -43.200143
-41.443269 -91.079740 1.825088 -41.304581
-52.385694 -108.806597 -5.300243 -51.685251
-33.573966 -77.861921 -3.179271 -33.786418
-33.951945 -79.059918 3.842886 -34.119223
-31.335696 -75.187171 0.357347 -31.956860
-28.752839 -68.970500 -5.187484 -29.317002
-32.897502 -65.295858 -5.585548 -29.458008
-38.512595 -87.513712 -3.021049 -38.982162
-35.274193 -81.334161 4.084017 -37.156610
-23.203940 -49.621731 -11.139522 -21.847701
-23.282040 -46.905428 -11.583455 -21.056240
-27.427338 -59.821573 -2.429397 -26.174673
-30.624526 -67.188077 3.593265 -29.343781
-33.149531 -76.268876 -0.313781 -32.825522
-32.092008 -69.677900 1.118520 -30.530972
-33.005239 -72.669810 2.764360 -31.702514
-35.732784 -72.980905 3.715080 -32.614107
-37.801829 -85.671366 -0.500157 -37.182913
-34.107669 -76.025768 -0.442157 -33.040031
-40.621176 -89.224564 5.960221 -39.595779
-36.621180 -78.953530 4.141672 -34.672413
-32.945110 -70.871831 3.318568 -31.145082
-31.041839 -68.937544 4.052897 -29.993815
-30.019913 -68.800886 3.732342 -29.646240
-40.842600 -77.946118 6.280740 -35.636616
-28.506221 -63.381552 1.258639 -27.566332
-30.964248 -67.530721 3.454028 -29.548491
-25.822694 -64.902861 2.944968 -27.217667
-27.291131 -67.659172 2.156013 -28.485091
-33.386225 -73.932265 2.215565 -32.195547
-30.149452 -72.108826 4.145854 -30.677484
-29.631778 -54.949318 -14.035280 -25.374329
-46.722358 -84.603496 -16.831551 -40.907509
-30.647135 -73.743507 1.447197 -31.317193
-32.398148 -68.200240 -1.216605 -30.179516
-59.763497 -105.669475 -19.480661 -53.363853
-50.807199 -87.861903 -17.714607 -42.457532
-29.911876 -71.965033 3.019919 -30.563073
-30.419258 -67.579064 1.834770 -29.399497
-29.428639 -71.758192 1.747399 -30.356049
-33.543190 -79.189486 0.610705 -34.123788
-32.920288 -77.195585 0.285956 -33.034762
-30.847272 -74.365000 1.248088 -31.563681
-34.485806 -72.377870 2.632854 -32.059103
-34.883840 -77.638707 -2.412154 -33.756764
-33.474269 -67.747291 2.551225 -30.366468
-30.419075 -70.337804 7.025370 -30.227064
-37.932407 -85.753444 4.552761 -38.116657
-36.893312 -70.672159 11.372445 -32.269641
-42.201822 -44.703566 12.179226 -26.071616
-34.762287 -77.906706 6.854943 -33.856201
-43.288659 -68.978958 8.798781 -33.680285
-48.848591 -93.688177 13.103081 -43.775202
-45.075993 -60.459958 13.222485 -31.660785
-47.042106 -55.888533 10.894239 -30.879192
-44.687167 -70.846074 13.825620 -34.659972
-42.489088 -94.825649 1.912396 -43.048904
-31.822774 -69.875222 9.563930 -30.509399
-37.689620 -82.815808 6.972684 -36.467715
-42.116266 -91.941186 6.638349 -41.904097
-42.531190 -94.584256 0.474306 -43.064849
-36.842214 -84.872320 -1.274891 -37.376977
-39.159373 -88.822926 2.304389 -39.685927
-38.695599 -88.111014 -1.723874 -39.192192
-42.163303 -94.379407 -0.698224 -42.792364
-39.046701 -64.948525 1.579172 -31.198568
-32.490899 -77.006971 -2.356398 -32.897771
-34.154902 -80.262557 0.837109 -34.739187
-38.311571 -87.418163 1.964466 -38.868751
-40.006525 -87.921935 -3.131203 -38.572808
-33.827798 -78.416821 -1.097705 -33.673386
-46.625711 -78.463388 -7.608478 -37.526730
-38.397893 -76.196929 0.069652 -34.378447
-52.306745 -92.476482 3.730482 -43.434968
-35.396781 -82.449457 0.820019 -35.366227
-51.542725 -74.945756 5.901207 -37.946544
-39.254049 -67.241587 5.572913 -31.948691
-31.841558 -53.546404 15.657075 -25.616389
-49.524868 -67.866066 -8.328181 -35.217280
-56.540928 -90.084305 0.189910 -43.987570
-53.936069 -90.571124 -3.095493 -43.352158
-58.096587 -98.345873 -1.563875 -46.932738
-50.620323 -71.288965 -3.418272 -36.572787
-58.301120 -100.492853 0.483024 -47.638192
-63.077747 -106.535009 -0.797077 -50.883827
-49.091803 -94.075795 0.927404 -42.950280
-45.261606 -69.879429 -14.731522 -34.542310
-44.784963 -88.445685 13.460425 -41.563271
-65.148328 -108.835541 1.073381 -52.367880
-93.043017 -174.610093 17.226587 -90.344200
-47.857712 -104.435743 -0.236256 -48.559562
-42.291774 -94.351133 -2.168102 -42.907730
-27.281904 -67.609005 -2.642219 -28.467273
-38.495391 -45.538543 -16.509313 -25.210180
-42.435655 -73.098716 -2.767681 -34.660311
-64.935122 -108.113747 2.992106 -51.952463
-36.203659 -42.132171 11.480236 -23.500749
-48.923962 -102.223376 9.082070 -48.144786
-41.466623 -68.401775 15.262579 -32.960519
-44.384536 -97.545354 3.983587 -44.631420
-68.709128 -139.217849 6.394509 -71.367042
-46.588175 -63.643266 11.416565 -33.069432
-45.396846 -60.330106 13.521842 -31.718086
-49.993779 -94.962841 15.466279 -45.884004
-46.392762 -68.973421 15.071937 -34.609855
-39.322204 -65.219897 17.387965 -31.362630
-43.768952 -69.012834 14.169143 -33.834536
-65.713949 -134.840351 -0.680367 -66.277866
-37.366691 -66.761707 15.867936 -31.238520
-40.522844 -90.755708 -1.468190 -40.882957
-43.369694 -92.911811 7.143740 -42.706034
-76.482965 -154.820125 2.598548 -80.265596
-37.908085 -84.961670 -5.615811 -37.813509
-18.053350 -50.535877 -3.901192 -20.576768
-76.473917 -154.859019 2.324873 -77.411537
-59.906833 -119.674678 1.755837 -57.242292
-57.374996 -115.460416 1.316767 -55.818879
-61.770714 -121.451795 -0.477007 -59.291739
-83.729382 -154.867342 13.099955 -78.308388
-67.625605 -134.882515 -4.211848 -65.273684
-57.279163 -115.711187 -3.513098 -55.507876
-50.565780 -108.922094 -0.746011 -51.101773
-62.634628 -121.635200 3.201545 -58.228993
-66.887292 -113.268005 0.074524 -54.046589
-69.880004 -124.689889 -0.129587 -60.791796
-60.194322 -118.730216 -1.680713 -57.117002
-58.212985 -113.195840 1.112518 -56.832028
-62.705063 -118.860626 1.575573 -59.970655
-67.933224 -121.839270 -0.161734 -60.943683
-57.165700 -110.007383 6.606816 -52.432609
-67.675873 -125.480327 3.935313 -62.435180
-50.225865 -88.301414 -17.675792 -42.599029
-79.418172 -158.221097 7.599212 -79.710706
-46.652277 -83.258632 -17.038447 -39.612061
-50.468438 -84.857928 -19.461511 -41.740514
-42.520237 -61.544514 -16.690427 -31.219425
-37.070031 -61.232025 -16.568807 -29.490617
-41.514947 -81.953647 -13.523129 -37.903077
-49.545053 -71.506784 -15.080453 -36.315551
-64.797262 -121.629149 -4.816065 -59.177873
-36.960866 -53.410815 -17.936476 -27.111504
-58.356094 -99.609591 3.579206 -47.831158
-45.204383 -82.557443 16.396052 -39.568678
-42.991560 -71.751248 -13.681760 -34.422842
-48.536608 -87.509861 -16.664450 -41.706521
-42.815622 -91.258014 -8.880808 -41.378327
-50.386417 -99.982349 -13.119005 -47.220938
-45.253094 -97.032955 -7.317610 -44.888516
-50.076413 -101.429184 -7.797993 -46.757804
-57.346421 -97.253664 8.589239 -46.380026
-45.567182 -97.785043 -6.233377 -44.453210
-62.945352 -117.476604 17.168925 -58.754885
-44.108325 -93.769233 8.681184 -43.288154
-47.675732 -92.843048 14.235288 -44.268498
-52.964041 -113.498208 -1.415450 -53.730713
-51.886284 -111.674050 -0.507983 -52.672160
-62.041509 -129.198372 -3.087455 -63.730453
-52.474304 -100.975861 12.934261 -47.754051
-58.279957 -115.003479 10.425399 -54.861775
-32.619020 -75.442331 -5.139277 -32.418405
-59.609829 -124.654275 3.696965 -59.759740
-51.190300 -94.689865 8.124738 -43.764049
-61.191968 -106.388987 0.785727 -51.177619
-51.280240 -94.715001 12.608565 -44.332638
-51.698177 -107.591345 8.406260 -50.413851
-60.609691 -106.906620 0.384556 -50.254893
-67.467525 -120.892012 -1.615582 -58.735199
-44.603855 -80.646136 16.374644 -38.215985
-59.942088 -105.388992 3.763814 -50.431211
-58.895745 -103.866515 2.293979 -48.965143
-63.741731 -103.728027 -0.082007 -50.240927
-60.722866 -90.942017 0.437600 -45.499465
-49.144155 -93.119861 4.730539 -42.679205
-42.307180 -93.440741 -3.180567 -42.333549
-44.727683 -82.027502 -13.068124 -38.026555
-18.432030 -45.354443 6.417648 -19.135942
-37.720631 -82.730274 -7.474532 -36.800690
-32.141946 -65.789410 -3.050402 -29.379407
-37.218399 -59.304133 -17.030927 -28.956759
-51.045421 -98.872135 8.333760 -45.834071
-44.739443 -82.131759 16.015954 -38.876333
-51.798256 -96.791636 5.019949 -44.576968
-42.177156 -90.522759 3.371010 -40.441284
-63.868376 -131.800921 3.854376 -64.384946
-53.922536 -115.235566 -1.209245 -54.708656
-58.233475 -122.898098 0.443323 -59.651834
-49.485176 -107.034557 2.823619 -50.106070
-48.205439 -103.316612 6.073342 -48.639213
-47.522656 -100.777617 7.644796 -47.849972
-61.355899 -128.457612 -0.455571 -62.240267
-48.179300 -105.121764 0.884563 -49.331021
-33.511043 -78.902225 2.341147 -33.998243
-58.867115 -123.559481 -3.248718 -59.565288
-61.901562 -129.388971 -0.874907 -62.788854
-43.504918 -96.849719 0.597200 -44.959395
-42.264917 -91.594236 7.473621 -41.840927
-28.418189 -70.217963 -0.404118 -29.590846
-76.534991 -154.795455 -3.690938 -77.405554
-41.648402 -93.224295 2.557752 -42.665368
-49.572556 -106.465361 -4.791803 -49.933539
-48.599680 -103.854113 -1.552137 -47.662578
-55.212207 -116.294602 -4.878583 -55.362532
-54.709012 -115.777348 -4.360764 -55.088182
-73.744480 -131.775964 2.822323 -67.328492
-53.644656 -101.851220 -0.482801 -49.058512
-50.933383 -109.320407 3.789123 -51.465344
-41.034665 -92.446441 -0.874381 -41.698415
-46.834812 -102.436901 2.632303 -47.448125
-62.096774 -128.484170 -5.394739 -62.489371
-64.993584 -132.099191 8.213096 -64.914748
-80.347576 -159.713291 -7.210523 -80.607255
-51.726477 -111.278234 -1.638573 -52.468149
-57.332826 -118.283801 -6.172262 -57.116585
-85.819771 -170.966383 0.111556 -87.736638
-58.270937 -121.943050 -4.820417 -58.758411
-71.770570 -144.034062 -7.445335 -72.098453
-51.141781 -106.082766 3.455113 -49.103375
-56.288682 -115.493108 2.105929 -54.322341
-67.342540 -122.680075 -9.237454 -59.075695
-97.305946 -190.971945 -2.303277 -99.166145
-48.766008 -74.997704 -5.185905 -37.129114
-58.327848 -114.126645 -3.985626 -53.573484
-57.077806 -109.085097 4.608084 -51.114547
-47.726580 -102.565657 -2.105919 -47.784541
-58.332683 -120.411380 -6.242106 -58.233973
-104.781615 -203.649994 3.730605 -118.074934
-47.872935 -102.757243 -4.172095 -47.911319
-77.524190 -156.761098 2.081218 -78.674020
-71.581140 -140.243215 -7.005962 -70.041716
-89.206308 -176.300953 1.080789 -89.953892
-76.489027 -153.024071 -6.006473 -77.478490
-54.799051 -108.463345 -11.567828 -53.149764
-48.837244 -104.356281 -2.047909 -50.766552
-40.322467 -88.296675 -3.943912 -39.957886
-61.818035 -105.912809 -2.994871 -50.319253
-98.466968 -190.686851 4.713602 -98.726487
-58.226521 -92.827007 -0.257068 -45.316058
-73.212344 -114.706236 5.408587 -56.375574
-63.176836 -118.456455 8.407595 -57.094488
-100.976242 -192.499739 5.183301 -110.427351
-61.672330 -112.043809 11.231599 -54.672614
-64.103721 -125.532563 10.898183 -61.577186
-66.070669 -119.870350 12.507494 -59.010076
-77.210398 -133.875083 -6.215322 -64.865699
-78.921985 -151.410415 -1.167549 -74.387344
-73.995927 -79.411935 -26.236455 -47.031210
-68.762295 -123.943716 8.345097 -65.956415
-83.625519 -153.528030 -3.355609 -76.126979
-85.533701 -146.814336 -12.175168 -73.218044
-68.530827 -135.515416 -9.297055 -71.041553
-21.404250 -55.794894 -0.847988 -23.159743
-79.875792 -159.758235 -1.818192 -80.737127
-98.827116 -192.850082 0.062182 -99.197050
-68.701964 -94.983390 -24.635833 -50.815326
-79.438317 -150.065174 2.874995 -74.936974
-67.594837 -137.310088 -0.731594 -67.837913
-83.929915 -166.819516 1.825457 -84.429713
-88.181757 -142.775330 -5.223505 -70.208240
-68.967829 -129.851508 -6.976741 -62.687150
-74.986096 -135.775971 -1.541608 -65.880703
-88.907773 -145.098352 -4.335650 -71.332890
-68.922173 -139.795227 -0.832923 -69.006283
-66.836599 -69.639651 -10.334816 -40.942875
-57.141917 -62.090712 -23.208517 -35.857032
-84.486412 -139.919730 -3.555318 -68.088015
-51.200749 -87.258351 -19.286341 -43.502756
-47.004824 -98.168159 -6.816087 -44.761914
-47.360012 -55.888365 16.977295 -30.974513
-51.163760 -95.312711 -0.602271 -43.942941
-59.309166 -112.172270 -15.154904 -54.464353
-62.255439 -117.023395 2.946331 -55.020011
-54.908866 -86.610245 -4.725742 -42.455733
-45.053307 -71.903557 19.194926 -35.669013
-59.971269 -125.496865 -2.948693 -60.650166
-51.852173 -98.474187 11.386154 -45.948989
-64.812792 -133.776349 -4.058214 -65.829316
-66.975446 -135.391758 -8.346855 -66.814836
-61.093722 -103.353437 10.465672 -49.334148
-59.943115 -102.470921 2.574188 -48.724211
-45.612662 -95.093391 10.110914 -44.331875
-62.302570 -124.109144 11.740110 -61.016584
-61.849286 -102.241169 -7.209218 -49.227137
-41.147750 -92.572491 -0.591126 -41.752362
-53.000760 -105.364301 -5.536319 -48.656603
-58.151109 -93.515651 8.791547 -45.500028
-52.238002 -84.380006 1.607201 -40.985403
-69.530309 -105.221163 10.961104 -52.425442
-45.818279 -80.934398 -17.447371 -38.575257
-50.025791 -107.130382 -4.849122 -50.137094
-40.009216 -89.695022 -3.996136 -40.303064
-50.564436 -98.501280 -8.572776 -45.285918
-55.313146 -115.877373 6.282210 -55.449002
-88.915430 -125.671761 5.022867 -66.106510
-44.200035 -80.420660 -8.004825 -37.386209
-51.336549 -107.174167 8.454366 -50.825659
-63.333259 -112.008146 6.655566 -55.547142
-56.786935 -104.705353 4.423574 -52.185081
-52.952026 -104.754189 5.023497 -48.305248
-63.086822 -123.610879 1.466560 -58.698635
-67.782467 -122.951077 0.438824 -60.626053
-92.119233 -139.305896 20.827311 -76.034163
-71.492523 -120.701883 10.110613 -61.179434
-86.592900 -132.827368 16.835901 -71.011891
-60.839317 -117.366930 -3.848570 -56.304978
-63.530979 -119.753278 -0.325055 -58.411669
-67.355694 -124.333203 1.973373 -61.829797
-63.993740 -112.136200 -0.381352 -54.503261
-66.979875 -119.845675 -3.336491 -57.451930
-65.902491 -124.913911 -0.528812 -60.787850
-76.948272 -122.333053 -0.193462 -59.784398
-69.881509 -129.607900 0.728139 -64.179446
-74.629492 -128.528173 -0.008662 -63.820680
-61.815553 -72.038407 -20.278257 -40.156188
-75.423132 -132.700719 4.159432 -66.883217
-65.611816 -122.940144 -1.005760 -60.531296
-69.042074 -127.534274 1.952593 -65.534650
-73.677426 -133.911550 2.286465 -67.546417
-64.191814 -117.305065 2.177301 -59.457518
-77.214708 -131.854088 -0.299663 -66.956890
-69.411484 -123.819412 2.635935 -61.688487
-71.851458 -129.606810 -1.129046 -66.561727
-71.421361 -133.910021 1.047779 -67.007126
-65.501421 -122.230958 0.294882 -60.027607
-66.867319 -124.445129 0.718475 -61.624793
-71.916722 -133.204640 3.171794 -66.637407
-79.705792 -131.587610 3.150197 -63.849148
-74.641300 -122.471765 12.932031 -60.970783
-78.790504 -130.613647 3.513333 -66.608235
-73.383563 -126.633357 1.993274 -63.189667
-88.145287 -156.428412 13.434527 -80.973672
-81.171465 -143.005055 8.464351 -71.415215
-68.017938 -129.966852 3.429475 -64.129910
-75.560808 -126.997459 2.230625 -62.004190
-76.546666 -138.866765 13.876104 -70.824039
-84.348016 -143.504377 -2.321996 -69.979449
-72.559159 -136.921095 0.876802 -67.555663
-70.823071 -130.304688 2.959283 -65.209276
-75.570892 -136.454636 2.569175 -69.877403
-72.268676 -134.421410 3.550287 -67.253062
-77.350161 -135.384201 -2.745195 -67.801909
-59.058928 -103.410961 19.712079 -52.262217
-66.315868 -118.726754 6.106694 -58.289826
-64.389666 -118.899646 17.812780 -59.848929
-69.450310 -117.291541 0.960783 -60.987521
-67.347843 -119.876937 -0.571217 -59.692711
-62.538350 -112.220426 19.172989 -56.743010
-53.522728 -99.284383 16.715224 -48.730443
-73.527035 -132.426901 7.527826 -69.268739
-79.848504 -151.538855 -5.358074 -75.942374
-76.355275 -145.974478 6.093682 -73.650659
-58.731838 -113.651720 -14.595460 -55.888632
-64.978425 -113.394071 5.628915 -56.812494
-59.706384 -116.561547 13.847101 -57.303844
-85.375992 -152.000669 7.980494 -78.530516
-66.396405 -127.594906 -4.208080 -65.894978
-72.860216 -139.098569 4.386427 -69.041957
-83.343556 -157.587096 -0.420524 -79.694622
-74.866259 -148.428819 2.571002 -74.149429
-86.679143 -166.423304 -4.889441 -84.569169
-78.641730 -154.787040 -5.854488 -80.746511
-78.057032 -154.688131 -0.745468 -77.536455
-78.778886 -153.290526 3.154579 -77.153365
-79.530738 -155.696879 1.014177 -78.340886
-66.893801 -96.104182 -16.006304 -48.899395
-90.142956 -111.990479 -0.448966 -60.640031
-63.769614 -124.523732 -1.523895 -65.463351
-64.305741 -122.393772 2.054043 -63.143712
-84.618874 -156.773186 4.893661 -79.949424
-85.687057 -166.948610 2.038934 -84.977572
-77.453460 -144.205322 2.448563 -72.833112
-82.079722 -151.440669 4.376628 -77.358309
-66.906295 -125.708651 4.745387 -61.689782
-64.077661 -122.307292 1.157283 -60.139200
-79.851823 -143.620167 -4.894388 -71.233891
-76.807393 -143.187715 3.280003 -71.805497
-82.879661 -139.913345 0.384180 -72.309471
-122.478027 -203.341936 26.657590 -113.297646
-51.168107 -103.867817 -11.145936 -49.511809
-71.942906 -132.698984 7.097576 -66.985212
-97.569657 -169.321965 15.659003 -92.700054
-65.092123 -123.583800 7.232311 -63.969348
-110.413900 -177.146234 28.315990 -96.981494
-101.036801 -163.060406 25.739577 -87.916166
-76.126368 -139.363004 13.905243 -74.072457
-116.701320 -212.416518 11.084827 -118.159521
-82.656731 -155.808114 -3.208353 -78.006841
-78.376719 -145.812728 6.125013 -73.887415
-64.780385 -107.876057 22.396394 -55.985206
-80.727855 -136.303928 23.637875 -70.800710
-81.274536 -150.815591 2.012476 -82.782597
-70.393130 -128.310923 8.973825 -64.956555
-68.548848 -132.586140 14.257156 -66.373871
-50.786902 -105.890586 -7.260808 -51.678676
-62.496958 -119.009795 15.758602 -59.222580
-89.750714 -127.454476 11.839285 -65.161557
-78.043631 -129.951259 -9.922064 -63.302084
-86.267433 -144.133100 4.597630 -70.991211
-53.888623 -113.467613 -5.515677 -53.999793
-50.439102 -97.944803 7.890238 -46.833956
-66.032242 -131.284020 3.437771 -63.313629
-76.009108 -153.846924 0.151311 -76.219970
-79.455864 -152.764824 14.308423 -77.724508
-97.757872 -181.908087 16.074807 -95.475608
-76.314056 -154.670243 -1.485409 -77.247341
-97.661885 -181.402759 18.648851 -94.820551
-84.698341 -168.638456 -4.006895 -85.295402
-92.783429 -134.000270 12.829164 -68.110424
-122.022132 -222.491323 17.507742 -118.137185
-78.678803 -141.379139 7.097667 -76.192230
-63.873186 -117.393811 13.578636 -63.965282
-117.811771 -221.388730 8.338658 -116.607347
-52.840919 -77.914694 21.924237 -40.685596
-58.302150 -75.308370 24.096378 -41.643844
-73.880959 -147.510194 1.743841 -75.536398
-84.514207 -140.211678 16.697463 -80.182068
-90.499036 -171.878036 2.878087 -87.834442
-99.430969 -188.752495 -0.142478 -106.320814
-92.248058 -170.606567 -0.338165 -87.706714
-71.979343 -141.757390 4.004299 -70.693864
-116.570297 -211.970062 -11.599977 -119.568505
-82.889475 -157.139993 -2.472907 -82.386440
-53.503476 -114.155755 2.241074 -55.844681
-96.296252 -178.367958 -5.190851 -92.778781
-92.333040 -165.509240 -2.966019 -85.542026
-118.506570 -204.299595 -18.003700 -108.059862
-67.768062 -120.634665 -10.832469 -58.179215
-89.955520 -173.481508 -5.292814 -88.528111
-71.997890 -138.447108 -5.956475 -67.732553
-76.072284 -131.293998 -6.642885 -63.446647
-58.915231 -92.701247 20.617955 -47.340188
-98.588306 -185.171034 4.952946 -95.809331
-111.660297 -199.703723 17.048746 -115.247516
-69.959276 -135.815446 -4.831029 -65.789763
-71.636044 -143.771404 -3.079154 -70.150214
-78.488497 -125.671180 -9.981058 -61.247903
-64.284420 -112.867752 9.994061 -59.413457
-83.207091 -146.191730 2.058226 -72.632940
-86.038703 -165.809131 -4.816570 -84.076213
-78.895745 -79.352536 -7.872408 -47.474484
-59.059658 -114.622571 -14.126595 -55.478534
-87.593545 -81.484292 -17.814292 -50.723351
-82.568074 -131.249391 -20.359073 -67.152041
-81.953621 -61.464665 -16.057803 -43.025486
-73.077149 -138.378766 -8.109176 -67.578659
-90.556451 -164.264300 -10.904724 -82.714930
-77.236005 -73.070973 -23.934601 -45.207188
-72.196383 -62.680399 -24.598977 -41.041590
-85.445396 -136.864187 -11.368215 -67.829896
-59.393652 -115.597202 5.775554 -56.285880
-82.153926 -136.437350 -1.145956 -66.195621
-80.237629 -145.943459 -0.392445 -72.343154
-69.555144 -130.730489 9.497916 -64.986403
-79.502687 -143.215081 5.990135 -73.367037
-61.284309 -125.575918 -7.665105 -60.649119
-66.375529 -120.777549 11.436437 -60.204077
-91.358326 -162.109001 -0.477644 -81.180673
-83.897686 -157.564476 7.384032 -79.050658
-97.872852 -178.457610 10.388482 -93.271047
-59.249857 -120.748463 -9.034334 -58.417541
-104.781345 -189.332795 14.791564 -99.726556
-63.431867 -101.310519 22.658684 -52.331894
-90.867083 -154.186420 15.472800 -82.226104
-86.443919 -157.446455 3.318350 -85.949067
-93.057739 -168.619240 11.678914 -87.828125
-62.794273 -111.914399 9.152294 -56.374430
-70.247700 -137.722295 7.412758 -70.131672
-90.237483 -166.010541 6.924278 -85.168261
-37.687143 -84.314403 -0.828774 -37.138835
-83.465232 -140.201986 13.433630 -72.934941
-62.240405 -109.295483 13.285208 -53.726529
-58.967628 -118.459778 -9.902558 -56.993319
-89.121560 -164.995451 11.808713 -84.830040
-59.778580 -120.728401 2.810641 -58.911498
-71.853153 -123.828370 18.693308 -62.784532
-63.361116 -113.934071 16.610265 -56.927187
-72.537735 -133.188426 16.325634 -67.250289
-61.649909 -122.665907 12.069031 -60.216377
-74.074165 -142.004352 -4.239512 -70.524200
-71.323081 -127.779779 20.610909 -65.537491
-66.019608 -119.041498 17.595441 -59.919604
-69.735833 -121.050202 19.983313 -61.647990
-76.712867 -154.842895 -3.254799 -77.112170
-83.072396 -166.674179 0.747691 -84.022215
-87.123665 -162.094720 5.892515 -83.029083
-78.715654 -136.831657 20.825937 -70.167465
-85.791653 -162.747822 15.832710 -83.613049
-80.064638 -137.214355 9.324866 -70.825660
-77.722623 -143.031824 19.078401 -73.556224
-75.723238 -137.590105 19.104382 -69.687613
-76.323077 -127.845652 22.967550 -66.372425
-77.508743 -129.244177 22.305398 -66.842194
-75.551150 -126.173166 22.022474 -65.108460
-76.062265 -126.052410 22.986765 -65.589836
-72.135313 -129.002755 18.650128 -65.574972
-77.941085 -132.036598 22.218999 -68.268142
-85.592022 -170.651003 4.292731 -86.508072
-77.774400 -154.648978 8.845776 -83.724767
-69.972155 -141.946207 6.623686 -70.398742
-81.022091 -160.617528 8.617932 -83.087399
-85.327753 -168.477463 8.335525 -85.813622
-69.711326 -142.786464 3.193720 -72.066861
-78.465726 -157.791340 4.950595 -79.955921
-62.322302 -128.725997 5.491111 -64.716790
-83.737480 -166.111585 7.453163 -84.240536
-70.317999 -142.271510 7.202569 -71.272750
-79.576212 -159.203302 6.369655 -80.135107
-61.838041 -126.527893 8.043302 -63.580077
-65.802468 -132.764393 9.290881 -67.115498
-81.874665 -162.622249 7.771145 -82.230135
-57.693881 -120.072153 6.495801 -58.678479
-61.633135 -126.322570 7.804670 -63.052453
-75.674905 -153.015219 4.416485 -76.514150
-78.274170 -156.789933 6.582231 -79.721525
-70.681854 -142.770325 7.458064 -71.032163
-67.175838 -137.152479 6.259687 -68.783808
-84.084467 -167.499317 5.689057 -84.807896
-67.321749 -135.795867 8.897388 -69.100750
-54.769951 -114.998640 6.094678 -57.631577
-92.863971 -182.932372 5.953131 -93.655230
-59.341077 -122.616340 7.144181 -60.709610
-64.743008 -132.044326 7.587251 -65.788083
-80.473922 -158.432001 10.367379 -80.242042
-82.737221 -163.070981 7.941036 -83.748194
-57.485924 -120.087419 5.787892 -58.843178
-78.338073 -157.038501 6.282587 -79.575072
-64.895479 -132.699971 6.959548 -65.546454
-75.144025 -150.441747 7.999000 -75.649272
-67.562985 -137.323193 7.219574 -67.767885
-86.003570 -169.492189 8.629279 -86.236905
-58.381909 -121.634488 5.889872 -59.555811
-65.115144 -131.948758 8.712818 -64.976045
-75.935052 -146.694108 14.056851 -76.292336
-62.590173 -128.128766 7.663099 -63.015467
-74.891990 -148.797223 9.783440 -74.787794
-81.418068 -161.764701 7.823072 -81.741835
-59.161172 -121.543128 8.238164 -60.823780
-56.198098 -119.595096 -1.418016 -57.011368
-75.511707 -150.492275 8.968086 -77.353909
-56.482360 -120.047095 -1.848903 -57.280016
-76.968571 -154.613157 6.259823 -78.459325
-56.492794 -117.051849 7.823758 -57.935477
-66.912128 -132.840779 11.482016 -67.473658
-73.857475 -145.460718 11.545801 -73.734684
-58.306173 -119.776350 8.545827 -58.551008
-61.603396 -124.881852 9.578795 -61.816204
-67.730348 -138.685242 3.967185 -68.462164
-82.103315 -163.484889 6.846008 -82.892366
-72.723212 -147.950971 3.824728 -73.527230
-62.230995 -128.457267 5.900986 -62.677125
-73.126407 -148.371470 4.762593 -74.417048
-76.485967 -154.324832 4.794528 -77.362358
-63.102913 -130.071624 5.870941 -64.072527
-67.832517 -139.091763 4.415948 -69.858986
-58.721998 -104.821639 19.089110 -52.636359
-71.481613 -143.231237 8.985754 -71.397738
-71.688884 -143.905001 8.924993 -71.581738
-66.962348 -134.662504 9.533704 -68.209095
-61.199410 -115.870696 13.555236 -56.929036
-72.141285 -132.923990 18.685378 -67.798847
-66.659967 -135.523547 7.880577 -66.709159
-64.577470 -131.573590 7.856140 -65.370011
-63.464914 -130.276120 6.926343 -63.656819
-68.634300 -140.083482 4.944131 -69.211614
-60.302592 -120.384830 11.382520 -58.735780
-63.969898 -127.952592 11.062605 -63.006493
-60.473750 -123.266210 9.306391 -59.990294
-58.165235 -119.283595 9.064637 -57.693922
-57.513272 -117.926566 9.342781 -56.938799
-60.620622 -124.748475 7.721117 -60.577333
-66.291670 -135.641542 4.078375 -67.523508
-57.709693 -119.776593 7.022988 -58.323409
-59.073252 -121.766701 7.922858 -58.944138
-50.353597 -101.127216 11.895863 -48.123240
-57.389034 -118.496806 8.246402 -57.128659
-60.980565 -124.252037 9.326297 -60.512453
-54.540869 -108.557676 12.022793 -52.373388
-54.385539 -105.616762 10.290693 -50.259795
-55.422836 -112.431549 10.850646 -54.232725
-60.046279 -122.719221 9.107546 -59.615681
-50.339051 -99.038442 8.754344 -46.140704
-59.426184 -115.444139 10.351601 -55.654035
-55.247258 -111.463073 10.674750 -53.660988
-53.423167 -105.907977 13.057130 -51.127340
-51.760185 -102.158825 10.679233 -48.504570
-53.389656 -106.619061 8.765142 -50.201449
-52.673016 -102.741709 13.079470 -49.423710
-55.005901 -111.818094 10.757974 -53.837043
-55.991886 -110.931095 11.739035 -53.517954
-60.544745 -123.047832 9.779183 -59.911346
-63.375962 -127.103905 11.071160 -62.393249
-56.610244 -114.325308 11.228285 -55.321257
-58.346183 -115.199373 12.628026 -56.186098
-57.797864 -116.290154 11.429989 -56.472085
-55.036327 -112.201903 10.447048 -53.990701
-56.634950 -116.355203 9.328426 -56.034065
-61.833781 -126.566446 7.991295 -61.733047
-56.724217 -116.715465 9.022562 -56.226223
-56.151634 -117.056881 7.592628 -56.049183
-58.512954 -120.573321 7.959330 -58.343331
-51.032501 -110.493329 0.858845 -51.811185
-54.257891 -116.260214 0.044708 -55.081859
-49.504311 -105.795217 6.670535 -49.509380
-55.305749 -114.226146 9.191072 -54.727693
-61.359441 -128.675001 -1.281825 -62.235152
-56.449625 -120.248413 -0.971410 -57.297715
-49.848008 -108.047772 -3.414694 -50.434399
-52.089130 -112.426681 -0.805822 -52.888472
-48.061469 -105.238354 -2.128992 -48.748172
-48.451882 -105.916965 -2.167894 -49.131034
-52.332594 -112.797950 -1.054402 -53.115925
-50.781246 -109.878703 -2.404374 -51.472531
-49.026136 -107.028715 -0.274390 -49.788771
-47.688879 -104.622790 -1.946954 -48.378513
-54.078105 -115.972890 0.186325 -54.906360
-51.537337 -111.545037 -1.369818 -52.318777
-52.044820 -112.351893 0.111787 -52.849715
-71.322822 -139.231567 7.403830 -71.701630
-53.250624 -114.485297 -0.637254 -54.058272
-52.711398 -113.470894 -2.399617 -53.423095
-68.489265 -136.602562 5.913237 -69.048941
-57.798309 -120.202468 6.578790 -57.948907
-52.245585 -105.741444 8.139590 -50.500495
-82.428892 -151.427603 15.677666 -81.148278
-51.721614 -104.857093 8.222523 -50.217016
-72.227869 -146.800008 3.855438 -74.400818
-59.548671 -121.474442 8.903433 -59.147062
-63.413694 -128.455514 9.243533 -63.291253
-74.938606 -146.204445 12.783824 -75.551004
-54.035050 -115.741551 -1.588282 -54.806985
-55.854248 -119.094418 0.019565 -56.683952
-56.591847 -120.390293 -0.743256 -57.423833
-57.328595 -121.704474 -0.558647 -58.175030
-57.451380 -121.877148 -1.141233 -58.288283
-56.965562 -120.952922 -1.411017 -57.781717
-62.621858 -130.646563 -3.587122 -63.336301
-53.042884 -113.852878 -2.968109 -53.715079
-59.332497 -125.004280 -2.266700 -60.124593
-52.410208 -111.900750 -5.268105 -52.759607
-43.366905 -96.518331 -1.914549 -44.005442
-57.788266 -121.232917 -5.638085 -58.141379
-51.882583 -96.550771 -7.583287 -44.530006
-47.472865 -101.871513 -6.713664 -47.392775
-49.067121 -106.637810 -3.374534 -49.658455
-45.134308 -97.926037 -4.403289 -46.485375
-30.874334 -74.582594 -1.274371 -31.637078
-52.771790 -113.261522 -3.424708 -53.397573
-55.240981 -118.025666 -1.963277 -56.019691
-51.679488 -110.953117 -4.300370 -52.169312
-49.021542 -106.230133 -4.356607 -49.449458
-50.328376 -109.136590 -2.537909 -51.003122
-54.616936 -116.856068 -2.258180 -55.365454
-51.183900 -110.043139 -4.403252 -51.636750
-48.736386 -105.156223 -4.884352 -49.080878
-50.734083 -109.950158 -2.192455 -51.452402
-49.017043 -106.382213 -3.818500 -49.522644
-47.181984 -103.503342 -2.644688 -47.820128
-47.184058 -102.851410 -3.977418 -47.648362
-49.005707 -105.091168 -5.747377 -49.180404
-43.239697 -92.108141 3.872276 -40.975937
-51.942008 -110.978684 4.225673 -52.428865
-58.619754 -123.487403 2.041298 -59.413498
-51.008906 -110.058005 -3.586589 -51.600203
-56.361942 -119.337775 -2.878382 -57.064930
-49.454344 -106.086980 -5.541304 -49.686434
-44.963483 -97.836521 -5.851686 -45.037365
-85.823502 -171.794665 0.639564 -87.631539
-74.868963 -152.303502 1.544007 -77.438595
-25.000271 -63.112292 -3.947198 -26.433769
-58.849783 -123.965449 0.588599 -61.342476
-78.369739 -158.196920 1.304457 -79.331619
-60.594584 -126.839653 -1.523299 -61.402568
-70.256343 -141.244695 3.330602 -71.301929
-50.819642 -109.444935 2.431776 -51.485139
-51.554838 -106.857230 2.673873 -51.790328
-40.823832 -91.184487 -3.970022 -41.170246
-49.664975 -90.904279 2.039956 -42.170776
-48.000989 -103.557451 1.859230 -47.776832
-38.095206 -84.318972 -7.044222 -37.665529
-45.181260 -86.134460 15.061172 -40.908396
-83.538708 -156.150260 10.427518 -77.887518
-39.456932 -88.339133 3.477355 -40.368873
-43.948518 -90.939366 10.234690 -43.329141
-56.380740 -116.206946 -6.293455 -54.864234
-67.061264 -133.939618 6.484727 -66.639509
-63.755725 -118.317811 4.909654 -55.900273
-35.728518 -72.722532 -12.316148 -32.547717
-53.538101 -102.529908 15.241264 -49.942548
-74.313136 -151.187149 2.526313 -75.685389
-61.770401 -128.728632 -1.328768 -63.180253
-94.903485 -187.124592 5.091196 -95.933003
-56.418531 -119.599449 -1.429229 -57.254621
-63.111778 -131.128988 3.635604 -69.072326
-74.933669 -143.399111 -15.407148 -74.561293
-65.151887 -135.209201 -1.103356 -66.109191
-68.155106 -139.870030 -0.524383 -67.843141
-51.128547 -106.154103 8.357355 -52.879013
-65.992875 -136.580471 -1.099110 -67.228347
-79.020749 -155.277920 11.106831 -78.485039
-62.790275 -98.647424 23.555278 -51.898295
-45.989333 -61.689859 20.679227 -32.303757
-49.011514 -73.053679 20.914021 -37.530045
-50.286091 -108.708497 -2.632677 -54.727670
-53.551091 -114.811201 0.147812 -58.978755
-100.015842 -163.877111 29.044831 -89.529754
-42.974488 -79.619614 15.819017 -37.726148
-65.594132 -135.761079 -2.962323 -72.253091
-69.566063 -143.057154 0.676449 -75.106980
-72.452504 -141.589138 13.162255 -71.016097
-44.487933 -84.455294 15.246161 -40.004479
-72.819602 -145.330947 -10.288223 -72.384596
-42.456069 -85.797765 -12.693438 -39.689203
-70.925028 -140.171470 -12.064535 -69.860146
-59.364332 -120.711978 -9.905749 -58.676771
-74.291615 -148.352207 9.504028 -74.254803
-36.380416 -83.638911 -3.748686 -37.052297
-27.265478 -66.386708 -5.305399 -28.095656
-74.464020 -152.007247 -0.284967 -75.609567
-57.104636 -120.534693 -4.445844 -57.646591
-57.847723 -122.487643 -1.614893 -58.676210
-57.787612 -122.186945 -3.369133 -58.462951
-71.516176 -141.229085 -11.771073 -70.113193
-57.370008 -121.763378 -0.932149 -58.217829
-61.707988 -129.331755 -1.445563 -62.568822
-56.223205 -119.664375 -2.381875 -56.979819
-55.509412 -118.555862 -1.416211 -56.303334
-61.421620 -128.935800 -0.736269 -62.308114
-55.053882 -115.218803 6.718471 -63.004274
-59.135746 -124.905070 -1.963427 -59.952124
-58.896001 -124.369499 -1.668961 -59.728970
-63.919844 -132.264399 -5.517724 -64.411983
-58.593528 -123.738029 -3.056589 -59.324448
-61.368931 -126.419764 -7.725818 -61.352665
-57.764316 -120.946941 -6.166119 -58.038222
-64.694927 -132.066067 -8.283676 -64.624516
-57.779483 -119.848492 -8.000527 -57.621460
-65.461531 -135.446137 -4.417366 -66.112796
-63.322671 -132.049803 -2.670123 -64.134598
-66.881121 -137.287364 -6.333396 -67.274227
-64.144176 -131.390202 -7.887262 -64.164746
-64.960092 -134.807272 -2.705896 -65.775401
-56.550846 -120.106407 -2.141208 -57.327679
-72.841308 -148.623710 -1.915139 -76.313587
-55.789956 -118.247498 -3.856129 -56.384809
-65.518035 -136.029762 -0.697601 -66.443895
-71.670500 -146.007776 4.247283 -73.049052
-67.803023 -139.901847 -2.354688 -68.683191
-81.599118 -163.965483 2.859981 -82.607215
-69.066833 -141.249621 -5.813586 -69.582729
-67.324921 -138.228188 -6.025214 -67.792314
-58.177295 -120.322704 -8.412032 -57.924778
-76.556388 -153.711010 -7.876695 -76.800844
-62.038079 -128.271317 -7.022500 -62.209379
-62.376417 -130.519488 -3.045596 -63.143679
-54.973986 -117.432776 1.803427 -55.752892
-57.495222 -120.636494 -5.562648 -57.858326
-66.329435 -136.721814 4.596606 -66.977658
-61.837342 -129.509953 0.268754 -62.739495
-52.084991 -106.430893 -11.294131 -50.637588
-65.539940 -135.014085 -5.880567 -65.972459
-58.522924 -123.273562 -2.778652 -59.266664
-50.399012 -109.264646 -0.405689 -51.170275
-47.270872 -93.465674 11.426413 -43.044001
-42.006620 -88.540986 9.973290 -44.858949
-91.247139 -161.718933 23.392906 -85.929597
-76.398677 -140.128911 19.265219 -72.602804
-53.878159 -114.006518 5.740470 -54.143275
-41.759728 -93.508440 -4.837060 -42.026103
-63.107138 -127.017961 10.625739 -62.285874
-64.156633 -128.298632 11.151788 -63.175908
-50.610630 -107.506266 4.783773 -49.695593
-50.457838 -107.321631 6.537663 -50.485791
-52.494445 -112.255739 2.779345 -57.417121
-160.029007 -295.599403 18.777207 -159.272041
-99.222047 -132.361926 -16.017380 -70.250451
-105.853597 -129.247398 -5.663581 -70.705878
-67.699433 -139.429626 -0.204046 -71.874657
-160.555356 -301.991561 9.186408 -171.196604
-73.482452 -117.255258 -22.356672 -60.375259
-91.227730 -83.221189 31.145367 -56.652432
-95.671383 -139.255822 -5.406991 -70.540564
-109.905794 -139.443791 -5.923050 -75.026401
-119.222334 -197.238044 12.476471 -101.738385
-73.343189 -148.820434 4.119286 -74.068601
-106.023950 -138.537592 -13.929868 -74.000378
-157.406936 -296.114565 9.914904 -171.476133
-109.193458 -158.072504 0.507962 -80.179789
-119.631592 -144.687855 1.861155 -79.295834
-95.249420 -151.692017 1.721871 -74.606405
-108.404426 -184.332722 28.840084 -99.790923
-70.547828 -137.329457 -13.516598 -68.847571
-71.340693 -145.707150 -2.815577 -72.188807
-96.424984 -160.865013 27.747799 -90.201225
-113.236809 -177.179822 12.430717 -90.415450
-108.542643 -159.702366 36.304145 -90.884549
-119.020684 -184.955659 36.447968 -103.822650
-153.805425 -234.850497 45.055052 -134.858143
-163.366598 -278.975398 36.133375 -154.379615
-117.709479 -177.931153 37.402314 -100.928179
-129.019256 -205.650671 37.500144 -115.124366
-98.589690 -167.783630 27.360718 -90.458748
-75.205276 -130.310489 22.343835 -68.722735
-147.518074 -250.372137 34.461725 -138.236962
-100.438270 -166.500206 28.581804 -97.803801
-146.539742 -257.722046 28.394981 -142.877739
-160.887342 -267.032789 38.821483 -149.168078
-103.236165 -183.230177 22.643842 -98.165559
-120.335783 -201.989882 19.778965 -105.641788
-135.388170 -222.429930 12.869371 -126.301068
-134.913002 -234.022679 28.571067 -127.854230
-65.268551 -109.613168 21.996309 -59.189687
-103.686418 -174.155941 27.530490 -101.729782
-67.673055 -115.863747 21.933067 -62.156502
-134.895844 -243.131914 11.502924 -130.341190
-111.123689 -178.012102 31.103288 -99.080509
-53.868918 -93.643199 18.870028 -47.700252
-42.336222 -69.484698 18.006413 -34.048678
-69.471769 -117.227954 11.362821 -56.716077
-125.589921 -201.671786 19.335277 -105.588800
-125.725779 -202.913789 19.398758 -108.266177
-148.962927 -240.092648 40.030458 -135.012384
-60.626599 -93.112115 23.097156 -50.523005
-127.487931 -144.589097 22.961037 -81.623108
-117.570156 -136.053387 41.364031 -84.968370
-98.035831 -70.898478 27.368854 -54.525891
-112.482560 -194.968708 20.148650 -101.654972
-100.716022 -143.420622 34.348378 -80.656222
-82.186652 -133.272817 6.023164 -64.637841
-97.933030 -71.230041 21.522901 -50.897337
-134.867788 -236.754059 3.692365 -122.735016
-122.969074 -237.010518 -1.937046 -140.713964
-165.468775 -311.066485 8.063318 -166.913368
-91.716461 -132.398824 24.275317 -70.030368
-136.643053 -260.886412 -4.787784 -144.561836
-41.472736 -90.748890 -5.236937 -43.754031
-94.908211 -187.545018 -0.770377 -96.468237
-97.807070 -178.052072 -19.769405 -92.053840
-84.882411 -165.027815 -12.102931 -84.195692
-155.059548 -278.140765 -9.267453 -146.627577
-109.798419 -208.716339 -13.903311 -108.613959
-106.654595 -203.891893 10.709311 -113.148975
-88.654676 -153.779907 2.149501 -75.752622
-102.148010 -187.536074 -4.881212 -101.040211
-90.314467 -174.738882 9.670317 -97.004736
-129.242117 -223.255226 1.661245 -120.233087
-148.024725 -269.189831 23.812691 -145.245744
-140.890126 -254.201536 19.482266 -137.878851
-98.698341 -126.797593 35.820591 -74.536689
-135.990924 -249.849108 18.184983 -133.888485
-116.257420 -220.482503 7.296225 -115.443289
-130.643575 -249.264219 8.361558 -139.995053
-89.023581 -68.785847 8.853193 -47.342829
-94.494036 -168.250150 23.353108 -88.879764
-117.763889 -215.643890 21.485915 -122.404003
-78.827239 -137.145326 19.123478 -74.090326
-148.011949 -276.086874 11.731007 -147.772593
-81.612221 -162.883850 6.480553 -82.187428
-101.376920 -192.432939 15.320136 -112.664118
-80.356325 -159.733930 8.223923 -80.586053
-105.632927 -197.941605 17.358561 -107.981775
-95.332685 -166.576584 24.887280 -88.621734
-101.059656 -176.119324 25.984176 -94.146510
-68.991476 -141.626684 3.513727 -69.787367
-63.767250 -110.434714 20.964042 -56.534340
-71.253826 -145.996494 -1.732667 -72.205041
-89.850740 -114.130610 -0.078131 -61.194405
-78.215732 -157.648636 5.183825 -78.927697
-80.694346 -162.480081 2.390927 -81.706258
-77.690851 -156.422418 -4.984481 -82.575190
-71.751916 -146.854632 0.236522 -76.420071
-86.379873 -172.634307 2.174021 -87.463953
-89.614216 -174.729188 -10.752244 -91.317760
-70.768181 -145.095428 0.680935 -71.741976
-125.796779 -242.324435 2.102208 -128.828026
-91.011890 -172.687834 9.612678 -87.075881
-76.706804 -83.052460 -1.408712 -47.927779
-131.216776 -145.193387 25.853581 -82.923049
-75.107609 -145.321071 13.942507 -73.403530
-91.317860 -177.685565 -4.189726 -89.350874
-76.497493 -143.780243 13.335070 -71.499325
-64.360153 -131.822530 7.956435 -64.348174
-40.555054 -89.950560 2.832731 -43.530585
-66.901723 -136.071562 8.351313 -66.862808
-61.090517 -127.914521 1.235179 -61.940417
-76.255754 -154.096216 5.972407 -76.861834
-84.159613 -169.283491 7.259013 -84.702543
-95.612403 -184.112762 13.388048 -94.859827
-110.179617 -208.093940 13.877889 -113.106010
-71.464381 -145.967439 8.041617 -71.622093
-96.019349 -177.861335 19.398435 -92.854668
-96.811896 -170.166183 24.761089 -90.210595
-104.342830 -196.044706 16.891928 -104.590040
-86.130177 -164.439178 5.099856 -84.729110
-120.727251 -228.069389 5.457645 -123.088220
-85.644196 -141.593812 26.779652 -75.914957
-90.355880 -133.334749 18.305005 -67.956664
-116.880096 -172.816599 10.483014 -89.076441
-79.092136 -145.199449 19.386754 -74.836487
-130.733148 -181.701885 26.967483 -98.087373
-141.563390 -159.804228 47.168541 -101.143620
-133.654870 -194.016857 18.261030 -110.040820
-66.663031 -134.845148 4.416607 -68.446231
-129.940625 -233.407742 15.917300 -130.791576
-93.119119 -157.025202 14.587501 -87.098015
-140.629055 -248.610871 27.495399 -134.970828
-77.995451 -153.445199 13.044614 -76.873185
-81.931993 -149.393292 18.640953 -81.164998
-76.929076 -120.212633 26.553593 -64.849502
-69.460187 -141.462908 7.895388 -69.593412
-89.463783 -166.103100 16.089366 -88.353800
-93.296576 -175.605394 17.982349 -90.728707
-87.473239 -146.739050 26.262557 -78.794196
-79.097881 -146.763502 19.421710 -74.949916
-92.363631 -170.021866 20.819741 -88.313384
-80.649422 -151.430812 18.177527 -77.344681
-83.174804 -156.181876 16.415789 -80.263186
-93.642564 -168.413391 22.467162 -88.559205
-88.228854 -163.532134 19.880943 -84.463945
-84.436681 -157.143685 17.902353 -81.065562
-72.883603 -140.049410 15.272592 -70.554857
-89.612446 -176.111861 10.515209 -89.572918
-78.704789 -152.764834 13.210451 -77.455724
-76.510909 -147.507080 14.353616 -74.726457
-94.388107 -173.308441 21.280563 -90.184873
-85.556577 -166.283374 14.150804 -84.346711
-79.109993 -159.968944 4.495625 -79.926958
-102.918582 -190.772154 20.729126 -99.554747
-91.155811 -181.211082 8.092922 -91.636199
-113.682101 -208.542712 19.368085 -110.694638
-108.462290 -194.212219 22.844786 -103.514854
-85.367952 -161.549071 16.346484 -83.096501
-91.720152 -175.711547 13.233046 -90.658429
-95.870103 -178.282570 17.131114 -93.048692
-72.619719 -139.517844 14.578121 -70.338529
-51.899082 -108.618207 5.304469 -53.580893
-80.729970 -152.662264 16.186309 -78.128491
-91.469176 -167.380166 20.595988 -87.376081
-72.522344 -145.126922 9.773374 -72.244895
-82.769235 -156.766371 16.179142 -80.394370
-92.898668 -177.039550 14.000755 -95.788238
-74.330952 -145.617073 12.309287 -73.259984
-85.544565 -159.630521 18.113353 -82.438445
-96.929285 -175.436874 19.948602 -92.309531
-79.040333 -149.478165 16.055502 -76.373749
-68.515456 -126.791611 17.144976 -68.463014
-77.561153 -147.537682 15.783164 -75.130661
-62.042598 -121.818177 11.014556 -65.681265
-60.009821 -113.446747 15.215062 -56.855827
-79.224358 -135.169188 24.109665 -71.213932
-96.935749 -171.891023 22.165384 -90.993776
-86.294070 -148.851301 24.535016 -78.782427
-94.346148 -163.985429 24.897512 -91.558256
-93.592286 -162.092544 25.275342 -91.917700
-73.197476 -128.555605 21.148591 -69.597242
-79.048543 -150.542735 15.704288 -76.766208
-78.675736 -147.911027 15.230279 -74.763891
-76.420264 -146.564391 11.276351 -73.740922
-87.455335 -120.885319 12.380212 -62.502196
-83.508307 -158.306695 13.355395 -80.141357
-87.486593 -165.339788 12.988033 -84.621683
-77.687053 -143.147615 14.084023 -72.390630
-78.068605 -152.313400 12.541287 -77.040042
-72.905689 -141.597680 12.717726 -71.208004
-88.438869 -164.636426 18.386509 -85.316443
-92.365044 -172.039102 18.947999 -89.261353
-70.650414 -137.825908 12.352063 -68.973639
-94.350259 -175.484346 19.557365 -91.059697
-84.361765 -159.347539 16.687698 -81.896096
-86.414279 -165.585259 15.789468 -84.545861
-79.882089 -159.051111 10.104339 -79.742751
-88.713681 -167.886925 15.421524 -86.476914
-87.793969 -167.842711 15.561629 -86.014677
-76.345860 -149.621817 12.190731 -75.391342
-91.792523 -177.369390 13.565271 -90.889368
-74.932097 -147.194427 9.319409 -73.837307
-91.154123 -173.327783 13.980019 -89.089192
-95.468349 -177.784377 19.231123 -92.415993
-88.335574 -167.633593 17.234616 -85.908946
-87.537496 -161.643265 17.367244 -83.227845
-80.880198 -157.859905 12.128921 -80.078841
-109.688802 -202.074705 20.497049 -106.686402
-105.052372 -188.779702 24.099546 -99.883450
-88.200091 -165.206300 18.738727 -85.035118
-77.969148 -150.807304 14.756838 -76.156638
-96.650789 -184.982674 15.082447 -95.411240
-81.214714 -159.383919 11.098187 -82.259184
-90.327249 -172.217782 16.402214 -88.348264
-91.271121 -172.112921 16.935000 -89.035040
-88.857716 -168.420473 16.991609 -86.552592
-88.911265 -167.843731 17.695836 -86.275930
-79.774795 -150.303790 17.581521 -76.707820
-79.633055 -154.974425 14.144418 -78.161009
-89.904217 -169.200473 18.251564 -87.089365
-105.539657 -188.851996 22.966422 -98.926686
-89.508093 -166.492567 19.679418 -85.900623
-72.568851 -99.793560 27.929246 -55.887250
-137.876116 -228.276817 36.011251 -128.960887
-146.567438 -244.179494 36.802479 -138.321866
-99.982390 -182.754349 21.095094 -96.140232
-70.498270 -131.722071 17.514611 -66.776660
-120.200183 -201.154919 32.280255 -110.268345
-116.639470 -199.961392 29.479895 -108.423780
-99.526954 -177.843847 23.588424 -94.178671
-95.610288 -181.259202 15.843147 -93.984121
-94.105311 -178.863109 15.690860 -92.494945
-80.203303 -156.279454 12.792543 -79.183579
-101.241651 -185.825201 20.625784 -97.721168
-132.314200 -217.529936 35.921400 -120.676405
-82.227511 -160.032259 13.946548 -80.893789
-92.615874 -174.181204 17.430068 -90.222472
-118.804647 -206.585122 28.524097 -123.947061
-94.916924 -176.954318 18.461400 -92.145909
-103.571104 -186.171053 23.349676 -98.680916
-100.407535 -181.387126 22.511368 -95.794659
-66.429147 -105.378953 24.077653 -58.142273
-108.984754 -179.767213 31.324669 -98.361688
-112.376656 -191.256432 29.629133 -103.788481
-120.227176 -202.871922 31.653449 -110.870463
-126.228151 -219.162494 29.670971 -119.017428
-132.160468 -203.253753 40.301555 -115.388678
-119.989483 -196.776145 33.794490 -108.584519
-140.869300 -241.127552 33.303115 -132.440199
-114.054329 -194.169507 29.908021 -105.442818
-129.560749 -225.900695 29.047006 -124.342722
-95.902591 -170.884513 23.418885 -100.236915
-119.374160 -206.809906 29.020967 -112.003351
-109.127173 -187.875457 28.138765 -103.488354
-129.209049 -216.964211 33.515620 -130.956197
-107.891926 -187.291568 27.247427 -109.108153
-106.870474 -190.728411 24.338771 -103.008916
-108.767441 -195.139095 23.932134 -104.708637
-91.744898 -174.000114 15.964053 -89.921164
-116.336187 -207.105993 25.555820 -111.026519
-73.669852 -139.062666 16.855952 -80.692995
-104.208533 -185.752196 24.253946 -106.669120
-111.339519 -203.426363 21.749434 -107.862781
-102.762918 -188.576637 20.856558 -99.226460
-101.111884 -190.223414 16.947405 -99.260075
-115.440437 -193.024925 31.587197 -105.551395
-76.204160 -147.247936 14.356264 -85.947729
-90.794634 -163.750860 21.869858 -87.027561
-101.044079 -183.139725 22.219327 -97.731586
-98.738480 -174.191923 24.695673 -93.244959
-102.691595 -184.297052 23.575943 -99.339783
-97.763399 -172.642115 24.593482 -99.228291
-102.890308 -181.552800 25.285818 -101.348687
-123.634899 -208.496724 32.218662 -114.197807
-111.121177 -195.833614 26.318419 -105.375611
-89.205657 -160.453757 22.102827 -85.743768
-104.164006 -178.736432 27.746932 -96.226509
-78.713762 -153.662259 13.605913 -77.426770
-75.971500 -147.626908 13.555707 -74.511423
-95.890518 -180.510948 17.822510 -93.499557
-87.722110 -159.744913 20.909531 -89.144722
-93.777074 -176.727808 17.809473 -91.336133
-88.457421 -163.303968 18.800942 -84.670834
-78.102146 -148.906268 11.390207 -74.059308
-75.449624 -147.649349 12.506856 -74.357708
-108.842158 -189.694928 27.152761 -113.937651
-103.464205 -184.925803 24.073803 -100.269260
-88.804042 -159.258804 22.351099 -92.636814
-92.742002 -171.703426 19.361284 -89.404976
-84.165407 -154.465061 19.943140 -81.590112
-85.235510 -159.909650 18.569805 -81.991390
-90.036175 -167.758109 19.442673 -86.606780
-83.378778 -157.368273 17.811905 -80.410826
-73.900224 -142.938405 12.441305 -71.692451
-76.586096 -143.607177 13.463190 -72.206968
-75.112420 -147.303583 12.115727 -74.137672
-93.426487 -173.115708 20.167471 -89.849572
-85.113911 -132.950568 5.870382 -65.626795
-77.939275 -128.671917 10.910244 -62.782766
-81.172628 -154.217677 12.375460 -77.220967
-84.144895 -147.331504 12.616601 -73.456510
-91.980358 -169.521176 20.028056 -88.263901
-73.259996 -141.683846 13.143460 -71.249198
-75.192721 -145.889173 14.044224 -73.500970
-89.752358 -168.677466 17.346160 -87.244693
-93.187440 -174.049191 19.126243 -90.125535
-79.211908 -152.436862 15.548585 -77.093931
-80.722240 -149.002437 10.152981 -73.849848
-81.250314 -139.948061 5.676928 -68.248284
-80.624702 -145.827075 20.748210 -76.370117
-83.343252 -155.665008 11.628499 -77.835092
-83.365043 -149.102816 12.129536 -74.330025
-67.561116 -117.320637 -2.101869 -56.002480
-76.882091 -139.878880 7.852384 -68.463720
-68.609074 -126.128105 -0.015728 -60.186725
-66.593451 -136.509793 5.212364 -67.104607
-44.909027 -92.159103 -10.693589 -42.926975
-106.413302 -151.664702 36.590730 -87.179585
-107.135580 -159.026880 29.434124 -86.198750
-63.186601 -127.670534 9.760704 -62.630279
-75.632775 -149.288983 10.566515 -74.986096
-66.646405 -126.564969 15.708158 -63.430015
-98.750593 -148.621239 33.242784 -83.257123
-84.570041 -152.334305 7.655841 -75.571796
-71.725044 -132.302643 0.890296 -64.122844
-79.938055 -149.743635 8.313488 -74.384016
-67.115857 -129.997856 12.644237 -64.761226
-89.183024 -172.437810 12.699808 -87.704511
-79.901568 -148.565014 5.767546 -73.058927
-80.003662 -147.638037 5.764362 -72.658207
-77.750451 -143.458181 6.505581 -70.272099
-92.683832 -169.321326 20.923001 -91.136444
-90.147315 -163.451390 21.522866 -87.493627
-87.162332 -155.453989 19.683391 -79.642637
-65.901897 -132.308221 6.378816 -65.066814
-82.760454 -148.816856 13.634422 -74.657015
-71.424314 -136.982850 13.070055 -67.799128
-78.978561 -147.415613 16.290505 -74.194691
-79.791573 -150.116635 16.702968 -76.225196
-78.277184 -150.057507 11.760353 -75.041866
-77.759852 -145.358418 17.680702 -74.408990
-76.340071 -143.723102 17.063983 -73.259988
-109.985358 -148.297606 38.597407 -87.843772
-91.119710 -151.800485 27.577277 -81.544644
-70.381524 -132.059079 17.086158 -66.842219
-62.474103 -119.776802 15.464743 -59.429500
-106.644920 -148.924905 37.121598 -86.214172
-69.045256 -133.056018 14.549625 -66.685352
-73.856929 -143.378362 13.342885 -72.141149
-104.081729 -134.007825 37.395753 -81.100953
-80.616629 -139.796404 23.639841 -73.332047
-80.789243 -150.759720 17.952605 -77.486771
-85.396508 -155.835339 20.334674 -81.019780
-75.924278 -145.747769 14.798845 -73.832030
-83.094638 -158.893218 12.949895 -80.944212
-79.176658 -147.394673 17.847130 -75.511092
-86.019249 -160.780085 16.956660 -82.790016
-125.669871 -177.692870 41.986650 -103.604560
-89.271309 -158.340712 23.133746 -83.337000
-102.841703 -165.697474 31.577006 -90.893981
-90.487087 -158.607660 24.150670 -83.882504
-120.289940 -157.123674 41.933016 -94.132045
-123.813153 -164.814315 42.663077 -98.227068
-88.962019 -146.870563 27.600517 -78.977822
-91.081160 -146.549342 29.102334 -79.675613
-146.493742 -181.435039 49.772674 -112.635209
-91.586952 -142.478570 30.565294 -78.311542
-136.988424 -173.621540 46.935188 -106.250517
-83.462958 -144.800733 23.916879 -76.265943
-91.947060 -152.622660 27.943954 -82.139870
-134.868854 -172.563467 46.212389 -105.134502
-103.790719 -142.296844 36.700541 -82.697451
-80.871313 -137.431678 24.650100 -78.537466
-129.878047 -169.024238 44.646298 -102.001927
-101.607082 -150.992136 33.895271 -83.888174
-109.196769 -155.421081 37.369355 -89.588979
-102.417855 -142.081500 36.091246 -85.643761
-117.973613 -162.155927 40.461120 -100.816068
-108.583314 -157.725451 36.746482 -97.376522
-111.885189 -168.194689 36.482997 -95.193387
-78.919578 -115.476987 27.181860 -62.335148
-121.534785 -190.513594 36.971143 -106.803668
-84.241847 -146.246881 22.347899 -75.541033
-104.519893 -161.643339 33.641195 -98.087976
-93.620525 -156.035719 27.469643 -82.845313
-84.957355 -120.065001 22.086337 -69.609813
-90.025938 -129.299496 24.833529 -71.551409
-110.342183 -163.806286 36.509753 -96.227363
-84.387102 -131.226380 28.799351 -73.258530
-76.553179 -130.173674 23.879697 -73.762937
-110.008646 -168.176163 35.407355 -94.508416
-90.728513 -142.199905 28.136026 -76.909391
-105.832535 -157.061399 33.938649 -87.197019
-104.752005 -127.092704 37.807533 -78.476235
-111.183812 -146.530094 39.205374 -87.500442
-90.897226 -133.589510 31.891934 -74.882472
-107.526855 -139.998027 38.268257 -85.433048
-114.316153 -151.871557 40.004850 -90.076704
-112.294821 -145.740574 39.643631 -87.162430
-101.232009 -139.906417 35.814912 -82.703803
-110.498114 -150.891033 38.560195 -88.369439
-75.685887 -145.108003 15.057738 -73.551340
-75.622033 -143.277063 15.710737 -72.779095
-96.353576 -140.460897 33.513598 -79.872479
-103.463609 -137.366451 36.949519 -81.402556
-96.540209 -122.796013 35.311661 -74.292726
-61.271103 -120.361568 13.397608 -59.233722
-110.465161 -150.462333 38.571192 -88.674923
-76.461269 -142.556960 18.002288 -72.868841
-115.095339 -150.810033 40.380630 -90.038470
-109.261671 -148.723842 38.240663 -87.139889
-92.111050 -123.418223 33.654597 -72.643260
-107.782681 -145.889583 37.883315 -85.281606
-83.163062 -112.461157 31.063189 -66.808389
-105.559264 -141.009361 30.281938 -79.260829
-104.543699 -145.158711 36.583546 -84.187071
-98.082677 -138.161828 34.602068 -78.274030
-106.427349 -146.784881 37.212037 -85.394809
-97.553229 -136.700337 28.391833 -77.543074
-98.516421 -138.675704 34.715423 -79.553251
-82.280190 -109.840834 30.920629 -63.220560
-78.555431 -113.884474 28.929216 -63.219557
-85.247654 -115.336265 31.643001 -66.432580
-96.762215 -132.437799 34.710573 -80.087654
-82.326597 -123.436327 25.177843 -68.366863
-103.000133 -144.653672 35.971496 -83.367931
-108.482689 -149.271901 37.843554 -90.528471
-90.834824 -130.340635 32.343022 -73.706419
-81.499359 -130.901604 27.112547 -71.035937
-86.603018 -130.528761 24.772563 -72.973123
-98.541020 -144.064919 27.336186 -80.191334
-92.689126 -136.063661 22.547455 -74.312843
-87.567777 -127.119335 24.519655 -72.287427
-87.308421 -126.453357 19.736810 -74.220672
-83.822848 -120.623058 25.443762 -66.116898
-86.129947 -129.230730 26.299888 -70.513080
-86.771607 -125.327369 24.436149 -70.552311
-84.548009 -115.306605 22.941246 -65.030794
-76.671778 -110.034981 26.494499 -59.242287
-81.934411 -119.485403 29.708589 -66.497451
-82.721001 -126.099029 27.546437 -70.371958
-75.552761 -115.596523 27.134331 -62.763309
-88.313204 -137.464936 29.670958 -75.384892
-86.013336 -132.578005 28.835357 -71.813244
-81.431158 -122.548312 27.337732 -66.382008
-75.333095 -117.472561 26.625682 -63.889303
-81.532191 -124.345436 28.645318 -70.729253
-77.908751 -120.161825 26.830715 -64.060857
-83.048311 -129.513575 28.404610 -70.557668
-76.958165 -118.241140 27.370230 -64.768659
-80.292234 -123.777118 28.083162 -67.124742
-78.735832 -118.430548 26.366921 -64.802162
-82.468071 -120.335507 25.656542 -66.576624
-76.365372 -112.598910 28.015689 -61.042838
-77.138601 -110.971386 28.693612 -61.636213
-74.430650 -109.022808 27.698174 -59.940692
-73.783011 -104.946441 27.952722 -58.213544
-76.417580 -121.125205 25.544442 -63.850600
-73.520277 -111.155638 26.896073 -60.407025
-73.768165 -110.139761 27.207271 -60.115565
-73.229806 -112.994143 26.396094 -60.776827
-81.206242 -113.948008 19.278355 -63.246492
-76.080145 -112.332720 23.387023 -59.318628
-77.011091 -107.635345 23.276814 -59.155578
-76.555522 -112.695353 24.990597 -60.333209
-92.693833 -131.403968 26.970829 -72.987205
-79.320173 -119.323359 25.868931 -64.359829
-79.577180 -116.750428 27.344563 -63.843762
-81.967075 -114.397347 24.902936 -64.084692
-84.943759 -114.910679 29.970448 -65.190129
-92.404245 -130.670523 19.886796 -71.900454
-95.092862 -138.766074 33.080926 -78.337479
-79.274414 -116.172491 28.932033 -66.939111
-92.061015 -126.990586 25.397226 -72.350680
-93.092846 -138.180703 14.878030 -73.832080
-87.846800 -129.325355 15.577104 -72.816143
-79.877946 -124.946466 10.533640 -68.116149
-98.160855 -136.912115 20.948873 -77.326564
-84.954227 -115.734184 22.433633 -67.062730
-87.616457 -131.794759 14.949325 -69.560185
-85.548750 -131.307461 12.411722 -66.158684
-93.564727 -137.326927 13.897821 -73.867801
-80.593555 -122.043855 13.175415 -67.287226
-89.931965 -124.255435 29.013446 -68.372800
-74.872300 -101.524571 28.208106 -56.251659
-105.805828 -144.817807 20.414611 -75.581916
-84.261413 -124.505002 20.714501 -64.107121
-137.752803 -159.426193 33.690448 -92.797935
-88.926559 -96.541887 32.739802 -60.643331
-107.229275 -148.200691 20.333018 -77.984308
-94.125500 -140.821541 15.660084 -71.080411
-102.307558 -143.134146 16.110292 -75.166153
-93.028460 -138.921227 13.186657 -71.815448
-102.917106 -144.007517 20.951296 -76.898945
-99.750288 -138.968059 15.979092 -76.060840
-110.263021 -143.963830 32.389734 -81.283297
-106.107513 -153.035836 30.814085 -83.929953
-97.755560 -137.743215 28.311643 -75.532617
-99.758980 -142.051568 21.012224 -77.297762
-96.520360 -151.415284 31.295695 -83.731651
-108.533817 -156.126591 36.648659 -88.296673
-111.164564 -177.322165 33.748086 -100.664238
-108.423753 -151.391345 37.549554 -87.800167
-80.536881 -131.666289 -7.869361 -64.097967
-145.291726 -193.358690 48.566901 -116.584598
-130.083392 -183.298378 43.154968 -107.348477
-54.994180 -86.187144 -18.544597 -42.582826
-79.289309 -60.069457 -9.348103 -41.807630
-87.231019 -118.875415 -5.497007 -61.831930
-125.277627 -166.488368 36.860745 -95.136120
-108.953502 -146.773112 26.375674 -79.413463
-133.019428 -162.065307 33.644684 -92.918991
-113.622053 -152.021433 24.771357 -82.298535
-91.743888 -146.041587 21.533704 -75.580557
-105.967821 -98.234518 14.840867 -61.260702
-91.207279 -124.524010 17.414714 -64.719387
-165.453796 -184.134165 54.924738 -120.561919
-90.251980 -127.347720 10.528672 -65.279910
-79.435227 -128.507582 14.229946 -63.589648
-101.457647 -108.251741 0.492566 -62.912816
-77.384373 -102.465383 4.229075 -53.954927
-86.395995 -156.636870 17.504640 -80.291322
-77.580221 -148.578123 11.815737 -74.988153
-84.908043 -139.333371 14.434834 -69.574133
-85.622848 -141.972161 19.035815 -72.330127
-83.173258 -156.659475 17.066890 -80.473544
-79.643496 -140.840538 15.981755 -71.034368
-90.067557 -123.997771 16.911757 -64.308967
-85.313055 -149.993654 18.994103 -76.940936
-87.102351 -154.060361 19.065283 -79.042156
-77.592363 -141.919523 14.535497 -71.015801
-90.614943 -161.628768 22.903158 -84.990146
-86.871739 -151.161760 20.202851 -77.766306
-92.596903 -112.214447 29.478749 -64.223234
-93.165540 -133.604869 28.327662 -72.564804
-93.424485 -110.648923 27.293767 -62.627014
-100.061312 -135.957515 21.343838 -71.288056
-124.268237 -113.786127 39.900405 -79.926599
-116.471367 -117.408173 31.196953 -72.513415
-85.723414 -106.661727 31.376072 -61.841389
-82.362396 -114.293265 28.790908 -62.968224
-96.729861 -115.543454 34.846072 -69.157018
-83.156404 -106.098765 31.447483 -62.035847
-68.957085 -124.388684 18.242690 -62.879199
-94.472225 -145.458312 31.507472 -80.503859
-92.789917 -128.964844 27.740655 -70.175258
-81.516569 -114.777803 30.188491 -64.587913
-91.023445 -114.026964 23.532834 -61.531549
-85.965019 -113.655349 28.506390 -63.207521
-102.513369 -185.606408 21.884391 -98.248451
-91.961868 -140.110182 31.222155 -77.648679
-84.169217 -110.337036 29.594407 -62.039991
-83.100576 -108.977457 29.544770 -61.344510
-82.112938 -108.555023 29.990951 -61.189085
-80.332671 -103.435663 29.355062 -58.542533
-63.414518 -81.410260 25.784025 -45.825275
-77.773459 -104.576049 28.830123 -58.282110
-68.902527 -122.023921 20.660698 -62.645189
-75.200508 -103.241979 28.755694 -58.077488
-79.970255 -114.454289 29.532936 -63.917122
-62.075019 -90.170943 23.703011 -47.362272
-81.693863 -141.725398 23.541182 -74.507070
-64.722026 -119.433212 17.473262 -60.121304
-68.717687 -124.693216 19.246676 -63.541689
-89.127862 -157.173235 23.396889 -82.860023
-64.886330 -110.326496 21.821195 -57.269355
-74.041584 -128.939749 22.282026 -67.056787
-80.825477 -142.455552 22.451374 -74.460110
-76.891678 -132.301019 23.297118 -71.596469
-71.322023 -125.768488 21.248640 -64.908357
-76.784328 -134.004962 22.524687 -69.901454
-70.966791 -129.478444 19.191262 -66.129745
-68.038929 -120.379799 20.632487 -61.734481
-68.033029 -116.668232 22.008972 -61.608474
-70.711123 -94.452847 26.592379 -51.911286
-62.827378 -85.987086 23.133766 -45.443609
-64.079761 -70.243405 25.646754 -41.567716
-69.399631 -127.233471 18.711583 -64.732115
-74.710213 -104.888753 28.364561 -58.519045
-70.931666 -94.895435 27.732259 -53.495744
-74.783258 -99.897766 28.326506 -55.654772
-69.431859 -88.517604 27.056156 -49.904226
-70.437895 -98.732550 26.819481 -53.712578
-65.162387 -83.661961 24.944309 -45.866233
-69.863264 -93.093325 26.449309 -51.152000
-59.174923 -85.444269 21.289441 -43.769806
-67.657126 -92.696969 24.748412 -49.761675
-56.696312 -73.537184 17.012176 -39.070049
-67.633398 -88.839413 25.111368 -48.397854
-59.743129 -87.485122 21.138053 -44.657272
-60.370179 -91.113313 23.173507 -47.275270
-65.229182 -100.526433 24.562838 -53.429932
-64.421792 -97.751995 24.668206 -52.107691
-59.993574 -93.467176 23.169698 -48.911813
-58.261137 -87.340257 22.939039 -45.240627
-63.270962 -95.164313 24.010013 -49.814587
-83.394981 -129.930246 12.718913 -69.762766
-70.423167 -104.621857 26.470803 -56.840058
-55.263365 -82.385869 22.634344 -43.142472
-66.513263 -96.367488 25.555359 -51.518436
-70.507441 -98.597224 26.629666 -53.576704
-66.181503 -100.382031 25.078573 -53.727853
-73.254471 -103.478316 27.917039 -57.458262
-74.559017 -97.088160 27.924100 -54.301929
-76.701239 -102.251649 28.441614 -56.972169
-66.473562 -93.498835 25.340496 -50.211407
-71.952276 -97.951188 27.041599 -53.748337
-79.876966 -104.064080 29.848333 -58.954348
-77.746630 -105.269729 29.566203 -59.756937
-90.856028 -135.409640 14.296922 -69.857009
-74.220814 -106.031070 28.033430 -58.337335
-89.361810 -135.909019 13.819419 -67.751883
-69.825626 -102.034527 26.578387 -55.672331
-88.720966 -135.630005 12.722040 -71.076737
-84.158697 -128.261458 12.153750 -64.221812
-87.047219 -132.631685 13.528746 -69.452451
-76.255565 -117.173922 13.272754 -61.987170
-83.710596 -131.237638 13.036611 -69.849284
-88.971709 -133.581112 14.388117 -70.982037
-80.914450 -116.601783 20.723562 -66.717948
-72.243270 -109.599602 24.162329 -57.430518
-83.193543 -126.684790 13.002767 -70.268479
-82.623593 -128.720548 8.838470 -66.803588
-72.051588 -117.978366 11.172838 -60.869887
-76.777638 -121.582381 10.771375 -65.201110
-75.194341 -110.670254 15.583938 -61.720436
-77.491313 -109.431663 18.432094 -62.486168
-72.643727 -111.297578 16.766766 -60.722333
-75.556424 -107.783878 19.003771 -57.950699
-79.442864 -115.577742 17.358888 -65.315630
-74.688239 -113.932498 23.462747 -60.647711
-75.880744 -111.706226 18.631724 -62.162154
-75.215620 -114.701284 25.273966 -60.578452
-76.758340 -112.905852 21.013494 -60.800978
-76.811539 -108.538679 21.737286 -58.863097
-77.711373 -107.260199 29.373348 -60.494962
-73.584365 -106.073350 27.724969 -58.557025
-75.518303 -106.387268 28.533724 -59.369831
-78.731237 -108.115846 29.691948 -61.178375
-74.034897 -101.128400 28.461828 -56.918320
-76.552896 -102.983292 29.270689 -58.507317
-67.079584 -92.879167 26.432573 -51.427508
-71.301401 -99.872584 27.465583 -55.456412
-71.033329 -100.324868 27.304342 -55.561452
-67.330159 -96.803388 26.118730 -52.879223
-73.238663 -111.223256 25.711049 -60.090603
-72.275320 -106.868630 20.572212 -58.641606
-72.164514 -100.427979 27.797949 -55.963572
-70.537152 -98.326372 27.316145 -54.597914
-70.899007 -99.403345 27.344741 -55.130778
-67.006587 -94.744955 26.213164 -52.110075
-69.998389 -98.892620 27.033987 -54.628941
-66.275349 -103.588029 24.482169 -55.030373
-49.432431 -82.023623 19.628686 -41.734112
-62.590334 -91.732265 24.656571 -49.556469
-58.429095 -91.546636 22.670772 -47.714770
-45.794335 -78.085058 18.373960 -39.232969
-56.889840 -88.352176 22.444609 -46.249000
-57.567546 -87.983614 22.857854 -46.504399
-57.204687 -91.990157 21.910224 -47.414618
-64.862985 -99.384022 24.591909 -52.885329
-57.155947 -89.954375 22.287593 -46.642475
-53.696030 -84.776812 21.444697 -43.729106
-64.882691 -107.203570 22.214759 -55.531337
-67.721268 -106.574694 24.666269 -56.660517
-56.394656 -86.433715 22.520259 -45.784976
-56.550552 -97.444429 20.019890 -49.845736
-66.166913 -104.762882 18.247632 -55.379355
-54.982744 -101.521085 17.211998 -50.985637
-60.343601 -106.611779 19.700979 -53.923884
-69.444493 -105.750489 19.108603 -57.163966
-71.593636 -118.754578 9.617165 -61.181567
-76.761183 -114.457375 15.235922 -63.500756
-68.796838 -109.028245 19.686675 -57.808751
-73.892840 -110.989367 20.892823 -60.620450
-69.596977 -118.405209 7.878591 -61.893806
-77.712050 -119.965329 12.595468 -63.327667
-71.580601 -111.949576 13.541132 -59.378523
-61.979586 -107.506049 12.298288 -55.076720
-58.042285 -82.079456 23.858984 -44.058329
-75.542853 -121.234404 9.560268 -66.746030
-59.090050 -105.864674 11.904301 -52.521913
-75.401022 -128.351025 6.453503 -66.276378
-67.465135 -112.087360 11.512910 -57.844377
-67.388383 -108.056046 15.235398 -56.916608
-63.803997 -118.074133 12.236184 -59.044566
-50.982632 -78.612525 21.156178 -40.205595
-48.691535 -97.563230 12.649693 -46.391646
-56.117941 -102.721121 10.346016 -52.302720
-66.953724 -127.945150 15.625133 -64.098646
-51.519989 -82.049986 20.842534 -41.640422
-60.212344 -116.001258 15.097885 -57.247531
-53.145715 -99.097956 16.787479 -48.428804
-43.135875 -92.035513 8.880070 -42.596690
-44.035794 -88.238198 12.964002 -43.411992
-42.059311 -78.977804 15.392057 -37.121368
-42.840352 -87.066279 12.309573 -41.165859
-53.042885 -99.597092 16.344555 -49.138885
-63.266991 -110.592588 15.669097 -56.251793
-66.386865 -126.109792 16.121237 -63.318049
-61.995645 -109.046280 20.139289 -55.250130
-56.958872 -101.619465 18.902082 -50.814305
-47.901258 -82.528316 18.560765 -42.056626
-46.494935 -88.136866 15.505254 -43.126733
-46.389949 -79.862566 18.313503 -40.167428
-49.546544 -81.100474 19.916548 -40.604572
-59.157192 -97.876995 21.699248 -50.222567
-43.099474 -70.172289 18.574557 -34.446312
-52.260425 -91.319763 18.957936 -45.837023
-41.085550 -71.247045 17.198004 -34.864091
-48.400480 -79.852747 19.525452 -39.873277
-35.111403 -55.282652 17.024526 -27.118216
-39.387234 -64.921015 17.590904 -31.292474
-51.068402 -99.173074 14.569346 -49.523452
-46.358118 -90.851239 14.050892 -43.888335
-44.515531 -86.319571 14.459747 -41.170248
-42.071616 -74.590272 16.946491 -36.306604
-43.550724 -73.233550 18.200252 -35.971523
-46.991610 -79.665223 18.724637 -39.679907
-46.747095 -90.385376 14.684811 -44.337201
-44.366373 -86.093625 14.398447 -42.629466
-39.675434 -68.826886 16.915917 -33.587548
-38.817069 -63.226180 17.604363 -30.612975
-40.409016 -66.771963 17.777873 -33.930991
-58.773546 -85.235801 23.823974 -45.551153
-65.192293 -87.956014 26.120951 -48.879358
-49.402887 -72.265511 21.238100 -37.456210
-44.152211 -85.738234 14.285122 -42.448750
-44.944990 -76.470988 18.188482 -37.277047
-29.743545 -41.449022 16.095760 -21.357770
-35.462527 -53.019874 17.433885 -26.544720
-46.322116 -91.419814 13.624387 -44.084493
-23.486606 -54.176480 9.450717 -23.298926
-48.040373 -85.547875 17.694084 -41.694325
-41.143559 -81.619803 13.431654 -37.733354
-41.495167 -82.834479 13.155339 -38.311332
-76.109548 -141.445090 18.252111 -72.432109
-54.550376 -91.815532 20.282831 -46.398196
-47.035599 -95.392988 12.076608 -44.903051
-48.574100 -100.077715 10.787523 -47.156105
-52.905010 -105.205887 13.037266 -50.768782
-46.238762 -89.554072 14.557451 -42.497176
-38.386502 -78.441889 12.253736 -36.272335
-44.532846 -68.317937 19.624147 -34.088979
-48.068649 -73.406552 20.583892 -37.216125
-47.123099 -98.769987 9.484059 -46.168367
-34.742867 -74.196101 10.603004 -34.085116
-37.730177 -66.221254 16.497838 -31.185429
-42.945326 -69.303650 18.868606 -33.733909
-51.270101 -103.347768 12.198171 -49.313316
-35.715164 -59.423578 16.723185 -28.541623
-79.460885 -141.448060 21.788750 -73.748943
-46.274888 -97.154750 9.657343 -45.223831
-49.196957 -78.120286 20.303300 -39.394783
-40.906467 -65.161271 18.415216 -31.820322
-34.915503 -59.516609 16.449021 -28.329634
-44.490704 -71.518529 19.017173 -35.290596
-46.229531 -68.875882 16.800315 -34.531624
-42.944167 -62.664054 14.921998 -31.682466
-43.545580 -67.797009 19.164985 -33.590738
-44.844852 -67.502023 17.875966 -33.704062
-50.390060 -60.765811 16.991089 -33.346761
-46.000217 -64.948501 15.853570 -33.284616
-53.500661 -70.618988 16.970870 -37.235895
-45.263190 -71.208087 19.461904 -34.996539
-49.392414 -77.274681 19.856276 -38.258008
-52.032537 -80.954318 21.303781 -41.433420
-48.994987 -77.363795 19.212204 -37.955011
-47.272182 -72.453610 20.317149 -36.590707
-47.354165 -75.513651 19.788526 -37.466205
-52.753502 -83.114230 21.105910 -41.823521
-46.344399 -70.471921 20.158613 -35.537218
-48.416529 -76.027625 20.269580 -38.349176
-52.043567 -81.607712 21.082371 -41.062821
-55.269922 -84.694154 21.129402 -42.863756
-54.179828 -85.268932 21.632029 -43.789216
-53.373698 -80.091336 22.050061 -41.638766
-61.861443 -77.848911 23.365055 -42.206199
-67.096987 -83.257753 21.685602 -45.106422
-55.380361 -81.232493 19.502143 -40.983856
-58.293765 -79.031731 19.632707 -41.197649
-54.197701 -75.523935 19.406219 -38.916491
-58.264533 -82.671719 19.542446 -42.280876
-53.012973 -75.805443 17.252527 -38.645525
-53.429571 -82.534924 19.424345 -40.897949
-50.128701 -76.902609 18.114712 -38.109393
-50.030867 -79.933007 19.536255 -39.384666
-67.099295 -123.589562 18.326413 -62.564100
-59.926758 -101.397161 21.099322 -52.023725
-54.544090 -102.911833 16.093382 -50.567815
-64.876233 -66.607525 17.081621 -39.445128
-67.591162 -118.798598 20.905282 -62.388832
-58.843555 -100.873955 20.498648 -51.840130
-65.900054 -114.746168 21.072944 -58.916935
-82.830776 -134.849507 26.872708 -72.430973
-67.890864 -119.469219 13.364006 -59.577067
-65.911703 -115.219648 20.891044 -59.077075
-63.715126 -117.542446 17.933123 -59.128336
-62.371470 -110.185133 19.946772 -55.955151
-55.408826 -97.140191 19.215443 -49.352593
-62.785887 -104.901340 22.014346 -54.215388
-69.655916 -126.510793 19.394327 -64.582772
-69.260050 -126.409750 19.046404 -64.401030
-67.332067 -121.696138 19.450420 -61.973429
-70.871373 -123.131257 21.930026 -63.791489
-48.624839 -99.343999 11.305828 -47.352962
-63.651855 -118.034521 17.334138 -59.112860
-74.274176 -132.858458 20.845420 -68.565463
-63.859562 -112.906388 18.744530 -56.180108
-34.655890 -73.300922 10.987466 -33.422090
-68.935321 -127.569746 18.150092 -64.727216
-41.108457 -79.352751 14.397019 -38.360777
-50.801840 -46.376345 10.365357 -29.153456
-37.490583 -49.651941 3.118905 -26.142757
-65.233422 -125.391360 15.196381 -62.549431
-47.786202 -51.799730 7.985034 -29.875779
-49.948860 -67.378893 14.457897 -35.198326
-39.130002 -83.449905 9.857588 -38.776495
-47.818853 -92.244524 14.728242 -45.123069
-68.786711 -128.176763 17.692253 -64.866002
-40.412728 -78.069363 14.328299 -37.703056
-27.262843 -60.549647 10.053452 -26.343747
-70.458982 -131.669546 17.561675 -66.736080
-63.921455 -120.174262 16.753464 -60.294836
-65.463176 -122.539637 17.193268 -61.596336
-54.376728 -105.372015 14.609917 -51.290194
-58.204120 -110.890608 14.548448 -54.570421
-68.777526 -120.780433 18.023908 -60.231191
-63.691017 -120.173616 15.733855 -61.114962
-63.265351 -113.640502 19.353575 -57.525046
-51.543768 -102.730205 12.815440 -50.260127
-69.200394 -129.208864 16.971094 -66.993053
-61.845556 -112.234369 15.410482 -55.812222
-63.937623 -114.558009 13.652257 -56.989307
-59.186123 -110.496112 16.978289 -54.912220
-58.763631 -112.768518 15.222683 -55.590058
-61.448547 -115.908650 16.430518 -57.716505
-59.688774 -113.957281 15.615200 -56.354947
-58.295474 -110.668590 15.916276 -53.867982
-53.842789 -105.886635 13.597536 -51.289204
-58.722143 -112.041395 15.597755 -55.310221
-58.608602 -111.953663 15.542226 -55.226030
-57.373541 -111.945906 14.055843 -54.912010
-68.555782 -126.588602 17.151241 -64.107139
-64.821706 -121.470152 16.746032 -60.875637
-69.797802 -128.030960 16.487893 -64.948408
-53.185895 -102.695595 14.602928 -49.852282
-58.723790 -110.829930 14.183435 -54.676305
-66.523803 -120.900819 15.673857 -64.246524
-57.920207 -109.803877 15.376523 -55.350425
-68.227786 -125.595688 17.730728 -63.570884
-64.738446 -120.233931 17.599400 -60.536516
-60.394516 -112.510378 15.258361 -55.446452
-57.414800 -109.740716 15.467512 -54.504117
-67.145685 -123.086552 18.454882 -62.230332
-74.010457 -137.296805 16.876639 -72.458466
-60.846464 -114.405354 16.366925 -56.045760
-70.923583 -127.662994 18.203630 -65.360078
-71.601045 -129.305825 17.715218 -66.289132
-68.367071 -126.436970 18.115537 -64.163803
-65.593807 -119.650707 16.777425 -60.713127
-70.178672 -127.005643 16.127579 -64.897747
-63.230262 -116.129536 16.146608 -60.696552
-71.257284 -128.525128 15.280130 -66.075987
-78.896421 -143.830362 14.787536 -74.395459
-70.898068 -132.397862 12.508030 -66.726249
-66.505404 -122.208872 12.963688 -61.565275
-73.089760 -133.932976 11.916194 -68.365414
-69.645988 -124.940124 15.566176 -67.432640
-68.567515 -124.221163 15.854625 -63.350470
-69.044489 -124.778852 16.283306 -63.969186
-70.246158 -127.675126 19.114762 -65.280844
-74.535165 -133.007813 17.798905 -68.918065
-65.782474 -119.854462 17.726089 -60.658327
-65.775822 -120.720161 16.502901 -59.867617
-74.656161 -136.356674 15.188932 -70.074500
-70.865424 -124.909973 21.212986 -64.416474
-67.095748 -124.626051 16.144497 -62.851387
-73.720448 -135.306276 16.478274 -68.345486
-65.339310 -120.543426 14.532276 -60.091010
-63.073383 -108.902958 20.960815 -55.904618
-70.923008 -124.025999 17.528155 -62.485185
-65.335521 -116.909887 14.266564 -58.197671
-66.882969 -124.228484 17.733277 -62.595172
-64.358735 -112.137745 14.929464 -56.472723
-70.727694 -128.240092 13.892906 -64.275938
-80.069742 -143.047473 17.501430 -73.446192
-66.122486 -121.639198 16.711560 -60.351002
-67.329413 -118.182546 15.878929 -59.560709
-60.022711 -103.632573 20.463988 -52.964909
-66.538957 -118.165293 20.104016 -59.474450
-63.560058 -118.046942 17.520869 -59.268184
-72.642954 -127.967894 21.482726 -67.773133
-69.432737 -126.249877 18.552980 -64.187967
-78.121639 -137.000847 15.120162 -71.189870
-71.367131 -127.353197 20.211770 -65.044060
-73.449431 -130.734642 19.024078 -66.466164
-67.231203 -119.727058 20.219460 -61.220859
-75.711209 -132.731496 21.470295 -68.820652
-75.741742 -138.195682 15.747490 -73.220876
-79.191053 -146.253004 14.806034 -74.801489
-78.384987 -133.470256 24.046149 -70.277060
-74.708245 -132.516049 19.289920 -70.875171
-75.752525 -133.181134 21.279703 -68.909305
-74.265338 -134.634050 18.289181 -69.120737
-67.713574 -118.817690 20.987427 -61.043470
-77.548066 -134.044645 23.169834 -70.181652
-84.377671 -141.395668 25.776871 -75.365613
-80.250132 -137.035060 24.197487 -72.267226
-69.362540 -121.453631 21.283319 -62.606626
-72.442921 -125.342835 22.324157 -65.147945
-83.046610 -138.610177 25.790488 -73.858335
-73.106408 -126.714439 22.289149 -67.649689
-87.493147 -145.558480 26.586617 -81.298150
-70.596357 -124.693940 20.899610 -66.565569
-89.442242 -157.554668 21.785466 -86.615957
-78.862069 -134.765135 23.685774 -73.696596
-86.654223 -148.403719 24.908794 -78.770843
-84.786990 -141.512543 26.037398 -79.278284
-81.123349 -139.391766 23.903974 -73.422071
-79.116066 -143.958982 16.157648 -74.468852
-78.760911 -137.508586 19.904914 -71.634136
-80.428903 -138.981551 23.420210 -72.821617
-82.302026 -141.893051 23.131090 -74.606710
-80.076677 -132.997552 25.442927 -70.887323
-80.056213 -142.913167 18.303730 -74.313443
-89.226711 -161.848801 17.596812 -89.775878
-76.001985 -137.278979 19.008979 -74.566875
-79.646947 -146.397081 9.672070 -75.525440
-72.389207 -138.641542 12.739445 -74.610939
-103.433918 -187.477473 20.488729 -99.208598
-91.065680 -164.846015 19.819834 -89.146155
-85.930538 -160.797678 15.533696 -83.096057
-61.579463 -126.183327 6.694120 -72.547523
-110.692950 -206.092083 17.176020 -108.646199
-58.261630 -120.759352 5.612090 -61.089628
-44.729861 -95.131972 6.236826 -54.441018
-73.187522 -145.185895 3.516316 -79.543110
-56.093599 -114.681054 5.388309 -63.025915
-81.593456 -146.805765 15.816319 -76.283490
-70.898135 -129.334680 14.726916 -66.261684
-92.417198 -175.144960 14.736693 -90.687208
-91.716127 -170.466825 17.416399 -91.497469
-85.809547 -162.587824 14.297823 -83.680677
-54.173557 -109.560825 8.564559 -60.211925
-67.702187 -129.097411 10.144604 -65.617798
-67.612676 -122.730059 11.160556 -62.739788
-82.967350 -149.649612 15.441507 -82.568109
-78.996115 -141.831265 16.188988 -73.878537
-80.457751 -139.337779 21.758552 -76.127117
-78.603641 -136.992419 22.019625 -74.835528
-76.982635 -135.955357 17.512295 -74.015092
-73.734055 -133.167817 18.178791 -72.382838
-80.466478 -146.402555 13.799100 -78.361170
-71.992645 -130.211513 17.150967 -66.649179
-74.061417 -136.046495 13.491421 -69.525788
-65.962353 -124.875188 9.494918 -67.678102
-72.169617 -131.590821 16.047689 -68.498216
-74.482094 -132.093847 16.482317 -68.929303
-69.573341 -125.477476 17.979518 -64.160474
-67.952133 -122.794451 16.901969 -62.584127
-81.538836 -154.466777 14.755026 -79.170057
-84.907493 -157.031066 18.442135 -81.331633
-67.840611 -133.104198 10.931115 -71.079567
-69.963714 -129.326737 14.346040 -65.425832
-73.887118 -147.106349 9.163056 -75.324519
-66.246301 -129.020919 12.787330 -64.230059
-72.939278 -144.736620 9.724894 -79.818229
-80.069526 -152.890241 14.009523 -78.117154
-61.219006 -124.596399 7.632003 -62.522242
-78.606949 -153.618469 11.046132 -78.366530
-83.853316 -161.585600 12.764444 -82.999001
-65.323358 -131.443398 9.521163 -67.932029
-69.050723 -143.951615 2.963965 -69.920040
-63.921547 -129.863694 7.398186 -64.532318
-55.359151 -115.157833 4.383458 -56.822627
-85.824251 -160.759202 16.064221 -83.028839
-74.448485 -151.803451 7.474519 -74.811139
-79.574164 -150.076791 15.396030 -76.873769
-66.537242 -129.968973 11.895291 -70.578660
-72.399828 -144.784378 7.928628 -73.006624
-87.997762 -170.499651 10.241966 -90.124055
-57.394989 -121.608561 7.087570 -57.593529
-44.569802 -91.305357 10.149610 -44.974849
-97.690806 -178.573557 19.373595 -96.873972
-79.226442 -161.284036 5.475602 -80.027586
-76.880770 -154.115143 5.941380 -76.853938
-66.530400 -139.104481 4.461563 -67.296607
-87.608235 -166.703337 14.270192 -87.523038
-73.472877 -151.610170 3.825204 -74.376443
-72.307154 -149.920300 2.175575 -73.309951
-69.043463 -143.801462 3.558520 -69.929662
-75.637226 -149.912969 9.324209 -77.574755
-80.616352 -157.322622 11.009275 -83.493804
-70.057681 -137.835857 10.648170 -69.896310
-73.014951 -145.997316 7.966816 -72.492119
-61.496091 -126.865362 6.593639 -61.693192
-76.044973 -152.146086 5.197760 -75.788396
-64.306455 -135.683987 3.264698 -65.211894
-73.900025 -148.924942 5.216170 -73.949035
-70.768396 -147.095763 3.319788 -71.725755
-83.122766 -165.329691 1.807706 -83.072859
-72.115347 -147.736245 1.250466 -73.101174
-82.610094 -159.403429 14.105426 -84.807990
-58.896204 -113.186184 -15.223904 -58.924647
-71.940688 -147.271614 -0.648967 -72.930623
-72.697092 -148.205198 3.697740 -73.517009
-64.152403 -132.836141 4.484111 -64.778202
-82.472710 -163.275445 9.228296 -82.637697
-70.812827 -143.167302 7.129317 -71.010114
-72.429452 -133.781581 18.770705 -68.599162
-72.513122 -148.270290 2.203430 -73.446902
-57.969566 -122.656849 0.825143 -58.817882
-61.485578 -127.648906 4.887045 -61.966183
-71.033560 -145.008130 4.667315 -71.723566
-70.346909 -144.237020 2.892087 -71.216352
-73.058254 -145.722385 9.520972 -72.805384
-76.650251 -155.009313 3.804063 -77.484446
-68.346886 -140.642175 3.063617 -69.176494
-63.676159 -134.231939 -0.076339 -64.597731
-40.733022 -89.669272 6.341249 -45.415884
-46.814034 -104.713471 -2.771528 -47.498167
-91.297533 -171.224143 17.400711 -88.828998
-59.969562 -125.799308 1.659098 -60.720739
-69.927958 -143.005343 4.713718 -70.591680
-65.488671 -134.704391 4.985652 -65.993375
-47.726385 -105.330848 -3.873691 -48.265620
-46.297166 -103.461059 -2.683601 -46.929236
-69.189414 -140.024527 7.667534 -69.298384
-43.989286 -98.201207 -4.115536 -44.466450
-55.774867 -117.652825 4.518610 -56.205500
-62.267216 -130.971733 0.507887 -63.173696
-93.007086 -169.169899 20.302844 -88.910551
-37.421566 -83.793801 -7.186685 -36.996134
-60.711252 -128.052707 0.087175 -61.627492
-46.131197 -97.865515 8.109015 -48.878064
-40.252264 -86.235608 8.487364 -43.410582
-45.958758 -96.163370 8.854484 -48.890363
-56.520224 -109.268968 14.704570 -58.685082
-44.683245 -95.320179 8.167824 -48.174244
-61.431896 -120.767295 12.731413 -60.145114
-47.278562 -97.620600 10.157148 -49.883954
-85.518548 -158.374087 18.481104 -82.128205
-91.604393 -168.908304 19.276944 -88.416951
-50.114669 -102.955883 10.255824 -52.814052
-77.335006 -147.264896 14.572106 -75.209524
-53.508037 -105.644520 13.275518 -52.785964
-68.156099 -129.626122 15.048273 -65.157568
-65.578705 -129.224095 11.044273 -64.075625
-79.503379 -150.553708 15.219498 -76.997433
-71.573852 -134.552303 12.101506 -68.087425
-74.881615 -139.500341 13.724427 -71.234681
-68.374105 -126.210709 11.772811 -63.869226
-63.253720 -122.835216 12.339767 -64.268148
-66.680293 -127.835969 11.501718 -67.414522
-69.181040 -130.766406 12.868819 -65.780607
-69.173926 -130.121093 12.452040 -65.733971
-79.500884 -144.530670 19.736351 -74.761078
-59.420382 -120.738670 9.581217 -60.011102
-78.503373 -146.094453 18.053042 -74.991717
-68.743733 -129.866625 12.739640 -65.253600
-73.996131 -140.098372 15.653627 -71.187678
-71.120739 -135.978957 13.388170 -68.544069
-56.218346 -109.428888 14.000962 -53.667183
-62.057411 -120.645846 11.827232 -62.884270
-65.701674 -126.106065 12.735463 -65.685886
-68.755138 -128.785953 14.721755 -65.039226
-57.530738 -110.222839 13.100474 -54.058505
-64.876715 -123.926366 14.675504 -64.723856
-61.106843 -117.051028 11.816029 -60.570167
-63.088351 -119.387815 11.286537 -62.545067
-63.664191 -114.554901 19.026453 -57.998943
-56.427984 -110.651425 12.172310 -53.553995
-59.204310 -115.920358 13.453769 -56.874814
-61.092940 -118.268770 12.101447 -58.352442
-57.429239 -112.568672 13.116693 -55.040241
-73.342119 -134.170408 19.164373 -71.822211
-62.414487 -120.554600 14.045901 -59.808359
-60.740260 -120.457311 11.838269 -59.002808
-60.940619 -117.405001 14.645102 -57.946508
-59.821894 -116.950999 13.462994 -57.508407
-56.209165 -110.286570 13.419076 -53.762484
-65.788916 -123.100836 16.714838 -64.103128
-55.104919 -108.313459 11.753404 -52.844772
-62.720373 -119.576629 15.561411 -59.544515
-60.947380 -116.997937 15.137554 -62.016167
-65.575124 -127.910201 13.296929 -63.301012
-59.912093 -118.284438 12.567653 -58.040002
-64.890804 -124.672297 15.063994 -65.953810
-58.944564 -114.791434 14.139215 -56.395222
-58.422734 -110.126376 16.336541 -54.639970
-55.886124 -109.909130 13.467409 -54.421039
-45.830270 -96.153729 9.501594 -47.403083
-72.415171 -122.292055 23.300887 -64.803889
-49.011204 -96.863146 12.392442 -46.785993
-60.603196 -123.016707 9.680173 -61.689445
-42.841756 -86.853972 12.283740 -41.800031
-59.748337 -116.797013 12.678663 -57.412570
-52.176392 -105.034933 10.459036 -50.430728
-59.051263 -116.737608 11.082845 -57.218450
-60.247204 -96.423300 21.380533 -48.884035
-65.909917 -131.898053 10.251880 -65.961718
-47.999725 -97.875475 6.587495 -46.393926
-53.353708 -102.796769 14.900349 -49.971806
-64.442534 -129.422786 5.496299 -63.643645
-51.117381 -98.076029 11.242785 -47.520657
-47.100670 -94.379324 9.395022 -44.963459
-47.412352 -92.120344 14.346845 -43.905458
-49.521655 -93.327848 15.678493 -45.088387
-65.235051 -123.158064 8.429572 -61.904778
-58.822008 -112.840114 11.132018 -55.652575
-47.441029 -90.819978 10.252131 -41.694321
-49.730017 -83.090976 10.619180 -39.846298
-46.304684 -89.481411 14.560973 -42.539624
-65.941917 -129.929264 5.785095 -64.649677
-45.393369 -85.753730 14.160864 -39.944737
-48.662360 -96.387069 13.394259 -45.886700
-55.401804 -108.418749 13.894237 -52.771079
-53.579324 -98.441747 17.260799 -48.452955
-53.057630 -106.760063 4.945203 -49.766657
-50.180570 -95.632469 15.374850 -46.193145
-50.636496 -97.211586 11.425628 -45.624647
-51.286726 -99.315658 14.587415 -47.943988
-44.486717 -84.985365 14.595949 -40.179878
-49.113611 -94.547820 11.482866 -44.154785
-39.585953 -86.558138 7.756725 -39.025180
-45.144900 -84.241041 15.742218 -40.186780
-54.590559 -104.258246 15.215666 -50.809145
-44.292753 -82.033548 15.812590 -39.050294
-40.553504 -80.837201 13.185610 -37.255353
-53.087742 -98.931684 16.427450 -48.357651
-53.343517 -103.823341 14.351409 -50.318103
-49.147292 -89.442846 9.863355 -43.274447
-61.974854 -102.899886 14.820139 -53.123464
-53.790894 -100.013493 12.208262 -48.934054
-47.508048 -90.373092 12.508042 -43.205822
-56.477694 -105.631833 11.437566 -52.575429
-40.755038 -85.214810 10.720302 -38.957100
-47.444199 -93.872421 13.040938 -44.488816
-41.561309 -85.778694 11.421151 -39.442766
-44.521685 -91.235620 11.410295 -42.533938
-43.252838 -88.490061 11.719132 -41.064872
-42.118221 -86.505507 11.658799 -39.906121
-42.974023 -88.054613 11.676258 -40.799129
-46.444614 -92.929977 12.808635 -43.849761
-46.991734 -91.211198 14.315094 -43.376783
-46.115375 -92.063888 12.948390 -43.414255
-44.174442 -89.305306 12.370492 -41.686936
-44.699793 -90.138521 12.483465 -42.180355
-49.192001 -92.978436 14.793298 -44.742123
-54.989647 -99.037935 18.194925 -49.300370
-50.950799 -97.439656 15.188552 -47.118582
-51.330671 -95.279714 16.597919 -46.492350
-62.461636 -113.016516 17.418815 -56.974485
-62.040928 -110.501967 19.182338 -55.860526
-61.635560 -114.277287 17.087361 -57.182328
-50.092599 -93.400263 16.202020 -45.301695
-57.184050 -112.084302 12.632180 -54.921764
-51.494867 -102.024297 11.460910 -49.046591
-52.672514 -102.621314 12.462089 -49.778007
-55.178186 -108.431475 13.053280 -52.688421
-51.843284 -99.491839 14.872258 -49.414501
-54.017507 -105.843055 13.338419 -51.316665
-49.152992 -94.455848 14.600564 -45.353796
-60.251611 -115.030907 15.315086 -56.951503
-54.715378 -107.958100 13.057305 -52.175226
-65.380899 -119.837584 18.223291 -60.568361
-63.372523 -117.173647 17.619205 -58.864704
-63.548898 -119.693016 16.204696 -59.695727
-56.668067 -108.482034 14.697342 -52.822661
-52.398508 -100.761562 14.980869 -48.884240
-53.430262 -102.770441 14.998975 -50.102059
-63.492517 -115.031267 18.871753 -58.135407
-60.995082 -112.634774 17.668436 -56.387329
-43.256724 -89.242314 11.293961 -41.313300
-43.587292 -92.392160 9.234499 -42.983313
-51.624223 -99.432922 14.880173 -48.115635
-56.817721 -109.119319 15.155705 -53.687255
-42.971513 -89.378285 10.835122 -41.242353
-65.166619 -121.298488 17.241774 -61.017138
-52.057073 -101.544707 14.173232 -49.042747
-55.707179 -106.849246 15.201997 -52.287902
-54.813288 -105.288814 14.998271 -51.251352
-52.395803 -104.596597 12.649876 -50.266311
-61.036704 -115.124258 16.416957 -57.344195
-60.506302 -114.527268 16.169017 -56.880384
-56.786107 -109.578682 14.847308 -53.779846
-52.670080 -104.449790 13.142710 -50.331882
-55.814463 -109.004345 14.073043 -53.140833
-46.952548 -96.615286 10.975274 -45.732127
-48.539385 -98.340246 11.907989 -46.863903
-36.127346 -82.064114 5.743634 -36.047659
-46.950152 -96.694308 10.875808 -45.625754
-38.944905 -85.979997 7.293297 -38.497407
-44.930258 -93.904719 10.113676 -43.959987
-53.709353 -103.533335 14.873859 -50.373538
-54.955791 -105.976964 14.879828 -51.712245
-50.353558 -101.456349 12.154526 -48.377035
-50.375614 -100.353330 12.921763 -47.994603
-52.292479 -103.898904 12.963112 -50.177376
-48.601103 -99.440403 11.149335 -47.269144
-49.667307 -99.815556 12.417474 -47.501321
-38.270317 -84.686347 7.365650 -37.776627
-42.153943 -89.599900 9.414620 -41.335555
-26.006254 -65.791446 1.488487 -27.539310
-38.852979 -84.307482 8.709457 -38.252112
-39.840419 -87.037201 7.895375 -39.214357
-34.533578 -79.731521 4.939543 -34.610446
-40.048072 -87.715262 7.600891 -39.524615
-32.386489 -74.180022 7.040584 -31.969953
-44.147627 -91.602373 10.864855 -42.470636
-32.826657 -76.824443 4.548820 -32.957959
-37.682248 -84.055446 6.846136 -37.340273
-35.329516 -79.655014 7.002154 -34.864392
-39.212136 -83.511983 9.990392 -37.707507
-38.923739 -84.014658 9.170947 -37.774841
-40.782259 -88.688300 7.975007 -40.165323
-39.540728 -83.859769 10.196631 -37.951519
-35.746458 -78.054046 9.248823 -34.434054
-42.557482 -89.104179 10.480318 -40.987300
-34.868346 -77.822527 8.028538 -34.022260
-50.154821 -98.635365 13.723685 -47.275138
-42.118485 -89.296410 9.580758 -41.188734
-41.294563 -87.965305 9.519615 -40.094220
-38.374919 -83.398497 8.837494 -37.341542
-51.633316 -99.170359 15.026602 -48.024883
-48.596849 -94.378105 14.393970 -45.352366
-49.923292 -97.082018 14.345134 -46.631071
-54.347629 -101.994693 16.337673 -50.058117
-40.905272 -84.974218 11.145766 -38.898729
-36.739579 -81.781263 7.570902 -36.127394
-44.284219 -91.232102 11.222120 -42.616688
-42.932986 -88.611738 11.300023 -40.964160
-35.840571 -77.760425 9.577508 -34.370827
-37.439818 -80.105233 10.061821 -35.807375
-36.036201 -78.125676 9.548494 -34.585100
-34.601485 -76.306694 8.897090 -33.390385
-27.391252 -66.538433 5.257970 -28.178906
-32.214288 -72.782003 8.045375 -31.498887
-27.586860 -67.177513 5.093213 -28.429312
-31.607882 -72.880314 6.877371 -31.346459
-25.296599 -62.259232 5.898003 -26.266750
-27.808456 -66.470848 6.309142 -28.283791
-28.710218 -68.214035 6.137711 -29.077276
-27.785274 -66.611108 6.212460 -28.318915
-29.065142 -57.229368 11.239583 -25.888353
-27.493090 -64.888673 7.266426 -27.714529
-31.491347 -71.953306 7.686559 -31.033396
-28.841418 -67.820261 6.926611 -28.998504
-32.295189 -75.149153 5.766167 -32.233302
-30.794898 -71.152735 7.201823 -30.584290
-32.167473 -75.480732 4.900209 -32.294462
-32.934715 -76.081895 5.961036 -32.718366
-35.011114 -79.762179 6.090902 -34.811365
-22.850281 -55.548770 -1.135741 -23.519715
-30.162296 -72.872620 2.580951 -30.910475
-28.389296 -69.184289 4.039345 -29.272075
-29.292955 -71.520331 1.949241 -30.243986
-31.115496 -73.838534 3.957274 -31.486209
-27.800736 -69.056160 0.899957 -29.057069
-22.423158 -26.206288 -3.406096 -14.588834
-19.861700 -54.683929 -2.263388 -22.363689
-37.321553 -77.870215 8.089954 -34.659288
-29.839767 -70.645979 5.823949 -30.145724
-27.084509 -66.790389 4.006072 -28.162469
-25.375427 -43.482018 3.131638 -20.657233
-25.922812 -61.149773 4.777173 -26.121776
-25.543160 -64.773213 2.228612 -27.094912
-25.502498 -56.970418 5.170772 -24.741875
-32.336701 -46.367803 0.522104 -23.611351
-31.580832 -60.420272 13.808435 -27.600331
-28.718024 -51.812028 4.533564 -24.159016
-22.841652 -46.705190 9.273044 -20.864053
-27.756987 -26.744000 2.691746 -16.350296
-28.122208 -43.467333 6.378628 -21.476862
-26.653805 -24.075107 6.346026 -15.218674
-25.535108 -32.226035 7.018776 -17.328343
-24.753912 -54.267691 7.107487 -23.706481
-40.183655 -79.404948 10.306038 -35.894406
-18.091897 -38.216061 7.324600 -16.892387
-16.712258 -33.062337 8.979837 -14.932379
-25.847960 -36.364348 5.044431 -18.663692
-43.334003 -86.013391 9.379901 -39.506073
-26.268887 -31.234295 9.711636 -17.250955
-29.231059 -33.651928 7.591441 -18.864896
-23.017151 -58.891951 4.713077 -24.572731
-27.738948 -49.659520 9.066714 -23.219540
-23.798034 -57.434660 5.670030 -24.369808
-26.084435 -42.403092 7.396562 -20.546258
-26.680943 -64.276177 6.368303 -27.287136
-27.724911 -63.870291 7.405278 -27.478561
-23.422328 -58.098643 6.512105 -24.456291
-25.270798 -50.649048 6.712503 -22.775954
-34.650491 -79.595488 5.493498 -34.661545
-33.253336 -74.237033 8.607075 -32.247111
-23.060918 -58.410662 4.792967 -24.441474
-26.073265 -61.406472 6.797651 -26.243921
-19.072567 -50.828220 5.822780 -20.970236
-21.747277 -55.416564 6.129951 -23.149152
-36.321347 -79.767259 8.445826 -34.933561
-21.443555 -54.265929 6.659320 -22.712845
-26.505125 -64.450698 5.766674 -27.286747
-24.416513 -61.571190 4.621312 -25.796311
-33.857220 -79.354274 -2.720071 -34.302911
-26.941668 -65.744427 5.413781 -27.805828
-22.040263 -55.219712 6.861188 -23.177993
-19.756907 -52.605163 5.285976 -21.708621
-12.088095 -39.254694 -4.140047 -15.402837
-27.632538 -68.981782 0.292530 -28.984296
-24.805164 -64.005147 0.591895 -26.643093
-20.061201 -55.459830 -0.828425 -22.656309
-32.156421 -75.932599 4.089317 -32.426706
-25.851320 -64.263980 4.758612 -27.034590
-30.655124 -72.642006 5.057407 -30.989139
-28.953529 -67.192233 7.834066 -28.843729
-24.114143 -62.373878 1.992151 -25.946406
-19.457928 -54.438978 -0.518719 -22.169072
-22.373203 -57.137119 5.681851 -23.853097
-27.219590 -65.619179 6.100856 -27.851631
-23.198118 -56.121332 8.022586 -23.795835
-31.365225 -71.370114 7.829205 -30.820602
-29.842277 -67.679253 8.623531 -29.256459
-35.534565 -76.510322 10.068190 -33.804233
-37.317906 -79.988557 9.866880 -35.771617
-33.918870 -74.692139 9.098154 -32.583303
-39.201229 -82.939664 10.288589 -37.539872
-36.196622 -78.468936 9.452441 -34.794197
-38.980912 -81.559437 10.906946 -36.956365
-39.864074 -82.725539 11.344680 -37.686896
-34.881723 -76.295253 9.322221 -33.477974
-43.875651 -92.145564 10.031336 -42.563723
-31.939756 -75.925082 3.065291 -32.769342
-39.894517 -86.483316 8.617650 -39.014875
-28.368257 -65.148093 8.514960 -28.054905
-33.312413 -75.422394 7.508693 -32.675546
-33.846127 -73.899429 9.556621 -32.323667
-37.551709 -79.391346 10.607516 -35.635795
-40.874734 -88.830325 5.002548 -40.885558
-32.819938 -76.698329 4.360104 -33.584005
-42.986889 -94.008948 6.083617 -42.962847
-44.418347 -95.764224 7.140988 -44.148669
-45.166160 -89.363588 13.069970 -41.997713
-55.921547 -116.534421 6.245032 -55.912575
-40.279697 -82.221716 11.967094 -37.688786
-35.689933 -80.249430 6.755560 -36.073918
-50.170419 -106.569921 6.527252 -50.191281
-61.351813 -122.823376 10.621324 -60.152201
-68.036901 -113.304446 6.243707 -57.459192
-51.081448 -98.310357 11.722185 -46.263612
-39.523708 -86.662822 6.788360 -39.703828
-30.553859 -73.327932 3.149735 -31.164537
-43.880536 -94.937538 6.976636 -43.647650
-31.849959 -75.878073 2.633788 -32.733515
-48.281191 -94.595829 3.884613 -44.540949
-30.341412 -73.501159 1.108354 -31.777895
-36.566661 -83.720080 3.884455 -37.113999
-40.211666 -89.268467 5.642099 -40.238141
-36.141572 -83.583434 2.230884 -36.672162
-39.275206 -87.962275 5.072186 -39.410654
-31.561052 -75.240759 3.195478 -32.040543
-30.404729 -73.871868 0.829806 -31.282979
-31.814524 -75.662085 3.400864 -32.242983
-33.519166 -78.991437 2.436559 -34.157328
-25.574197 -65.143913 -1.909627 -27.215433
-20.549650 -56.201714 -2.012965 -23.025409
-29.864748 -72.286191 3.168749 -30.645282
-24.151619 -62.067294 3.310127 -25.865674
-30.166048 -72.781815 3.034882 -30.884359
-35.183084 -81.605211 3.318221 -35.585349
-32.399107 -77.220240 1.633368 -32.975911
-31.106471 -74.881878 1.674387 -31.796505
-32.003662 -76.574307 1.476654 -32.573391
-27.885647 -69.327043 1.361884 -29.163807
-30.818084 -74.408568 0.454890 -31.567996
-17.572715 -50.656338 -2.842857 -20.468716
-21.535905 -57.459827 -3.319135 -23.698720
-22.635509 -59.824553 -2.172618 -24.738019
-28.999989 -71.212278 -0.114182 -30.063680
-8.325588 -30.467100 -6.048247 -11.637806
-23.470634 -61.387592 -0.922934 -25.457468
-8.069071 -33.912430 1.118419 -12.594450
-15.184005 -46.789882 -0.397344 -18.592166
-26.536595 -66.690118 -1.426659 -27.968014
-8.402952 -34.800310 -0.128790 -12.960978
-27.125654 -67.165682 -2.571132 -28.287401
-24.758504 -63.684179 -2.051309 -26.532805
-26.102846 -66.223864 1.047232 -27.698013
-24.513050 -63.274911 -1.903289 -26.336388
-26.177896 -66.221523 -0.267198 -27.719826
-10.879753 -38.542798 -2.058846 -14.826765
-22.140346 -59.136688 -1.351223 -24.383110
-3.992823 -24.201901 -4.012399 -8.458417
-8.709782 -35.184771 -0.576697 -13.168366
-16.774430 -48.072869 -4.197050 -19.454190
-33.170510 -78.456382 -1.471856 -33.738408
-21.970991 -58.333308 2.491474 -24.091290
-5.811155 -29.964542 -1.564125 -10.732709
-35.840647 -82.524770 -2.781327 -36.156943
-28.353254 -69.710405 -1.430586 -29.419098
-20.564212 -54.904680 3.953939 -22.640667
-8.535318 -34.719454 -0.493794 -12.976432
-10.404119 -37.883335 -0.840312 -14.486236
-25.549414 -64.971133 -1.449243 -27.156164
-8.930092 -33.694919 4.169234 -12.787503
-22.628079 -59.909874 -0.635393 -24.761386
-11.743035 -38.552730 -4.011855 -15.088730
-17.843241 -50.985188 -1.371520 -20.648529
-15.480427 -46.791542 2.100720 -18.681591
-18.723762 -52.121057 3.346663 -21.253446
-22.643005 -59.744776 -0.154760 -24.716334
-17.078614 -44.795763 6.375589 -18.562313
-10.498875 -38.195117 0.766626 -14.608198
-18.010867 -46.329378 4.021179 -19.302074
-19.600922 -47.169596 4.444932 -20.031155
-15.193890 -33.694402 4.170008 -14.666488
-15.030153 -36.049603 4.762022 -15.323927
-2.305048 -10.045373 1.783724 -3.705126
-18.536322 -38.279686 3.980241 -17.044802
-14.320745 -35.950038 4.231946 -15.081235
-25.008732 -61.945416 5.364896 -26.086244
-16.875894 -46.084257 6.319001 -18.888045
-15.017130 -41.228866 4.401988 -16.873799
-9.826919 -24.798929 2.365926 -10.387755
-0.927119 -21.502149 0.768742 -6.728780
2.608398 -15.297233 -0.097125 -3.806650
-1.678773 -22.729812 0.676565 -7.322576
-1.300721 -22.008328 0.919072 -6.992715
-22.539761 -59.735479 -0.682726 -24.682572
0.858262 -18.428194 0.274588 -5.270980
-27.497095 -68.429192 0.360102 -28.777886
-20.286109 -54.900465 3.180137 -22.555972
-17.002471 -49.938653 -0.897428 -20.082337
-2.115680 -23.561233 -0.972101 -7.703074
2.526035 -15.478458 0.064188 -3.885727
-24.863718 -63.832147 0.061292 -26.608760
-13.564410 -37.964261 -0.756279 -15.458601
-26.433236 -66.378039 -2.050822 -27.843383
-9.045385 -31.386600 0.699080 -12.129595
-22.005491 -58.340694 -2.574730 -24.103855
-14.749406 -46.019312 0.281253 -18.230615
0.918421 -18.041429 -1.389569 -5.136903
-6.255195 -26.355578 2.214193 -9.783232
-19.572210 -54.424711 -1.235715 -22.199076
-3.635239 -17.987068 4.109107 -6.486692
-19.428771 -50.991506 6.250702 -21.126083
1.984032 -16.429395 0.386184 -4.333609
-4.908576 -25.505198 4.385392 -9.124132
-1.425732 -21.429072 2.762891 -6.856441
-8.984471 -35.610811 1.296495 -13.378585
-3.050525 -22.850782 4.321045 -7.770392
-12.633071 -32.035271 3.935510 -13.400503
-9.418999 -31.365961 6.714685 -12.235488
-2.055191 -9.120862 2.455507 -3.352816
-6.514507 -27.121637 5.916166 -10.090843
-5.823803 -18.631362 5.667712 -7.336549
-3.315452 -18.507758 3.971917 -6.546963
-4.372093 -19.413143 5.091937 -7.135571
-5.351160 -15.015974 4.768377 -6.110140
-1.989125 -18.816119 5.593438 -6.241573
-6.319699 -10.334630 4.041593 -4.996299
-3.317890 -14.589759 3.873935 -5.372294
-6.418525 -2.038394 1.365587 -2.537076
-8.196471 -6.342534 2.762100 -4.361702
-7.411964 -1.804549 1.662195 -2.764954
-5.698790 -2.153881 2.654938 -2.355801
-5.475024 -3.421908 2.643408 -2.669080
-3.765119 -10.545369 4.186320 -4.293146
-4.271168 -13.392429 4.305229 -5.299079
-2.809345 -12.692710 3.764946 -4.650617
-4.650856 -8.069660 3.232341 -3.816155
-3.005393 -15.246490 3.454473 -5.475565
-4.304001 -3.873084 2.647511 -2.453125
-4.182228 -22.908034 3.498057 -8.127079
-2.902131 -10.504139 2.815951 -4.021881
-2.691488 -14.192223 3.392545 -5.065113
-2.180366 -14.460146 2.546612 -4.992154
-2.807752 -9.517039 2.999823 -3.697437
-3.277334 -3.921428 2.348160 -2.159629
-2.786080 -8.756689 3.069319 -3.462831
-3.950688 -3.713464 2.750116 -2.299246
-2.472879 -3.572284 2.043046 -1.813549
-1.950896 -3.797373 1.467228 -1.724481
-4.940628 -24.181295 3.913388 -8.736577
-5.501212 -22.197508 2.160164 -8.309616
-0.858507 -3.268845 0.590161 -1.238205
-4.043952 -16.841107 2.337712 -6.265518
-1.523152 -3.203116 0.872259 -1.417881
-5.438968 -23.604640 3.160187 -8.713082
-15.259801 -42.282365 6.932001 -17.262650
-4.248310 -18.753131 3.354603 -6.900433
-6.574454 -30.670693 2.793491 -11.173544
-4.447084 -23.978018 3.958479 -8.527531
-7.024744 -28.712145 5.508620 -10.721067
-2.978066 -16.380265 2.422775 -5.807499
-3.252556 -18.712060 3.181225 -6.589385
-17.296928 -47.653647 5.669973 -19.485173
-16.035861 -43.438893 7.129633 -17.842426
-8.065327 -29.178586 6.410625 -11.173174
-6.751351 -28.273501 5.429219 -10.507456
-13.694820 -41.502932 5.209840 -16.559326
-6.618714 -28.543470 5.077826 -10.548655
-4.187933 -27.036108 1.436861 -9.367212
-4.357357 -21.512051 2.536690 -7.760822
-11.157403 -31.797135 3.523236 -12.886361
-6.760586 -26.639566 4.263240 -10.020046
-11.235657 -28.844111 2.841739 -12.023931
-14.967726 -33.818493 3.542185 -14.635866
-4.596315 -15.276952 -0.173553 -5.961980
-10.293498 -21.677288 2.301516 -9.591236
-5.225753 -12.100898 0.616882 -5.197995
-7.496778 -11.617749 -0.535742 -5.734358
-10.749050 -21.188292 2.561263 -9.581203
-20.334413 -41.647387 3.760375 -18.594540
-3.891149 -17.214247 0.679766 -6.331619
-7.465270 -22.267589 1.306201 -8.919858
-5.900080 -16.774615 0.384139 -6.802409
-5.377771 -2.726977 1.907202 -2.431424
-6.763942 -24.056924 1.558625 -9.246260
-5.464025 -17.797459 0.812994 -6.978445
-10.018994 -22.589719 2.374919 -9.782614
-4.239332 -11.707520 0.601553 -4.784055
-3.845766 -12.833496 0.927793 -5.003778
-3.161727 -14.583405 1.792933 -5.323540
-3.342687 -7.268754 0.742650 -3.183432
-5.450670 -20.026654 1.395193 -7.643197
-4.484169 -15.400582 1.322710 -5.965426
-1.893188 -2.728085 0.670117 -1.386382
-4.756302 -13.231842 0.864319 -5.396443
-2.597706 -8.218308 1.087602 -3.244804
-3.239603 -8.616756 0.730479 -3.556908
-3.871627 -7.535220 0.621501 -3.422054
-1.479198 -2.653815 0.289598 -1.239904
-4.747193 -7.018101 0.701647 -3.529588
-2.582430 -2.527411 0.652591 -1.532952
-4.481411 -6.309800 0.577169 -3.237363
-3.910415 -6.706357 0.619725 -3.185031
-3.346280 -2.452767 0.949673 -1.739714
-5.929087 -11.449458 0.461877 -5.213563
-6.515539 -15.933838 -0.028423 -6.734813
-4.286400 -2.504758 1.332219 -2.037347
-6.623313 -10.521359 0.632349 -5.143402
-10.182845 -26.702463 2.409577 -11.065592
-5.645655 -2.806909 2.026709 -2.535769
-5.266918 -6.019074 0.787092 -3.385797
-6.504745 -6.195326 1.671709 -3.810021
-6.279344 -3.223750 2.605010 -2.850928
-7.035519 -3.074190 2.998591 -3.032913
-6.231853 -6.231460 1.551406 -3.738994
-3.981169 -8.469046 4.611979 -3.735064
-7.443411 -3.476135 3.873317 -3.275864
-5.730280 -8.495035 3.295419 -4.267594
-6.502489 -6.035819 2.745272 -3.761492
-6.856413 -7.306775 2.835854 -4.248957
-5.477089 -4.884017 3.655539 -3.108332
-4.938161 -10.161295 0.030316 -4.529837
-7.247751 -21.358247 -0.352615 -8.581799
-6.940260 -9.209978 1.541753 -4.845072
-4.796857 -13.835749 -0.768488 -5.589782
-7.568378 -5.461593 1.452085 -3.908991
-7.292546 -14.271881 0.021003 -6.469328
-10.671936 -13.009920 1.562206 -7.104557
-7.597988 -9.439151 1.802886 -5.111142
-6.692948 -11.823508 3.190874 -5.554937
-5.399090 -6.638379 4.000334 -3.611241
-5.846038 -9.864793 3.279406 -4.713250
-4.566569 -10.591911 4.726192 -4.547544
-6.811675 -10.640120 3.667089 -5.235539
-6.209684 -9.313878 4.237175 -4.657068
-10.897209 -19.017109 6.863795 -8.974296
-7.492277 -23.078453 7.371893 -9.171219
-6.117738 -16.944083 7.160461 -6.918547
-3.792828 -13.097169 5.665978 -5.066999
-15.770523 -16.850559 6.862381 -9.786325
-9.294652 -24.326104 7.853317 -10.086227
-7.483501 -18.862036 6.564381 -7.903661
-11.143361 -30.143302 8.561193 -12.385999
-9.421901 -5.514187 3.977916 -4.480826
-16.086621 -34.047230 8.189938 -15.040155
-10.829270 -21.683476 9.022705 -9.753824
-19.078158 -27.446433 10.943379 -13.957377
-12.949980 -14.602085 4.036042 -8.265619
-11.758452 -28.385793 1.647320 -12.043273
-6.950466 -11.718912 5.038484 -5.600813
-8.527166 -15.353392 4.723457 -7.164168
-12.226640 -25.907669 2.397955 -11.440293
-11.539671 -27.047462 2.548110 -11.576140
-14.995435 -28.362109 3.639235 -13.007263
-14.961106 -30.001592 3.979434 -13.488810
-17.667038 -41.738968 4.517921 -17.821802
-16.237882 -31.554628 3.980142 -14.337753
-18.222189 -38.085889 4.080427 -16.892423
-13.899264 -26.143539 3.506981 -12.012841
-18.344236 -35.419522 4.146558 -16.129127
-15.578747 -31.520105 3.396403 -14.129656
-18.869350 -35.631194 4.368832 -16.350163
-17.791455 -33.778399 5.651495 -15.470956
-17.272080 -30.944978 4.137649 -14.465117
-19.543631 -34.569113 4.679953 -16.233823
-20.906247 -40.366994 4.699278 -18.381972
-19.796229 -37.610897 6.700064 -17.222138
-20.447580 -36.368022 6.854279 -17.044681
-15.394298 -38.258319 8.493433 -16.095785
-20.591197 -37.591012 4.544802 -17.454663
-20.383990 -45.634936 3.788253 -19.805678
-21.339011 -53.035762 6.046711 -22.312432
-26.944009 -62.500592 8.281321 -26.833380
-27.369618 -65.742547 6.056616 -27.933649
-22.147303 -48.545411 5.527802 -21.207814
-15.717931 -40.578305 6.752377 -16.888871
-20.484572 -40.551331 6.539312 -18.310771
-22.968995 -55.818756 7.423902 -23.636325
-34.980514 -75.064206 10.026347 -33.137395
-17.991337 -49.178521 5.463326 -20.150958
-30.505870 -64.418545 11.291777 -28.477324
-23.595096 -52.526706 10.312131 -22.836541
-29.006779 -60.670235 11.630849 -26.903104
-10.283940 -34.320345 5.830449 -13.381285
-22.170131 -48.908261 10.606499 -21.323518
-11.905185 -33.395011 6.870701 -13.590059
-19.635522 -48.388738 8.379539 -20.407278
-21.245999 -29.081613 9.037341 -15.098284
-16.708589 -28.661887 12.096953 -13.611143
-22.014754 -32.166856 9.186976 -16.254483
-17.052141 -25.018165 12.035440 -12.621092
-11.536374 -5.554649 7.068583 -5.127307
-20.901524 -43.203231 11.154541 -19.231426
-17.827186 -23.095206 11.821072 -12.276718
-19.356945 -21.583889 11.311557 -12.282250
-21.734129 -26.553845 11.810544 -14.486392
-9.510258 -19.080317 9.489583 -8.577173
-29.170246 -55.422285 12.060476 -25.377759
-19.199790 -33.900140 12.398161 -15.929979
-20.687710 -21.220629 11.652441 -12.572501
-18.647549 -26.133455 10.543297 -13.434301
-13.897122 -30.027213 8.271566 -13.177301
-17.004182 -18.569613 12.118610 -10.672138
-35.171672 -68.219950 11.500276 -31.017487
-9.702473 -25.508456 7.584671 -10.563279
-27.476462 -58.262077 6.033536 -25.721562
-40.306831 -80.016146 9.248624 -36.337485
-29.613625 -61.499358 8.001488 -27.333895
-27.977487 -51.251986 7.797351 -23.768842
-18.653271 -42.473140 4.538202 -18.337923
-27.223825 -53.850457 6.209393 -24.322285
-32.224940 -61.633394 9.051922 -28.157500
-35.815881 -71.823814 8.212272 -32.291909
-31.083923 -59.288621 10.176042 -27.111763
-31.011769 -54.701812 10.249670 -25.714074
-30.892259 -56.697810 9.329778 -26.277021
-33.286473 -62.603637 12.060462 -28.767033
-31.933007 -61.892994 10.579473 -28.147800
-35.093570 -69.972824 10.209811 -31.519918
-35.044841 -67.881668 9.270048 -30.877953
-33.371004 -60.995580 11.966517 -28.309975
-29.964430 -55.679172 8.402980 -25.693081
-34.538126 -68.541344 12.055623 -30.923841
-34.901751 -59.490191 11.849963 -28.317582
-34.364262 -64.863772 8.988250 -29.768410
-30.149991 -54.284405 8.638098 -25.330319
-29.821999 -49.423080 8.235232 -23.773524
-37.618127 -69.458290 11.650333 -32.122925
-31.852649 -54.999336 8.441951 -26.055596
-25.402650 -36.762268 5.130547 -18.649475
-30.129048 -50.957290 9.160278 -24.325901
-25.262847 -36.212391 4.918055 -18.442571
-25.307544 -38.207458 5.386233 -19.054501
-29.061908 -53.719812 8.780267 -24.834516
-30.750290 -58.324055 10.407260 -26.722304
-28.417569 -51.533123 8.363544 -23.985208
-31.586858 -55.999079 10.664764 -26.275781
-27.606017 -49.573166 7.340228 -23.153755
-31.641513 -57.963135 10.815569 -26.881394
-28.434871 -47.610673 8.452419 -22.813663
-29.518003 -49.626224 9.121062 -23.743268
-27.531143 -43.329150 6.819185 -21.258088
-22.782720 -29.866035 4.155541 -15.794627
-27.792607 -45.704081 7.491464 -22.049006
-23.094318 -30.341773 2.670998 -16.030827
-21.941145 -30.061479 2.244012 -15.600787
-21.187028 -31.257953 3.505003 -15.733494
-22.456003 -35.554987 3.873004 -17.403297
-20.189874 -21.186480 1.698941 -12.412906
-19.621584 -22.903944 3.877829 -12.757658
-8.638526 -9.205599 -0.872173 -5.353237
-24.796251 -40.356807 6.845370 -19.545917
-26.162302 -41.824373 7.202584 -20.396003
-23.011215 -37.795994 4.700329 -18.242163
-24.479117 -38.228726 5.107406 -18.812353
-27.724924 -54.883233 7.858342 -24.782447
-6.676746 -10.455327 -2.743417 -5.139622
-19.821933 -40.631875 4.346839 -18.136143
-19.502870 -33.050695 3.973333 -15.766070
-24.723774 -47.415625 8.949017 -21.641820
-25.692398 -43.460850 5.712241 -20.745974
-21.150597 -38.612226 4.329399 -17.928847
-25.319211 -46.480214 6.896838 -21.539827
-32.854629 -65.633152 7.560097 -29.546334
-27.474467 -47.221114 7.039238 -22.408674
-30.836715 -58.761658 7.669148 -26.879512
-30.579998 -52.729647 8.870277 -24.992893
-17.727166 -35.669010 9.159856 -16.018853
-32.747387 -66.083218 8.964025 -29.649181
-29.940624 -62.318409 7.140638 -27.677710
-23.378384 -40.940221 5.823774 -19.295582
-24.701528 -51.103232 8.163790 -22.741428
-29.359665 -56.869790 8.386321 -25.868837
-30.299800 -59.575520 10.565625 -26.962596
-18.925763 -42.345524 4.244301 -18.381386
-7.652636 -23.921437 6.765527 -9.472222
-10.332044 -28.513151 8.578677 -11.653558
-17.586325 -40.339465 8.075557 -17.377737
-13.343191 -34.717651 6.518273 -14.418252
-6.297062 -22.942529 4.250830 -8.771877
-18.194154 -35.137691 4.340622 -15.999554
-3.911428 -12.179462 5.060843 -4.827267
-14.061778 -34.548349 2.207099 -14.583038
-7.562642 -9.435567 -0.662726 -5.099463
-11.889914 -31.882599 4.600018 -13.131754
-6.786096 -22.311732 5.782264 -8.729348
-7.585006 -23.245102 7.326984 -9.249032
-8.365656 -25.010079 6.431154 -10.012720
-13.858641 -40.295098 4.511760 -16.246122
-5.016571 -17.804909 6.559007 -6.846444
-1.475416 -4.293178 2.476331 -1.730578
-1.755937 -11.398613 3.702820 -3.946365
-2.679796 -10.095229 4.541202 -3.832507
-4.203608 -4.336056 3.614666 -2.561899
-3.622093 -15.984441 5.384983 -5.881960
-4.471382 -18.229629 4.486681 -6.810303
-2.482177 -5.350301 2.906497 -2.349744
-3.333268 -9.866838 -1.873169 -3.960032
1.035927 -4.045515 1.039529 -0.902876
-5.602693 -18.885496 6.274139 -7.346457
-6.818861 -20.548019 5.648177 -8.210064
-3.633946 -12.725713 4.519428 -4.907898
-6.968118 -24.870656 2.704310 -9.551632
-3.963658 -19.484951 3.425255 -7.034583
-7.190295 -20.183841 3.385698 -8.212241
-14.222882 -29.914825 2.377722 -13.241312
-4.123115 -14.703107 -0.347496 -5.647867
-4.271639 -7.879110 -1.809491 -3.645225
-1.680840 -5.171757 1.980325 -2.055779
-4.058881 -13.671076 3.145662 -5.318987
-0.916519 -3.076621 -0.320257 -1.197942
1.795461 -3.982211 -0.812854 -0.656025
0.352823 -2.584363 -1.509103 -0.669462
-3.479396 -2.015253 -0.360547 -1.648395
-4.557131 -5.632454 -0.587664 -3.056875
-2.365451 -1.534356 -0.299081 -1.169942
-5.642945 -2.673648 1.438094 -2.494978
-4.270836 -2.052422 0.446372 -1.896977
-5.408403 -10.608997 -2.133129 -4.805220
-5.042810 -7.528577 -0.360445 -3.771416
-6.374905 -10.921105 -1.925949 -5.188803
-6.019191 -6.352289 -0.141782 -3.711444
-10.602121 -29.412175 3.970759 -12.004289
-5.493473 -11.594279 -0.769191 -5.126325
-11.314147 -30.474332 3.696000 -12.536544
-5.743732 -10.831719 -1.589704 -4.972635
-10.508247 -30.116396 3.967434 -12.187393
-19.521366 -33.157821 5.087252 -15.803756
-18.982881 -25.445916 3.388051 -13.328639
-13.130795 -28.800870 4.874164 -12.579500
-11.456551 -27.835545 5.184753 -11.787629
-7.613925 -13.797380 -1.752719 -6.423391
-17.255899 -30.838629 5.535776 -14.428358
-15.418627 -23.814841 6.187185 -11.770040
-9.396104 -14.505696 -1.870908 -7.170540
-5.943678 -6.069564 -0.178381 -3.603973
-22.168853 -22.450098 -0.702573 -13.385685
-19.240576 -22.293742 1.454329 -12.460295
-22.664440 -31.120559 2.990040 -16.135500
-18.217779 -28.765062 1.451924 -14.094852
-15.352921 -9.759441 1.618412 -7.533709
-8.995376 -11.787752 -3.191828 -6.234938
-18.865377 -13.712974 1.358601 -9.773505
-17.607902 -17.329959 4.739341 -10.481358
-16.809018 -13.135643 2.776762 -8.983398
-11.903490 -4.039779 4.597824 -4.782981
-15.366174 -14.468527 4.442227 -8.950410
-14.597374 -8.007281 4.825810 -6.781396
-20.553903 -24.065762 -1.246148 -13.385899
-11.663382 -14.535161 -2.092553 -7.859563
-15.656700 -8.165023 0.028034 -7.146517
-14.752431 -13.418114 -1.872875 -8.451164
-6.676425 -9.596098 -0.805494 -4.881757
-7.164864 -3.083282 2.390304 -3.074444
-8.188629 -13.268936 -2.365125 -6.437270
-9.542952 -10.349739 -0.477618 -5.967807
-4.880921 -2.333948 1.123765 -2.164461
-7.067195 -6.042155 0.523770 -3.932805
-9.648138 -6.673040 1.366085 -4.896353
-7.258105 -3.115290 2.426949 -3.112019
-11.807053 -9.956798 0.068181 -6.529155
-9.468096 -3.614774 3.458689 -3.924861
-9.247399 -6.180945 1.192785 -4.628503
-11.186808 -9.153340 -0.201608 -6.102045
-11.617270 -6.589420 2.199533 -5.462007
-11.631401 -4.039645 4.514562 -4.701314
-14.784841 -8.932944 3.247696 -7.115336
-13.920616 -6.953284 3.446567 -6.262170
-15.122598 -10.609318 3.558738 -7.719575
-15.275245 -7.115083 4.967708 -6.717099
-14.657714 -11.724350 6.022455 -7.914619
-14.021563 -13.113323 5.928586 -8.140466
-16.528617 -5.207890 7.146862 -6.520952
-15.408785 -5.505947 7.388079 -6.274420
-16.081754 -8.203829 6.217748 -7.285675
-17.986487 -6.021390 8.199689 -7.202363
-18.722855 -6.762278 8.920451 -7.645540
-18.614732 -7.473503 9.299612 -7.826470
-16.048949 -7.288482 9.564737 -7.001229
-14.833404 -6.305509 8.825754 -6.341674
-10.158172 -10.596188 10.186756 -6.226308
-10.902763 -7.267090 7.850227 -5.450956
-14.922124 -10.120529 4.840863 -7.512796
-14.890447 -12.060963 3.919202 -8.085423
-12.833061 -14.157816 7.098102 -8.097263
-16.013834 -10.001270 8.271296 -7.804531
-11.280088 -13.837103 8.534233 -7.535157
-14.857481 -21.814602 9.232982 -11.001625
-9.204401 -11.465793 10.048232 -6.201058
-13.093838 -10.096752 7.241801 -6.957177
-8.951520 -14.561720 9.058668 -7.053972
-8.343058 -6.608971 6.049929 -4.485609
-6.644050 -6.326530 5.260863 -3.891174
-3.976981 -5.289756 3.229705 -2.780021
-1.914278 -3.343742 1.169759 -1.577406
-5.961044 -3.904484 2.843264 -2.959658
-7.136008 -5.593415 4.427717 -3.818827
-12.745797 -16.969355 5.930911 -8.914546
-2.132685 -2.905009 1.077437 -1.511308
-8.652464 -9.894078 4.661186 -5.563963
-9.301316 -24.569906 9.132051 -10.161367
-9.695125 -14.922841 8.338152 -7.385390
-7.134063 -13.834219 5.295706 -6.290484
-6.869718 -11.924271 4.425822 -5.638197
-8.639422 -20.350033 8.110856 -8.696837
-7.267941 -13.942169 6.902038 -6.363033
-2.694682 -4.133261 1.984273 -2.048383
-11.380207 -15.802292 8.361488 -8.154750
-13.545848 -17.697777 6.966387 -9.373087
-11.111154 -14.559478 10.735163 -7.701190
-11.318818 -20.018668 10.851687 -9.401246
-15.959816 -15.459950 5.499196 -9.425930
-15.233226 -11.824780 3.470070 -8.117402
-15.267754 -16.168035 5.123566 -9.430737
-20.339867 -22.714141 7.368299 -12.916202
-25.410365 -40.850345 5.260692 -19.878213
-26.421910 -41.198409 5.772467 -20.286096
-26.890706 -45.799885 6.017274 -21.807177
-25.928288 -38.802316 6.617437 -19.419181
-15.242390 -22.887042 11.389609 -11.438830
-9.722875 -18.617916 10.211904 -8.502237
-11.793598 -27.833450 9.860469 -11.888114
-7.681777 -18.014893 9.519976 -7.709001
-10.863525 -22.264146 10.359761 -9.938301
-9.609862 -19.381989 10.245734 -8.697555
-23.344587 -27.260254 10.104391 -15.181452
-20.479983 -25.278362 9.104927 -13.727503
-17.081311 -23.848800 9.304093 -12.279033
-24.866478 -28.039510 10.379765 -15.871797
-26.725126 -45.706281 5.656674 -21.729422
-27.241072 -40.708016 6.634491 -20.384727
-27.004867 -40.313570 6.147017 -20.195531
-26.492411 -24.215233 9.358869 -15.212293
-26.589071 -36.801054 7.281869 -19.017037
-29.598004 -48.325496 8.068423 -23.377050
-30.570578 -37.228945 14.199587 -20.339857
-24.482925 -27.540134 10.585076 -15.606918
-26.454862 -29.657032 11.779325 -16.833568
-27.126455 -36.925355 15.322081 -19.215543
-20.122867 -26.654293 10.001947 -14.033148
-37.476773 -46.756945 16.202964 -25.270115
-19.747725 -26.720349 11.215033 -13.940422
-28.857424 -34.822782 13.178516 -19.104062
-21.496552 -35.950906 13.468006 -17.234237
-14.876951 -22.301805 11.771708 -11.153627
-13.651651 -26.406040 11.181540 -12.017307
-23.774201 -43.015267 13.366606 -20.036840
-16.681037 -25.503597 12.171935 -12.655390
-13.545939 -22.607949 11.237819 -10.846166
-16.358205 -26.295297 12.210244 -12.796051
-17.390948 -32.705453 12.036543 -15.028920
-14.247112 -32.060097 10.301513 -13.892163
-12.572815 -27.842703 10.214445 -12.124655
-6.522949 -9.682813 3.072312 -4.861729
-10.505005 -17.717570 5.864245 -8.466773
-9.243310 -25.738678 8.792468 -10.494596
-17.171633 -35.878047 11.153549 -15.914904
-10.099701 -25.437997 8.258074 -10.661309
-10.724951 -17.235805 6.296549 -8.388227
-11.022991 -14.162701 4.022551 -7.555707
-15.843590 -16.599668 6.914131 -9.732977
-16.983986 -40.031724 9.748906 -17.104713
-11.885881 -23.113180 6.690491 -10.499718
-20.709052 -19.072504 7.808182 -11.934467
-10.589400 -9.274052 4.322998 -5.959036
-19.975368 -35.541491 12.711548 -16.655058
-27.435833 -49.621674 14.031163 -23.117252
-10.162449 -29.460218 8.218065 -11.886800
-34.799819 -64.073583 14.891795 -29.662021
-8.565112 -23.611791 8.890971 -9.653071
-17.310182 -35.619933 11.129379 -15.879034
-16.475197 -40.129723 7.115276 -16.981476
-14.841957 -33.877093 10.147139 -14.615715
-13.534947 -28.258262 2.619892 -12.537963
-23.519771 -28.923662 -1.030874 -15.733030
-22.027866 -20.803523 4.452321 -12.849417
-9.949317 -12.546080 5.376221 -6.748619
-17.791732 -16.012049 -2.436102 -10.141134
-27.297784 -18.674190 3.704330 -13.791592
-24.017552 -20.858574 2.507891 -13.462838
-32.281380 -34.158685 10.074155 -19.932019
-51.313842 -92.246958 17.590020 -45.406243
-38.449927 -72.327842 14.675328 -33.530562
-32.882899 -64.075917 12.620131 -29.087645
-48.411832 -84.982764 17.872868 -41.721316
-31.664648 -42.853238 16.717622 -22.355366
-49.628058 -82.524311 19.500348 -41.218352
-10.198399 -28.208243 8.472765 -11.521993
-31.068432 -46.789692 16.027751 -23.357437
-27.853683 -36.878123 15.602517 -19.419542
-35.528376 -60.650989 16.258601 -28.853809
-12.635447 -27.675858 10.343466 -12.093392
-13.534900 -26.147427 11.039384 -11.904698
-47.246628 -83.139600 17.743366 -40.560994
-16.613923 -35.515657 10.621866 -15.638874
-30.486650 -37.055368 12.855878 -20.262605
-35.141786 -48.576150 17.407831 -25.115381
-29.050192 -44.534276 15.688053 -22.075340
-29.509754 -47.532272 15.573976 -23.112608
-35.505806 -47.130221 17.467159 -24.790808
-33.846146 -43.909302 17.268721 -23.326634
-31.191983 -42.017076 16.493618 -21.962718
-37.398962 -49.686965 18.335361 -26.125778
-35.578972 -45.409735 16.476931 -24.296612
-37.275002 -53.563111 17.248952 -27.251434
-34.228007 -42.098266 16.396619 -22.897882
-36.348385 -48.565336 17.381576 -25.474117
-31.876295 -38.431233 14.163305 -21.092258
-30.731470 -36.643922 12.436868 -20.212618
-35.322201 -42.607008 15.235182 -23.378763
-35.024174 -44.575787 16.917541 -23.879988
-29.987406 -37.693213 15.022588 -20.304186
-25.632701 -31.586567 11.882890 -17.165780
-26.565670 -32.767098 13.561151 -17.799831
-30.537767 -37.205984 14.673614 -20.323126
-25.740606 -33.059679 14.859271 -17.640085
-30.378487 -40.084656 16.271872 -21.138943
-27.636301 -37.166575 15.538587 -19.440863
-28.638030 -47.087518 15.220924 -22.717664
-26.672466 -33.769592 15.099886 -18.132618
-24.091515 -30.152831 14.133120 -16.273304
-21.164017 -33.432271 13.497186 -16.378886
-26.618319 -39.508420 15.122585 -19.838022
-28.617058 -34.630436 13.067701 -18.974248
-27.695163 -33.522659 11.916928 -18.365347
-26.999027 -34.023353 13.983512 -18.306714
-26.549777 -31.660088 11.700128 -17.462960
-25.213762 -32.572824 14.412527 -17.335976
-25.473648 -31.259473 12.636468 -17.019936
-30.175284 -50.641953 8.601060 -24.245171
-28.305207 -32.967260 11.329624 -18.381740
-35.658713 -46.839878 17.219929 -24.749577
-35.873747 -42.980397 14.209887 -23.656243
-36.313469 -45.138643 14.014550 -24.435634
-25.642527 -26.819777 12.799658 -15.738691
-34.203165 -40.378161 13.052912 -22.374398
-29.099477 -33.708080 11.822692 -18.842267
-37.599375 -59.891779 11.420375 -29.247346
-37.906169 -78.347477 9.198668 -35.169720
-29.119764 -32.685726 15.581882 -18.541647
-35.050234 -60.544363 13.332976 -28.678379
-32.890556 -64.993356 11.284882 -29.365174
-36.301032 -61.815036 10.398178 -29.434820
-31.294377 -51.133932 8.453228 -24.728493
-31.537057 -57.383881 9.548960 -26.676282
-34.423472 -68.701428 10.745713 -30.937470
-31.355982 -66.270644 8.202272 -29.287988
-30.907451 -61.452840 10.381194 -27.708087
-37.844311 -75.625775 11.416861 -34.251229
-22.543074 -59.845814 -0.277690 -24.716666
-37.800910 -76.858882 9.827224 -34.637353
-35.901938 -75.037442 8.465279 -33.281814
-24.312600 -62.990833 0.327820 -26.191030
-26.834645 -67.323723 1.251053 -28.247510
-26.906168 -67.466385 1.070126 -28.311766
-26.449069 -59.724500 6.103435 -25.852071
-27.389850 -68.300269 1.417695 -28.707036
-28.293143 -69.800905 1.908286 -29.428214
-33.652643 -78.648081 3.964900 -33.911175
-38.460534 -74.571376 12.995552 -34.064097
-31.569116 -64.325982 9.757776 -28.768529
-30.933869 -66.249565 7.366555 -29.155030
-36.992736 -73.485185 10.898267 -33.143376
-28.564772 -70.224311 2.162258 -29.636725
-36.517704 -73.129607 11.985037 -32.911602
-36.884065 -67.955028 12.308105 -31.451728
-43.439923 -81.680803 14.764020 -38.655449
-30.412396 -73.376687 2.637474 -31.136725
-27.188690 -67.935548 1.259255 -28.537272
-27.423527 -68.327345 1.677511 -28.725261
-31.198889 -74.658984 2.723137 -31.757362
-35.271120 -81.089762 4.780064 -35.402102
-32.218224 -76.252131 3.452333 -32.541106
-33.865164 -79.184852 3.528333 -34.198939
-29.190756 -71.413610 1.668032 -30.181310
-30.542677 -73.621241 2.378283 -31.249175
-30.961370 -74.379356 2.345768 -31.602218
-28.094177 -69.407429 2.123279 -29.250482
-30.325700 -73.371811 1.998799 -31.109253
-30.708970 -73.978415 2.413420 -31.406216
-36.489564 -79.937588 8.739199 -35.418335
-38.925641 -83.615038 9.428608 -37.664967
-34.804366 -79.821611 5.387754 -34.780460
-38.713278 -62.337856 13.032187 -30.315340
-31.557909 -69.587278 9.596868 -30.343556
-32.767845 -67.479235 10.636984 -30.074124
-39.796937 -81.119873 12.163341 -37.327443
-38.182210 -68.442770 11.809676 -31.987494
-37.634328 -60.094271 13.642141 -29.318580
-32.223720 -39.929872 13.199929 -21.646078
-38.005459 -51.163807 15.670091 -26.750780
-33.446419 -38.717985 12.177586 -21.649321
-35.590736 -44.321132 14.720407 -23.973560
-36.492345 -60.713689 15.468227 -29.161810
-32.462173 -58.247620 12.773193 -27.212938
-35.624885 -44.802039 16.300503 -24.128077
-36.790436 -49.767858 15.547629 -25.967488
-36.311616 -45.787462 15.757292 -24.629723
-33.454498 -41.693893 14.695553 -22.544517
-37.450782 -54.611441 15.888380 -27.618667
-38.267627 -56.534901 16.487931 -28.440758
-36.990985 -53.113263 17.944440 -27.031275
-37.122794 -49.324131 16.980988 -25.934077
-35.684201 -65.850353 11.663240 -30.460366
-36.133326 -58.685364 9.749228 -28.445607
-38.224971 -61.852163 15.758784 -30.023140
-36.974484 -64.966211 13.114490 -30.582209
-32.182496 -76.538489 2.632398 -32.621753
-37.322869 -70.052081 11.712090 -32.212485
-33.157056 -77.686322 4.140289 -33.376230
-29.133469 -46.863985 -0.688055 -22.799236
-41.772546 -85.102158 12.205948 -39.234483
-28.260785 -66.983065 6.634611 -28.573155
-39.779237 -74.507252 13.920263 -34.285947
-31.963200 -71.180312 6.949776 -30.943054
-35.169175 -78.499698 7.797901 -34.816145
-36.671188 -83.798833 4.551625 -36.875531
-33.874427 -79.272399 3.176348 -34.259246
-37.357536 -84.552968 5.263821 -37.419605
-39.471499 -87.276118 6.892446 -39.153523
-42.029191 -89.236998 9.522129 -41.256688
-38.316232 -85.569123 6.424378 -38.117063
-35.153968 -81.383197 3.744607 -35.475014
-54.382886 -108.772892 12.395536 -52.525755
-53.124405 -106.272643 12.490818 -51.109149
-37.539319 -84.934980 5.268778 -37.610577
-38.969289 -86.992023 6.049767 -38.877301
-30.397942 -71.286781 6.198102 -30.505417
-36.537179 -83.130895 5.249453 -36.588375
-32.155169 -74.157592 6.601529 -31.893828
-36.921980 -83.896675 5.136887 -37.006067
-32.174508 -73.562889 7.247507 -31.721219
-36.281625 -82.485384 5.501089 -36.270913
-52.744818 -109.494322 9.011609 -52.177587
-33.241131 -76.795583 5.741878 -33.130117
-37.281272 -81.761316 8.412945 -36.673154
-36.662411 -79.872742 9.058968 -36.067591
-50.940602 -102.670260 12.033575 -50.119483
-39.489448 -85.577444 8.601075 -38.970318
-54.950344 -109.540016 12.600625 -52.979894
-46.863888 -100.343103 7.149044 -46.754694
-58.259677 -112.314357 14.960610 -55.212464
-48.833549 -99.805292 11.217861 -47.594248
-50.951544 -97.301829 15.374097 -47.133049
-45.692404 -99.319666 5.511613 -45.854958
-50.988430 -101.391646 13.097993 -48.642308
-57.874141 -111.008837 15.325530 -54.586844
-50.968920 -103.559658 11.490785 -49.409416
-62.779188 -122.731816 13.772226 -60.661500
-31.669612 -70.682839 8.930087 -30.705735
-25.773287 -59.658259 8.849742 -25.629464
-38.901836 -85.378077 7.487073 -37.647236
-41.269646 -64.244506 4.192097 -31.654246
-57.994180 -117.675158 10.463576 -57.137223
-37.684991 -84.916366 5.640377 -37.662207
-32.979571 -68.301792 3.657497 -30.384409
-26.908950 -67.440508 1.817922 -28.304838
-38.694798 -64.777737 17.255574 -31.041761
-35.395780 -64.619232 12.731167 -30.004503
-36.986371 -58.630542 17.407269 -28.685074
-36.623174 -62.618619 16.538396 -29.772538
-42.635144 -66.302016 16.353254 -32.681148
-41.197740 -64.413230 11.903129 -31.683291
-43.925388 -69.070238 19.156244 -34.051942
-36.662240 -60.434568 17.056906 -29.129042
-45.011000 -70.045309 19.536179 -34.939291
-37.224134 -60.251680 17.390443 -29.242744
-41.656543 -65.776904 18.576177 -32.230034
-39.353256 -61.854009 18.029296 -30.362179
-41.116603 -68.307002 17.952779 -32.827082
-42.197801 -69.914634 18.292339 -33.711328
-35.436453 -59.462463 16.662222 -28.469675
-40.442089 -63.175394 18.462785 -31.085245
-44.340922 -79.714692 16.400210 -37.425574
-2.453066 -17.195813 6.729552 -5.894664
-38.672512 -58.013338 18.348327 -29.005755
-40.878774 -62.864762 18.723776 -31.123061
-41.329324 -67.771018 18.067055 -32.756195
-69.345682 -115.413626 23.454992 -60.396895
-38.309620 -59.230282 17.928912 -29.261971
-37.713286 -57.546313 17.881766 -28.577880
-38.537670 -60.675566 17.867631 -29.763971
-37.112123 -55.410217 17.957156 -27.756702
-36.028553 -57.642423 17.106783 -28.101293
-35.254409 -52.795912 17.333764 -26.415096
-36.612644 -52.974848 17.896210 -26.876248
-58.030348 -98.302599 20.721548 -50.737508
-36.574760 -52.544080 17.865788 -26.735652
-35.547038 -49.353635 17.323196 -25.470202
-36.633797 -52.131617 17.756731 -26.629624
-35.094026 -48.882524 17.598374 -25.192965
-44.731037 -77.524081 17.858962 -37.626597
-33.939144 -46.264102 17.319179 -24.060974
-56.191068 -87.911933 22.086953 -45.579073
-25.898444 -52.482185 12.156083 -23.514189
-33.622674 -50.542485 16.984735 -25.249548
-36.330733 -53.517432 17.814906 -26.954450
-32.749062 -46.588311 16.893046 -23.801212
-8.638942 -22.844976 9.147141 -9.445175
-7.220437 -24.910954 7.601172 -9.639417
-62.152118 -101.222059 22.615249 -52.890177
-12.109317 -27.527884 9.899952 -11.891160
-54.298986 -93.650691 19.450909 -47.134710
-28.980521 -64.989355 9.155551 -28.190963
-45.147335 -90.122778 12.991354 -42.534948
-54.155110 -95.493050 18.601259 -47.631768
-62.192909 -104.084962 21.651816 -53.699692
-8.449351 -25.243355 8.093120 -10.107812
-54.822295 -91.529019 20.288459 -46.450206
-27.848861 -64.806177 7.796368 -27.796511
-43.353518 -69.388282 18.610168 -34.054812
-30.602982 -20.753234 5.169546 -15.406865
-28.728552 -60.320482 11.533458 -26.714710
-30.422149 -24.963273 9.792339 -16.615627
-28.655081 -66.049896 8.015673 -28.411493
-31.927027 -30.876246 10.392442 -18.840982
-37.912280 -69.511326 15.464013 -32.601281
-30.691032 -35.171091 7.731368 -19.758637
-33.834731 -28.502124 7.314960 -18.701057
-29.708784 -60.537891 12.222532 -27.074003
-17.172071 -39.240925 10.062618 -16.923899
-45.683246 -95.564307 9.793824 -44.911205
-30.191836 -67.025228 9.440749 -29.165119
-51.275997 -93.868621 17.009775 -46.000537
-28.327856 -53.611277 13.456499 -24.581740
-48.868352 -95.348935 14.143655 -45.715993
-66.436676 -124.814629 16.959122 -62.789351
-30.483835 -57.238714 14.014829 -26.316765
-28.995999 -60.852616 11.587244 -26.954584
-28.140124 -48.222701 14.728814 -22.908847
-23.829363 -50.995719 11.165388 -22.447525
-36.488816 -57.560917 17.318946 -28.214920
-21.511982 -54.104903 6.903530 -22.685065
-39.512732 -60.497284 18.302260 -30.003005
-34.816642 -48.987466 15.518346 -25.141232
-29.024415 -48.136437 14.417667 -23.148255
-61.830267 -78.027471 25.376935 -44.002975
-88.112784 -124.213218 20.212486 -70.410684
-80.623336 -115.330930 24.694229 -62.111538
-94.328670 -137.924720 21.603131 -80.099760
-89.385444 -122.055462 27.693792 -67.593801
-88.878153 -123.876088 19.897393 -67.927535
-101.036032 -127.417020 20.623815 -70.166907
-102.382998 -132.181718 19.033613 -75.428823
-84.842592 -132.368464 21.641563 -68.340220
-89.769339 -118.921243 20.953064 -66.409950
-117.343009 -111.323532 26.919690 -70.581244
-85.622945 -113.090502 30.525683 -63.863087
-102.075785 -124.402930 19.671690 -70.151744
-93.592688 -133.421892 22.611000 -76.897131
-94.909584 -134.014972 22.933056 -76.467131
-90.305740 -127.826893 24.638231 -72.538049
-96.015077 -126.880360 23.419389 -71.619603
-85.885339 -123.824372 26.848016 -67.445727
-84.389937 -112.576373 31.529554 -64.866605
-75.732531 -106.123415 27.221361 -57.794803
-85.433646 -115.929569 24.014869 -63.072675
-80.325786 -109.117234 30.234235 -62.125852
-88.925656 -128.353815 26.050980 -72.046317
-81.030628 -111.537930 30.304851 -63.262891
-76.642929 -112.026486 28.304108 -61.846283
-75.126817 -105.512855 28.465899 -58.944053
-71.891063 -100.782017 27.607807 -56.330545
-74.909806 -107.838604 28.124001 -59.674317
-70.883668 -101.586417 27.090579 -56.051022
-82.698910 -117.452570 30.349894 -66.030149
-84.301366 -123.023788 28.737921 -66.965834
-99.285633 -119.582064 25.769561 -67.975654
-80.130816 -110.391013 27.234898 -60.891551
-84.915530 -112.536097 26.148779 -62.614081
-85.485517 -116.176962 30.075178 -64.861625
-74.409361 -102.645264 27.655452 -56.664904
-80.749567 -112.649003 28.873749 -62.084118
-78.478641 -100.291536 23.597620 -57.002100
-57.691028 -58.013572 23.291734 -35.174234
-57.243847 -85.247347 23.091130 -46.871849
-69.286558 -101.584092 26.358420 -55.728975
-71.515265 -101.761533 27.360700 -56.207850
-60.744497 -67.816052 24.826356 -39.868297
-71.127663 -52.480801 22.493175 -38.105810
-79.878170 -79.833710 29.355436 -51.652228
-69.132106 -70.016874 26.541421 -43.732299
-80.308529 -67.359516 26.928062 -46.871419
-79.774043 -64.464503 26.077630 -45.640780
-83.994259 -134.616678 24.225532 -75.237189
-72.981390 -73.072991 27.495409 -46.260182
-78.615458 -64.867205 26.222008 -45.353258
-88.606681 -69.340100 27.468371 -50.632981
-90.886178 -70.980771 27.959696 -52.039429
-78.964558 -96.959810 29.699558 -59.061354
-87.737944 -76.449605 29.451620 -52.899224
-84.475438 -61.116082 24.796455 -46.119572
-76.988174 -55.915718 23.373655 -41.505684
-95.584513 -74.084712 28.812054 -54.895460
-90.249313 -65.451021 26.018613 -49.791260
-92.569748 -114.102971 22.646503 -63.567709
-97.940296 -127.232815 17.651534 -71.150811
-84.610583 -102.750563 24.872974 -59.115371
-98.242919 -135.314522 29.123817 -74.596333
-102.873095 -77.573931 29.688637 -58.802637
-93.619263 -76.863181 29.773190 -55.127983
-105.722788 -98.444954 35.450835 -67.386737
-75.499684 -99.153561 29.255415 -56.610138
-98.713540 -90.087570 33.120657 -61.946976
-62.287589 -90.057628 24.770465 -48.532107
-87.194782 -99.651114 32.582597 -62.141123
-94.151364 -94.229729 33.348318 -61.734040
-80.617648 -81.541892 29.749896 -52.714502
-90.680692 -100.043306 33.388541 -62.596416
-97.551368 -105.082810 35.013822 -67.704550
-95.621880 -82.971301 31.356354 -58.412411
-104.671618 -124.089345 37.742055 -77.311205
-103.099895 -106.874300 36.317473 -70.407278
-93.306448 -92.454216 33.011081 -60.763534
-85.760297 -89.812801 31.538183 -57.654337
-86.003677 -95.152487 32.051689 -59.229852
-65.946558 -71.155405 26.114002 -43.003038
-87.200536 -95.489277 32.357895 -59.663064
-90.849109 -102.500814 33.581835 -64.003527
-86.627225 -110.427859 32.455451 -65.445452
-85.928114 -106.927374 32.322239 -64.038039
-77.312855 -97.673027 29.816156 -57.155973
-92.083338 -97.825931 33.485663 -63.033131
-81.227453 -63.872665 25.971062 -46.745730
-89.564551 -105.483957 33.364208 -64.130468
-96.890812 -101.878964 34.746875 -65.517489
-69.061994 -75.579438 27.112214 -45.750995
-79.039470 -85.489032 29.888458 -53.456064
-72.503145 -89.000673 28.462213 -52.350546
-69.870547 -82.058060 27.642755 -48.747875
-63.417207 -78.653374 25.820128 -45.052571
-68.228666 -60.312428 24.749887 -39.868275
-88.089839 -85.743191 31.325219 -56.468232
-100.790872 -119.079704 36.588582 -73.217908
-111.918766 -137.226512 39.807010 -91.934944
-73.619824 -76.746658 28.068072 -47.816183
-59.030692 -52.828360 22.529766 -33.790026
-79.519416 -73.825921 28.363960 -48.922121
-67.878145 -73.188928 26.471024 -43.655713
-59.456928 -73.979614 24.682022 -41.871891
-91.111801 -118.389696 33.606104 -69.447671
-54.340605 -71.574555 23.124022 -38.939643
-74.764183 -73.667579 27.798966 -47.144328
-70.070900 -68.153082 26.395641 -43.399746
-74.689196 -76.417829 28.201351 -47.718414
-50.873944 -68.494360 22.152654 -36.473482
-63.751834 -71.047459 25.701665 -42.129335
-49.537202 -43.443466 19.891120 -27.894200
-56.334787 -64.977059 23.715439 -37.186729
-41.397741 -63.056109 18.844567 -31.336155
-45.081636 -63.937814 20.003272 -32.705835
-50.525338 -75.932938 21.278977 -39.139080
-45.064116 -61.389919 19.869476 -31.936210
-44.958008 -70.249240 19.465573 -35.358413
-81.514459 -108.450927 30.747235 -62.826565
-76.193553 -81.788648 28.995127 -50.951986
-76.528062 -97.705893 29.566290 -56.575545
-77.316087 -94.472355 29.878900 -56.352570
-73.784784 -101.469214 28.345931 -57.336030
-84.608404 -96.261100 31.796976 -59.092323
-86.612192 -88.566578 31.515757 -57.007767
-92.367583 -123.412201 33.745668 -71.867751
-52.350234 -59.478150 22.465036 -33.862269
-88.556843 -111.578426 33.028216 -66.029892
-88.966747 -106.507162 30.885985 -64.353014
-57.543899 -65.703861 23.963275 -38.933108
-82.116010 -91.074318 30.916129 -56.188902
-70.607031 -75.812590 27.434435 -46.384734
-76.606427 -80.147327 28.928128 -50.163745
-68.041973 -65.380225 25.706228 -42.236774
-89.021224 -108.134040 33.200808 -64.942174
-69.875640 -73.152606 27.031480 -45.279953
-84.842448 -99.939153 31.967142 -60.936571
-52.641695 -85.310636 20.744693 -43.272662
-48.992152 -74.072961 20.872773 -37.833754
-37.149111 -65.919673 16.058568 -30.920635
-89.107709 -97.241729 32.838156 -61.765184
-49.966341 -79.789252 20.404404 -40.281090
-46.049374 -66.084703 17.939514 -33.640223
-44.067339 -67.785915 19.451579 -33.752091
-44.496583 -63.120769 18.021196 -32.285205
-45.232670 -70.372436 19.639905 -35.109238
-46.076090 -73.006155 19.643581 -36.365573
-41.233289 -63.919796 18.676808 -31.545925
-43.736257 -66.795985 17.859901 -33.159673
-43.546986 -66.891568 19.365929 -33.206769
-38.018382 -68.205444 16.006975 -31.867148
-50.967211 -79.769724 20.933746 -40.631369
-45.281122 -70.391564 19.674392 -35.112875
-60.540069 -93.810172 23.340735 -48.789594
-40.092170 -52.688410 19.098368 -27.834174
-39.710332 -69.464621 16.719018 -32.806479
-46.910223 -63.983151 21.001434 -33.377537
-45.559379 -63.686869 20.544678 -32.773875
-42.474447 -59.485989 19.324152 -30.588131
-43.260267 -70.008419 18.243388 -33.980606
-43.477264 -58.829874 20.054540 -30.692142
-44.280887 -60.308746 19.365512 -31.376890
-41.331358 -47.268085 19.279764 -26.579833
-40.083845 -57.336373 18.941298 -29.226065
-47.854158 -57.783106 21.376392 -31.691179
-41.242714 -63.136068 18.711765 -31.313634
-38.335974 -63.477148 17.318530 -30.543937
-37.971346 -55.438767 18.227286 -28.023034
-44.426865 -68.476464 19.501677 -34.143954
-45.610991 -67.070593 17.695185 -33.804475
-45.154925 -64.229051 19.414536 -32.815193
-35.899938 -56.291180 17.302746 -27.657335
-32.263319 -38.487995 16.754700 -21.225394
-40.361165 -59.448817 18.814297 -29.942995
-39.438079 -53.126912 18.890112 -27.769497
-41.164975 -57.724260 19.266653 -29.666770
-38.129722 -62.522056 17.371886 -30.195533
-35.534036 -46.986670 17.795007 -24.756212
-33.309362 -37.801150 16.987751 -21.333154
-39.453944 -49.525164 18.887824 -26.693732
-33.782404 -48.322629 17.153407 -24.631510
-22.276972 -29.639294 13.938753 -15.574880
-31.043803 -31.051768 15.820457 -18.628671
-34.610622 -45.078452 17.524130 -23.906722
-31.323734 -39.954619 16.551056 -21.383506
-37.374610 -51.220916 18.266290 -26.578658
-40.108444 -54.618218 19.036759 -28.417999
-38.775594 -61.644093 17.832635 -30.125906
-33.163029 -47.296082 16.990188 -24.137733
-32.726904 -56.264203 15.679856 -26.697332
-33.382089 -49.078082 16.969805 -24.738051
-39.406580 -57.756760 18.631632 -29.149002
-30.760493 -50.018617 15.740224 -24.233733
-40.958753 -62.257913 18.782236 -30.965000
-42.359441 -63.724230 18.788500 -31.825101
-39.584524 -60.634632 16.008168 -30.065747
-37.985895 -62.189784 16.095298 -30.052704
-42.353230 -64.452344 15.705334 -32.041672
-40.950501 -63.411808 18.605297 -31.308693
-26.157832 -50.100273 13.207098 -22.877432
-40.263066 -61.688180 16.679819 -30.585374
-41.292818 -62.567399 17.075642 -31.158065
-32.644942 -52.170452 16.353607 -25.444618
-40.255197 -62.218953 18.476187 -30.742245
-38.758727 -57.604197 18.355100 -28.908877
-40.960264 -61.603526 18.800616 -30.769137
-63.384587 -65.917865 25.141943 -40.167683
-32.829471 -54.376743 11.492745 -26.161864
-44.844309 -61.768516 17.270594 -31.983848
-49.562598 -78.413944 20.427754 -39.793105
-52.181998 -86.586673 20.190718 -43.850908
-51.093384 -83.070749 20.332884 -41.948129
-50.220449 -75.354144 21.246825 -39.071157
-53.329984 -83.266775 21.511177 -42.846657
-41.458263 -42.950150 18.953672 -25.322524
-47.622773 -78.708119 19.319377 -39.112310
-61.867311 -94.190183 23.974163 -49.928254
-51.282340 -68.678085 22.253420 -36.837014
-49.102407 -73.402748 20.982000 -37.700764
-42.588528 -42.298016 19.014957 -25.465963
-42.560703 -48.213168 19.639085 -27.232161
-51.368203 -63.935410 22.425633 -34.980216
-39.874952 -61.772363 18.344417 -30.494194
-45.289783 -57.691993 20.675723 -30.894533
-41.512144 -69.558747 17.261758 -33.321267
-60.059319 -69.957872 24.836942 -40.355944
-66.709704 -70.111113 26.171810 -42.878628
-71.183191 -85.960476 28.138613 -50.249843
-111.031178 -124.230992 39.293185 -80.541156
-42.034163 -52.517624 19.723978 -28.365536
-71.585878 -98.505125 27.747399 -55.055875
-73.314686 -68.840055 26.852560 -44.843426
-69.255968 -67.721937 26.227336 -42.943262
-45.156108 -66.675521 20.067846 -34.828585
-48.374300 -76.165617 20.237667 -39.243502
-58.572943 -61.899521 23.912725 -36.902495
-42.942551 -59.466523 19.808452 -30.722722
-49.884439 -55.480212 21.701759 -31.609395
-42.561071 -48.932295 19.700184 -27.448010
-57.339202 -89.633154 22.425536 -47.184358
-68.443122 -102.219902 25.913825 -55.216360
-60.972369 -96.089979 23.151211 -50.278988
-51.536575 -85.546677 20.040636 -43.649583
-60.969758 -92.358901 23.795388 -49.407953
-71.049516 -100.470781 27.306269 -55.576737
-75.279627 -105.557741 28.562780 -58.961930
-64.184161 -90.714311 25.462018 -49.926872
-69.561398 -97.029487 27.043037 -53.767673
-72.795143 -102.593923 27.799047 -57.968317
-78.475081 -106.493541 29.746392 -60.488724
-77.394955 -105.400707 29.410839 -59.701251
-63.995683 -96.088664 24.712162 -51.370947
-52.569521 -84.343095 20.915062 -42.933521
-54.463978 -88.515697 21.091679 -45.477971
-67.652650 -94.931951 26.468406 -53.316439
-55.624440 -87.727524 21.886710 -45.912162
-68.228852 -101.262732 25.950319 -54.806346
-53.167469 -86.779960 20.726990 -44.225300
-54.579683 -90.300780 20.736561 -45.816645
-50.748582 -82.386835 20.307128 -41.732178
-40.185982 -68.030026 17.379757 -32.569064
-53.485389 -89.087570 20.362421 -45.025825
-55.655937 -90.127551 21.408358 -46.169872
-50.905811 -82.797269 20.312001 -42.148799
-46.977003 -80.784281 18.415302 -39.896292
-39.887428 -64.992691 17.832369 -31.464036
-39.857946 -63.114203 18.138935 -30.891645
-44.662311 -71.763439 19.097946 -35.522525
-40.982703 -71.915272 16.926183 -34.352672
-46.908046 -75.381710 19.615741 -38.070853
-57.610882 -86.318503 23.135975 -45.601331
-51.630267 -83.906122 20.478478 -42.762299
-53.709696 -86.167824 21.169094 -44.058851
-57.266475 -88.051444 22.698539 -45.982155
-44.851407 -72.428593 19.078546 -36.289551
-30.869301 -45.866841 16.247801 -23.053544
-39.337596 -63.515413 17.789333 -31.120311
-55.328304 -81.726727 22.689404 -42.984066
-56.978220 -83.560243 23.202802 -44.245562
-27.944107 -49.603234 14.352182 -23.264203
-60.781274 -82.294031 24.859380 -45.175514
-54.381097 -75.776337 22.914915 -40.479953
-33.080299 -45.998760 17.016798 -23.723718
-28.429521 -50.707493 8.885277 -23.741104
-34.332432 -57.712410 16.206387 -27.613453
-46.736399 -74.742647 19.603436 -37.351368
-39.062889 -53.941238 18.702140 -27.901238
-35.749088 -56.421219 17.156041 -27.651092
-56.857218 -85.913903 22.828477 -45.064200
-46.408539 -74.174146 19.526849 -36.971307
-37.574589 -54.312731 18.143832 -27.566196
-45.621581 -65.398043 20.373096 -33.476689
-47.932558 -71.572757 20.665469 -36.608947
-44.089217 -72.915841 18.526935 -35.669388
-48.574462 -71.193757 21.013205 -36.688017
-20.186367 -30.019772 -2.301062 -15.061842
-41.574254 -65.572198 18.562495 -32.143935
-30.066842 -33.056419 6.112924 -18.936978
-40.046325 -54.783522 19.027145 -28.448954
-24.669352 -34.391394 8.256960 -17.718224
-40.171412 -62.361480 18.368585 -30.759868
-10.450629 -29.834637 -3.393409 -12.085580
-30.127464 -27.963996 2.662514 -17.427438
-23.718918 -50.810451 8.819739 -22.358811
-36.037286 -62.088042 16.257533 -29.437598
-20.230471 -45.597659 3.452201 -19.748439
-27.669556 -55.668224 12.517523 -25.001334
-23.617083 -38.311528 1.009371 -18.578584
-42.629867 -73.534724 17.499696 -35.394450
-24.017215 -32.879850 6.749154 -17.069120
-22.466644 -39.783751 10.632784 -18.675118
-29.214419 -25.844622 14.724513 -16.517712
-32.763455 -36.348112 9.686731 -20.733470
-27.625716 -31.217459 11.447912 -17.652952
-26.843285 -39.239716 7.348567 -19.824900
-21.403402 -29.178243 5.234312 -15.174493
-20.143115 -27.942057 7.618574 -14.425552
-24.100342 -30.440544 8.811950 -16.362266
-28.840508 -30.417540 12.396314 -17.777415
-28.324763 -30.822952 11.316426 -17.744315
-27.408936 -21.570481 13.606998 -14.693825
-34.925556 -32.693871 11.182500 -20.285828
-27.144991 -35.557596 10.086161 -18.810776
-21.492594 -33.300907 11.058535 -16.438050
-31.110337 -24.861583 14.627614 -16.791576
-28.447809 -45.232415 10.098217 -22.104067
-21.109982 -45.506523 7.659715 -19.984952
-23.423999 -38.345580 8.776898 -18.530874
-23.611682 -38.637360 8.931778 -18.674713
-26.238729 -55.279719 11.352838 -24.455534
-22.247278 -49.390124 8.705527 -21.491221
-21.014560 -46.135269 8.872963 -20.144949
-20.684680 -49.925001 8.682058 -21.182904
-27.157993 -55.380138 12.215347 -24.761439
-26.694005 -39.042228 2.458811 -19.720870
-23.840393 -52.449585 10.583962 -22.886993
-22.144185 -47.931888 8.327511 -21.022822
-26.852527 -37.101473 10.468021 -19.186200
-27.018021 -43.706071 10.728142 -21.217228
-15.830480 -21.945036 -3.609761 -11.332655
-29.074244 -31.674362 1.456778 -18.224582
-23.290708 -46.987143 5.620518 -21.083355
-21.048192 -32.978106 4.840832 -16.207889
-27.825078 -33.277188 9.689733 -18.330680
-41.324726 -42.493390 15.877354 -25.145435
-33.145793 -39.951546 12.212431 -21.929202
-45.783550 -53.030398 19.674381 -29.644184
-20.350815 -19.632223 6.449013 -11.994911
-30.712056 -32.737361 10.563966 -19.034825
-33.456317 -42.258979 13.196709 -22.714589
-27.040623 -45.704046 10.908312 -21.823401
-18.924520 -25.259650 10.583899 -13.255251
-13.950751 -16.501250 6.521355 -9.135600
-13.638846 -19.767890 6.579728 -10.022021
-26.629697 -15.747561 7.859915 -12.713178
-25.589081 -36.537252 11.062651 -18.637900
-27.087921 -19.447157 7.601831 -13.960523
-26.031204 -26.496086 12.312582 -15.758187
-25.758979 -20.663418 9.466383 -13.926719
-13.920605 -13.624062 5.786785 -8.263400
-6.568322 -3.864539 2.842022 -3.129859
-14.894772 -17.973214 7.957066 -9.860396
-13.660522 -15.746257 7.035049 -8.822033
-2.901386 -2.626804 1.337406 -1.658457
-9.907860 -8.890459 4.598299 -5.639495
-15.825955 -21.149104 7.403704 -11.092518
-3.119300 -2.841260 1.444331 -1.788168
-6.432142 -3.673334 2.884742 -3.031643
-3.715229 -3.015112 1.510869 -2.019102
-10.291110 -14.045052 4.333460 -7.300849
-7.896637 -8.695821 2.750949 -4.977737
-9.934648 -9.041698 4.373461 -5.692904
-9.246936 -9.748449 2.492677 -5.698615
-6.983124 -3.654336 2.925066 -3.191238
-18.843413 -21.450903 6.276419 -12.088295
-7.068420 -2.655748 2.336151 -2.917250
-20.336382 -23.694956 8.480139 -13.209401
-27.381330 -15.644322 7.920275 -12.907695
-5.313130 -3.262881 1.659134 -2.572803
-8.854300 -7.006867 1.356882 -4.758350
-9.207357 -3.469525 2.939681 -3.803065
-8.238264 -3.158213 2.298788 -3.418943
-11.110880 -3.006047 4.434277 -4.235078
-7.499487 -5.748083 -1.041984 -3.974271
-13.618634 -8.980019 0.350343 -6.779596
-24.898534 -23.559449 7.296320 -14.537395
-16.058541 -9.370913 5.783122 -7.628836
-13.668401 -7.558375 4.872971 -6.368033
-10.385006 -4.053671 4.547690 -4.331603
-11.168683 -5.015098 -0.943384 -4.855134
-31.226481 -30.036270 8.428314 -18.378825
-12.717443 -7.222002 3.813375 -5.981834
-19.833276 -6.903563 4.696232 -8.021052
-33.443703 -29.808512 11.603226 -18.975665
-31.338186 -31.487330 10.595381 -18.847655
-38.012794 -32.598384 12.790123 -21.183353
-26.939305 -26.691735 9.880173 -16.089312
-35.652982 -26.989283 13.205658 -18.792679
-37.014460 -37.289800 8.518886 -22.291278
-21.728701 -28.712625 12.463578 -15.132398
-16.325902 -12.612121 7.274821 -8.681407
-16.043879 -8.959144 5.737459 -7.500907
-29.314982 -25.531177 9.250022 -16.453848
-36.610788 -19.772582 11.815400 -16.915011
-27.809394 -34.069995 13.597698 -18.563817
-35.908663 -40.239941 16.919479 -22.844581
-27.326754 -31.826242 13.691733 -17.745899
-25.653269 -16.428713 11.471866 -12.624595
-34.109460 -27.065297 15.175229 -18.352427
-28.163852 -21.661154 13.718349 -14.947502
-28.079245 -21.348510 13.545736 -14.828327
-29.542845 -21.857633 13.691695 -15.420143
-25.837092 -36.849837 14.613619 -18.806079
-27.202658 -30.306908 14.975358 -17.252870
-23.323976 -22.215389 13.496790 -13.661809
-27.029778 -22.140671 11.872105 -14.751135
-34.716125 -29.563221 14.748702 -19.283804
-20.200057 -18.359257 9.710024 -11.567794
-33.831755 -30.004497 15.494518 -19.150875
-26.662913 -9.194482 7.282153 -10.757219
-27.787051 -10.164119 8.386643 -11.385351
-19.484325 -17.686188 9.543608 -11.151154
-36.563619 -26.756620 14.948261 -18.996072
-27.369431 -20.026408 10.929264 -14.218752
-20.787949 -11.172132 4.641483 -9.588024
-20.758857 -14.253680 7.718473 -10.503761
-14.808199 -9.482301 7.046391 -7.287150
-12.389751 -4.273334 5.630084 -4.998925
-14.353690 -8.501510 6.215199 -6.856560
-12.008826 -4.878363 5.579835 -5.066157
-13.518204 -5.465663 6.357845 -5.695160
-13.110733 -5.181427 6.194113 -5.487648
-19.998177 -12.607045 7.952510 -9.781566
-20.055838 -16.022057 8.734839 -10.823369
-15.924751 -10.058618 6.841410 -7.795011
-13.631352 -5.515005 6.629877 -5.743907
-13.745242 -5.482954 6.870132 -5.768459
-14.602224 -5.595551 6.885563 -6.059332
-14.703944 -9.104614 6.780047 -7.142568
-11.527149 -15.405908 5.092561 -8.079917
-16.115119 -11.186546 7.295718 -8.190499
-14.230412 -5.668983 6.736672 -5.969819
-15.127000 -5.796838 6.998489 -6.277151
-15.002361 -5.720487 6.946807 -6.216854
-14.724387 -5.918483 7.054098 -6.192861
-17.008268 -6.643703 8.277752 -7.095591
-15.355881 -6.236450 7.727947 -6.477699
-15.681378 -11.368253 6.947039 -8.114889
-13.678211 -10.535084 6.169765 -7.263988
-16.114726 -10.326538 8.015349 -7.932379
-15.050909 -13.790193 6.914358 -8.652330
-15.002664 -10.396738 7.677069 -7.619821
-15.510338 -13.495514 8.971244 -8.701755
-15.023310 -7.050754 8.378382 -6.622219
-15.414427 -6.562167 8.181267 -6.592978
-29.912611 -29.386479 15.417842 -17.789727
-12.183283 -16.245204 6.664176 -8.528546
-26.815219 -25.401824 14.427350 -15.665113
-12.706148 -14.285509 4.682012 -8.097497
-21.808656 -29.975560 13.765105 -15.535265
-25.321393 -26.751853 14.401493 -15.621974
-32.621022 -33.683340 16.391960 -19.891309
-29.718863 -30.039389 15.494282 -17.927476
-15.607932 -13.040453 6.875900 -8.594516
-30.376194 -29.874325 15.565381 -18.075156
-15.822380 -13.924332 7.521708 -8.924013
-15.761007 -16.075902 6.652058 -9.551073
-14.492321 -11.142943 9.045677 -7.690579
-18.531778 -15.487756 9.051782 -10.205860
-24.514497 -21.096047 11.814298 -13.683163
-14.733320 -12.839069 4.904399 -8.271717
-17.229642 -16.326295 9.727509 -10.066781
-20.664380 -13.214814 11.156452 -10.163758
-35.330360 -39.136587 17.433994 -22.340084
-29.920659 -32.759212 15.837120 -18.803961
-23.195389 -21.879914 13.275100 -13.522591
-15.657228 -17.278086 10.263721 -9.880594
-22.281107 -33.492280 13.853043 -16.732016
-25.592007 -29.410537 14.721309 -16.500763
-29.838617 -31.228874 15.666014 -18.320247
-13.893686 -14.851051 4.951303 -8.623421
-27.153107 -30.453921 15.107338 -17.282108
-22.946344 -21.196618 13.305405 -13.242889
-29.933558 -30.640338 15.611651 -18.172169
-15.428806 -17.194587 6.362603 -9.787018
-20.953824 -30.814449 13.513308 -15.530482
-28.168646 -39.128047 15.605057 -20.189008
-23.875695 -34.675523 14.343317 -17.565365
-29.653927 -33.358781 15.839261 -18.903812
-28.539821 -28.043753 15.047378 -16.975072
-22.392789 -31.738424 13.953246 -16.239364
-26.839653 -40.200052 15.091152 -20.111912
-29.909783 -40.755105 16.117972 -21.199466
-21.313611 -23.313259 13.357015 -13.388061
-25.943939 -20.319234 13.316121 -13.878952
-37.755335 -39.375180 17.601519 -23.139155
-34.610581 -42.827339 17.093950 -23.231376
-50.708016 -45.461010 20.376253 -28.850708
-29.933858 -41.067403 16.124311 -21.300378
-32.138367 -41.647621 16.777686 -22.135797
-36.609641 -56.214982 17.539966 -27.847387
-12.832070 -19.670314 11.213177 -9.750715
-29.849544 -45.283070 15.854727 -22.539784
-56.156625 -71.499128 23.704244 -39.575413
-10.095868 -15.519479 10.423211 -7.684604
-27.352773 -40.050178 15.291944 -20.220885
-44.744621 -58.861688 20.399225 -31.081893
-24.015345 -22.152667 12.136748 -13.850403
-25.940791 -32.571383 0.085862 -17.553652
-28.152852 -40.314898 15.561989 -20.540325
-23.627450 -25.387037 1.712261 -14.704346
-24.990513 -31.448745 4.345244 -16.931777
-42.113101 -49.756592 19.623932 -27.560908
-15.670084 -22.894077 0.274535 -11.569248
-22.285336 -24.196401 -0.541441 -13.944521
-26.146834 -32.777725 9.761699 -17.677368
-52.150695 -72.182303 22.331395 -38.746219
-21.536101 -36.800922 13.270837 -17.501107
-19.785851 -33.701776 12.895822 -16.046288
-55.587661 -75.235942 23.395430 -40.717087
-52.063375 -76.221909 21.927562 -40.035020
-34.374809 -46.173284 17.430695 -24.164428
-31.639065 -44.713416 16.577065 -22.905744
-20.713006 -29.738366 13.493502 -15.135412
-23.648226 -38.710816 13.957179 -18.707712
-24.792689 -41.102750 14.180364 -19.768632
-20.422945 -32.629211 13.231358 -15.915647
-39.207323 -50.106016 18.837178 -26.794001
-45.158315 -55.146307 20.533244 -30.091386
-13.483786 -21.621984 11.380476 -10.531731
-35.647537 -42.588236 17.729758 -23.470732
-27.288051 -31.589418 15.201368 -17.663241
-28.093465 -25.382031 14.456203 -16.042649
-46.485701 -57.333220 20.938173 -31.145676
-42.331273 -51.553916 19.724803 -28.165557
-15.975553 -25.213900 12.087239 -12.356836
-19.877603 -17.370278 12.264055 -11.174364
-21.275971 -20.575564 13.004389 -12.555460
-40.599341 -51.922445 19.245093 -27.756536
-51.661505 -79.066568 20.625572 -39.684668
-54.729228 -74.036384 23.200389 -41.064492
-43.721977 -72.566284 18.395485 -35.390855
-42.937553 -70.939862 18.272148 -34.386629
-28.887012 -46.731385 15.342015 -22.685519
-27.262654 -43.374418 14.985530 -21.191122
-25.980604 -54.253398 10.768717 -24.070200
-54.305353 -84.162032 21.850531 -44.318912
-31.199841 -52.559468 15.580710 -25.127793
-48.097708 -70.586729 20.848539 -36.702636
-41.119704 -65.222289 18.433750 -31.902598
-41.773732 -61.039925 19.291829 -30.844097
-60.634628 -89.866259 24.018995 -47.949569
-45.115380 -68.592013 19.907134 -34.366042
-59.688063 -88.404894 23.816135 -47.367862
-26.956776 -46.642444 14.406928 -22.576975
-32.240753 -51.110493 16.280012 -25.005374
-38.175669 -43.081346 17.325285 -24.377105
-38.709865 -56.463911 18.429727 -28.650968
-29.795082 -49.077945 15.428512 -23.661908
-28.742835 -37.870715 4.520583 -19.984065
-38.351761 -56.905018 18.246029 -28.577034
-47.384759 -66.972014 20.935696 -35.016102
-53.383171 -72.786437 22.775944 -39.332425
-32.926213 -43.341785 12.908805 -22.880399
-44.324178 -65.332447 19.857545 -33.114686
-30.521634 -30.692256 8.052858 -18.364167
-28.964712 -31.686232 3.700578 -18.195283
-26.475316 -40.189380 15.054686 -19.999409
-41.979369 -58.782988 19.482311 -30.283061
-30.517317 -40.612148 11.877396 -21.338839
-44.757739 -61.559664 20.328421 -31.895221
-29.510667 -48.048008 15.439503 -23.267603
-49.941250 -71.822722 21.516777 -37.634494
-27.178119 -31.594098 9.222979 -17.631665
-52.091192 -69.935193 22.449148 -38.217628
-27.132975 -28.959309 9.135986 -16.827685
-34.024004 -34.895654 12.413671 -20.675897
-32.075724 -46.714005 10.157905 -23.636919
-27.137052 -22.200415 8.394310 -14.801240
-28.659395 -32.255182 8.184787 -18.274373
-30.262942 -29.990912 6.287076 -18.076156
-24.565933 -18.876528 7.776889 -13.032738
-26.762397 -29.315049 8.009684 -16.823234
-23.693057 -24.753173 7.592570 -14.533869
-25.507561 -23.285101 7.493479 -14.637799
-13.518047 -26.603329 5.718170 -12.036413
-47.077101 -67.173237 20.805954 -34.650077
-21.002278 -19.123951 7.637121 -12.037869
-25.452472 -27.109667 8.397546 -15.768642
-51.957608 -74.509920 22.036720 -40.160114
-36.284769 -53.683749 17.689154 -26.990555
-28.173461 -37.522675 15.666112 -19.708841
-21.579000 -31.319301 13.715007 -15.869490
-61.853524 -81.422180 25.326616 -46.708029
-15.467064 -26.130846 11.899044 -12.479373
-56.350414 -78.077972 23.526285 -42.558223
-29.683293 -33.757161 15.896229 -19.032136
-39.928126 -62.215923 18.260517 -30.643215
-42.322266 -47.780823 19.544271 -27.030927
-51.150287 -64.896221 22.284420 -35.421999
-25.569187 -47.319731 13.493183 -21.866675
-43.889114 -59.948900 20.094094 -31.151404
-45.090515 -59.932387 20.496231 -31.506871
-22.844319 -33.559149 14.059050 -16.921040
-35.752021 -36.825439 17.279459 -21.773238
-33.998442 -45.492772 17.338156 -23.847364
-44.458090 -69.979188 19.242170 -34.738882
-20.387158 -27.285947 13.382149 -14.301932
-20.906294 -26.256455 13.491462 -14.148825
-32.798294 -46.235403 16.881930 -23.710109
-26.607310 -35.862801 15.174158 -18.741033
-32.220939 -40.758104 16.796786 -21.893713
-21.072593 -33.214224 13.431523 -16.286045
-21.221103 -24.194247 8.551319 -13.624605
-20.005677 -22.280206 7.694424 -12.685765
-9.636989 -5.363926 5.021034 -4.500274
-15.265416 -13.686588 9.297533 -8.685601
-22.875263 -30.113602 9.384124 -15.896660
-16.655954 -11.147551 7.477309 -8.341051
-24.093381 -25.707033 14.061187 -14.940124
-22.794822 -26.418372 13.590815 -14.763958
-18.339339 -16.107850 8.195801 -10.334157
-13.178214 -12.969926 7.592742 -7.844442
-22.851361 -24.599737 13.373624 -14.235329
-19.102907 -20.529854 11.731208 -11.889828
-15.641939 -15.634315 9.600920 -9.382876
-18.619395 -18.548011 10.973489 -11.150222
-15.857209 -6.606069 8.682632 -6.738983
-14.068010 -6.678103 8.156332 -6.223834
-13.352066 -7.121192 7.682813 -6.141977
-13.792667 -12.202193 9.015549 -7.798458
-17.039640 -17.559231 7.384520 -10.379661
-17.942854 -20.097148 10.525695 -11.412001
-14.624612 -12.323747 8.082083 -8.084508
-13.572762 -12.114473 6.423231 -7.706171
-12.578190 -6.532934 6.923781 -5.733337
-15.316797 -10.851799 7.312677 -7.850579
-9.643093 -4.799625 4.531709 -4.332816
-17.332714 -15.178706 6.822304 -9.753426
-19.972203 -19.504083 8.492808 -11.842886
-11.797426 -4.607246 5.189244 -4.921401
-14.128445 -10.582745 5.895338 -7.413357
-12.901633 -5.562567 6.209762 -5.539260
-17.518550 -10.269568 6.996991 -8.336435
-10.525184 -4.619831 4.733353 -4.543505
-15.997204 -9.922045 6.328934 -7.775774
-19.742851 -14.271336 7.769044 -10.204256
-13.943752 -5.575834 6.301185 -5.855876
-15.216463 -10.378025 6.072121 -7.678346
-13.069077 -4.892653 5.770251 -5.388519
-14.567275 -5.441482 6.525941 -6.002627
-18.738679 -9.802483 7.502187 -8.562349
-17.920195 -9.765855 7.247160 -8.305815
-16.599251 -5.641456 7.428332 -6.672212
-15.522404 -5.475665 6.958946 -6.299421
-20.390602 -20.104763 8.048357 -12.148609
-18.984608 -15.702112 7.576404 -10.406016
-22.020099 -24.569415 8.426690 -13.976854
-25.147471 -23.608868 8.484817 -14.626901
-21.948858 -19.623443 8.583601 -12.471690
-25.007635 -30.194204 6.931769 -16.560552
-21.579380 -23.588835 8.271160 -13.550465
-27.862873 -28.132726 8.383099 -16.798680
-22.104115 -19.210583 7.284194 -12.394409
-19.140844 -14.317537 7.123338 -10.037514
-24.278951 -23.350541 7.854983 -14.288848
-21.718710 -18.898928 8.123063 -12.185292
-23.146925 -18.669705 7.482867 -12.544989
-20.166457 -14.208463 7.132995 -10.312476
-28.713449 -25.472843 8.142313 -16.255888
-29.635674 -25.691174 8.050123 -16.598054
-28.447453 -21.423361 8.756499 -14.961244
-30.290342 -30.035251 7.636036 -18.097678
-27.462973 -18.367733 10.934224 -13.749212
-30.699516 -25.737524 9.547981 -16.931112
-26.307916 -17.773408 12.355007 -13.224397
-29.631860 -25.049648 14.013551 -16.404452
-23.338030 -13.715196 9.510981 -11.115968
-21.836273 -9.762722 9.870215 -9.479699
-25.125032 -14.991517 11.568694 -12.034965
-25.267769 -14.756624 10.355481 -12.007318
-24.321430 -14.250351 9.091137 -11.571534
-27.523961 -20.095221 11.098725 -14.285755
-26.963153 -17.741785 9.519888 -13.411481
-27.679571 -20.925708 9.563698 -14.581584
-24.338615 -18.750807 8.222761 -12.926826
-22.459664 -13.882865 8.304129 -10.902759
-21.290615 -14.055418 7.565218 -10.603810
-22.379436 -11.627517 10.508691 -10.202086
-19.933197 -9.986332 7.955855 -8.975859
-20.965650 -10.223002 9.143718 -9.356596
-19.002634 -9.639939 7.754536 -8.592772
-17.598892 -6.161082 8.317051 -7.127992
-17.686780 -5.585859 7.928016 -6.981792
-21.146564 -10.395923 8.714962 -9.462746
-17.526442 -4.926368 7.767681 -6.735843
-22.279251 -10.189368 9.720611 -9.740586
-18.848556 -7.434229 9.118767 -7.884835
-17.012568 -4.483023 7.995647 -6.448677
-25.499063 -14.971931 11.598271 -12.141298
-18.082200 -6.286082 8.869921 -7.310485
-18.207676 -6.955157 9.371833 -7.548850
-28.298366 -25.594246 14.794516 -16.167784
-17.894242 -6.573075 9.093068 -7.340195
-22.523307 -12.441290 11.052132 -10.489379
-18.943455 -7.658933 9.582922 -7.980716
-18.384357 -7.386795 9.538481 -7.731346
-19.169486 -8.905787 10.086344 -8.422582
-22.050427 -12.558343 11.264716 -10.382631
-21.581201 -13.875629 11.540673 -10.637049
-21.919362 -12.921335 11.416103 -10.452209
-25.911128 -18.253898 12.815435 -13.249508
-18.032843 -6.431297 8.886340 -7.339242
-23.005745 -15.268544 12.126229 -11.482287
-22.041139 -13.067959 11.270156 -10.532730
-24.393201 -18.068404 12.926604 -12.738482
-18.364087 -6.863305 9.010259 -7.568218
-17.216984 -6.490270 8.984087 -7.112176
-24.836477 -16.746434 12.369980 -12.474874
-25.178936 -18.590404 13.047636 -13.130802
-27.703059 -19.321150 12.788850 -14.107263
-35.338881 -27.794684 11.850043 -18.940070
-25.464770 -20.970386 13.459107 -13.930547
-29.026008 -20.967737 11.889947 -14.998123
-20.128293 -12.129770 10.981745 -9.677419
-25.469953 -19.819430 13.398229 -13.586815
-25.724868 -23.724225 14.015934 -14.834728
-27.113731 -23.670187 14.233336 -15.235175
-18.856732 -6.651266 8.838056 -7.652399
-36.473291 -26.572672 15.172450 -18.913789
-18.454441 -7.405015 9.263755 -7.757837
-18.766270 -7.522308 9.279677 -7.886573
-7.438398 -10.161929 9.533409 -5.280098
-18.124296 -7.060828 9.081273 -7.555537
-17.749752 -7.500782 9.410593 -7.575160
-18.675860 -6.970024 7.775383 -7.693765
-18.712866 -8.275699 9.630851 -8.096570
-19.816314 -12.566906 10.763306 -9.714966
-17.940887 -7.975686 9.590362 -7.774972
-42.741163 -45.024421 19.519864 -26.329675
-24.762228 -20.822013 13.413685 -13.675272
-16.283736 -16.245266 11.733956 -9.758701
-18.638876 -16.113783 11.982354 -10.425798
-23.739224 -22.671058 13.834960 -13.923085
-26.796462 -25.936512 14.541892 -15.819892
-22.829248 -18.639558 12.675159 -12.440642
-12.677970 -13.836429 10.830725 -7.954320
-27.313595 -21.120091 13.120276 -14.530106
-29.637063 -23.572667 11.316848 -15.962919
-27.624066 -27.249989 14.994077 -16.462217
-25.143870 -22.632214 13.955239 -14.332825
-30.231500 -25.128533 9.176504 -16.608010
-31.409955 -28.212618 7.594290 -17.886772
-29.444558 -22.978497 10.894125 -15.726916
-32.379277 -30.242038 8.067895 -18.786395
-29.693940 -28.742598 7.474360 -17.530962
-30.935994 -35.717931 4.582070 -19.996178
-33.358639 -27.305656 11.282242 -18.199289
-30.519972 -25.151451 10.223381 -16.701427
-33.356168 -28.013093 14.721496 -18.410778
-26.538069 -25.092966 14.280727 -15.489311
-29.695017 -29.715772 15.646095 -17.823237
-32.253795 -30.257397 15.785642 -18.753358
-30.999600 -29.985594 15.832598 -18.295558
-28.320677 -26.319423 14.950944 -16.392030
-40.930810 -37.016106 17.809970 -23.384075
-43.687765 -41.924717 19.074198 -25.683745
-38.954931 -33.821842 16.931397 -21.833032
-12.499118 -9.061769 10.056653 -6.468266
-39.376747 -34.452863 16.833272 -22.148883
-28.134831 -27.324423 14.685436 -16.637776
-46.233096 -46.778580 20.177050 -27.903503
-18.344121 -12.841874 11.229409 -9.355798
-35.186724 -26.859939 10.918200 -18.613999
-34.617046 -30.506451 8.613254 -19.537049
-36.535184 -27.909854 11.902933 -19.333511
-37.649565 -26.926091 14.342017 -19.372697
-31.282548 -31.851480 16.139105 -18.940208
-35.754622 -24.959979 13.635820 -18.214380
-48.098791 -50.531191 20.938378 -29.588994
-18.846682 -16.549733 12.141738 -10.618924
-28.574165 -26.412869 14.801618 -16.496110
-24.695538 -20.270710 13.269516 -13.489874
-19.382386 -13.033227 11.271596 -9.724684
-22.708926 -15.665316 11.684927 -11.512272
-27.215027 -26.891304 14.724803 -16.231899
-24.172379 -19.466869 12.875264 -13.091774
-28.785293 -21.940793 13.828067 -15.217826
-21.459218 -10.062471 10.067148 -9.456507
-24.011296 -12.914092 10.069057 -11.077616
-24.021041 -14.870454 11.729230 -11.667448
-22.108975 -15.784770 11.709890 -11.368124
-16.652463 -6.906752 9.188202 -7.067765
-18.725775 -7.576912 9.320943 -7.890806
-23.381757 -16.636587 12.315754 -12.005503
-15.913180 -6.416530 8.658409 -6.698913
-22.034236 -12.556726 11.030286 -10.377289
-15.077057 -6.005224 8.403624 -6.324684
-22.781296 -13.441968 11.309431 -10.866979
-18.596934 -11.345746 10.225871 -8.982804
-18.763191 -8.157413 9.578072 -8.076181
-30.498428 -26.555525 15.021317 -17.116186
-14.106288 -6.672759 7.680827 -6.233714
-18.805337 -7.205001 8.907816 -7.803101
-21.544193 -13.721950 11.102907 -10.579843
-19.128706 -11.746572 10.498987 -9.262583
-18.695411 -7.670582 9.371028 -7.909798
-14.984448 -6.425709 8.153725 -6.423047
-25.718793 -22.926020 13.902522 -14.593444
-22.544650 -17.393529 12.496207 -11.981453
-29.966550 -28.651142 15.358296 -17.585308
-22.513341 -16.748071 12.323448 -11.778423
-18.601138 -13.183655 10.774860 -9.535438
-24.610857 -20.435563 13.309245 -13.513926
-14.033567 -5.971428 7.252328 -6.001499
-23.107755 -14.577732 11.685303 -11.305646
-16.847443 -5.332302 7.523903 -6.653923
-18.728546 -6.047066 8.444631 -7.432684
-16.945747 -3.431384 7.527785 -6.113139
-16.962898 -5.558370 7.569786 -6.756381
-20.106480 -7.856722 9.425798 -8.388961
-23.646594 -9.571491 9.648406 -9.965426
-17.112121 -12.223592 10.279650 -8.800714
-16.865240 -16.920774 11.924255 -10.135804
-19.286294 -14.121051 7.323632 -10.022203
-41.025419 -27.969981 15.654727 -20.698620
-20.601488 -20.560378 12.949822 -12.348560
-24.524333 -21.028149 13.421500 -13.665745
-23.086479 -13.243338 10.789866 -10.898945
-18.944421 -16.766422 12.124433 -10.713253
-23.662497 -15.257410 11.914617 -11.675972
-18.153170 -5.856766 7.771463 -7.202981
-53.663670 -52.161687 21.899695 -31.747607
-29.638789 -24.042280 14.394098 -16.104321
-25.721494 -28.214497 14.693290 -16.180797
-47.472255 -34.654959 17.499340 -24.638164
-34.026588 -33.847840 16.671123 -20.362328
-33.320335 -29.956476 16.030958 -18.983043
-23.890818 -23.769782 13.862515 -14.298180
-23.499602 -22.102744 13.542230 -13.680704
-42.339896 -39.418002 18.547677 -24.527370
-27.291187 -27.921773 14.938595 -16.563888
-31.417055 -26.848622 15.129846 -17.479703
-25.911240 -29.969075 14.826494 -16.764094
-40.619123 -44.174413 18.939139 -25.438061
-32.520073 -33.714244 16.381470 -19.870295
-22.727468 -26.624058 13.961658 -14.805458
-20.793236 -19.961062 12.908267 -12.226289
-36.939833 -33.582868 16.948089 -21.156811
-22.734890 -13.586178 11.341885 -10.896320
-22.823600 -17.204795 12.456756 -12.008518
-15.367547 -16.008264 11.589801 -9.412744
-30.148508 -27.685210 15.201809 -17.350116
-28.372153 -26.268403 14.779364 -16.392167
-26.470470 -25.683588 14.466906 -15.646218
-28.648612 -26.155756 14.780069 -16.441310
-26.037788 -17.926784 12.675171 -13.189372
-22.660432 -13.643444 11.388142 -10.891163
-21.957156 -16.191027 12.171909 -11.444455
-26.009641 -18.628772 12.892082 -13.391524
-21.329772 -19.219774 12.654857 -12.164864
-11.904419 -10.317410 10.288431 -6.666549
-25.570858 -32.512755 14.899060 -17.425084
-42.670645 -40.243104 18.667095 -24.874125
-42.920854 -32.391806 16.867357 -22.593798
-34.726612 -23.972993 14.367161 -17.609882
-18.339650 -21.341242 12.708751 -11.904268
-33.925622 -32.488639 16.383284 -19.924278
-47.983931 -47.908514 20.520871 -28.767733
-20.940608 -25.020193 13.472718 -13.788240
-39.420852 -42.171646 18.663796 -24.477750
-36.553877 -30.945873 15.798886 -20.249925
-44.816041 -42.864393 19.370884 -26.304130
-30.704443 -34.706495 16.250200 -19.623281
-36.933338 -51.756656 18.108395 -26.952211
-39.705373 -32.060573 10.012792 -21.529784
-33.853670 -25.447071 2.551088 -17.790222
-41.775657 -32.523881 6.219627 -22.289861
-37.578993 -30.046895 12.648607 -20.287766
-47.690139 -36.689639 17.555111 -25.313933
-38.965979 -32.734825 13.670603 -21.510241
-33.143152 -41.535431 17.236155 -22.403575
-32.396891 -54.663203 15.789042 -26.118028
-57.307816 -84.500689 23.245162 -44.858498
-33.866919 -56.238895 16.301332 -27.031744
-43.503522 -68.501675 19.067013 -34.116188
-57.977635 -84.479052 23.092500 -44.070366
-44.699652 -70.805521 19.342153 -35.041387
-59.868470 -78.763906 24.791896 -43.561120
-67.553963 -84.051634 27.039021 -48.314491
-55.613147 -75.543764 22.600526 -39.780728
-67.933177 -87.008275 27.082908 -49.677764
-46.494822 -76.223559 19.173193 -37.980044
-61.771738 -77.382815 25.400566 -43.710498
-47.068803 -62.088400 21.148856 -33.418592
-50.609487 -78.232678 21.001699 -40.154149
-66.105203 -92.047878 26.142577 -50.707947
-58.031180 -85.820498 23.394860 -45.494861
-34.205518 -54.672266 16.705020 -27.520032
-61.912694 -77.148921 25.436569 -43.729730
-65.704709 -85.149710 26.456423 -48.164459
-59.331824 -81.581422 24.389358 -44.413055
-63.908487 -86.121716 25.757630 -47.722292
-67.456695 -84.179132 26.993198 -48.319744
-65.999078 -89.808597 25.837623 -48.880777
-71.365374 -76.627124 24.924255 -44.756144
-61.351435 -85.950721 24.778413 -46.722530
-66.521835 -82.447118 26.355973 -46.582683
-63.618274 -80.987353 22.101988 -43.381688
-70.313003 -86.397721 25.158729 -47.986398
-70.688324 -86.998753 25.591940 -48.861440
-69.972304 -84.447305 25.820808 -47.564001
-63.926125 -75.970072 25.986649 -44.216293
-72.940367 -92.616360 27.751412 -52.321891
-49.186848 -68.761690 21.465012 -36.225692
-64.435855 -84.624687 24.776429 -46.149005
-37.414843 -64.429387 16.567961 -31.710767
-56.053975 -79.523075 23.249669 -42.673704
-35.309882 -56.385791 16.966982 -28.621982
-66.762885 -85.737250 26.750936 -48.620813
-64.540058 -85.755684 26.034730 -47.844507
-67.312041 -86.809145 26.913231 -49.210563
-41.777131 -30.857664 12.690987 -21.790438
-36.885747 -27.771746 8.149506 -19.397248
-38.108058 -32.552667 16.356518 -21.198218
-40.428347 -30.742085 12.122518 -21.351130
-38.479380 -43.610492 18.477580 -24.626962
-34.622120 -35.043879 16.905479 -20.899800
-46.770891 -50.552356 20.664963 -29.196974
-39.561045 -44.627973 18.742090 -25.256705
-41.545476 -45.873261 19.389845 -26.225621
-43.516014 -52.231427 20.204342 -28.724232
-42.712696 -41.075270 18.982090 -25.136390
-42.318479 -29.578950 15.186040 -21.569229
-51.327100 -60.888845 22.346338 -33.912698
-39.839683 -41.861415 18.562823 -24.510329
-22.279786 -17.737852 12.722652 -12.005292
-38.282547 -29.503091 16.196759 -20.335691
-23.067239 -21.401684 13.380874 -13.340677
-44.978979 -38.823137 18.745154 -25.140635
-36.744400 -34.769143 17.128982 -21.454063
-32.483955 -27.711185 15.527169 -18.058542
-27.615334 -27.251920 14.859632 -16.460176
-19.110862 -16.110706 12.151425 -10.566470
-49.014604 -50.166442 21.038178 -29.754314
-43.634831 -40.560179 18.894042 -25.258503
-31.153453 -30.722388 15.815916 -18.562752
-44.085985 -39.282779 18.688540 -25.010629
-48.264422 -27.577535 13.822999 -22.752587
-50.386991 -59.031914 22.175364 -32.825671
-55.766383 -58.525292 23.111490 -35.029413
-46.958595 -48.472119 20.514757 -28.629214
-50.553443 -60.572973 22.097763 -34.300974
-43.338764 -61.601681 19.806329 -32.740431
-45.922678 -23.910267 4.476672 -20.949883
-36.658536 -22.111210 2.565526 -17.630924
-75.614128 -88.011810 29.265008 -52.631240
-92.481214 -99.908546 33.715695 -63.174618
-68.360423 -83.937872 27.300609 -48.515742
-98.149680 -109.230112 35.586230 -68.635982
-71.310704 -89.979869 28.110236 -51.982200
-48.821924 -72.594110 20.950771 -38.044583
-64.284373 -83.332639 25.196734 -46.055384
-67.833537 -83.733560 27.137493 -48.265093
-59.078763 -78.561805 24.448670 -43.267241
-67.873161 -78.753243 27.043882 -46.481061
-50.536616 -28.838136 10.038747 -23.812426
-44.639436 -28.379439 9.953699 -21.905663
-57.686172 -35.453279 13.564765 -27.941835
-52.878959 -33.740814 16.003822 -25.985932
-74.335564 -87.768741 28.226415 -50.980700
-74.074004 -89.802655 28.922598 -52.769288
-67.748686 -67.343049 26.171496 -42.346264
-45.582785 -49.164505 20.488112 -28.424187
-75.084314 -85.579804 29.083124 -51.890174
-88.666865 -102.766844 33.031616 -62.839330
-68.853555 -87.519662 26.562531 -48.871696
-84.752296 -100.359331 32.019211 -60.554697
-68.898850 -85.523156 27.474121 -49.965428
-104.776984 -107.917022 36.702653 -70.601025
-53.431726 -66.740683 22.960596 -37.521063
-75.189052 -82.629603 28.939713 -50.529128
-67.356438 -81.693518 26.973626 -47.351274
-72.780327 -87.419102 28.544951 -51.428169
-57.640287 -61.290319 23.683301 -36.472223
-53.935755 -34.433228 11.799704 -26.510695
-51.276791 -50.510000 21.480326 -30.536037
-48.524568 -46.462021 20.450434 -28.495977
-51.938018 -43.000024 19.973713 -28.481413
-49.212973 -46.359708 20.554429 -28.671804
-52.302600 -53.065302 22.047944 -31.610371
-48.181652 -50.483004 21.050483 -29.599397
-51.561951 -53.182347 21.805224 -31.423289
-50.749239 -50.730618 21.396337 -30.443957
-43.788546 -35.613914 17.931038 -23.820738
-53.993401 -44.374115 20.453081 -29.510255
-37.701482 -29.207307 16.106128 -20.072637
-47.417687 -37.971255 18.629328 -25.616683
-58.474198 -52.566179 22.561221 -34.598073
-75.231774 -67.581450 26.878807 -45.007751
-23.497822 -20.308060 13.350438 -13.141765
-40.182553 -34.777193 17.534321 -22.487924
-22.239950 -17.949113 12.765990 -12.056719
-54.564052 -46.805417 21.070275 -30.410841
-18.530310 -2.764292 1.631199 -6.388380
-32.991263 -19.448903 0.381316 -15.732050
-14.560898 -2.043532 -1.356680 -4.981329
-23.741118 -2.128051 -0.068886 -7.760751
-17.588956 -7.239041 -1.907790 -7.448399
-23.617913 -6.700716 0.722290 -9.095589
-12.265360 -2.058333 1.416223 -4.297108
-18.747622 -8.610005 -1.627873 -8.207288
-18.982006 -6.038643 3.142932 -7.506195
-26.468771 -10.344556 1.568419 -11.043998
-34.039975 -21.392079 13.677474 -16.629616
-22.071188 -14.913012 11.979569 -11.095260
-19.791544 -9.450774 6.833456 -8.772695
-27.522118 -10.195704 7.779973 -11.315347
-21.367032 -8.451696 7.378638 -8.945618
-31.930090 -22.042485 14.023916 -16.191772
-21.299023 -9.208348 9.999446 -9.152211
-24.778093 -9.651019 9.612656 -10.328733
-20.632603 -6.986118 9.198018 -8.285616
-21.825206 -6.373517 1.854288 -8.459617
-14.360330 -1.594887 -0.499382 -4.786565
-17.709719 -1.640551 -1.285153 -5.805081
-19.791535 -2.384856 -1.161861 -6.652917
-16.505821 -3.925477 -2.464743 -6.129389
-14.051901 -1.289411 -0.743093 -4.602394
-1.670551 -1.878536 0.324192 -1.064726
-2.675093 -2.316473 0.456286 -1.497470
-8.350000 -5.824518 2.616909 -4.252356
-6.450159 -2.044350 -1.193453 -2.548353
-7.745760 -2.066997 -1.304224 -2.943827
2.076230 -1.888105 0.234079 0.056438
-6.508961 -1.904823 -0.333421 -2.524135
-6.959209 -1.969090 -0.013829 -2.678490
-1.991762 -2.445730 0.672217 -1.331248
-0.610603 -2.150985 0.188784 -0.828476
-15.968138 -1.620903 -0.114349 -5.276712
-13.753857 -5.829452 -2.526607 -5.874993
-13.827880 -2.080114 0.559759 -4.772398
-3.453593 -1.927582 0.943888 -1.614352
-1.090307 -2.198071 0.182181 -0.986513
1.290257 -2.090465 0.347508 -0.240062
2.475992 -2.025369 0.038241 0.135187
-3.459851 -2.054420 -0.997200 -1.654281
-12.372271 -2.271921 -1.093712 -4.393257
-1.735570 -2.610290 -0.782272 -1.303758
-1.970401 -1.863761 -0.372648 -1.150249
-3.901000 -2.665700 -1.084271 -1.970010
-4.443154 -7.291999 -1.341714 -3.520546
-6.230327 -2.580855 -1.434551 -2.643355
-9.480088 -6.354108 -3.015199 -4.750259
-9.818198 -2.218156 -1.382840 -3.610906
-4.138114 -2.196364 0.689843 -1.900343
-1.615550 -1.976155 -0.049865 -1.077512
-6.678201 -2.015163 0.265888 -2.608009
-0.614647 -2.334289 0.226104 -0.884681
-0.539381 -2.318527 -0.217150 -0.857372
-0.352278 -2.596237 -1.115625 -0.884554
-3.035104 -1.990434 -1.030799 -1.507661
-0.904516 -2.184952 0.196912 -0.926840
1.315353 -2.743512 0.355522 -0.428448
-4.242298 -2.033244 1.077457 -1.882663
-1.220188 -2.061219 0.289717 -0.984422
-6.508329 -7.218009 1.393180 -4.117901
-4.329303 -6.584646 1.058510 -3.274185
-10.484309 -10.614251 1.862169 -6.329568
-0.085237 -1.901989 0.387763 -0.596168
-2.358223 -6.164780 0.858863 -2.556901
-9.518499 -11.780515 2.304261 -6.389704
0.744334 -2.608548 -0.066695 -0.559264
-3.016476 -8.673013 0.677283 -3.506847
-5.936960 -6.091230 -0.920651 -3.608457
-6.609694 -5.447820 -0.499051 -3.617254
-6.111174 -6.210087 -0.168196 -3.696378
-8.220635 -16.359239 3.051670 -7.373962
0.798183 -2.296806 0.488664 -0.449587
-8.097039 -11.434813 1.255525 -5.859555
-6.407320 -8.249227 -2.296565 -4.396964
-5.965266 -5.240209 -1.280532 -3.361642
-11.985637 -8.995803 3.948414 -6.294432
-7.273361 -6.469617 0.993147 -4.122893
-1.016064 -6.872306 -0.251005 -2.366511
1.780659 -2.903598 -0.696529 -0.336882
-1.417665 -8.174232 -0.617576 -2.877569
-1.800782 -2.114607 -1.260598 -1.174617
-3.847839 -10.254391 -3.759519 -4.230669
-8.370444 -12.508152 -2.642247 -6.263579
-6.469135 -14.661013 2.343312 -6.339044
-2.657550 -2.603292 0.673477 -1.578253
-4.568175 -8.397208 1.264986 -3.889615
-3.440749 -6.654180 -0.168444 -3.028479
-6.071192 -6.313689 0.547152 -3.715464
-4.289822 -2.240223 0.676501 -1.959013
-5.818126 -6.546016 1.195141 -3.709243
-3.269585 -2.382471 0.849779 -1.695617
-14.304715 -7.580429 -1.975867 -6.565543
-13.303589 -1.609818 -0.583138 -4.474022
-13.931220 -2.338691 -0.366771 -4.880973
-3.531448 -6.609644 -0.154289 -3.042328
-7.481022 -11.958045 -3.136454 -5.831720
-6.641569 -7.581622 -2.620779 -4.266957
-9.282149 -9.627866 -3.852335 -5.673005
-15.143411 -8.218722 -0.758944 -7.008640
-14.564979 -4.940138 -0.347185 -5.851535
-8.677202 -6.575413 -3.189913 -4.575784
-15.370877 -12.229354 -4.838153 -8.280069
-11.596522 -9.404573 -4.141508 -6.300329
-13.912987 -7.580042 -3.022514 -6.447909
-3.971950 -7.886707 0.655567 -3.557597
-5.565382 -11.404942 -1.139309 -5.091097
-7.114531 -6.499370 -2.848207 -4.084170
-12.433304 -16.110210 -5.583630 -8.563054
-7.271780 -9.777743 -0.698631 -5.114857
-11.329551 -16.330121 2.351881 -8.297901
-6.446160 -5.797365 0.849394 -3.673057
-7.222519 -10.016777 0.200449 -5.171789
-4.412930 -7.550709 1.744919 -3.589092
-10.419013 -17.192736 -2.786535 -8.283525
-7.634886 -11.564418 -3.043178 -5.759791
-6.620610 -8.265847 -2.512705 -4.465937
-15.835577 -10.905997 -2.453148 -8.022472
-14.152073 -6.065057 -1.596946 -6.065139
-14.354421 -6.094344 -0.445131 -6.134630
-13.479993 -9.994597 -4.145062 -7.042377
-15.447123 -9.820839 -2.552218 -7.580389
-13.763348 -8.840029 -3.474309 -6.781013
-16.419501 -11.078748 -0.994741 -8.249475
-5.571080 -11.964362 -0.200818 -5.260633
-10.469131 -17.003158 -3.641984 -8.241687
-11.049642 -11.680892 -4.426013 -6.819160
-14.968311 -15.854613 -5.867472 -9.246877
-5.866713 -6.244800 1.361972 -3.633454
-7.303682 -10.225182 1.130095 -5.258659
-5.059565 -6.991009 1.505933 -3.615172
-12.177738 -26.110911 -1.579491 -11.486595
-3.530659 -7.519966 0.813149 -3.315188
-5.975127 -11.018825 2.743677 -5.098186
-2.277898 -8.616003 -2.031670 -3.268170
-10.061168 -19.399177 0.875366 -8.838103
-4.826784 -5.267586 -2.055610 -3.028311
-5.206793 -13.624582 -5.281119 -5.649413
-5.409535 -5.999822 -1.741193 -3.422807
-8.948874 -13.682180 -2.993210 -6.789316
-7.000002 -8.520040 -1.228354 -4.656012
-7.145140 -9.516695 -1.751611 -4.998550
-8.247563 -7.832105 3.041776 -4.823900
-23.128599 -28.669199 5.794287 -15.539339
-10.902696 -15.471936 2.686621 -7.912390
-4.602271 -8.928495 1.738446 -4.059230
-2.226919 -9.019492 0.378598 -3.373924
-0.303540 -5.702230 0.090841 -1.801731
-7.505602 -13.140685 1.840668 -6.193886
-5.997088 -15.522156 -0.715228 -6.455773
-8.583585 -7.178925 1.927823 -4.728753
-16.995578 -19.486198 3.379459 -10.944533
-1.242205 -6.146062 0.713221 -2.216480
-5.092922 -6.507220 1.276519 -3.480042
-6.089172 -10.544391 1.031809 -4.990069
-1.483955 -6.572472 0.432417 -2.416928
-1.489920 -7.097893 -1.134243 -2.576344
-5.287151 -16.133845 -1.040210 -6.426299
-3.067386 -7.064220 -2.889621 -3.039482
-6.117481 -10.338149 -4.017452 -4.936689
-4.407830 -6.087821 -2.493191 -3.148695
-6.742668 -9.470944 -2.885471 -4.864084
-5.905073 -6.111660 0.989338 -3.605020
-6.691314 -10.504322 1.521102 -5.158691
-0.950632 -5.694821 0.640076 -1.993636
-12.295225 -18.402158 2.403823 -9.209215
-2.010954 -8.276132 -0.767729 -3.086126
-3.993548 -12.545475 -1.736504 -4.961707
-16.607277 -6.214291 -1.340120 -6.846471
-14.309851 -2.166740 -0.243282 -4.942977
-17.254842 -9.422468 4.422218 -8.003193
-9.386115 -6.585271 2.950868 -4.791416
-5.545460 -3.551195 0.544927 -2.728996
-21.766042 -11.842402 1.369203 -10.082533
-4.887162 -3.301224 -0.028474 -2.456516
-20.041334 -10.065408 -0.816218 -9.032022
-17.969076 -6.374297 2.228340 -7.303012
-15.317693 -7.533506 3.612932 -6.855360
-26.940562 -19.351950 -0.471527 -13.887753
-16.212191 -7.664293 -2.950935 -7.162945
-18.118391 -8.679221 -2.489662 -8.039284
-15.573318 -5.915218 2.174309 -6.446561
-19.235333 -8.564751 -0.295694 -8.340025
-16.100147 -7.111271 3.002479 -6.963425
-12.711975 -8.958071 4.204274 -6.501014
-13.195875 -11.531230 2.895385 -7.418132
-12.160121 -11.740865 4.559216 -7.170296
-14.381122 -15.049359 2.950426 -8.829144
-16.686302 -6.020931 0.820292 -6.812170
-17.388261 -9.582695 5.575954 -8.091287
-15.361965 -10.168923 4.530239 -7.659266
-23.290383 -12.303001 6.907552 -10.678015
-20.706320 -15.635771 -0.042734 -10.902627
-18.437435 -8.627985 -0.124224 -8.119626
-23.246635 -15.547482 -1.032349 -11.638235
-24.042622 -11.581773 3.579552 -10.687319
-17.735836 -9.758192 4.034456 -8.248208
-16.966795 -10.131217 1.968508 -8.129404
-16.189508 -11.186930 4.392471 -8.212932
-22.991690 -21.690329 0.969493 -13.404606
-20.391375 -13.007938 -1.820636 -10.019794
-16.154523 -6.637580 -3.938481 -6.837631
-19.813139 -7.880646 1.621725 -8.308136
-17.041125 -1.732975 0.276671 -5.632230
-16.179990 -2.234406 0.694764 -5.524319
-20.960075 -12.323423 4.635453 -9.985049
-20.154577 -5.034300 -4.512412 -7.556663
-31.220753 -23.676662 -3.015969 -16.469225
-22.618522 -10.052188 -0.821977 -9.801213
-22.318277 -9.305211 -0.789026 -9.487047
-24.518579 -11.084178 6.174654 -10.680827
-19.549192 -2.189043 0.831485 -6.521471
-36.169469 -13.509165 3.344828 -14.903590
-36.189605 -12.013705 3.270626 -14.460993
-20.338031 -6.985359 2.454483 -8.197017
-22.886060 -9.580875 1.036236 -9.740080
-25.390608 -14.531584 0.544640 -11.976658
-20.900168 -8.145307 1.038286 -8.713643
-20.162875 -2.109416 0.437519 -6.681687
-26.552313 -19.696060 5.398147 -13.874512
-21.706977 -5.746814 0.910851 -8.236137
-18.570971 -14.419927 1.023877 -9.897269
-20.079815 -5.301719 2.319782 -7.614460
-21.447530 -6.253552 1.254558 -8.310325
-23.598081 -14.285604 -1.245876 -11.365105
-21.015523 -12.965271 -2.335086 -10.194238
-12.253692 -1.579872 -1.387308 -4.150069
-20.812578 -8.379909 -2.063756 -8.757746
-19.660589 -7.106665 -2.650008 -8.030176
-20.354876 -7.884119 -1.481700 -8.471699
-24.009825 -7.395472 3.108046 -9.421589
-18.719962 -1.779370 1.005169 -6.149800
-15.130855 -6.512601 3.599596 -6.493037
-15.158584 -2.580031 1.169828 -5.321584
-6.373400 -1.922223 1.921594 -2.488687
-11.327129 -5.230401 3.565481 -4.967259
-21.389214 -2.014020 0.214514 -7.020970
-21.490955 -6.359463 0.599617 -8.355125
-16.097827 -2.356836 1.193817 -5.536399
-20.974846 -5.660558 1.521250 -7.990621
-21.995946 -2.267466 0.096730 -7.279024
-22.366741 -2.257342 0.179374 -7.387225
-20.527562 -2.094159 0.183925 -6.786516
-21.754236 -2.174171 0.069221 -7.178522
-4.724624 -2.875100 -0.752380 -2.279917
-20.325357 -6.457359 -2.435098 -8.034815
-17.084210 -2.262256 -0.709817 -5.803940
-16.819143 -2.766538 -1.711393 -5.875704
-19.008750 -7.215285 3.068522 -7.867211
-13.152646 -2.764896 1.141710 -4.775263
-16.113874 -5.428173 3.057871 -6.462614
-20.455785 -7.762345 4.026686 -8.465439
-18.151324 -4.716526 -0.883168 -6.860355
-18.140061 -4.794552 0.359208 -6.880384
-19.095602 -6.283315 1.105944 -7.613675
-17.433061 -5.169189 1.592360 -6.780675
-16.046974 -5.651009 2.569304 -6.509395
-14.232668 -6.280605 3.070938 -6.153982
-12.781573 -5.637716 2.976644 -5.525786
-10.142321 -2.073060 1.294522 -3.664614
-12.868256 -7.320703 3.656284 -6.056688
-12.574487 -2.806840 -2.009184 -4.614398
-14.515395 -4.256338 -1.851709 -5.631520
-16.404768 -5.749296 -1.163316 -6.646219
-14.806217 -1.415764 0.068950 -4.866594
-15.059786 -3.919867 -0.375141 -5.693896
-16.589531 -5.798465 0.579195 -6.716399
-11.364364 -1.391343 -1.415825 -3.826712
-13.719839 -2.314969 -1.167680 -4.810443
-13.708636 -1.692910 0.725725 -4.620464
-12.029075 -1.945562 1.023811 -4.192391
-11.349610 -5.540852 2.952776 -5.067139
-5.082028 -1.973101 0.883484 -2.116539
-4.859120 -4.540542 1.777152 -2.819898
-11.343574 -1.711783 1.122058 -3.916607
-8.339781 -2.141518 1.179219 -3.144390
-8.545951 -2.497176 1.346024 -3.312938
-10.163495 -2.682411 1.805412 -3.853772
-11.313812 -5.945714 2.472205 -5.177858
-7.293145 -1.220735 0.758846 -2.554164
-2.794939 -2.068979 1.268795 -1.459175
-15.216092 -1.286071 -1.080298 -4.950649
-16.992645 -1.532766 -0.374290 -5.557623
-17.061041 -2.229944 0.039574 -5.787295
-2.009950 -1.432496 1.069652 -1.032734
-15.695550 -1.961704 0.815187 -5.297176
-14.602410 -2.192141 1.187236 -5.038365
-18.875250 -2.345707 1.358947 -6.366287
-20.590166 -8.690360 -1.669356 -8.784158
-4.777674 -3.142505 0.233671 -2.376054
-13.528063 -2.085456 0.971950 -4.684056
-11.433444 -1.950104 0.765133 -4.015064
-12.980036 -4.972968 2.832957 -5.385901
-7.567039 -3.382214 1.373935 -3.284776
-23.692755 -2.109521 0.067961 -7.740683
-23.164096 -2.168514 0.223936 -7.599783
-18.432270 -2.952296 1.591174 -6.415370
-22.911501 -2.141620 -0.483679 -7.515936
-23.291348 -1.888628 -0.304793 -7.553993
-33.283294 -12.261113 8.151837 -13.663322
-33.671215 -14.777979 8.723188 -14.534758
-21.295589 -6.369235 3.415901 -8.299447
-15.237551 -1.882663 0.982220 -5.136064
-19.871541 -2.306239 1.598847 -6.653334
-17.303597 -5.507837 2.433667 -6.843430
-9.271175 -2.578594 -2.265165 -3.554931
-21.739208 -2.272915 -0.861030 -7.203637
-25.324096 -5.627756 -0.747040 -9.285556
-21.647704 -2.101365 0.171651 -7.124721
-24.736968 -6.415611 0.810796 -9.345774
-23.359747 -2.133929 0.183808 -7.648103
-25.507965 -6.294003 0.547446 -9.540590
-22.438721 -2.129341 0.232586 -7.370419
-22.870975 -2.181711 0.216384 -7.515806
-13.229747 -1.784056 0.848031 -4.504141
-28.118956 -13.869760 1.892088 -12.596615
-21.029642 -6.510212 -3.397176 -8.261956
-24.198757 -5.182868 -1.411543 -8.814487
-32.405224 -8.460714 5.021383 -12.259782
-40.251180 -20.632847 12.522547 -18.265208
-21.698736 -1.961864 2.521576 -7.098180
-21.182639 -1.921439 4.134084 -6.931223
-22.152653 -1.761813 -0.630328 -7.174340
-32.078418 -13.107878 -4.085372 -13.555889
-48.553523 -32.364238 16.751127 -24.275328
-34.918824 -11.714572 6.060505 -13.990019
-19.839583 -2.886273 6.282493 -6.817757
-29.015467 -11.721612 9.999680 -12.221124
-33.575158 -25.443937 15.012116 -17.705728
-36.463054 -27.430613 15.594009 -19.168100
-34.921173 -16.092234 10.521430 -15.304022
-68.288742 -41.333194 18.002545 -33.137746
-65.906538 -62.093298 25.032485 -39.573320
-41.709604 -38.207388 18.360424 -23.975098
-56.081502 -51.469546 22.145262 -32.265314
-75.833207 -63.662297 25.955542 -43.901876
-65.626171 -56.650898 23.899158 -37.985526
-64.778958 -56.475932 23.800035 -37.261694
-58.957116 -52.443896 22.580573 -33.986050
-54.102239 -50.232412 21.740334 -31.300395
-63.757178 -60.334987 24.507321 -38.264645
-46.279335 -43.858101 19.802602 -27.041231
-30.915074 -25.249041 14.884299 -16.849235
-48.313101 -38.597261 18.794996 -26.073109
-29.183162 -23.367597 14.362641 -15.765228
-61.416213 -49.994279 22.088059 -33.798786
-57.585503 -45.912804 20.919169 -31.049492
-49.658887 -38.832692 18.884282 -26.547474
-19.965774 -4.924889 8.079349 -7.467199
-24.457664 -9.381109 9.678934 -10.151632
-32.194684 -10.744314 8.076351 -12.881700
-44.538963 -38.797827 18.681066 -25.001037
-62.454581 -58.876329 24.105963 -37.204798
-33.092501 -25.659312 15.073541 -17.625544
-26.293979 -18.670165 13.065710 -13.489243
-21.054757 -6.360091 8.470681 -8.224454
-28.824970 -12.899453 8.534093 -12.517327
-53.150152 -26.307463 11.034647 -23.837284
-59.137630 -59.373771 23.745011 -36.537906
-54.350401 -63.773682 23.337634 -35.879659
-60.485214 -68.146629 24.831554 -39.861697
-53.564669 -34.071512 14.595192 -26.290854
-40.920897 -48.249287 19.485010 -26.751055
-50.795956 -56.609957 22.004584 -32.221774
-51.029436 -58.365571 22.174693 -32.818502
-87.405215 -93.615754 32.225925 -59.050980
-62.789238 -81.501025 25.651642 -47.616061
-71.761801 -89.921247 28.251001 -52.168518
-81.603285 -95.124279 31.065976 -57.584804
-66.991472 -83.062837 26.886624 -49.076578
-94.313338 -101.509382 34.241070 -64.408186
-91.177614 -99.982526 33.516418 -62.771481
-69.550543 -86.811378 27.642563 -51.360400
-76.376698 -107.689592 28.281988 -59.050411
-82.001714 -84.074723 30.297329 -53.523507
-89.105929 -93.643117 32.530000 -60.695689
-103.970468 -101.789730 34.131186 -66.233300
-86.273367 -133.889118 17.568805 -74.312542
-98.088582 -138.092599 19.987214 -79.443740
-91.896166 -127.743256 15.960899 -72.118674
-93.493113 -118.533691 30.653726 -67.411120
-108.613345 -127.509939 13.904323 -71.712470
-80.637312 -129.413361 20.360807 -66.372352
-73.430017 -113.288790 25.738153 -59.937149
-85.711776 -109.961594 26.004004 -60.279740
-95.985726 -92.550369 33.336572 -61.797853
-92.360008 -76.942960 29.793335 -54.690798
-103.508489 -118.482037 37.348963 -73.922602
-93.263262 -120.825165 34.280974 -75.896900
-99.858571 -109.416922 35.992402 -69.676652
-93.385045 -107.503586 34.403879 -66.255948
-95.736704 -111.623167 35.213196 -68.539365
-103.600244 -113.720815 37.073593 -72.684766
-75.413082 -91.507640 29.324331 -54.386538
-76.677586 -80.325402 29.009959 -51.207538
-103.332747 -140.754636 15.190347 -78.773739
-89.592429 -129.050122 14.859631 -69.993975
-98.005503 -107.581798 35.462813 -68.483948
-91.012458 -115.234579 33.804140 -68.163155
-88.081523 -140.781434 23.213200 -81.018247
-76.734976 -132.649624 21.264994 -67.819420
-87.258203 -124.851647 21.745811 -64.971325
-86.913021 -123.922450 25.269403 -66.064413
-82.197278 -114.689673 23.866633 -60.730983
-87.074802 -110.303527 29.274783 -62.348857
-99.762404 -114.338299 36.257883 -71.310589
-117.508596 -114.173616 39.368909 -77.533174
-101.548600 -115.492068 36.717251 -72.201511
-80.776176 -109.565551 30.384807 -63.591262
-105.407959 -115.171060 37.585486 -73.480999
-69.315343 -84.206289 27.609875 -50.242422
-59.413482 -29.595245 12.447303 -26.702618
-56.173985 -31.272593 10.508332 -26.233973
-62.714821 -68.628375 25.295882 -40.922283
-90.719278 -96.232186 33.106643 -61.136361
-77.149235 -85.988519 29.549343 -52.516797
-66.804580 -69.680823 26.181524 -42.810414
-66.821513 -70.772845 26.358734 -43.066673
-79.037479 -75.044459 28.581549 -49.193809
-51.752277 -52.625254 21.782616 -31.313259
-56.312681 -62.088746 23.584151 -36.086599
-68.778908 -40.000134 16.769128 -32.633713
-64.333256 -44.458337 20.266819 -32.637478
-66.629015 -44.506152 19.762797 -33.521267
-61.371951 -72.176039 25.480458 -41.437268
-68.823605 -67.109771 26.165227 -42.578512
-42.755165 -41.037801 18.966944 -25.137890
-57.414981 -64.419152 23.972643 -37.341162
-60.527769 -63.030257 24.460971 -37.948331
-56.258035 -57.888115 23.168266 -34.504520
-58.008427 -60.133958 23.704285 -35.979597
-62.991280 -37.043871 16.624946 -30.010545
-66.644011 -49.388137 21.865214 -35.147461
-62.390651 -66.272956 25.121104 -39.818707
-71.556649 -71.838020 27.213619 -45.337974
-79.091983 -93.441817 30.392887 -56.724435
-72.391928 -84.938809 28.427651 -51.329173
-82.139273 -91.618506 31.028399 -56.415672
-88.631064 -100.288505 32.981359 -61.943337
-79.779644 -93.751182 30.567015 -57.986114
-105.698813 -121.770304 37.985015 -75.985728
-78.438038 -93.056102 30.199649 -55.858616
-78.600418 -92.611303 30.230148 -55.492604
-89.465225 -107.686982 33.457079 -64.827202
-91.978624 -115.214167 34.142278 -68.480728
-104.486618 -119.560894 37.638269 -78.597037
-92.464824 -106.013318 34.157290 -68.001182
-80.653805 -121.262815 21.777465 -62.672430
-84.585986 -142.706786 19.594949 -73.082559
-94.497306 -89.847771 32.754994 -60.776942
-95.252627 -103.039838 34.503829 -65.344293
-85.113073 -136.299286 19.724720 -78.596182
-78.278926 -136.373544 22.384187 -70.636725
-85.779337 -116.253117 25.070048 -62.448996
-90.945249 -126.565930 20.429568 -65.590801
-84.221897 -101.048463 30.696152 -59.104468
-90.618328 -103.129817 32.564936 -62.265555
-109.627988 -121.811156 38.939284 -77.605225
-113.775800 -115.579679 39.087926 -76.691936
-98.847177 -115.578417 36.084790 -71.237521
-93.416303 -105.192705 34.327263 -65.560566
-87.486599 -109.861480 32.822630 -64.953498
-81.304903 -99.372318 31.050730 -59.013882
-78.307959 -96.958051 30.212333 -57.930673
-80.289913 -95.043721 30.747703 -56.904065
-78.522765 -109.090578 29.616631 -61.367332
-91.220801 -115.994499 33.878118 -68.498344
-88.748572 -117.942663 32.847199 -68.349756
-103.659479 -130.090685 37.438993 -78.304115
-92.512723 -119.307976 23.331574 -63.842193
-87.236626 -134.211076 19.041884 -68.895371
-87.809970 -103.391246 30.371705 -60.519380
-91.742466 -98.951009 30.303307 -59.914305
-72.712751 -82.490905 28.422074 -53.027120
-77.979121 -90.903938 30.049609 -55.501064
-99.784367 -113.693701 36.232893 -70.918614
-100.415094 -116.879572 36.519817 -72.287749
-89.807133 -103.788594 33.416355 -63.677412
-73.408062 -80.671374 28.435543 -49.365312
-86.009578 -96.564065 32.183394 -59.757595
-90.612996 -102.619311 33.559886 -63.537425
-102.795038 -115.512534 37.041205 -72.591778
-103.626278 -113.444849 37.058376 -72.177694
-92.411618 -110.105178 34.266552 -67.313447
-87.207872 -100.562194 32.653182 -61.546646
-97.182950 -99.520865 34.562309 -64.747878
-63.700221 -34.107012 14.531412 -29.342170
-61.741269 -67.384775 25.082909 -39.996665
-71.616204 -72.491155 27.256160 -45.513838
-80.971720 -45.405209 17.158007 -39.048899
-97.640435 -81.600632 31.499689 -58.013278
-85.738794 -59.643686 24.115553 -46.000071
-64.942467 -55.417997 23.838855 -36.519307
-66.444046 -70.940709 26.286081 -43.009067
-61.175386 -61.059372 24.279494 -37.684696
-67.483046 -59.468452 24.588838 -39.263805
-69.323767 -61.640326 25.216736 -40.709158
-51.552417 -40.935932 19.414800 -27.746505
-37.444230 -30.041655 16.308417 -20.245765
-39.303638 -14.748557 7.237049 -16.215659
-47.383494 -22.624528 10.772197 -21.002406
-42.956267 -23.680984 13.492730 -19.991175
-40.587767 -18.592029 10.833777 -17.753939
-67.692147 -53.601604 23.065123 -37.257787
-47.594345 -35.778609 17.909492 -25.011886
-49.966105 -38.353032 18.742309 -26.495741
-53.474109 -38.893456 18.698307 -27.710269
-63.721948 -54.847512 23.365980 -36.519644
-46.669312 -38.839125 18.771185 -25.652531
-38.412941 -33.070075 17.049524 -21.444905
-69.088501 -55.861066 23.735886 -38.571048
-47.340339 -48.611938 20.637082 -28.785683
-61.931380 -57.637399 23.813033 -36.623595
-44.034985 -40.541736 18.999211 -25.373016
-66.367765 -55.981088 23.701053 -37.704619
-61.865403 -54.005153 23.101863 -35.531549
-57.250915 -52.083271 22.364370 -33.186322
-63.580718 -52.672882 22.841597 -35.586066
-60.288951 -51.214498 22.372273 -33.921140
-34.803661 -27.123710 15.484163 -18.578211
-42.075636 -32.065084 16.920029 -22.242216
-39.139598 -17.842306 10.962479 -17.094571
-31.425295 -13.195608 10.144252 -13.386271
-39.534260 -29.290712 16.124541 -20.647492
-54.157650 -39.925032 19.065958 -28.224805
-26.658478 -15.407036 11.943359 -12.619654
-48.745909 -35.986310 18.025687 -25.419666
-31.856905 -11.196246 8.196088 -12.915945
-53.860966 -36.161733 17.766776 -27.006810
-39.824230 -20.100026 12.220196 -17.977277
-38.054922 -18.837045 11.686652 -17.067590
-33.397665 -14.498622 8.840846 -14.368886
-25.029467 -8.665313 4.758460 -10.108434
-43.634141 -21.860963 12.347036 -19.648531
-37.268100 -15.837161 10.344610 -15.931578
-24.749198 -7.754723 4.292532 -9.751176
-25.208186 -6.699507 3.811879 -9.572308
-8.630488 -2.140887 2.028111 -3.231412
-23.481204 -9.149771 4.623393 -9.789292
-22.851461 -5.279585 -2.219730 -8.439314
-26.897628 -8.427345 -1.850113 -10.597492
-25.197887 -6.296291 -1.898199 -9.448253
-21.271959 -5.866568 -3.009445 -8.141558
-26.126321 -15.071147 2.946954 -12.359240
-24.306114 -6.464481 0.799853 -9.231179
-26.060019 -10.552984 1.700020 -10.983901
-22.421200 -6.407139 0.683905 -8.648502
-30.282469 -10.876621 0.480417 -12.347727
-26.075715 -6.232793 -0.225195 -9.692552
-26.628950 -6.631688 0.409533 -9.978192
-26.008843 -6.207831 0.224152 -9.665002
-21.568673 -11.536249 -1.033097 -9.931477
-25.334886 -13.992925 -1.033856 -11.798343
-24.111211 -6.781564 -2.897565 -9.267833
-23.725854 -10.827981 -5.535254 -10.366150
-43.246295 -21.285547 12.005437 -19.359552
-44.744834 -24.209001 13.336649 -20.686150
-40.290730 -18.984672 11.086106 -17.782621
-31.368098 -11.421727 6.327232 -12.836948
-29.242751 -14.576232 9.222107 -13.145695
-24.689873 -9.921847 4.990528 -10.383516
-14.827243 -5.758582 4.219502 -6.175747
-30.747965 -13.435127 7.729235 -13.254927
-25.559855 -14.454764 0.958467 -12.004386
-33.956840 -17.650132 -1.267946 -15.482091
-29.136923 -10.779155 1.206113 -11.974823
-28.272760 -14.253065 2.703729 -12.757748
-27.601343 -14.100992 2.811504 -12.510701
-27.300963 -10.533378 1.471120 -11.350302
-26.809368 -13.650539 -1.526248 -12.137972
-31.387744 -15.605109 0.212697 -14.097856
-28.512292 -9.604036 -2.364306 -11.434898
-24.431502 -8.713956 -4.294643 -9.943637
-38.393870 -21.668956 1.899207 -18.018848
-22.090712 -9.835103 6.747177 -9.577744
-27.555529 -10.813319 -4.880105 -11.510654
-26.262875 -11.009099 -5.398042 -11.181592
-36.376336 -15.232902 -1.752382 -15.482771
-30.854076 -11.040366 -0.495128 -12.568333
-28.112965 -10.008448 0.860592 -11.436424
-44.451381 -18.861375 -2.885175 -18.993827
-32.548268 -17.240498 3.794230 -14.936630
-30.450135 -13.716286 2.061903 -13.249926
-31.609076 -14.854866 2.594422 -13.939182
-35.211790 -23.288195 7.056943 -17.549995
-32.116319 -13.417924 -2.080067 -13.660273
-37.006890 -18.362143 3.584854 -16.610710
-33.537012 -14.592811 1.601527 -14.438947
-31.302276 -13.072336 0.935102 -13.312384
-40.426255 -20.787899 12.134958 -18.364246
-39.865055 -21.193014 12.618741 -18.317421
-46.849421 -27.069089 4.475476 -22.175553
-33.672483 -17.603683 9.336188 -15.382850
-45.824891 -25.068770 13.652019 -21.268098
-50.719933 -29.020787 14.839233 -23.922216
-37.915177 -21.006364 12.496801 -17.676462
-38.467577 -17.678239 10.173188 -16.843745
-35.403899 -17.721687 3.778415 -15.937676
-55.741585 -34.472120 5.927131 -27.064111
-67.500289 -49.495107 21.641311 -35.808059
-50.763388 -25.287885 11.673483 -22.815382
-80.655687 -51.511252 20.957011 -41.368031
-45.338533 -25.093866 13.770717 -21.129720
-60.112224 -53.115578 22.731584 -34.371134
-51.228025 -45.562512 20.570947 -29.037161
-81.512231 -56.876199 23.199486 -44.185675
-72.772303 -45.381226 19.249974 -36.351510
-77.582865 -67.292085 26.907501 -46.115802
-69.441541 -67.705348 26.328200 -43.230689
-70.563523 -61.220978 25.114739 -41.175711
-63.609404 -55.715685 23.514743 -36.550964
-77.372142 -70.941617 27.658253 -47.080569
-76.196332 -74.547741 28.202784 -47.905182
-78.244144 -74.308079 28.391669 -48.967110
-81.781876 -77.764162 29.350107 -51.483432
-87.162047 -81.026122 30.427933 -54.459527
-72.032548 -69.607075 26.921080 -44.828849
-81.555468 -71.048476 27.969580 -48.679498
-72.239301 -64.136650 25.940567 -42.734087
-74.768025 -61.930430 25.380859 -42.934028
-72.514216 -59.261618 24.627046 -41.081481
-49.129557 -36.716678 18.173738 -25.753871
-62.481411 -49.001809 21.656312 -33.747891
-61.739531 -52.391474 22.643472 -35.240942
-59.595627 -51.520385 22.396903 -33.541023
-45.873828 -31.815855 16.593627 -23.306905
-52.500298 -37.999328 18.480841 -27.149888
-72.550963 -73.327524 27.542760 -46.126591
-84.102790 -72.444391 28.772301 -49.685619
-68.642566 -64.984314 25.819235 -41.762969
-75.487812 -71.251946 27.562114 -46.704113
-79.383033 -67.251511 26.989752 -46.459747
-60.769874 -50.150363 22.065887 -33.489350
-78.303080 -85.539436 29.801169 -52.828635
-61.122196 -64.612009 24.677230 -38.864651
-83.899271 -82.565639 30.367471 -53.660416
-88.142754 -85.121072 31.292089 -56.285189
-98.686292 -112.406287 35.914649 -70.160453
-94.430468 -106.363908 34.625147 -66.203887
-84.747035 -53.714664 21.363464 -43.489933
-66.010404 -41.388864 18.400249 -32.219780
-86.021526 -106.242369 32.439036 -64.118645
-87.904049 -101.374021 32.857598 -62.190653
-89.492274 -105.284449 33.386345 -64.049430
-101.264934 -112.652587 36.505689 -71.037162
-78.984245 -90.766996 30.253630 -58.515840
-90.530517 -112.328628 33.734832 -67.044173
-93.877965 -114.492720 34.674552 -69.017179
-102.412680 -117.811851 37.069438 -73.363590
-92.352502 -104.666934 34.006425 -63.921376
-89.042572 -126.763524 17.179382 -65.537784
-89.360295 -118.617446 32.296065 -67.585787
-73.904862 -108.064774 27.581329 -60.268410
-85.700686 -123.800676 19.511904 -63.738091
-90.908033 -109.783346 29.201052 -62.830021
-88.582370 -108.810558 25.571012 -60.094105
-89.200927 -117.717876 24.433565 -63.240044
-92.385677 -152.985932 19.050843 -79.474134
-88.355984 -146.312939 18.273061 -75.283752
-89.321330 -94.423731 32.674097 -59.291370
-92.366219 -102.469230 32.831859 -62.597510
-80.645707 -103.352087 29.257627 -58.506911
-89.943572 -102.764482 31.355576 -61.322711
-92.672634 -121.388608 34.080648 -71.027449
-88.505693 -118.778985 32.615216 -68.401419
-83.709334 -106.831027 31.668219 -64.332344
-98.307177 -139.474656 33.590959 -81.387513
-91.936102 -124.699587 33.157270 -70.906901
-89.015641 -111.153446 33.190840 -66.001939
-88.015922 -104.609341 32.965064 -63.298143
-79.095078 -107.701875 29.631999 -61.172621
-95.178763 -162.305282 25.473966 -85.445389
-88.887244 -135.966452 18.945843 -70.471061
-88.642059 -117.088003 22.352171 -61.891421
-179.336672 -169.893775 55.489830 -120.410800
-110.629947 -178.876942 32.896620 -98.604804
-100.981327 -171.729718 27.603812 -91.621108
-78.049059 -144.421813 18.645264 -74.176006
-92.299184 -157.954268 21.427468 -82.063114
-92.275983 -137.895078 19.173726 -72.028697
-51.010148 -96.067118 1.885376 -44.750835
-93.552912 -133.515309 30.547334 -74.885712
-82.526179 -114.036659 30.178322 -63.884530
-99.308856 -119.867803 36.237251 -73.982065
-91.308607 -111.757494 33.945725 -67.046299
-105.258536 -125.185378 37.888447 -77.087545
-107.045040 -135.537334 32.311109 -81.829907
-94.312360 -106.289878 34.509712 -67.901550
-109.313510 -124.463027 38.972394 -78.286480
-100.633126 -121.142213 36.551868 -78.014569
-89.502225 -110.877748 33.397740 -66.072474
-89.106991 -102.252344 33.184576 -62.870908
-90.169201 -103.207213 33.479540 -63.546412
-63.626323 -47.457610 21.560135 -33.325180
-81.000363 -46.810367 18.150296 -39.595354
-77.245076 -103.803403 29.551685 -60.666738
-100.941124 -119.052276 36.697992 -73.310644
-85.840152 -93.269516 31.911035 -58.347870
-73.372745 -76.135889 27.997490 -47.515379
-86.282664 -100.224208 32.414349 -61.107574
-83.834005 -83.183883 30.448873 -54.288984
-85.789861 -93.385214 31.906913 -58.511689
-84.995285 -88.546895 31.293659 -57.192890
-77.422023 -69.354566 27.319168 -46.514948
-72.259724 -67.878023 26.644703 -44.171107
-73.978886 -78.663833 28.313102 -48.936994
-90.401927 -83.565504 31.206892 -56.580734
-91.932310 -83.347236 31.244519 -57.030151
-71.929476 -66.273571 26.280121 -43.406873
-99.380026 -123.228610 36.253600 -74.178668
-108.406122 -119.795697 37.712136 -75.651028
-89.167146 -105.531441 33.238686 -64.252064
-88.229928 -88.677776 31.811625 -57.532171
-103.470597 -121.227272 37.341405 -74.994280
-93.271416 -106.859490 34.380532 -66.115363
-89.000563 -108.985648 33.221461 -65.427253
-86.653870 -102.655294 32.578471 -62.117401
-99.812736 -137.836675 30.979950 -78.481856
-101.125418 -133.959702 36.091673 -78.598410
-107.485401 -129.353507 38.294795 -78.960664
-86.820538 -107.078019 32.644442 -63.825220
-99.965372 -172.852821 26.471611 -92.256297
-67.709821 -130.173153 14.399907 -65.220747
-89.940223 -108.970499 24.268997 -59.715162
-91.653693 -105.802417 32.846861 -63.563492
-81.833963 -133.319489 14.616235 -68.360545
-89.925710 -154.613141 20.097362 -79.983981
-92.340874 -110.387541 29.090233 -63.276205
-146.123132 -161.531376 49.348427 -107.079988
-92.286061 -120.859220 33.859243 -70.193429
-86.062484 -108.304529 31.698350 -62.691791
-84.448019 -111.760029 27.874074 -67.050324
-101.006532 -128.774373 36.424037 -76.480830
-106.288864 -127.712866 36.650672 -77.519176
-96.830399 -113.273727 35.399032 -69.619902
-104.672655 -130.982846 36.545255 -78.120880
-89.327259 -116.757595 33.062513 -72.134627
-94.324707 -109.872123 33.711171 -68.835311
-97.688009 -126.651915 35.473767 -74.864827
-83.910758 -148.225819 22.852448 -77.666366
-129.757209 -186.597479 42.520106 -111.342530
-94.846878 -134.321191 30.688385 -74.823526
-87.473391 -116.940168 32.006095 -66.460267
-90.072777 -119.059805 23.858119 -63.655106
-84.440565 -118.534648 15.876906 -61.158778
-90.666535 -109.029436 33.279227 -64.711961
-94.384878 -136.586343 26.852810 -74.015135
-101.850562 -141.037368 28.310253 -78.990977
-81.278321 -117.072191 27.819446 -67.417014
-102.396960 -124.868607 33.218779 -78.400861
-101.378948 -131.052291 31.701968 -75.874266
-82.954585 -108.733102 31.262692 -64.061016
-107.167207 -122.486681 37.648872 -76.534181
-98.206616 -113.151775 35.769573 -70.108970
-88.665636 -111.165729 33.061447 -66.417916
-98.607428 -125.539082 34.769431 -75.708942
-98.208023 -112.679398 35.744127 -69.950284
-104.838600 -125.646252 37.774958 -77.100438
-101.322564 -133.175100 35.764933 -81.687890
-70.389945 -74.935806 27.213748 -46.323468
-97.029373 -104.440368 34.980999 -66.575709
-88.224398 -73.731626 28.775215 -52.093595
-69.467777 -59.759347 24.724208 -40.147110
-97.087846 -98.094282 34.285697 -64.213039
-102.573038 -98.677123 35.059506 -66.321409
-89.988863 -94.779598 32.803292 -60.871326
-90.796820 -98.654899 33.259347 -62.686136
-85.854545 -57.978948 23.667708 -45.196674
-102.221043 -99.284424 35.122665 -66.529558
-78.961070 -63.649188 25.866307 -45.030130
-74.338154 -59.686231 24.724530 -41.893575
-71.903397 -59.934583 24.842739 -41.087332
-79.380864 -66.578665 26.677599 -46.436089
-26.102944 -11.372696 9.968444 -11.242692
-138.514160 -81.859805 24.999838 -73.413258
-64.204473 -33.531001 13.695886 -29.320642
-55.636961 -29.125264 13.064770 -25.428667
-56.546181 -43.398128 20.073456 -29.983293
-70.807844 -55.001231 23.352223 -38.937428
-53.995758 -38.797402 18.590757 -27.837948
-67.278330 -53.318948 22.889981 -37.014639
-81.785547 -72.375557 28.247703 -49.422090
-81.012715 -76.532967 28.984534 -51.082062
-79.077867 -64.632074 26.156906 -45.550043
-55.037591 -43.466177 20.110875 -29.551130
-68.291965 -58.300566 24.322469 -39.832312
-86.281863 -73.371956 28.626797 -51.249454
-73.353060 -63.577653 25.751001 -43.048950
-66.763609 -57.675182 24.102193 -38.599181
-63.421069 -54.810000 23.270188 -36.102317
-68.169357 -57.251255 24.002422 -38.754149
-57.259018 -46.074063 20.863832 -30.999924
-63.205055 -50.554622 22.112055 -34.543651
-62.371337 -49.196974 21.714468 -33.728244
-68.297004 -55.004351 23.394225 -37.993633
-61.975907 -47.955666 21.342497 -33.095982
-54.812922 -42.862352 19.934718 -29.302582
-48.056669 -33.386527 16.986295 -24.432959
-55.832121 -39.011825 18.536160 -28.453184
-69.790178 -50.982185 22.033740 -37.098065
-43.718993 -28.649862 15.348070 -21.710656
-39.478894 -15.344843 7.919457 -16.447121
-26.126664 -11.161148 9.615872 -11.186344
-53.680630 -34.244753 16.818021 -26.377615
-53.099298 -26.617411 8.346413 -23.915013
-48.398300 -28.678816 3.136677 -23.123135
-48.164773 -24.769724 2.328113 -21.880349
-47.824723 -26.752408 14.092835 -22.373139
-56.460422 -31.358780 14.920527 -26.345761
-45.967184 -23.951882 3.999474 -20.975720
-44.411624 -22.249100 5.305163 -19.998217
-44.475207 -24.195233 2.024690 -20.601132
-37.488667 -16.442828 -6.626817 -16.179448
-31.592503 -12.729632 -4.590224 -13.296641
-49.085564 -23.640257 4.739491 -21.817746
-44.843584 -18.134146 -6.599044 -18.893319
-36.251760 -15.402989 -3.473764 -15.496425
-35.753483 -15.849498 0.923426 -15.480894
-54.018765 -28.616563 7.280165 -24.790598
-31.069896 -21.005504 5.924337 -15.622620
-31.277448 -18.393471 4.337133 -14.901276
-49.896184 -25.957708 7.016687 -22.756168
-38.991409 -17.860498 1.786492 -17.055572
-30.615080 -18.334470 4.691697 -14.684865
-40.799706 -21.886709 5.896677 -18.805924
-51.407864 -26.830006 1.860829 -23.471361
-54.293631 -29.868150 0.205180 -25.248534
-36.020079 -15.423257 -3.803616 -15.433001
-33.940238 -12.793131 -8.702134 -14.020011
-56.988051 -29.924576 13.741090 -26.073788
-77.221490 -41.182739 15.283581 -36.162727
-96.407181 -53.971234 18.044543 -47.010281
-55.317875 -34.236249 9.145059 -26.866237
-65.648653 -36.553285 6.115350 -30.660581
-59.245510 -35.423131 3.429445 -28.400593
-47.891345 -25.811356 0.023413 -22.110810
-58.411269 -35.204642 3.810844 -28.084774
-41.003188 -17.781748 -0.214047 -17.635481
-49.104569 -21.587767 2.997729 -21.207701
-25.759652 -18.758030 5.742532 -13.355305
-29.468330 -20.774849 6.675485 -15.072954
-22.662484 -21.505365 8.286070 -13.250355
-18.813703 -13.406972 -0.518864 -9.666203
-52.090500 -31.506233 0.525060 -25.079020
-51.083670 -35.047975 0.611859 -25.839493
-43.031227 -25.615253 -3.510368 -20.593944
-24.960658 -20.180246 -4.994358 -13.542271
-56.655260 -31.025182 -5.678835 -26.304133
-31.690225 -17.178969 -3.477846 -14.660758
-38.766513 -22.893969 5.500020 -18.498145
-24.631494 -15.664388 -5.667769 -12.088765
-42.200552 -29.326417 -6.876557 -21.458091
-32.656057 -18.336965 -2.047594 -15.297906
-30.507666 -16.062978 -2.806265 -13.971193
-32.821689 -20.406183 -1.000200 -15.968361
-24.784089 -20.107556 0.336592 -13.467493
-23.604788 -13.142109 -1.718826 -11.024069
-26.220068 -14.754922 1.771958 -12.292497
-26.765147 -17.840680 1.372850 -13.381748
-29.074234 -26.216518 -2.516343 -16.587226
-27.018581 -22.507401 -1.758591 -14.857795
-23.940271 -13.280613 7.189578 -11.166265
-25.721474 -34.226641 7.706945 -17.984434
-26.131915 -25.117085 0.299268 -15.374700
-29.199940 -27.607705 -2.278329 -17.042293
-22.810293 -11.807096 4.439501 -10.385217
-27.489507 -13.870013 -0.104197 -12.407856
-30.158781 -24.674567 4.043218 -16.450004
-23.221702 -16.416634 6.549395 -11.891501
-26.202138 -26.128533 -0.956219 -15.699201
-25.959004 -26.512640 2.037803 -15.741493
-29.421388 -42.373374 5.992267 -21.538429
-31.595136 -35.961791 -3.284103 -20.267078
-22.725848 -10.615434 -2.682586 -10.002384
-23.675081 -16.619184 0.494496 -12.088280
-28.546470 -22.352202 -1.546395 -15.269602
-21.196427 -9.546106 -2.493154 -9.222760
-26.770607 -20.508241 1.087673 -14.183655
-25.882461 -8.914109 -0.622874 -10.438971
-24.921034 -12.677776 1.750108 -11.279643
-23.227793 -9.486948 -1.876422 -9.814422
-22.528765 -11.501875 4.214727 -10.209192
-26.874553 -14.725826 7.091771 -12.480114
-22.605426 -16.459469 8.252290 -11.719468
-24.681381 -28.559636 8.144356 -15.972305
-25.711227 -15.960334 1.007451 -12.501468
-22.724905 -11.266213 1.293081 -10.197335
-26.018495 -26.719365 0.605853 -15.821358
-19.905646 -16.736311 0.405461 -10.992587
-34.309023 -20.620828 3.658125 -16.478955
-42.209210 -24.991648 5.851218 -20.160257
-30.702021 -25.303349 4.441704 -16.801611
-29.038426 -18.980947 0.757705 -14.405812
-14.799065 -25.880426 2.940506 -12.203847
-27.067784 -16.585155 -0.923448 -13.095882
-15.208765 -27.798823 3.481030 -12.902276
-25.900077 -30.177207 1.864232 -16.823185
-31.177660 -15.852662 -3.157081 -14.109097
-29.795536 -16.046715 -2.844044 -13.752675
-37.051362 -17.886962 4.797172 -16.481497
-27.287472 -10.131520 -4.387894 -11.225698
-22.300592 -10.807697 1.441615 -9.932487
-12.915758 -20.036649 3.259122 -9.885722
-31.326031 -13.109387 -3.081384 -13.330626
-32.822245 -21.461069 -6.705398 -16.284994
-52.728047 -21.145527 5.420416 -22.162072
-25.906407 -13.038164 -3.641401 -11.683371
-27.368297 -16.734758 4.259480 -13.230917
-24.720896 -21.469417 6.046411 -13.857094
-23.705327 -16.410822 1.563634 -12.034845
-24.697130 -15.634680 3.295073 -12.099543
-23.634960 -15.918661 0.445737 -11.866086
-22.640045 -23.856199 1.559899 -13.948873
-35.723288 -20.937982 3.246064 -16.998381
-47.232532 -24.279809 8.333820 -21.453702
-33.059028 -23.991422 2.722911 -17.115135
-27.198264 -21.253424 -2.004784 -14.535506
-30.655644 -25.130860 -0.390883 -16.735951
-23.475498 -13.537920 1.015418 -11.104025
-37.861057 -18.607359 4.479736 -16.940525
-31.722492 -14.884466 2.284618 -13.982087
-28.969343 -13.304614 0.603790 -12.682187
-32.571141 -16.176118 2.528903 -14.624178
-25.033479 -17.123501 2.732634 -12.647094
-24.457971 -11.349236 1.527675 -10.742162
-23.004860 -10.561379 0.940433 -10.069872
-21.167287 -10.417774 0.972250 -9.475518
-25.466236 -10.735423 1.648875 -10.860498
-27.652370 -15.038890 3.159269 -12.807378
-20.274421 -15.095571 2.089927 -10.610998
-23.614817 -11.314703 1.209265 -10.478856
-29.592242 -16.572065 -2.169067 -13.849292
-23.445579 -9.976216 1.324380 -10.026538
-28.989309 -8.917422 -4.609163 -11.372019
-17.727933 -8.179645 5.858572 -7.772273
-33.065693 -11.252389 -3.660626 -13.295425
-23.952192 -7.142096 2.422448 -9.328286
-26.547786 -19.629859 0.469190 -13.853293
-25.951070 -13.295860 -0.441565 -11.774079
-22.467287 -10.388646 -2.936529 -9.856780
-22.152676 -8.881147 -2.469669 -9.310147
-18.780448 -11.186844 4.647680 -8.990188
-23.300891 -20.028789 1.803479 -12.998904
-23.274737 -20.091062 0.443103 -13.009740
-23.342469 -21.697208 -0.348946 -13.511903
-21.428126 -9.831706 2.512163 -9.377949
-24.221775 -12.611115 2.139555 -11.049867
-20.009621 -10.130561 3.835505 -9.042055
-22.555748 -14.260123 5.497744 -11.044762
-20.607278 -13.294013 -1.659879 -10.170387
-24.052442 -18.221616 -0.183800 -12.682217
-21.725604 -11.072057 -2.012538 -9.839298
-22.077552 -9.587827 0.558273 -9.499614
-21.662483 -16.168999 -0.269156 -11.349445
-23.825899 -20.245429 -0.837147 -13.221398
-21.413081 -14.735684 -1.314512 -10.844629
-25.176450 -18.846808 -1.136049 -13.206977
-16.115409 -13.068230 5.680860 -8.755092
-24.362335 -20.723553 6.503058 -13.525766
-23.841032 -20.544125 -1.001252 -13.315547
-24.391541 -19.550059 -1.731465 -13.182480
-21.163675 -14.887502 -0.749305 -10.815353
-26.650199 -20.247451 0.716826 -14.069295
-27.714813 -13.994869 -1.880626 -12.512905
-22.259713 -10.626719 1.876159 -9.865930
-26.495267 -14.037596 0.400692 -12.159859
-25.025654 -12.857229 0.246411 -11.364865
-23.646946 -12.298941 4.427939 -10.783766
-21.829220 -10.649442 2.985574 -9.743599
-21.813459 -15.359286 -0.916469 -11.151823
-23.778885 -17.808363 -1.802153 -12.476175
-22.884378 -15.577221 -0.576066 -11.538480
-24.472237 -18.406726 -0.927441 -12.863689
-18.808242 -7.511645 -0.421714 -7.895966
-24.455793 -12.620479 -1.188308 -11.122882
-19.004873 -8.063677 2.482351 -8.120565
-22.541044 -11.075527 1.163649 -10.084971
-14.425523 -15.362983 2.806585 -8.936552
-18.596408 -18.880462 4.293173 -11.243061
-13.333943 -15.254604 2.657783 -8.576564
-14.997687 -19.431135 3.190905 -10.328647
-15.309537 -20.663499 2.252861 -10.791911
-8.815324 -13.709307 2.403688 -6.757389
-12.419498 -17.956746 1.692613 -9.112873
-10.749877 -18.525212 0.677287 -8.782527
-4.714523 -12.317423 0.210914 -5.109584
-8.800330 -16.149627 -6.761009 -7.484987
-7.524387 -11.220898 -3.166492 -5.623586
-6.982919 -12.345305 -4.102985 -5.798467
-9.720916 -10.635731 2.009864 -6.106994
-16.433773 -19.660242 3.772753 -10.828204
-11.474801 -14.923420 2.629763 -7.919466
-15.588783 -19.464878 3.454114 -10.516098
-13.582494 -13.395842 3.241531 -8.093501
-17.562963 -17.042391 4.120757 -10.381606
-10.715663 -15.991571 2.526608 -8.012170
-10.721384 -14.978125 1.610790 -7.709853
-9.852741 -11.372610 2.560767 -6.367605
-15.040194 -16.156497 3.648695 -9.359007
-7.771210 -10.562265 1.980650 -5.500042
-12.552615 -15.121955 3.042280 -8.302371
-6.069964 -11.201750 2.014381 -5.181514
-7.752641 -13.034315 1.200107 -6.236087
-7.292962 -8.957564 -0.244451 -4.875158
-9.421199 -15.554951 -0.254195 -7.492845
-8.748734 -15.010209 1.485949 -7.127683
-9.124591 -15.528482 1.104980 -7.395922
-13.898847 -21.657871 1.940569 -10.667016
-7.462935 -12.616409 -3.974577 -6.023803
-12.079468 -30.853057 0.401636 -12.879757
-8.116522 -13.795122 -4.642882 -6.573493
-7.303553 -9.198653 0.663717 -4.950662
-9.184024 -17.976832 0.685802 -8.148257
-6.712904 -10.344256 2.196660 -5.117148
-9.346924 -14.004139 1.654833 -7.005319
-7.157938 -10.837452 1.957813 -5.398617
-7.023099 -9.537307 1.484288 -4.968122
-6.087760 -12.207441 2.033540 -5.488560
-6.179498 -14.622139 3.929969 -6.240491
-6.189878 -13.789633 1.187431 -5.993854
-10.486086 -17.426025 -2.827810 -8.373633
-8.760733 -10.483449 -3.990964 -5.773255
-12.703905 -16.454870 -5.464345 -8.747632
-8.874505 -18.246930 -0.545217 -8.136431
-4.935937 -12.356101 -0.164014 -5.187611
-11.594541 -18.389517 -3.067356 -8.995218
-9.287823 -14.003088 -4.006804 -6.987273
-15.357165 -11.903302 -4.447875 -8.178140
-18.274578 -14.054723 -2.337300 -9.698790
-15.580321 -9.477073 -0.634620 -7.517218
-6.369167 -15.793453 2.182745 -6.648786
-5.474976 -14.026734 1.370132 -5.850513
-13.214944 -10.912882 -4.725964 -7.238348
-14.703723 -14.287234 -5.597109 -8.697287
-8.367253 -12.686329 0.156114 -6.316074
-8.488215 -13.369699 -0.229882 -6.557374
-7.809558 -12.734463 2.227293 -6.163206
-8.412532 -12.816490 1.099856 -6.368707
-12.451852 -25.355107 2.480801 -11.342087
-9.584844 -18.076485 2.418606 -8.298399
-12.626361 -22.962777 -2.823589 -10.676741
-8.768436 -19.224577 0.815032 -8.397904
-16.930230 -13.350401 -4.345509 -9.084189
-17.513646 -13.584392 -0.894265 -9.329411
-16.900932 -22.880280 -6.456642 -11.934364
-20.541745 -21.603078 -8.434377 -12.643447
-14.475455 -18.595172 -6.217118 -9.921188
-19.405362 -12.084017 -6.384960 -9.446814
-16.917263 -12.548505 -2.920290 -8.839730
-18.150689 -15.396525 -4.861727 -10.064164
-17.140803 -12.484050 -0.720766 -8.887456
-15.245918 -26.542479 6.839091 -12.536519
-13.622011 -23.569189 -3.155646 -11.157360
-14.096020 -21.901685 -4.158830 -10.799311
-20.942445 -30.838317 -5.826404 -15.534228
-8.993009 -14.267276 1.008734 -6.978086
-8.288826 -13.702696 0.550265 -6.597457
-16.036106 -31.784415 -1.068523 -14.346156
-9.771441 -19.663084 -0.999482 -8.830357
-6.853991 -18.251009 -2.343855 -7.531500
-22.393541 -34.143523 2.495464 -16.961119
-6.418313 -14.700170 -6.522361 -6.335545
-21.118253 -30.151355 2.774817 -15.380882
-14.712306 -16.340864 2.904458 -9.315951
-21.831519 -20.890400 5.056111 -12.816576
-14.210739 -20.923447 1.487772 -10.540256
-15.822206 -24.345073 0.995017 -12.050184
-18.940829 -19.788468 4.371166 -11.618789
-24.258451 -29.428910 7.788558 -16.106208
-23.845302 -27.499336 6.750424 -15.403392
-22.021984 -23.017721 5.717570 -13.511911
-15.971832 -18.055667 3.239104 -10.208250
-19.209217 -22.093882 4.357372 -12.390929
-16.762235 -20.758838 3.469539 -11.256322
-16.956413 -24.232033 2.680212 -12.356534
-8.454049 -16.089598 -5.917719 -7.363094
-10.043462 -15.604387 -4.454155 -7.694355
-17.986099 -23.393350 3.379008 -12.413835
-25.606976 -34.686597 3.877845 -18.088072
-15.499601 -27.301480 1.438325 -12.840324
-12.174776 -22.515050 -0.116285 -10.406948
-18.385985 -19.752978 4.093615 -11.441689
-25.842923 -33.838040 6.352273 -17.904289
-16.377286 -19.363819 3.025237 -10.722331
-22.181538 -28.382377 4.641219 -15.169175
-22.021518 -24.279503 5.635513 -13.890306
-24.092764 -26.335680 7.004382 -15.128533
-19.711905 -23.696828 4.483164 -13.022620
-21.468090 -23.651259 5.137064 -13.535805
-18.249329 -23.207049 2.846023 -12.436914
-19.704111 -25.970604 2.625122 -13.702414
-11.992100 -28.572104 -0.968092 -12.169261
-18.590707 -28.687208 2.224615 -14.183375
-16.105006 -36.282434 1.271491 -15.716232
-11.337681 -18.146952 -5.895178 -8.845390
-10.632152 -16.017312 1.480760 -7.994839
-22.813394 -49.855613 1.865824 -21.800702
-15.444944 -25.765163 -4.222936 -12.363032
-15.619979 -28.935648 -3.277101 -13.366688
-8.492300 -18.021373 0.130369 -7.954102
-12.841274 -21.342484 -0.433140 -10.255127
-11.269150 -23.848124 -0.306287 -10.535182
-17.214940 -27.616512 -4.947444 -13.449436
-19.871597 -28.677294 -6.189955 -14.564667
-19.197020 -26.295252 -6.200430 -13.647682
-16.159188 -18.757702 -6.698010 -10.475067
-16.759957 -23.659549 -5.190725 -12.125852
-17.690030 -25.846209 -5.240018 -13.060872
-21.194856 -31.615140 -7.201805 -15.842999
-16.378023 -20.324403 -7.022026 -11.010728
-19.201946 -24.624913 -5.568506 -13.148058
-18.759226 -15.420940 -3.403600 -10.254050
-18.076077 -20.415369 -0.914048 -11.547434
-20.241072 -28.368865 -5.811957 -14.582981
-22.869357 -36.376793 -8.062745 -17.773845
-18.321629 -15.651153 -0.621910 -10.191834
-19.959583 -35.914928 -3.114994 -16.762353
-24.168938 -44.233062 -5.149629 -20.520600
-18.844269 -29.051993 -5.193427 -14.368879
-22.999475 -29.213497 -7.247906 -15.663892
-19.175770 -32.021271 -4.519003 -15.359112
-23.996730 -35.026959 -6.972762 -17.707107
-23.196898 -34.245416 -6.806834 -17.232694
-23.274934 -34.114274 -7.114165 -17.216762
-21.056583 -16.075451 -7.038993 -11.139610
-21.815695 -17.989425 -5.281728 -11.941536
-18.051805 -20.398901 -0.307637 -11.535212
-18.028194 -16.679475 -0.528888 -10.412301
-18.147708 -17.369494 -1.381893 -10.655160
-20.262610 -21.218707 -2.164169 -12.444395
-18.604175 -19.320045 -0.462894 -11.377266
-19.016228 -20.778275 -1.266988 -11.938351
-27.063665 -38.337515 -3.172775 -19.620354
-19.037228 -11.694806 -4.502784 -9.219610
-19.105548 -24.694329 -0.954492 -13.139963
-18.662839 -23.405991 -0.331358 -12.620649
-21.585438 -33.463921 -5.716177 -16.514808
-26.872595 -41.944035 -6.794494 -20.644989
-22.840195 -32.325665 -7.262612 -16.549758
-25.388992 -36.260327 -6.248651 -18.494796
-17.453869 -31.188536 -4.067317 -14.592721
-22.135758 -42.627855 -3.113794 -19.429084
-23.894916 -38.027019 -6.582604 -18.576581
-20.627395 -31.432976 -6.038182 -15.618111
-25.166970 -38.397230 -6.996080 -19.069260
-22.378706 -30.882890 -6.744597 -15.978479
-10.393930 -25.040499 -1.841817 -10.630329
-18.745795 -43.206632 -8.438867 -18.585728
-18.904312 -40.118522 4.615190 -17.706850
-19.661865 -42.466980 -1.499842 -18.638653
-8.988739 -20.002911 -0.299610 -8.697495
-18.832388 -50.018553 1.377796 -20.655282
-20.182919 -45.859980 -6.320481 -19.812870
-14.883806 -33.576316 -4.676796 -14.538037
-16.350454 -20.366946 -0.345861 -11.015220
-10.595323 -16.241323 -2.357609 -8.050994
-11.948045 -27.598368 1.417602 -11.863924
-13.404707 -27.474967 2.184345 -12.263902
-17.768034 -23.794032 -0.279072 -12.468620
-10.696165 -17.784379 -0.664141 -8.544163
-11.597230 -23.904027 1.313671 -10.650377
-15.875159 -26.226744 2.185454 -12.630571
-13.634629 -17.517415 -6.132525 -9.345613
-14.310902 -18.703824 -2.505237 -9.904418
-13.008527 -29.629655 0.034445 -12.791455
-13.130735 -27.146173 2.311139 -12.083073
-8.039176 -11.986417 -4.220069 -6.007678
-15.176168 -28.348391 -3.313879 -13.057368
-14.784041 -30.544965 -1.679589 -13.598702
-20.942451 -39.251307 -1.210028 -18.058128
-10.288252 -22.688606 1.035956 -9.893057
-10.476484 -21.821746 0.777458 -9.689469
-14.757676 -28.267790 3.502358 -12.907640
-19.403417 -38.775402 -2.290746 -17.453646
-12.097430 -17.240142 -3.746059 -8.801271
-15.133498 -20.934720 -2.159695 -10.820465
-12.375550 -18.974251 -1.265807 -9.404941
-12.781274 -23.997519 1.528979 -11.033638
-10.831410 -21.633994 1.125433 -9.739621
-11.566272 -20.057926 0.258184 -9.487259
-21.130120 -38.447813 1.779072 -17.873380
-16.922827 -28.366263 0.500782 -13.586727
-19.838458 -34.349816 1.640499 -16.256482
-23.295217 -45.718061 5.188718 -20.703983
-20.662806 -33.856898 1.104766 -16.355911
-19.367043 -34.266679 1.794342 -16.090116
-14.513472 -20.218295 -5.325796 -10.419530
-11.213644 -17.210039 -6.621332 -8.527105
-22.756004 -27.881466 4.500882 -15.191241
-22.734939 -28.759326 5.230631 -15.448279
-18.841569 -26.576015 1.765482 -13.625275
-23.548796 -31.620596 2.974121 -16.550818
-21.777210 -28.297756 4.009834 -15.022490
-18.844949 -24.046875 3.911248 -12.867547
-19.541396 -26.380472 3.148141 -13.776560
-17.109363 -23.482033 2.098151 -12.177419
-24.386096 -10.874666 1.428246 -10.578229
-34.612807 -16.852524 2.720710 -15.439599
-24.996234 -12.669418 4.142478 -11.299696
-27.816503 -14.716358 3.224128 -12.759858
-19.748929 -17.375931 6.738792 -11.137458
-27.753069 -21.137668 -0.794067 -14.667221
-38.953241 -25.701387 1.204364 -19.396388
-30.656059 -24.165681 2.684780 -16.446522
-29.169365 -49.979180 3.025165 -23.744564
-31.354769 -32.095459 -2.886247 -19.035069
-32.988004 -31.857554 -3.558799 -19.453668
-30.979571 -26.895887 -2.467088 -17.362637
-34.197557 -26.560316 -2.307425 -18.227362
-44.239572 -25.434586 0.901536 -20.902247
-24.429879 -29.860502 6.910854 -16.287114
-28.104414 -40.881817 8.063024 -20.695870
-23.006665 -27.902075 4.954363 -15.272622
-23.318143 -28.186970 5.599620 -15.451534
-26.286700 -31.312218 8.054830 -17.279675
-27.610699 -38.875167 8.587211 -19.945760
-28.122426 -38.869778 8.294440 -20.097661
-25.513935 -32.804351 6.819886 -17.495486
-30.480630 -25.077075 -2.778810 -16.667311
-16.587806 -22.929789 5.500282 -11.855278
-30.574527 -21.252916 -0.637008 -15.548233
-21.684912 -25.069297 4.138561 -14.026263
-29.856825 -32.674487 -2.285099 -18.759394
-32.438113 -36.800961 -2.907550 -20.771722
-32.263918 -25.540012 -3.288449 -17.341179
-17.568437 -19.979900 5.914469 -11.264501
-26.666092 -35.695275 7.829120 -18.708410
-27.584245 -36.202212 8.614766 -19.135937
-28.154464 -37.906877 5.536247 -19.818402
-25.003761 -32.669301 5.389035 -17.301919
-27.287982 -36.925287 4.919115 -19.263981
-24.732613 -32.705077 4.678462 -17.231307
-24.727924 -32.887244 4.080785 -17.284550
-25.348459 -32.492745 4.599629 -17.352361
-24.887394 -34.535157 2.684795 -17.826765
-26.085801 -34.455190 4.657104 -18.162297
-21.290475 -28.928329 2.366982 -15.065641
-21.973825 -28.930809 3.624211 -15.271390
-20.079329 -30.229101 1.354674 -15.092529
-24.883743 -36.409220 3.033184 -18.387889
-24.131596 -40.086530 1.955506 -19.265438
-23.107866 -38.124033 2.420159 -18.369570
-25.723270 -39.663792 2.818537 -19.616118
-19.415965 -40.807287 2.885354 -18.066976
-23.654828 -42.962929 2.725965 -19.985327
-26.836733 -48.821728 6.485709 -22.697538
-22.832594 -44.440520 4.495973 -20.181934
-18.197689 -22.077927 -4.129577 -12.082685
-28.992368 -39.914215 3.809208 -20.671975
-25.757957 -34.488457 3.529768 -18.073924
-26.730930 -37.824324 3.490258 -19.366576
-27.679307 -37.473412 4.376928 -19.545816
-28.414655 -42.395400 3.046847 -21.243017
-30.167861 -57.376315 4.470879 -26.263253
-28.283170 -45.121972 3.293269 -22.021543
-28.314107 -47.948730 3.739187 -22.878851
-30.111391 -45.444181 8.408493 -22.666672
-28.614823 -39.324812 6.595242 -20.381890
-27.934775 -37.465287 4.685391 -19.620019
-29.448521 -40.817483 6.061346 -21.079801
-26.752399 -35.109243 7.327242 -18.558493
-30.250430 -44.755586 7.487036 -22.501805
-25.450645 -32.602043 5.384741 -17.415806
-28.459095 -39.819785 6.729961 -20.483664
-22.932616 -19.191603 5.110455 -12.637266
-28.376856 -41.829836 8.474358 -21.062008
-28.471114 -41.372875 8.795725 -20.953196
-27.009723 -15.654938 7.281935 -12.799398
-29.527316 -37.146682 -2.116249 -20.002199
-25.857592 -65.261753 -0.230409 -27.335804
-34.158760 -26.136181 -2.489244 -18.088482
-31.288396 -29.656879 -4.298130 -18.283583
-32.174805 -35.962249 -2.987265 -20.441116
-33.055035 -39.494799 -3.071167 -21.764950
-32.330796 -29.623197 -3.384909 -18.586198
-32.670363 -37.067558 -4.327390 -20.921376
-21.337684 -27.246832 3.631473 -14.575355
-21.292361 -23.782336 3.831077 -13.522409
-25.172845 -25.611851 3.749888 -15.235409
-26.948911 -21.117159 6.119585 -14.419821
-28.956586 -21.709776 6.074103 -15.199909
-26.267030 -33.757453 -3.116066 -18.007345
-34.654493 -56.710773 8.940776 -27.409580
-29.701314 -44.131346 8.343529 -22.149798
-29.855608 -43.616090 7.078039 -22.041509
-30.271674 -45.088399 8.640526 -22.608022
-26.039104 -61.966432 -3.539774 -26.401661
-22.413494 -43.290983 -0.990552 -19.711343
-22.347325 -24.357798 3.332726 -14.011537
-28.205012 -25.220192 2.557539 -16.027561
-24.899806 -36.487814 2.591225 -18.416286
-26.331469 -42.293044 4.660728 -20.587354
-22.934836 -29.578861 2.707972 -15.754109
-21.726437 -34.595543 1.594284 -16.896594
-31.757890 -43.737985 7.138337 -22.648762
-18.529965 -25.920093 -7.063805 -13.335017
-32.500340 -50.545084 9.126345 -24.913627
-29.709568 -44.213501 7.773082 -22.176921
-29.467285 -41.267643 5.219275 -21.220478
-31.090209 -45.005961 6.666764 -22.828851
-29.917295 -41.897500 5.101629 -21.544439
-29.956351 -41.440509 5.344524 -21.419058
-30.623476 -44.485466 6.471041 -22.532682
-27.986197 -39.089262 7.355077 -20.122638
-28.911420 -40.362959 4.000736 -20.782314
-27.197865 -37.414776 3.215628 -19.383792
-29.729001 -48.450345 3.100221 -23.453804
-28.259586 -42.403991 3.075865 -21.199073
-27.309755 -43.241251 2.541834 -21.165302
-33.032626 -50.896228 3.897010 -25.178656
-31.660278 -46.242265 3.473583 -23.370763
-29.004621 -41.706468 3.341656 -21.213327
-26.947848 -45.718903 2.786440 -21.800025
-30.649052 -47.822702 3.551316 -23.541526
-30.113704 -53.107023 3.672679 -24.966218
-26.546112 -47.604605 3.690684 -22.245215
-32.140116 -49.654472 3.746211 -24.538376
-28.572658 -49.417062 4.502698 -23.396916
-21.790402 -21.809329 9.340972 -13.079919
-18.671014 -14.049208 -3.049727 -9.816066
-21.973414 -29.582948 5.041425 -15.466909
-24.243185 -33.268012 4.081847 -17.253359
-26.152435 -59.887194 -8.313511 -25.811889
-19.714194 -37.447075 3.896551 -17.148381
-21.272936 -45.189738 -9.742024 -19.938802
-16.230059 -38.626592 -2.123703 -16.456995
-24.863818 -51.222363 -9.941074 -22.825854
-24.209838 -50.342120 -3.168984 -22.365587
-22.497549 -43.347905 6.145398 -19.753636
-15.961617 -31.256664 2.843624 -14.165484
-18.864837 -46.515076 -6.407394 -19.613974
-16.834331 -38.941019 3.307091 -16.732605
-22.851919 -24.066934 -1.841146 -14.075656
-16.177835 -16.773562 -5.080876 -9.885419
-16.452864 -27.493005 1.919979 -13.183761
-19.091154 -26.262293 1.525231 -13.606034
-14.466214 -22.428053 0.199806 -11.068280
-19.337341 -27.673667 2.332678 -14.103302
-14.261072 -27.423969 1.751427 -12.505512
-19.347886 -32.183455 3.705844 -15.459402
-16.705245 -37.565041 2.781005 -16.281086
-14.131898 -31.575066 2.512099 -13.712089
-15.669900 -36.260104 -8.884835 -15.579001
-19.509874 -42.092825 -10.330829 -18.480809
-13.454764 -33.557009 0.799728 -14.103532
-16.235157 -40.718167 0.709543 -17.085997
-18.501008 -39.337373 -7.318789 -17.351514
-18.884770 -43.537980 -7.140061 -18.726825
-23.851977 -48.267710 -10.362195 -21.635906
-25.334572 -53.942065 -7.236103 -23.782991
-26.154236 -45.067755 -7.042032 -21.366598
-24.939249 -52.797465 -10.004887 -23.321014
-31.088300 -43.010257 -9.034589 -22.229567
-23.612320 -34.547175 -6.620586 -17.447848
-22.558263 -37.176656 -6.114574 -17.920476
-22.696957 -40.671951 -5.407571 -19.010672
-26.531237 -41.249477 -6.459121 -20.334214
-24.960825 -34.723192 -7.173804 -17.905205
-21.755926 -34.373734 -5.181864 -16.838898
-27.335359 -37.635162 -7.199114 -19.491157
-19.664889 -11.344115 -1.816471 -9.302701
-17.706279 -17.954238 -1.042107 -10.698155
-26.847023 -40.748725 -8.207563 -20.278724
-26.948404 -35.512894 -7.154932 -18.738390
-12.679873 -29.565582 2.950007 -12.673637
-22.066322 -28.970116 1.161572 -15.310931
-18.764124 -24.685665 -0.443890 -13.034937
-19.852855 -24.364496 -1.661249 -13.265205
-19.127567 -24.811175 -0.977933 -13.181623
-21.019807 -22.110501 -0.263872 -12.939092
-19.698629 -27.486986 -0.281201 -14.155685
-26.330255 -42.370033 -7.336336 -20.610086
-27.561139 -49.498491 -8.395190 -23.117889
-27.309257 -41.933193 -6.747646 -20.772735
-12.569102 -35.550206 2.519989 -14.435792
-28.292195 -55.391814 -4.810841 -25.105203
-24.424697 -54.640407 -6.733963 -23.719531
-27.275897 -45.487312 -7.754587 -21.828963
-23.474989 -54.245883 -9.052488 -23.316262
-32.899474 -51.236345 -10.528704 -25.240746
-19.802025 -38.501298 -0.132956 -17.490997
-13.411948 -24.228545 3.914874 -11.292148
-21.646812 -33.707055 -0.916132 -16.606160
-21.648894 -33.495791 -0.653715 -16.543406
-20.051754 -28.696275 -0.438078 -14.624409
-26.496179 -46.038992 -6.573400 -21.760551
-24.866763 -51.217545 -5.545331 -22.825293
-20.031436 -33.975478 0.772758 -16.202074
-22.816073 -41.760775 -1.202005 -19.373054
-23.007020 -36.112796 -0.180671 -17.735945
-24.239946 -40.394821 -1.242035 -19.390430
-21.251667 -31.733573 -0.166337 -15.895572
-24.024532 -52.573154 -8.852958 -22.979306
-24.677336 -53.037413 -9.696558 -23.314424
-23.633590 -50.947288 -5.710838 -22.374263
-25.257597 -54.567786 -6.320053 -23.947615
-22.888390 -47.901589 -9.099464 -21.236994
-26.956101 -57.663520 -9.804337 -25.385886
-22.094702 -46.522819 -11.047919 -20.585256
-22.594243 -49.157098 -9.652866 -21.525402
-43.273443 -78.368955 -12.257199 -36.608037
-22.586179 -51.915699 5.462583 -22.350563
-27.285120 -65.682146 3.887887 -27.890180
-20.099297 -46.521994 3.008059 -19.986387
-30.446469 -47.101065 3.217083 -23.264260
-31.019238 -46.305596 3.468332 -23.197450
-21.547037 -36.455574 5.069807 -17.400783
-28.298190 -32.322245 5.544702 -18.186130
-32.092377 -51.222012 3.551625 -24.994316
-34.061092 -55.220717 3.994498 -26.784543
-32.202444 -57.551779 4.216790 -26.926267
-29.814596 -51.213952 3.342556 -24.308564
-28.351381 -51.434200 2.868897 -23.935674
-30.065459 -52.578461 3.955578 -24.793176
-21.828715 -28.246816 13.219742 -15.022660
-28.928558 -51.644079 9.908141 -24.171791
-39.295805 -82.408532 0.382335 -36.511301
-24.462422 -51.304067 -8.681895 -22.729947
-23.401740 -41.150490 4.510965 -19.365669
-25.239309 -38.892936 5.542529 -19.239674
-23.029673 -47.801288 7.349475 -21.249288
-32.757650 -65.263351 -8.309959 -29.406300
-35.544819 -58.337917 5.084214 -28.164821
-31.551690 -52.820759 3.711572 -25.311735
-22.588786 -34.554929 6.828325 -17.143114
-37.200526 -63.078704 2.158694 -30.083769
-34.257465 -51.573280 3.820706 -25.749224
-39.188513 -61.628603 3.430569 -30.245135
-34.599027 -56.333664 4.461488 -27.279807
-34.935789 -61.489216 5.734108 -28.927502
-28.715243 -38.838326 9.168830 -20.266071
-24.417851 -49.665410 8.017663 -22.224978
-20.481429 -44.868714 9.075155 -19.605043
-24.627864 -43.630694 5.466989 -20.477567
-25.894193 -54.080100 -9.627908 -23.992288
-37.559048 -75.104631 -0.849241 -33.799104
-26.079942 -56.324841 -10.215949 -24.721435
-27.891092 -64.710662 -7.242627 -27.780526
-25.072008 -56.009214 -9.475819 -24.324366
-23.727704 -55.813259 -8.290815 -23.862289
-22.997668 -51.397277 -7.628700 -22.318483
-24.091251 -56.164325 -8.328148 -24.076673
-22.267295 -47.348820 -6.118549 -20.884835
-23.108174 -48.634635 -6.969375 -21.522843
-20.547894 -47.299299 -0.957458 -20.354158
-21.309251 -47.515607 -3.216015 -20.647458
-24.827155 -49.708526 -2.284653 -22.360704
-24.312686 -42.872770 -1.335174 -20.155637
-22.444591 -38.048470 -0.912671 -18.147918
-24.326866 -43.007368 -0.375155 -20.200270
-22.786010 -35.750924 -1.127031 -17.561080
-22.083034 -35.399763 -0.764647 -17.244839
-24.032761 -38.129681 -0.608086 -18.648733
-23.696511 -37.998804 -0.821646 -18.508595
-25.082206 -40.271612 -0.222723 -19.606145
-24.254926 -57.659715 -7.626447 -24.574392
-23.700006 -55.699739 -8.343387 -23.819924
-24.105743 -46.972421 -0.597490 -21.323449
-25.712150 -44.416273 -1.789866 -21.038527
-31.111833 -56.486893 -8.914289 -26.279618
-25.510661 -59.484494 -1.548979 -25.498546
-24.877580 -47.102988 -1.023152 -21.594170
-23.480790 -54.877416 0.271003 -23.507462
-25.643102 -49.301780 -1.721979 -22.483465
-26.862780 -48.886841 -3.292932 -22.724886
-27.606099 -45.996834 -1.752354 -22.080880
-26.363920 -42.512700 -0.763294 -20.662986
-27.934491 -50.777447 -2.851200 -23.613581
-29.742441 -50.018850 -2.619504 -23.928387
-27.332932 -44.129005 -0.359311 -21.438581
-24.201802 -49.137566 -2.517398 -22.001810
-22.144776 -54.489892 -3.356752 -22.990400
-30.820023 -49.601506 -1.094741 -24.126459
-28.790024 -46.487495 -0.981085 -22.583256
-38.480765 -78.038421 -5.399701 -35.078475
-25.078582 -55.917643 -0.867583 -24.298868
-39.982513 -77.864515 -1.315745 -35.354108
-36.894863 -61.571284 9.942739 -29.539844
-26.726655 -61.652116 -8.247043 -26.513631
-37.188250 -80.330813 -4.377675 -35.255719
-24.990509 -51.587434 -1.206118 -22.973383
-54.548695 -110.808727 -3.713370 -53.214976
-25.114012 -52.505929 -0.713481 -23.285982
-20.779045 -55.046917 -0.775271 -22.747789
-39.063887 -75.545082 -5.809456 -34.382691
-36.763989 -73.399949 -4.507039 -33.049181
-36.415820 -73.632523 -3.055322 -33.014503
-40.792854 -81.950351 -1.108463 -36.822962
-35.956672 -73.111693 -3.098378 -32.720509
-40.687109 -82.711128 -2.103039 -37.609658
-38.852302 -76.323572 -0.272111 -34.552762
-39.226136 -79.252990 -2.695272 -35.543738
-45.615988 -65.469216 4.662438 -33.325561
-45.220188 -75.098099 7.389897 -36.095486
-44.744048 -82.531634 -2.104569 -38.182705
-26.013614 -47.801949 7.242375 -22.144669
-42.399380 -65.579325 7.842185 -32.393611
-38.287162 -55.116903 14.514976 -28.021219
-39.876297 -46.527739 18.897007 -25.921211
-33.185130 -55.621852 14.200574 -26.642095
-37.275389 -74.677959 -4.194256 -33.586004
-35.457379 -71.329139 -4.938731 -32.035955
-37.308359 -58.360437 4.245423 -28.700639
-41.721682 -63.346573 3.724827 -31.520476
-34.747904 -62.260805 6.272365 -29.102613
-30.253595 -40.874094 16.222382 -21.338307
-27.851153 -45.825720 12.201858 -22.103062
-28.624204 -49.805659 12.303576 -23.528959
-38.122028 -64.500159 -5.947052 -30.786656
-39.379141 -70.259110 -5.416596 -32.891475
-35.005124 -68.201293 -1.804745 -30.961925
-31.332599 -67.901848 -0.509958 -29.770334
-32.991384 -65.434925 -3.005015 -29.527893
-27.276580 -54.696726 -5.559794 -24.591992
-37.969823 -59.235938 4.597751 -29.161729
-38.837031 -61.682101 5.573533 -30.155740
-23.007640 -42.097629 6.098363 -19.531581
-24.799871 -45.127486 8.109820 -20.978207
-35.418529 -69.133491 -8.088832 -31.365606
-18.263739 -44.801260 7.549742 -18.919500
-35.807653 -53.569617 4.994316 -26.813181
-31.762079 -49.071295 7.275431 -24.250012
-37.722365 -59.676096 4.150161 -29.219538
-35.015807 -54.004552 4.044149 -26.706108
-40.307125 -71.763938 4.739699 -33.621319
-38.346498 -71.223316 6.868984 -32.870944
-35.815308 -53.907316 5.609694 -26.916787
-35.967652 -58.419790 6.743096 -28.316232
-37.826159 -58.772487 5.358217 -28.979594
-37.919930 -61.978579 5.727015 -29.969553
-38.096525 -58.788546 5.197033 -29.065521
-41.646519 -65.356235 5.764543 -32.100826
-39.225605 -60.442938 5.724699 -29.900563
-39.018290 -62.952834 4.844963 -30.591337
-38.253161 -60.852811 3.757178 -29.731792
-39.327519 -62.277636 3.497625 -30.481547
-37.432498 -60.234731 4.182697 -29.300169
-37.581482 -59.029351 4.938619 -28.983250
-37.730566 -60.882456 3.700607 -29.583907
-38.527443 -65.528616 3.727844 -31.216818
-40.011579 -63.057711 5.724253 -30.920787
-39.264357 -62.476807 5.678495 -30.522349
-41.578414 -74.500105 5.673565 -34.823556
-40.544480 -65.696079 2.813514 -31.872168
-40.403660 -80.034580 5.622200 -36.131472
-26.483482 -52.868769 -11.245558 -23.805675
-43.033580 -68.084238 6.404373 -33.335345
-40.878634 -68.355498 6.247760 -32.770240
-37.966110 -65.949780 6.844172 -31.174767
-23.272763 -43.893476 -11.827677 -20.149872
-41.374258 -66.237892 4.092860 -32.283645
-36.375133 -69.327979 5.775722 -31.710934
-38.582392 -60.926536 4.554084 -29.852678
-36.446883 -62.914109 5.307937 -29.808297
-25.208158 -57.961578 2.218827 -24.950921
-25.112464 -49.879580 -2.597638 -22.497613
-36.192148 -66.037022 6.864032 -30.668751
-19.955136 -38.157997 -10.609003 -17.433940
-29.170772 -56.822380 7.731371 -25.797946
-30.360436 -72.312047 0.937013 -30.801745
-26.921853 -56.676005 -5.484040 -25.079357
-24.446088 -54.974456 -4.725021 -23.826163
-18.474183 -41.710329 -6.589973 -18.055354
-23.027880 -55.759650 0.308501 -23.636259
-26.566894 -47.822143 5.018115 -22.316711
-34.164540 -48.452170 -4.527620 -24.785013
-34.421561 -46.370816 2.782279 -24.237713
-30.278131 -45.722027 0.420364 -22.800047
-25.074324 -46.624306 5.701162 -21.509589
-23.463044 -32.569073 2.827575 -16.809635
-44.943816 -84.286890 13.605252 -39.955148
-22.010307 -45.050858 -1.288438 -20.118349
-27.295580 -50.989814 -4.481866 -23.485618
-26.634609 -45.474323 -0.205544 -21.632680
-29.034600 -47.940315 6.481736 -23.092475
-22.563299 -29.666802 2.153943 -15.669030
-21.184909 -48.121382 -1.546362 -20.791887
-24.837334 -42.763947 -0.762840 -20.280384
-19.490913 -37.057724 -3.406400 -16.964591
-20.949188 -43.691702 -6.482852 -19.392267
-38.379797 -68.658566 8.804132 -32.111509
-32.446090 -50.532867 8.133785 -24.893687
-44.427973 -83.546488 6.647039 -38.541877
-24.610631 -54.766534 -3.773887 -23.813149
-15.045137 -40.148010 -5.646268 -16.557944
-32.573464 -44.187529 -4.286073 -23.028298
-26.907704 -41.621752 2.262381 -20.558837
-23.258341 -32.661704 2.798985 -16.776014
-25.242788 -40.262893 1.457918 -19.651704
-25.984369 -40.925834 3.927292 -20.073061
-25.811549 -39.305208 3.180603 -19.535027
-22.583605 -40.133357 3.596976 -18.815089
-24.210513 -54.012702 1.284662 -23.466965
-25.447094 -61.180912 -1.878911 -25.988402
-24.743131 -46.952552 -0.169347 -21.508705
-22.771431 -39.017032 2.423401 -18.536539
-25.758210 -41.281692 3.737440 -20.111971
-21.944326 -39.474253 1.098894 -18.425574
-34.018302 -60.759419 8.659050 -28.433316
-34.965851 -59.007664 6.576950 -28.192055
-25.031977 -42.815463 2.453125 -20.354232
-19.851726 -30.495625 -1.771859 -15.104205
-25.428575 -41.252065 -5.242876 -20.004192
-18.490299 -32.621662 -9.265850 -15.333588
-34.471201 -50.319647 5.400066 -25.437254
-37.481280 -57.329921 5.320898 -28.443360
-34.768362 -52.077349 4.347174 -26.053713
-36.513429 -55.508300 4.865764 -27.606519
-32.998634 -48.655786 3.815365 -24.496326
-36.025118 -55.563699 4.326666 -27.476645
-33.850970 -51.141905 3.989588 -25.497863
-36.187094 -56.068381 3.943226 -27.676643
-32.064279 -45.349665 5.217349 -23.224183
-33.696740 -50.765126 5.639797 -25.338560
-35.772989 -54.105850 4.864564 -26.963652
-34.545154 -51.969881 4.361258 -25.954511
-36.484614 -61.783931 8.170629 -29.480564
-35.758535 -56.882534 5.581418 -27.792321
-36.004461 -56.065549 5.932010 -27.621003
-33.596492 -53.058211 6.343076 -25.996411
-36.260085 -55.158951 5.199755 -27.425711
-31.569886 -45.379674 5.744710 -23.084868
-35.695568 -48.393286 9.708995 -25.226656
-33.380469 -54.937106 9.680178 -26.495272
-33.294796 -54.472956 7.692979 -26.330326
-34.281381 -54.907335 7.488969 -26.756615
-34.298873 -50.510708 4.712970 -25.442874
-33.460607 -48.933273 4.747702 -24.718164
-33.634125 -50.831852 3.498946 -25.339793
-30.237339 -43.112810 3.527706 -22.005045
-32.069565 -46.735221 4.218174 -23.641436
-30.835239 -43.334559 4.539695 -22.250939
-32.856872 -50.516715 3.707122 -25.012076
-31.026093 -46.391702 3.521463 -23.225338
-33.760956 -52.071287 6.614422 -25.749673
-32.195952 -49.125007 7.239584 -24.396288
-33.724001 -50.504688 5.783339 -25.268607
-31.197186 -45.364963 5.669517 -22.968645
-33.931968 -49.613046 5.332896 -25.063504
-33.922796 -49.823056 5.190919 -25.123756
-24.421117 -30.215489 2.722077 -16.390982
-23.265007 -32.557378 2.501304 -16.746715
-26.703676 -31.598949 1.647390 -17.490788
-24.924753 -36.417772 2.407692 -18.402757
-27.693195 -27.719961 -0.021525 -16.623947
-21.158980 -27.820049 -0.111935 -14.693709
-36.879784 -58.251342 11.608857 -28.539338
-31.967465 -47.691271 10.323068 -23.897621
-23.497866 -39.696808 1.257014 -18.958402
-25.342018 -40.526561 1.447110 -19.760574
-24.834862 -36.724350 2.622392 -18.467763
-24.914123 -36.196270 2.934767 -18.333118
-23.627988 -48.880447 -1.505076 -21.752531
-22.555272 -41.045036 0.856763 -19.080093
-21.744393 -34.930734 2.725866 -17.002538
-17.116409 -36.143439 1.402373 -15.977954
-23.476331 -34.531569 1.889117 -17.402370
-24.413470 -36.306815 2.234742 -18.216086
-22.934676 -57.432070 -4.546581 -24.110024
-33.667272 -59.354173 12.390254 -27.906433
-19.257522 -43.115759 0.409116 -18.711984
-23.971634 -59.811072 0.391020 -25.134812
-31.954636 -73.522499 3.088536 -31.643141
-34.225013 -53.791908 13.983213 -26.405076
-23.370545 -59.567222 -0.557127 -24.881330
-19.745761 -52.009899 -0.925162 -21.526698
-37.501575 -37.639150 12.616225 -22.542217
-35.860875 -32.846649 12.537644 -20.612257
-33.880094 -42.572254 14.395077 -22.935704
-31.915956 -45.754587 8.895027 -23.301163
-46.874724 -51.851112 -1.319717 -29.617751
-27.379043 -33.929555 0.664616 -18.392579
-37.758402 -37.777917 12.562293 -22.660896
-37.302778 -37.690058 9.826308 -22.497851
-22.248977 -44.855006 -5.207458 -20.131195
-32.020289 -41.772404 -9.007518 -22.137808
-48.346299 -65.232032 -7.771921 -34.735571
-44.141130 -54.740657 -0.513932 -29.664536
-50.642901 -40.758814 15.838857 -27.420515
-51.609390 -40.833759 6.163824 -27.732945
-45.301717 -49.165127 17.776054 -28.340053
-40.955004 -44.436520 12.470314 -25.617457
-59.936924 -45.440611 6.153286 -31.613261
-51.099497 -49.121747 17.518573 -30.066373
-49.566191 -42.496265 19.572065 -27.618737
-57.724047 -49.201905 14.064425 -32.077786
-35.002565 -43.580200 10.795679 -23.574829
-45.704558 -46.401658 15.842915 -27.631865
-28.859274 -51.113766 -0.721438 -23.991912
-49.210820 -63.587643 16.753322 -33.839539
-32.760728 -47.017479 -9.554943 -23.933462
-29.030988 -21.274437 -6.638589 -15.091627
-36.423182 -48.647425 15.254606 -25.521182
-50.684507 -80.336229 11.070216 -39.637242
-25.996833 -43.814303 -8.392770 -20.943341
-31.841697 -49.420020 -5.180501 -24.378515
-49.226327 -45.915943 20.347145 -28.542681
-51.770516 -37.955113 16.710781 -26.917689
-42.848197 -51.879699 16.064165 -28.418369
-40.106563 -44.974206 14.284184 -25.524231
-65.178674 -47.833135 12.446902 -33.903543
-43.042619 -44.111936 17.439604 -26.146367
-57.825975 -46.173276 20.835503 -31.199775
-48.770069 -51.314982 21.049298 -30.025515
-50.242719 -85.416179 11.647572 -42.058969
-49.434970 -74.463107 5.450726 -37.556093
-39.676466 -52.696797 -15.305692 -27.711979
-48.396086 -68.909372 11.433261 -35.191637
-38.279381 -39.057409 10.209966 -23.201037
-38.579297 -36.511111 11.126004 -22.527123
-38.486093 -43.233219 12.546411 -24.515794
-37.003328 -38.613196 11.224980 -22.684957
-27.473320 -44.976038 -11.158972 -21.734807
-27.711814 -31.356129 -12.320997 -17.720383
-33.356943 -33.818440 12.078168 -20.152615
-53.575799 -51.766503 1.847409 -31.602691
-38.573049 -38.450645 11.689227 -23.107108
-38.224829 -43.487790 12.676574 -24.513786
-46.527842 -90.741322 1.201997 -42.504383
-25.980139 -65.142079 0.558786 -27.336665
-35.108410 -70.241184 3.446318 -31.604878
-40.827404 -75.957269 11.701844 -35.177145
-43.248690 -75.442152 6.951229 -35.607253
-44.834368 -79.486331 15.088002 -37.884544
-22.728897 -58.835022 1.022928 -24.469176
-40.348854 -77.205168 10.682092 -35.425696
-39.616928 -42.180219 9.490353 -24.539144
-38.626372 -42.414164 12.666233 -24.312161
-43.407183 -80.197892 11.066966 -37.123309
-30.554338 -62.471944 7.162841 -27.907885
-31.649856 -47.415027 -3.685628 -23.719465
-19.133429 -43.062701 -6.471362 -18.658839
-36.435944 -46.667457 4.401617 -24.931020
-36.286766 -37.163213 4.058172 -22.034994
-37.584808 -44.552702 5.866800 -24.641253
-38.290138 -41.579811 12.659610 -23.960985
-42.638514 -77.062010 6.886846 -35.910157
-40.100321 -75.302508 11.011834 -34.620849
-44.086060 -80.189510 7.909099 -37.282671
-43.140458 -78.650300 10.874956 -36.537227
-26.615233 -57.704278 5.694730 -25.295854
-37.908822 -72.523795 10.881379 -33.129785
-44.999425 -80.705861 7.281941 -37.711586
-44.663649 -78.355464 6.321160 -36.905734
-43.691889 -78.074303 12.024259 -36.529858
-44.141227 -83.628864 10.816421 -39.041009
-36.156488 -40.329034 2.055607 -22.945657
-39.506697 -44.678679 6.657828 -25.255613
-44.396965 -81.070955 9.019997 -37.988232
-40.151665 -75.030083 6.586792 -34.554524
-57.422374 -78.380434 -4.355349 -43.250594
-41.878485 -52.227104 5.414607 -28.231677
-38.909861 -44.377582 4.342800 -24.986233
-37.980056 -39.983472 8.267704 -23.389058
-36.116940 -51.419641 -6.735018 -26.260974
-40.971016 -41.616272 -0.553621 -24.776187
-32.921782 -39.145988 2.925329 -21.620331
-36.971655 -42.378148 2.354176 -23.804941
-36.036398 -40.127774 4.617717 -22.849252
-37.728857 -39.094178 8.284813 -23.046911
-41.516530 -73.288215 6.620781 -34.441423
-47.760045 -66.399952 14.332464 -34.247999
-58.861171 -86.768088 -1.697850 -45.845833
-36.311548 -30.251661 -2.554436 -19.968963
-51.153133 -82.867891 9.973286 -41.391060
-45.648428 -66.240562 8.211520 -33.566697
-50.111623 -85.089134 7.519246 -41.753971
-47.328829 -84.450061 10.205924 -40.870719
-51.242370 -79.199984 10.686941 -39.253681
-53.907904 -82.654068 17.315732 -41.307889
-50.970556 -76.177894 9.589349 -38.144535
-53.874660 -80.073963 14.853394 -40.621555
-50.380153 -50.708123 21.237477 -30.326483
-57.357648 -60.027774 23.460962 -35.814873
-49.725047 -76.777193 9.247265 -37.950672
-53.412761 -82.318083 8.612689 -41.126875
-49.418179 -47.903841 16.492622 -29.196606
-48.142247 -45.793207 20.211417 -28.180636
-51.078460 -76.049745 7.381932 -38.138461
-42.537316 -51.466452 17.559977 -28.201130
-42.412478 -68.150239 3.195788 -33.168815
-49.020291 -72.297086 7.528916 -36.395213
-37.850693 -39.319725 -3.363823 -23.151125
-24.837809 -40.535159 -11.552234 -19.611891
-46.533850 -71.708126 7.165300 -35.472593
-48.021961 -73.762624 7.218621 -36.535376
-50.573982 -74.482178 6.520790 -37.516848
-49.620617 -69.607789 7.957040 -35.768522
-48.607242 -46.266179 20.342459 -28.462026
-62.618815 -49.901904 8.680501 -33.756216
-47.263146 -44.947973 19.727538 -27.663336
-49.000314 -49.537087 19.063377 -29.561220
-48.712472 -72.453793 8.663469 -36.349880
-46.243127 -53.225319 18.523935 -29.840534
-66.004778 -51.344888 7.422851 -35.204900
-70.129299 -36.356666 1.580405 -31.945789
-64.763732 -60.517640 3.651737 -37.584412
-46.285700 -47.188155 16.088782 -28.042156
-62.470409 -39.138884 17.786827 -30.482788
-63.604777 -41.722583 5.480431 -31.598208
-60.372343 -54.326934 12.712152 -34.409783
-48.066897 -54.558137 5.023174 -30.787510
-59.400593 -43.873562 13.547870 -30.982246
-58.428968 -46.162417 9.943828 -31.377415
-56.639829 -53.969858 -3.659616 -33.182906
-74.795795 -99.997475 7.839002 -56.423342
-43.074836 -64.261968 6.035907 -32.201041
-44.891267 -71.831966 3.917731 -35.016970
-34.077146 -47.086341 14.807651 -24.349046
-49.019824 -50.987740 14.833827 -30.002269
-53.934110 -71.547012 6.045088 -37.644336
-39.638117 -36.123035 -10.553255 -22.728346
-63.198048 -77.798673 -4.344250 -42.641708
-40.942215 -69.442762 4.152731 -33.115493
-32.317349 -51.398048 11.441287 -25.114619
-50.607161 -60.002513 9.235896 -33.182902
-47.508571 -52.959970 15.617610 -30.140562
-45.389529 -57.485321 8.448743 -30.862455
-66.124240 -61.377573 10.719837 -38.250544
-80.719535 -78.690139 21.854011 -47.822902
-69.694545 -71.048702 22.005553 -42.222974
-59.618822 -57.748962 13.377468 -35.210335
-71.253854 -56.908237 20.934388 -38.448627
-65.088986 -55.379152 15.575520 -36.140441
-59.876852 -63.887283 16.489991 -37.129240
-60.652749 -50.791534 7.136661 -33.433285
-48.535817 -46.049053 0.769451 -28.375461
-56.402452 -52.071071 3.390025 -32.542057
-82.566636 -73.421659 20.442671 -46.796488
-90.650112 -88.359361 26.997205 -56.305292
-86.845478 -82.318596 25.992897 -51.410669
-70.978807 -57.604667 9.979799 -38.575042
-89.249258 -85.587803 25.759729 -53.606179
-88.297426 -85.811890 23.152928 -52.232795
-71.630915 -68.340602 14.480483 -41.991455
-89.757744 -84.826000 27.060071 -53.482835
-59.114989 -33.153338 -1.661891 -27.680498
-52.852023 -31.914998 15.832486 -26.866495
-94.844603 -90.935575 30.048782 -59.976840
-126.285473 -91.269290 33.066684 -72.383668
-93.275378 -49.021856 15.398213 -44.903314
-79.884549 -66.479356 13.952267 -43.909171
-68.189888 -39.282312 -4.171773 -32.241660
-84.137043 -69.101744 22.033602 -45.971636
-132.276512 -111.556912 39.709282 -81.979923
-88.728131 -77.287577 26.959644 -51.266478
-84.254538 -77.202903 20.516675 -48.437232
-74.916821 -68.014461 15.383989 -42.879385
-79.258285 -74.727909 19.245976 -46.195858
-73.612079 -65.443636 12.274726 -41.716714
-76.747876 -71.960056 16.773098 -44.612380
-69.362437 -67.895090 14.977902 -41.177258
-80.196031 -70.938587 17.756258 -45.340386
-76.510283 -66.788067 15.237919 -42.989505
-77.795906 -64.267747 14.743866 -42.619096
-81.556090 -72.153110 17.833964 -46.112760
-103.736348 -102.306272 35.780307 -68.183982
-88.247407 -79.407707 25.327226 -50.981882
-89.323353 -80.404691 25.743580 -51.994544
-84.290770 -76.149257 23.527121 -48.132008
-85.898413 -73.855937 22.794486 -47.926305
-88.534182 -79.824028 25.184831 -51.143280
-138.444882 -104.940940 37.410695 -81.819790
-91.892743 -47.377227 14.449986 -43.798587
-84.501397 -68.606732 22.540771 -45.932439
-85.199309 -72.812820 23.200695 -47.403639
-107.352482 -97.896336 35.374976 -67.879224
-87.895991 -77.311789 24.061440 -49.562334
-84.426054 -72.099226 24.747755 -47.422103
-88.441437 -81.188527 25.878820 -51.752828
-86.063559 -77.443729 22.938898 -49.052187
-79.825032 -61.080485 15.887031 -42.271655
-78.922954 -66.244002 17.335962 -43.550087
-81.141897 -69.739412 17.742156 -45.264392
-80.544740 -66.786903 17.821507 -44.199493
-81.361738 -70.162152 20.675947 -45.457167
-73.451560 -60.279150 12.535722 -40.119213
-77.369019 -66.364369 15.791989 -43.120017
-70.079358 -53.795043 9.885806 -37.162320
-77.553622 -67.488999 14.798553 -43.512786
-66.754610 -49.753461 10.988232 -34.952421
-60.663981 -42.586081 2.579179 -30.975019
-65.551146 -51.290258 3.556292 -35.052421
-64.221382 -56.955185 3.642422 -36.352970
-48.642520 -46.474774 17.331688 -28.535188
-63.524839 -46.847151 9.801630 -33.111597
-68.876923 -77.769444 2.003647 -43.993910
-59.996792 -47.395184 2.714175 -32.217593
-67.671688 -53.047976 6.727564 -36.215899
-63.191475 -48.261889 5.753939 -33.436009
-69.867103 -53.774139 10.288265 -37.092373
-72.671066 -61.438844 12.279371 -40.232973
-71.953615 -60.025184 9.573402 -39.593640
-59.147631 -35.661222 7.786939 -28.442656
-49.070388 -29.582962 -6.385830 -23.596005
-61.811908 -52.356111 1.544425 -34.250406
-55.951095 -38.608571 4.565745 -28.367900
-55.316738 -27.907791 5.973372 -24.967359
-52.630839 -38.566316 0.618120 -27.359146
-55.455696 -25.462449 -3.207748 -24.275444
-63.914401 -50.542158 4.179329 -34.336968
-63.648661 -50.708916 5.490889 -34.307273
-63.592083 -47.439691 7.912618 -33.309532
-62.164120 -45.610442 10.334482 -32.332369
-61.612507 -47.690527 4.733848 -32.790910
-62.169478 -47.731261 7.140343 -32.970222
-56.239344 -42.771181 4.798216 -29.703158
-61.826663 -46.425028 7.270320 -32.475507
-58.039878 -32.613547 1.505159 -27.196027
-60.776952 -49.449316 0.618325 -33.067880
-58.582911 -57.460641 6.553756 -34.813066
-63.593498 -55.719614 3.425408 -35.793934
-68.031017 -59.810262 5.760610 -38.352384
-64.687609 -52.538811 3.826473 -35.167926
-64.113589 -51.853669 7.899517 -34.790177
-56.794338 -25.997770 1.586541 -24.837633
-61.614857 -26.220392 4.873269 -26.350575
-64.706212 -34.545816 4.320061 -29.775609
-69.644391 -55.045025 9.928600 -37.406825
-73.744664 -58.029758 11.704387 -39.532326
-59.987870 -31.835061 3.827954 -27.546879
-72.636419 -42.084785 9.676655 -34.416361
-82.710544 -66.929230 19.831216 -44.891932
-82.811605 -66.709667 19.760147 -44.856382
-73.734891 -56.518518 11.984488 -39.076023
-74.692369 -55.645443 12.470010 -39.101344
-95.385210 -79.375629 30.133723 -55.789983
-139.432554 -97.325016 34.081097 -79.388934
-84.527697 -65.649868 24.873263 -46.249062
-115.727015 -94.475606 34.795154 -69.704835
-82.870446 -62.039445 19.462603 -43.472967
-83.686717 -62.039621 21.383488 -43.717902
-61.296307 -34.547321 15.580729 -29.460775
-78.358819 -38.651252 12.462131 -35.687613
-84.583212 -58.218886 23.577856 -45.127533
-103.910483 -76.832843 29.296883 -58.951942
-80.886469 -59.668873 16.467545 -42.166602
-76.649389 -55.195345 13.061279 -39.553420
-69.587068 -51.770322 9.695347 -36.407217
-64.793718 -47.926367 7.867663 -33.816026
-61.099171 -42.941789 4.969076 -31.212288
-64.607898 -49.263517 6.945323 -34.161425
-60.950184 -46.387104 5.577256 -32.201186
-59.411924 -25.532023 2.395182 -25.483184
-79.428548 -55.330665 15.067208 -40.427764
-71.220388 -47.747030 9.854416 -35.690225
-69.969883 -50.250489 9.400085 -36.066112
-59.993012 -43.906551 5.378060 -31.169869
-53.355990 -26.293129 12.316540 -23.894736
-71.841423 -46.354049 10.650939 -35.458642
-92.114768 -64.159673 23.026331 -48.161968
-84.162144 -58.193004 18.136452 -42.706545
-75.598237 -46.628173 10.235709 -36.667923
-69.826716 -40.926615 6.841496 -33.226000
-69.103887 -44.264894 7.935964 -34.010634
-60.395332 -42.600295 4.709725 -30.898688
-69.214072 -48.855365 9.084907 -35.420831
-66.121786 -43.850471 6.098747 -32.991677
-54.445800 -23.336486 0.502467 -23.334686
-56.660546 -26.026539 2.677774 -24.806126
-68.360001 -43.541170 6.654291 -33.570351
-71.317253 -49.429229 9.660603 -36.223945
-61.420309 -40.159898 3.651783 -30.474062
-65.140319 -44.990633 6.335494 -33.039285
-57.062332 -37.066562 2.908421 -28.238668
-59.829438 -41.527717 4.363633 -30.407146
-59.166516 -31.076412 7.350089 -27.072878
-40.082177 -19.089326 3.283828 -17.751451
-54.766968 -29.816879 7.892241 -25.375154
-49.612272 -27.816933 9.144668 -23.228762
-49.518165 -22.274051 2.821661 -21.537665
-53.456552 -25.282441 4.128554 -23.621698
-53.377850 -27.924162 6.838688 -24.390604
-52.813771 -29.040406 8.560257 -24.556253
-58.480962 -43.672770 3.210997 -30.646120
-54.653386 -39.692378 2.488998 -28.303729
-50.502499 -38.639598 4.915757 -26.742629
-51.991630 -38.593154 3.394229 -27.175435
-57.686107 -31.569251 8.622692 -26.776607
-59.813838 -48.055431 0.845263 -32.360780
-54.155651 -39.714471 3.462624 -28.161036
-57.855260 -48.164681 1.267674 -31.805982
-54.256033 -41.519118 5.348383 -28.732545
-60.045422 -46.486829 8.835028 -31.959675
-54.534581 -44.822711 9.128808 -29.807188
-47.013195 -33.416413 14.187012 -24.128882
-56.156766 -42.429172 2.407845 -29.575781
-58.885793 -46.717704 1.543399 -31.681049
-61.148129 -45.853264 4.994710 -32.100418
-57.086339 -43.211016 7.182931 -30.089207
-63.803470 -32.496283 4.456719 -28.889926
-59.011142 -29.589507 3.968317 -26.580195
-59.610069 -32.573078 4.794236 -27.654944
-58.372192 -29.325791 6.595624 -26.309395
-68.437191 -34.794215 8.875757 -30.969422
-53.206918 -29.728880 9.632053 -24.880739
-58.365612 -31.724374 10.209405 -27.026996
-70.346684 -53.311248 1.653952 -37.097380
-57.524862 -46.297860 1.614356 -31.146817
-62.515125 -50.671114 1.490799 -33.955872
-49.707764 -40.335320 15.704704 -27.012925
-51.463196 -44.213849 10.069542 -28.703113
-43.343097 -34.970939 12.394399 -23.494211
-47.850357 -42.710342 14.874677 -27.168210
-46.602434 -36.350061 12.802449 -24.885749
-42.879067 -28.530622 11.447976 -21.422907
-37.913107 -38.477520 10.571300 -22.917188
-37.584852 -51.404350 13.081015 -26.696761
-35.504751 -61.681073 7.093358 -29.155747
-29.294370 -42.718701 4.634908 -21.603921
-29.420406 -37.676215 -1.323913 -20.128986
-42.045993 -48.968021 -6.526849 -27.304204
-32.463411 -39.720327 -2.023081 -21.655122
-25.229525 -40.849748 3.318191 -19.823782
-32.552511 -38.336925 -7.270357 -21.266831
-42.943348 -36.082985 -0.628168 -23.707900
-43.499269 -46.593067 2.174902 -27.027701
-44.275905 -58.210375 -1.784091 -30.745884
-43.165713 -39.174164 5.076335 -24.701963
-52.883250 -35.971871 8.216654 -26.656536
-34.465090 -42.906712 11.383734 -23.211541
-23.248325 -50.127497 1.099344 -22.012747
-21.840636 -50.474041 0.732113 -21.694403
-16.135946 -44.926272 -2.390161 -18.318666
-24.855179 -50.453390 0.082095 -22.592571
-21.372963 -53.509242 1.197480 -22.464662
-30.591135 -43.796116 -3.230104 -22.316175
-21.293639 -48.183808 -1.090102 -20.843234
-40.031791 -47.592030 1.515956 -26.287146
-37.919482 -44.780440 0.484492 -24.809977
-42.292240 -33.077027 12.194749 -22.610780
-37.518905 -35.244965 11.894923 -21.829161
-30.574067 -42.926727 1.936883 -22.050238
-33.701912 -49.802853 8.435899 -25.051429
-29.812127 -12.847967 -2.125975 -12.798028
-49.247440 -43.945064 5.769837 -27.957751
-27.766166 -26.488257 2.842950 -16.276327
-24.610587 -34.825887 4.606961 -17.830942
-34.322579 -56.776694 -4.233297 -27.329782
-29.320706 -35.871369 2.954081 -19.557622
-33.656883 -57.795742 2.582981 -27.435788
-28.655888 -31.956810 0.688973 -18.183810
-27.688471 -30.749685 -0.405321 -17.531447
-30.517082 -47.742805 5.423749 -23.477966
-35.182542 -54.217392 6.344867 -26.819980
-32.508898 -46.794505 -2.761533 -23.791021
-56.332071 -48.312563 14.571919 -31.393390
-22.111963 -20.147733 0.170165 -12.677909
-45.978240 -28.903742 4.954690 -22.464595
-26.821418 -21.333286 1.427884 -14.446411
-32.744401 -27.555589 4.250973 -18.089997
-36.788057 -32.857393 6.681207 -20.893635
-28.945254 -31.133631 4.949078 -18.023665
-25.862992 -21.108569 6.092471 -14.091468
-47.200518 -49.883728 3.366442 -29.125274
-25.458229 -16.374170 -4.587025 -12.549720
-22.702081 -26.224720 2.781040 -14.678040
-30.096887 -34.092516 -0.923284 -19.256821
-48.871996 -42.179494 4.342764 -27.315447
-44.787708 -41.362110 4.715526 -25.844945
-36.635980 -44.442546 8.995453 -24.323558
-31.927802 -32.138606 0.609765 -19.219922
-31.182616 -39.186567 -1.295104 -21.110755
-30.468229 -31.174019 -0.304173 -18.492675
-50.389145 -39.821432 6.940439 -27.063173
-39.501016 -30.067525 8.936246 -20.870562
-46.260798 -28.531812 4.657871 -22.437783
-46.385044 -32.395935 9.655696 -23.634294
-40.273794 -39.094326 8.586688 -23.810436
-33.782106 -37.390187 4.554635 -21.351688
-28.623253 -29.959544 2.305415 -17.574839
-31.191325 -20.542426 -1.243923 -15.520125
-27.372555 -34.913689 1.951279 -18.685873
-23.160817 -30.181371 -0.376042 -16.002656
-34.150703 -24.595478 3.151501 -17.623854
-30.384216 -25.003286 1.148010 -16.616251
-27.926120 -19.221131 -1.693262 -14.144175
-37.020457 -33.444488 4.052570 -21.139484
-27.449859 -31.071981 0.786125 -17.556552
-42.853747 -25.316741 5.133087 -20.451146
-23.621123 -29.359813 2.617112 -15.894281
-36.401842 -45.372339 7.694557 -24.532254
-15.552434 -25.863198 -1.590503 -12.424690
-22.674501 -29.967767 0.224689 -15.792680
-40.090610 -42.594854 15.632879 -24.805639
-66.990329 -43.052442 19.014606 -33.147172
-34.502439 -25.353357 -0.586938 -17.956739
-26.742248 -20.329314 -1.063478 -14.121469
-27.643438 -21.275608 1.614658 -14.675714
-28.434708 -21.995720 1.063895 -15.129128
-35.333785 -49.465255 5.731368 -25.439712
-30.021607 -43.346127 1.798647 -22.010320
-30.566439 -46.981012 1.510647 -23.264235
-31.874071 -38.392218 -2.726979 -21.079887
-32.437175 -43.989893 3.484255 -22.928120
-27.806495 -30.337830 0.327950 -17.443297
-29.350508 -31.125799 -2.585026 -18.142892
-27.887828 -26.861317 -1.884562 -16.424744
-59.408022 -46.694273 12.756434 -31.830688
-27.349347 -20.298679 0.564341 -14.294408
-52.183165 -39.416885 4.909266 -27.480015
-45.269695 -42.307288 7.400097 -26.273095
-29.517245 -22.767136 0.892592 -15.685314
-31.238291 -44.351162 2.881224 -22.676836
-25.340060 -20.973030 -0.139494 -13.893927
-29.014866 -24.854936 -2.998728 -16.160941
-31.871654 -45.041674 7.108206 -23.073999
-27.033231 -11.539979 2.305589 -11.571963
-29.504933 -36.917862 2.993494 -19.926838
-28.855590 -34.169587 6.501619 -18.907553
-30.237352 -38.170531 0.963273 -20.522365
-30.931056 -39.592230 -1.509767 -21.156986
-29.955043 -38.096981 0.832952 -20.415607
-29.675596 -31.277247 2.763168 -18.285853
-28.679609 -32.386869 -1.309784 -18.319943
-28.871021 -31.755720 -1.263006 -18.188022
-20.755378 -13.501361 4.495709 -10.277022
-13.874634 -23.910672 -0.562611 -11.335592
-26.304419 -19.471314 -1.226097 -13.732720
-26.540743 -18.107025 0.715000 -13.394331
-43.929132 -40.024026 10.181136 -25.185947
-24.608242 -31.390768 3.546834 -16.799703
-30.977563 -30.569682 1.136324 -18.464173
-42.386460 -40.761546 16.865405 -24.944402
-22.028344 -32.966253 6.257290 -16.498379
-36.158085 -30.019704 14.336999 -19.853337
-21.228813 -18.290206 0.980778 -11.855705
-27.317946 -33.912597 6.400208 -18.369163
-32.551065 -21.225479 0.568159 -16.132963
-32.187354 -26.221198 0.417987 -17.522566
-38.771679 -25.519097 11.548646 -19.287233
-51.684300 -29.356775 6.930698 -24.312322
-23.386466 -29.022735 -1.578655 -15.722760
-41.877765 -29.669683 5.505678 -21.464234
-15.978193 -24.900631 -3.734443 -12.263647
-22.234201 -28.672018 0.086214 -15.271866
-55.430448 -32.598298 10.760205 -26.408624
-41.653939 -25.415179 7.226028 -20.120735
-53.916721 -30.682394 -1.698456 -25.379735
-36.059781 -20.618812 -3.045607 -17.003578
-38.242578 -31.765099 1.124664 -21.002303
-36.557372 -16.058449 0.097573 -15.784746
-44.688057 -20.144033 2.701315 -19.449627
-46.399499 -24.732583 7.584044 -21.339625
-35.520291 -20.540018 5.990476 -16.818093
-40.232823 -21.115132 6.627897 -18.404387
-42.459389 -18.308350 1.659273 -18.230322
-44.862698 -18.174002 0.834800 -18.911010
-46.059283 -22.141967 5.114930 -20.460375
-41.072454 -20.188420 4.122016 -18.378262
-34.794198 -26.039010 9.160180 -18.249963
-53.846669 -35.075147 0.130270 -26.676545
-47.753517 -28.164175 -0.929683 -22.775308
-46.414579 -33.678804 0.871753 -24.028015
-63.007852 -39.320537 1.233864 -30.698517
-47.879981 -29.592908 12.263187 -23.241866
-43.722806 -35.876750 5.714445 -23.879867
-49.344097 -36.410196 -0.295665 -25.726288
-56.425556 -44.948988 0.898726 -30.412363
-54.295525 -43.727353 1.546107 -29.406863
-43.292419 -33.281900 2.631715 -22.972295
-51.483707 -42.621565 8.625977 -28.231582
-44.587836 -20.129124 3.200150 -19.415088
-51.745452 -25.911892 5.784505 -23.297203
-51.021119 -27.683091 7.883982 -23.611263
-49.465988 -27.144745 8.659733 -22.983220
-42.820186 -15.717126 -1.982148 -17.561194
-51.487842 -21.640164 -0.010959 -21.938402
-52.957997 -25.208071 4.503515 -23.449820
-49.041111 -23.519187 4.726866 -21.768089
-44.339300 -23.027706 6.103159 -20.210102
-48.587967 -24.962421 6.443403 -22.065116
-54.715555 -31.160114 1.295822 -25.762701
-54.521556 -24.444620 0.950724 -23.689853
-51.740429 -21.979616 -0.136745 -22.116014
-52.205594 -22.945471 1.962192 -22.545319
-60.744937 -37.095562 3.061597 -29.352150
-63.707047 -43.459183 5.716571 -32.149869
-51.895293 -32.689762 0.577195 -25.375516
-55.555471 -31.836859 0.859599 -26.217699
-82.416040 -52.858250 20.269571 -41.172834
-100.855972 -54.694556 17.270366 -49.724898
-89.795808 -57.761578 20.310065 -45.089337
-84.739112 -56.557206 16.252693 -42.388895
-60.515669 -35.984341 15.651553 -28.950003
-84.248130 -45.800503 16.364906 -40.032093
-62.402217 -40.967634 8.961054 -31.010955
-79.260503 -44.882201 11.199969 -37.242811
-61.598696 -36.399968 8.259319 -29.399599
-73.318956 -42.049046 7.756006 -34.610401
-66.719434 -38.391404 6.500513 -31.533252
-66.925984 -42.130774 7.493613 -32.717027
-55.580819 -31.143960 1.458676 -26.017434
-56.668626 -30.691189 3.981158 -26.207945
-56.926525 -35.151260 1.139678 -27.623335
-52.860395 -30.544212 1.654749 -25.021382
-50.899142 -25.988722 1.643171 -23.066359
-55.502547 -33.936166 0.595506 -26.831614
-61.161186 -30.474378 2.241989 -27.490669
-53.354167 -25.793123 -1.540994 -23.744187
-52.282932 -19.741410 -2.341740 -21.607303
-48.505111 -20.082325 0.802282 -20.576231
-61.604789 -39.413937 10.652882 -30.305618
-58.945845 -32.692136 9.129423 -27.491394
-55.702368 -30.082041 4.971263 -25.735323
-64.996473 -36.324070 5.147931 -30.396163
-57.926634 -32.311273 3.813106 -27.071372
-51.957783 -29.465522 1.224726 -24.426991
-51.493273 -30.887393 15.293830 -25.016372
-64.752226 -49.752091 21.833764 -34.777029
-73.181507 -55.092053 23.191852 -40.153185
-83.226415 -59.040005 24.056923 -44.967812
-104.553031 -60.303480 19.840382 -53.066509
-48.101031 -27.467397 13.583537 -22.670528
-42.510217 -15.361573 6.909019 -17.361537
-45.003622 -23.057077 12.219079 -20.418210
-79.092733 -58.033651 24.016408 -43.032408
-74.902829 -60.129019 24.857863 -42.268571
-86.823741 -64.389236 22.493513 -45.711158
-70.052143 -55.627246 23.557020 -38.855538
-81.734664 -69.613629 27.520089 -48.505625
-74.780005 -65.394721 26.242854 -44.278584
-73.972782 -55.528784 23.398707 -40.235544
-74.145182 -54.304174 22.843171 -39.850388
-76.406283 -66.546590 26.602059 -45.470217
-81.896012 -75.885823 28.937557 -51.283822
-93.481410 -77.231230 29.785908 -55.281797
-70.779904 -60.089609 24.803036 -41.047988
-92.723856 -62.059269 24.525273 -49.251270
-84.615347 -57.622033 23.682313 -44.603815
-92.570057 -80.352988 30.582262 -56.096208
-79.712789 -71.975571 27.994098 -48.333044
-90.299807 -58.341268 23.070925 -47.011007
-107.838558 -109.145849 37.291313 -72.187064
-87.562146 -82.667609 30.708505 -55.644836
-87.590102 -85.776170 31.262983 -56.233052
-80.175185 -81.882642 29.666446 -52.195599
-80.067505 -76.918965 28.942520 -51.190014
-94.197350 -77.664250 29.920984 -55.707956
-81.186518 -70.109010 27.655444 -48.191085
-85.771828 -79.134992 29.881993 -53.417387
-93.899952 -80.880684 30.616073 -56.825159
-85.973385 -85.533663 30.991215 -55.897655
-100.977332 -85.232266 32.033858 -60.935158
-73.845094 -59.778033 24.755964 -42.470176
-106.408639 -82.260922 31.107321 -61.814821
-93.497419 -56.827793 20.992742 -47.656602
-92.249589 -59.107929 22.368982 -47.943897
-104.344633 -93.235057 34.156732 -65.096851
-96.114048 -89.870544 32.851873 -60.863932
-104.474334 -89.352317 33.228972 -63.721335
-99.292148 -88.425370 32.790710 -61.497118
-93.211875 -85.853509 31.637050 -58.386072
-99.496825 -81.120806 30.915380 -58.851847
-90.806885 -74.170588 28.728924 -53.129911
-95.438006 -80.701795 30.652717 -57.207869
-84.127921 -64.816593 25.970487 -47.207986
-90.203390 -73.841986 28.668701 -52.789233
-93.416698 -79.034367 30.030081 -55.788545
-88.399529 -69.474194 27.518895 -50.603310
-76.840938 -56.256177 23.510764 -41.568364
-73.637959 -40.170659 15.384391 -35.078945
-90.228151 -71.384006 26.730882 -50.467139
-82.956270 -63.681626 25.801443 -46.503725
-82.083610 -60.731017 24.813090 -45.092410
-93.905674 -77.096473 24.675212 -52.007081
-128.328786 -74.756560 22.827741 -67.004334
-99.891058 -57.990004 19.878740 -50.485825
-60.334457 -32.817766 14.803326 -27.945667
-93.235486 -55.321963 20.370146 -47.187643
-55.420621 -25.991980 10.442339 -24.423780
-104.883356 -69.054879 25.459770 -56.428248
-51.554222 -21.646573 8.624559 -21.960238
-53.536441 -22.442717 7.825880 -22.793747
-77.956745 -40.809642 14.835246 -36.242134
-78.694046 -45.545881 17.967344 -38.320564
-79.404898 -51.249438 20.864916 -40.614574
-88.450546 -62.660236 23.450379 -46.609233
-70.950442 -34.577719 12.184763 -31.658448
-79.807014 -42.841730 15.664821 -37.734744
-85.928843 -66.130641 26.506250 -48.118545
-83.064982 -61.524276 25.039499 -45.756947
-84.857207 -60.797548 24.381906 -45.299417
-89.127294 -68.914351 23.793956 -48.047754
-87.143560 -67.563796 26.753809 -49.339048
-85.243102 -65.691365 26.332953 -48.034334
-98.071622 -86.900151 31.683560 -60.300482
-92.719497 -76.217786 29.334322 -54.471422
-114.394153 -71.063948 24.468631 -60.597556
-102.098407 -62.982983 15.723251 -49.611284
-93.179073 -44.929437 10.670758 -43.372489
-21.130305 -2.389577 4.564276 -7.055965
-94.804152 -61.184833 21.539473 -48.304628
-96.455463 -70.093862 20.903704 -49.964797
-131.137948 -82.797267 27.908394 -71.058831
-76.414058 -37.915423 12.787741 -35.056364
-146.820795 -84.638767 23.907318 -77.382035
-118.147605 -72.643250 24.376406 -61.551360
-112.154323 -72.417454 25.864487 -60.232624
-91.984383 -71.994807 20.659720 -49.193757
-99.725583 -84.368494 26.084440 -56.626749
-95.975992 -78.872139 27.382571 -54.406161
-95.794631 -75.392367 21.600238 -51.356099
-100.866987 -85.923639 24.628573 -57.291199
-106.670349 -93.649366 33.510364 -65.929006
-100.835956 -85.808336 31.697898 -60.963429
-91.610948 -70.112379 27.359771 -51.814452
-98.813734 -81.193191 30.318586 -58.509192
-91.219049 -69.514502 23.340009 -48.746248
-88.799478 -69.882700 23.666731 -48.022773
-104.418978 -85.888395 32.065728 -62.245851
-109.647010 -99.455332 35.729125 -69.233991
-102.038852 -86.144780 32.157042 -61.592496
-102.123762 -87.576003 32.157971 -62.017469
-104.263040 -90.484172 33.070076 -63.819707
-117.333171 -112.063604 38.916191 -76.615140
-103.732465 -87.548019 32.652720 -62.711233
-106.423460 -95.097860 34.031652 -66.231340
-130.418855 -125.745023 40.781961 -85.830114
-103.136483 -60.390486 21.041605 -52.568649
-111.894895 -103.900806 34.980461 -75.391053
-103.552996 -91.529057 33.727348 -64.186594
-106.458879 -92.160318 34.006234 -65.483168
-105.746609 -101.297547 35.825157 -68.545521
-120.244000 -113.102300 39.318844 -77.060148
-105.019357 -91.393096 33.761051 -64.670667
-123.020660 -131.266577 40.774991 -85.256671
-102.388889 -59.620523 20.621494 -52.083917
-111.539838 -107.866326 33.693455 -76.031775
-94.466821 -58.391769 22.184540 -48.608856
-108.361348 -102.462312 36.112292 -69.848119
-99.739391 -95.817614 34.265505 -65.080191
-89.951177 -68.369661 26.992666 -50.715346
-103.182819 -84.729745 31.834168 -61.492704
-101.198971 -86.871801 32.277890 -61.553641
-81.370901 -61.690116 25.191066 -46.183525
-96.040547 -79.467174 30.061463 -56.922739
-85.464268 -64.464321 25.907326 -47.784173
-97.475974 -57.572327 20.594434 -49.471007
-105.054184 -66.993861 24.721302 -55.655805
-83.297746 -81.442773 29.587849 -53.066040
-98.767147 -89.904540 32.458061 -62.306911
-103.426510 -76.657331 29.263826 -58.712654
-89.239177 -79.772853 30.276832 -54.914681
-116.576998 -115.832113 36.913952 -76.212778
-104.102243 -111.191804 36.892965 -71.560872
-118.866400 -124.113186 40.102993 -81.246232
-101.119067 -56.433980 18.575557 -50.449870
-114.760539 -136.069964 31.053159 -83.801400
-104.141718 -124.609086 35.954569 -74.891867
-112.493881 -123.453360 36.271673 -76.297529
-113.777797 -133.374881 32.854496 -79.744104
-111.321231 -132.699740 31.158014 -81.867362
-111.505861 -141.417213 30.931986 -87.325025
-111.103419 -128.471746 34.576028 -77.654890
-113.932710 -125.257303 37.154361 -77.850563
-115.149422 -118.293993 36.768275 -76.483677
-110.810132 -108.927396 37.101415 -72.665832
-120.017179 -119.118151 39.855237 -79.714489
-101.447808 -100.058139 34.248600 -65.949321
-96.024912 -97.868477 32.768227 -63.161268
-130.824081 -116.753863 40.175351 -84.108372
-100.895171 -104.708893 34.028256 -67.396756
-107.590483 -62.146466 20.690189 -54.845279
-120.973218 -133.208088 37.882848 -83.759309
-124.469665 -110.303326 38.183363 -77.339594
-116.899661 -138.582429 41.250494 -86.214575
-101.597874 -108.531682 36.187286 -69.428732
-118.014230 -148.728106 29.219956 -87.192347
-118.427154 -139.968449 30.984208 -86.343479
-118.998756 -129.415278 34.501452 -80.098168
-114.499088 -127.202200 36.002477 -78.199095
-111.422766 -129.738301 29.800101 -79.616615
-115.566525 -133.312911 33.317139 -79.790497
-113.624756 -129.553823 34.481479 -78.850940
-114.538662 -133.212654 33.993638 -79.764787
-115.715314 -124.731741 36.227237 -77.858881
-115.343881 -115.374760 35.775385 -74.582456
-102.249605 -127.401750 33.994480 -75.182295
-113.567878 -141.231396 29.125318 -89.306029
-106.602704 -129.328354 30.981196 -79.760718
-113.203732 -139.566619 30.834306 -85.563973
-110.435891 -134.395755 36.809183 -81.620334
-89.032868 -115.187681 33.038235 -73.174177
-105.763331 -131.104089 34.829759 -80.981519
-105.474252 -126.299095 37.945700 -80.893193
-185.702424 -183.487811 58.400071 -127.726291
-119.094148 -138.329044 32.180614 -80.535333
-164.453793 -178.242020 54.300946 -118.062527
-133.825305 -161.619006 45.741349 -99.331944
-178.109853 -199.111439 58.596801 -130.653339
-106.879418 -137.190720 36.659845 -83.789028
-107.279752 -127.975171 34.348517 -80.976623
-90.289253 -115.391355 27.787920 -65.935705
-113.297479 -136.060603 38.379829 -81.896880
-90.639656 -104.653718 31.975320 -62.461969
-108.282193 -138.156485 35.989497 -81.618293
-95.091263 -112.972418 33.544135 -67.964921
-100.989050 -128.096486 34.439447 -78.616773
-97.806963 -123.459664 33.423079 -76.109729
-100.356638 -128.172143 35.854452 -75.807773
-99.609911 -126.554923 34.827494 -77.067004
-101.709862 -129.734292 31.942092 -76.080083
-107.003463 -142.319686 34.847696 -88.115224
-111.926476 -132.478593 31.724657 -80.709602
-109.117444 -125.153514 38.766466 -78.420416
-98.844714 -137.430827 26.034010 -77.551839
-112.979984 -141.650722 28.810145 -78.949550
-113.618429 -155.187379 30.515113 -91.021829
-122.051795 -149.676594 36.717455 -90.016289
-113.321227 -151.008580 30.816866 -87.162467
-104.997892 -133.761020 31.688035 -80.426717
-114.209124 -122.245556 27.605836 -71.384447
-103.414883 -130.682125 25.733902 -71.411732
-114.331880 -145.377820 34.203463 -85.472589
-103.841469 -130.104126 34.030399 -80.386575
-106.301114 -149.349738 28.653257 -83.362703
-114.795974 -147.620099 32.270288 -84.034877
-93.600599 -116.981864 28.192914 -71.041679
-96.719828 -122.293236 30.881651 -71.386017
-96.472125 -122.178758 32.266408 -71.295843
-103.833212 -134.675464 34.697958 -83.419560
-99.466160 -129.242952 32.700158 -75.420699
-96.353067 -120.854772 34.093873 -73.459277
-101.407245 -129.378880 32.603906 -79.790060
-103.712871 -131.829717 33.706590 -82.320183
-101.711280 -132.531877 36.452793 -82.141139
-92.903425 -115.044279 32.700087 -70.630417
-105.478905 -126.791132 32.690078 -77.351435
-98.104267 -127.028759 35.478801 -76.184447
-104.525385 -124.629909 34.547204 -74.107011
-110.024095 -129.889952 33.596828 -78.842354
-108.136066 -111.304777 36.414616 -72.093543
-113.269460 -124.564334 36.596858 -77.200268
-106.035001 -100.672356 35.088026 -69.435970
-99.240540 -101.824675 34.548634 -65.965264
-107.302819 -119.774539 37.429453 -75.286408
-95.387349 -109.835752 34.926090 -67.889338
-110.941062 -121.693793 38.350345 -77.679552
-92.205681 -55.013078 20.039117 -46.493299
-96.298180 -118.931897 34.816260 -73.890722
-101.664488 -131.729359 36.039808 -81.238690
-102.267128 -133.758359 34.587956 -81.393601
-107.798694 -132.434582 34.794759 -78.105716
-98.104355 -122.300886 35.081598 -73.099022
-108.290181 -128.927272 37.215875 -78.297961
-92.919267 -117.827602 34.254675 -70.363004
-96.253057 -117.984103 35.050669 -71.263350
-90.960992 -109.791049 33.758886 -66.672365
-104.918206 -125.118637 37.784934 -76.938988
-106.415441 -109.750898 37.049519 -71.770403
-96.726250 -92.093554 33.317928 -61.895508
-96.819665 -107.237747 35.124841 -67.599403
-96.831642 -99.766040 34.448286 -64.853196
-77.372771 -105.669313 29.374872 -61.431674
-97.046100 -116.146675 35.301534 -70.738746
-88.904189 -101.739860 33.046435 -62.772549
-97.618107 -107.343627 35.315704 -67.781909
-106.836766 -131.498225 37.774561 -79.496599
-106.451494 -127.140871 37.904347 -78.055157
-95.028530 -116.696928 34.318473 -70.142486
-86.220541 -117.036272 31.862417 -67.994985
-103.996599 -121.538001 37.486563 -75.298850
-96.137140 -118.198476 35.243222 -71.232066
-90.875696 -115.383295 29.951957 -67.478330
-103.713665 -137.724033 30.361673 -79.465011
-98.248883 -124.596390 32.965929 -73.109957
-96.155951 -121.437290 31.410144 -71.235680
-104.750887 -127.361673 36.249720 -81.477438
-94.080941 -115.700958 33.850782 -68.753377
-98.484733 -121.888806 34.914386 -73.094705
-99.124701 -116.722145 36.071217 -71.719951
-94.729707 -119.998196 34.456391 -70.200806
-115.791654 -131.454698 28.680402 -76.902472
-93.358179 -117.264505 29.078001 -68.477556
-106.538559 -139.499542 31.045788 -81.126744
-87.675411 -114.148623 32.348064 -65.568142
-99.473654 -128.624804 31.352093 -73.171204
-92.097499 -122.431108 26.875255 -71.771306
-90.938507 -129.482133 28.996880 -71.333750
-106.653750 -145.106027 28.711340 -86.607186
-92.349655 -112.749792 28.529283 -68.482773
-100.560664 -113.547679 13.673504 -64.232503
-80.357538 -106.345542 19.486109 -56.010924
-90.123598 -105.977906 32.817077 -63.270813
-92.280683 -112.685917 25.767989 -62.359625
-140.286456 -213.060079 30.086881 -126.391674
-158.988604 -214.350212 52.157627 -129.234731
-110.896937 -184.210480 31.219944 -100.801823
-127.326256 -174.307939 43.074552 -103.078526
-140.958465 -185.705473 47.551492 -112.167589
-112.069315 -142.937855 39.692135 -86.171733
-61.943781 -93.766194 2.085198 -46.712993
-87.851462 -126.757433 15.076308 -64.463057
-91.441120 -110.768666 30.079102 -63.773972
-82.038223 -97.165035 21.193433 -53.760977
-89.470555 -107.120824 33.218142 -63.752898
-90.525649 -110.323225 31.730477 -64.320424
-129.551083 -184.594392 42.424817 -110.857920
-163.683999 -175.570644 54.007260 -116.791369
-106.190316 -120.274776 33.885733 -72.342621
-69.321156 -64.976879 0.132102 -40.289410
-135.619602 -160.805655 46.674665 -101.171808
-105.920459 -114.867995 37.627653 -73.929572
-188.595349 -173.328722 56.910316 -125.082022
-105.799778 -91.346637 29.157299 -61.455464
-96.106452 -182.895779 14.087289 -95.294266
-134.891166 -157.805435 46.407609 -102.887142
-131.590540 -183.425595 43.259136 -106.897392
-155.743950 -186.986797 52.523053 -118.022975
-90.412876 -136.108300 31.186982 -75.620324
-80.055772 -158.767538 8.226763 -80.012934
-149.719994 -226.545968 45.327061 -130.348130
-98.821049 -165.323657 28.582298 -90.356544
-137.043175 -208.047189 42.117694 -121.663917
-118.261328 -161.696082 40.590694 -95.180735
-83.735968 -161.596519 13.359175 -82.462806
-86.001239 -166.225866 12.864650 -84.980366
-101.739837 -193.619689 14.496769 -102.866459
-63.468094 -126.508453 11.501009 -65.644961
-77.950882 -150.914457 10.521841 -76.203898
-97.948035 -178.149718 21.793119 -93.612782
-90.701328 -163.042741 22.142309 -85.675534
-102.100230 -178.948021 25.642784 -94.493707
-95.133470 -147.998964 31.419280 -81.589392
-83.877480 -151.632469 21.533455 -78.665970
-105.487211 -167.169581 32.952470 -92.392645
-84.990501 -150.495515 23.243433 -78.654804
-90.177243 -162.378930 22.444107 -84.910368
-79.936024 -147.879249 18.946552 -76.033025
-77.615521 -148.645023 13.246252 -75.213658
-82.176577 -159.220745 13.044759 -81.044582
-81.547471 -145.609170 21.147256 -74.593937
-59.628718 -125.905271 -0.041939 -60.506965
-86.964279 -158.028610 21.431667 -82.112084
-90.169039 -161.227259 22.993098 -84.505220
-80.452504 -151.841351 14.576965 -77.218815
-81.996191 -157.550004 10.922178 -80.012578
-108.555407 -192.850936 25.037091 -106.784795
-76.669316 -121.782199 26.443288 -65.383952
-89.228699 -162.216431 19.137926 -83.229032
-89.063848 -155.773087 24.122922 -82.284752
-108.516408 -175.963257 32.280705 -96.788715
-101.283944 -171.514056 28.243024 -92.524708
-78.855501 -146.894117 18.467446 -75.193139
-77.920034 -150.572627 13.934378 -76.352642
-77.095304 -146.689095 15.853705 -74.636045
-84.765755 -157.950184 18.265192 -81.533837
-78.980720 -151.746446 13.887125 -77.051031
-77.374857 -149.266359 12.220009 -75.471371
-110.525009 -199.623028 23.409231 -110.203554
-104.137003 -187.056572 23.584209 -100.998953
-112.160869 -189.809332 25.094904 -100.308117
-95.572200 -185.561471 11.600721 -95.326786
-86.119991 -157.202687 20.566962 -86.419209
-105.223289 -186.862611 24.936102 -99.661303
-91.438931 -157.331178 25.736739 -85.087228
-108.270707 -198.877364 20.988114 -105.125814
-110.678521 -196.678427 25.270688 -106.180900
-111.567424 -191.751487 28.695538 -103.665484
-98.172260 -172.729111 24.886249 -92.377419
-113.011392 -201.067653 25.460991 -108.914261
-108.548697 -183.941612 29.354120 -108.714465
-113.380565 -190.546110 30.799514 -104.385592
-110.792313 -195.021521 26.409125 -112.368760
-92.934357 -163.790666 24.192006 -93.651225
-124.574874 -192.610998 37.838484 -108.486389
-95.221131 -160.876257 26.993853 -86.378279
-135.617181 -234.740514 31.133762 -128.579613
-116.868950 -198.575923 30.449389 -108.117075
-103.895459 -121.423716 -15.876393 -68.085086
-84.009625 -168.085689 -2.364331 -89.922758
-97.130934 -190.154455 6.832930 -97.830092
-108.438056 -167.364581 9.493613 -84.525520
-110.678513 -213.227154 7.338549 -122.656699
-93.831032 -184.334798 6.204759 -104.289384
-133.814117 -137.011215 -4.168863 -81.247600
-118.789965 -172.476173 10.260782 -87.466945
-133.612704 -233.112521 30.005847 -126.796201
-123.504327 -197.808461 36.140554 -110.193174
-108.286478 -187.173768 27.664980 -110.947781
-151.479826 -259.687809 34.606302 -143.165262
-119.982433 -202.322052 31.604749 -110.810504
-132.789696 -207.005976 39.692114 -117.209401
-116.399454 -189.169270 33.803863 -104.428618
-95.519944 -164.695070 24.767174 -87.398429
-143.304856 -258.218561 25.056371 -139.538316
-142.567410 -245.423655 32.752288 -148.112540
-102.145836 -200.174461 -1.655816 -105.213760
-167.147632 -299.324588 28.081677 -171.417503
-113.247354 -111.016395 -12.788380 -67.323437
-155.432762 -287.044241 19.068300 -158.112616
-157.448757 -288.245580 21.201221 -160.875485
-140.698425 -247.316345 9.313149 -143.247110
-113.533693 -126.990629 -0.938884 -72.157297
-134.037896 -148.836162 23.023273 -84.862217
-132.330023 -156.583113 15.454674 -86.673941
-114.247223 -146.345589 9.884611 -78.177843
-120.818387 -200.342931 32.252609 -109.782548
-125.489886 -179.452804 15.832957 -92.825597
-112.516706 -193.407991 28.654627 -116.382062
-95.741426 -179.936578 16.078241 -95.514713
-114.755691 -197.541625 28.951745 -107.525593
-127.260515 -221.061448 29.617550 -132.830335
-123.075994 -206.795297 32.426812 -124.852578
-125.284732 -205.635198 34.719204 -125.410456
-134.386690 -226.876197 33.840496 -124.852315
-106.637417 -189.306087 24.811753 -103.552983
-112.914374 -194.535842 28.625524 -116.536452
-118.947495 -200.106359 31.633318 -120.950640
-116.923227 -194.689555 32.119761 -106.720510
-104.725627 -175.602238 29.477029 -95.915762
-99.788955 -176.402566 24.683536 -99.922358
-115.477404 -207.697646 24.360954 -112.620823
-123.797629 -202.063720 34.838374 -111.932674
-107.599325 -174.285409 32.124673 -96.739616
-118.651630 -214.656893 14.877611 -114.215219
-112.876082 -206.114891 21.947428 -109.683973
-108.557731 -200.415865 15.934286 -112.051778
-86.046152 -107.215568 32.388573 -63.460340
-112.705347 -185.654736 32.099464 -113.958860
-125.459146 -200.896513 36.467364 -124.103046
-119.396018 -206.646300 29.105861 -112.392527
-124.481980 -204.723267 34.417908 -113.279093
-118.812155 -195.103990 33.469059 -107.741900
-126.134025 -203.224316 36.211302 -122.760962
-107.015577 -178.485722 30.256405 -97.168058
-121.856843 -202.405297 33.186701 -121.660076
-130.646403 -218.125627 34.273611 -120.281057
-125.001168 -208.819683 33.254666 -126.008401
-123.373117 -202.958586 34.164333 -112.732099
-125.849368 -205.335114 35.267536 -114.307874
-112.210809 -199.626919 25.149942 -120.824976
-122.764582 -208.711405 31.308744 -126.541434
-115.362576 -198.256558 29.193304 -108.012319
-115.672990 -187.844158 33.584503 -104.396547
-116.228837 -206.824521 25.313097 -113.682619
-135.724324 -238.210108 28.242236 -143.458940
-131.422666 -228.089921 30.170591 -124.200594
-148.621417 -270.619509 22.609241 -157.979636
-135.428626 -238.557371 11.207587 -138.361307
-132.081526 -235.500425 12.930267 -137.830137
-126.673952 -165.804003 20.595522 -87.855292
-103.480261 -163.882478 20.053048 -85.184475
-119.811070 -223.702366 9.716632 -124.343012
-139.795578 -248.564758 8.576713 -143.550091
-141.090040 -268.264078 3.161431 -152.386212
-140.402633 -251.878688 6.745307 -147.317886
-122.724631 -126.801523 7.362427 -74.857846
-135.055174 -251.369691 6.933220 -143.703459
-117.552185 -149.866115 16.955904 -80.225490
-127.540049 -132.493033 22.871687 -78.009925
-107.738398 -165.916806 31.746563 -90.956944
-124.183951 -207.750947 33.104712 -114.066920
-133.821100 -235.468263 28.283916 -128.694645
-130.089041 -177.408197 34.445219 -99.862884
-126.526155 -166.694730 28.271025 -91.965780
-101.273854 -165.537075 30.463415 -90.295941
-155.772167 -293.905316 -4.500448 -165.019374
-142.855007 -255.952828 4.030936 -146.794215
-128.546868 -241.964569 9.482686 -141.324502
-129.312334 -99.592882 18.243874 -68.671565
-138.362930 -244.703987 8.806233 -142.474323
-141.639333 -250.318462 6.827502 -145.618136
-126.031623 -147.282383 24.933865 -81.994202
-142.286732 -136.461739 21.361549 -83.624541
-126.789737 -155.684431 22.562903 -84.742250
-126.776784 -144.726636 17.620515 -81.451026
-120.171359 -156.915359 31.487495 -88.864758
-90.451862 -170.015090 14.924839 -90.183682
-107.247250 -194.970003 20.631251 -104.437195
-146.528417 -257.311436 30.376650 -140.449184
-99.412467 -188.158690 14.644992 -100.151195
-94.794281 -179.707395 14.906952 -107.790603
-114.998939 -203.344342 26.092794 -109.914839
-113.470176 -202.139594 24.931711 -109.295948
-136.918805 -231.998419 33.837150 -127.653640
-132.125587 -224.547047 32.790580 -123.183030
-117.381534 -202.121129 29.274910 -110.830362
-127.002339 -207.684270 35.262043 -124.326889
-118.181081 -200.621648 30.674329 -110.959397
-122.610783 -198.574511 35.140031 -110.943384
-121.732114 -203.163399 32.656429 -121.814983
-129.533464 -210.339149 36.297293 -128.360813
-127.899442 -212.310641 34.308447 -126.133971
-126.291946 -205.579465 35.532479 -114.186975
-124.636349 -201.062584 35.840517 -112.643469
-127.626138 -207.699291 35.832777 -125.508368
-117.126874 -214.867427 21.188890 -114.158959
-122.602450 -198.259250 35.274012 -116.685582
-103.635589 -172.678082 29.780841 -93.775279
-96.028556 -164.650206 26.740754 -88.000979
-92.686510 -175.607710 16.325322 -90.768071
-83.972761 -159.373476 16.429278 -81.648949
-92.257265 -176.610177 14.620682 -90.976935
-82.689868 -160.494895 13.014417 -81.663218
-102.873591 -182.447857 24.633207 -97.101769
-89.121949 -164.216518 19.996602 -85.246749
-86.149311 -167.441637 12.316244 -85.446714
-88.370983 -169.019785 14.777499 -86.882290
-122.840826 -209.464136 16.306563 -113.140153
-104.111670 -165.185590 32.603837 -91.170676
-115.545996 -155.158626 39.697973 -91.659718
-109.516064 -146.510797 38.492381 -86.378206
-103.158450 -191.446680 18.249270 -99.066142
-100.979454 -131.971333 36.228217 -77.889524
-111.959268 -159.011963 38.088981 -91.829194
-98.449347 -143.697735 34.009460 -81.303977
-114.687818 -211.016014 20.784225 -113.182412
-109.427586 -173.513577 33.667819 -106.083812
-113.555210 -192.705342 16.969324 -103.884493
-107.283211 -198.303700 19.878665 -111.291636
-92.610135 -159.623470 25.962974 -84.857691
-94.430477 -170.262540 22.556260 -89.402322
-96.991856 -172.228865 24.165199 -91.099060
-89.909666 -167.900438 18.402890 -86.942031
-91.025808 -160.197279 24.226155 -84.518066
-103.247884 -167.757979 31.296448 -91.760114
-86.962646 -165.640233 15.784235 -85.044112
-91.490236 -170.603461 18.623775 -88.496608
-91.469953 -175.043149 14.592910 -90.161357
-87.684405 -170.888652 10.999197 -87.311857
-90.554904 -160.604188 16.361790 -81.632563
-82.410813 -164.537033 6.164725 -83.050078
-121.104226 -202.650241 32.387156 -111.003561
-84.793591 -107.357824 31.967492 -63.072457
-85.840539 -163.652717 13.285714 -83.647856
-83.704689 -163.623502 11.061376 -83.218309
-86.382427 -167.056760 12.378152 -89.198085
-70.798746 -142.619736 7.915159 -82.253051
-90.238841 -143.846770 29.241566 -78.644711
-48.878540 -93.685342 15.096336 -49.224363
-125.109760 -100.408402 36.491038 -75.252210
-141.106776 -131.069330 28.150833 -85.349331
-139.754928 -165.664424 47.871282 -106.618414
-88.561062 -152.951857 24.938972 -81.107188
-73.855214 -127.126468 22.882756 -66.887448
-99.266841 -155.601759 31.917610 -86.003768
-136.957254 -112.691117 40.052767 -84.077599
-114.586046 -112.540047 38.722622 -75.974169
-78.564058 -77.295908 1.169047 -46.757990
-107.899466 -90.939978 33.765075 -65.526001
-93.842276 -128.509592 22.279325 -67.567761
-128.921587 -132.876950 42.779137 -88.558897
-128.719835 -191.181429 41.016065 -109.748109
-119.488780 -198.989963 32.305041 -109.149727
-140.676364 -220.434244 41.174299 -131.176455
-136.861349 -128.802424 29.238872 -80.546192
-94.734308 -179.735349 16.049324 -93.018536
-90.142614 -174.852591 12.016855 -89.635971
-90.039046 -173.004588 13.632249 -88.893762
-81.400382 -162.092089 7.459509 -81.799424
-120.774617 -213.765737 26.517612 -121.752339
-77.002282 -138.872876 -13.804232 -69.563942
-67.322669 -128.558805 15.497474 -67.222485
-81.224535 -160.684736 9.074831 -82.324302
-71.250653 -121.083521 23.008187 -65.380878
-63.837244 -106.266171 22.373036 -59.413543
-94.787594 -182.478897 0.586913 -92.008359
-90.555946 -175.703513 12.166481 -90.039523
-148.511605 -230.193926 43.630820 -131.244376
-147.094157 -246.171263 36.909388 -136.497818
-138.245112 -244.777130 28.475454 -136.850959
-90.398541 -175.723675 11.834345 -89.968597
-77.951685 -156.107069 5.246439 -78.152774
-94.032468 -183.016848 8.895241 -93.053990
-126.834538 -234.696887 19.478452 -138.057205
-97.504848 -186.507401 -2.433558 -94.271169
-61.919229 -124.527254 10.607309 -65.558148
-85.134792 -168.284946 2.406267 -83.951484
-100.902144 -177.534771 25.263419 -94.541250
-142.880235 -228.917334 40.091605 -137.579512
-99.304708 -154.485672 26.386931 -82.091764
-108.595171 -162.621398 35.816610 -91.928039
-99.602067 -150.943401 33.255942 -84.372763
-81.629066 -117.282737 29.949547 -65.525008
-83.898334 -135.409029 26.812090 -71.757069
-84.041978 -121.441105 14.823623 -61.644925
-82.895829 -152.950816 19.217124 -79.027474
-102.689433 -175.246662 27.996829 -94.355569
-92.641132 -175.742386 15.930771 -90.868159
-94.512612 -168.210537 23.524743 -88.795249
-109.905757 -191.055256 19.919557 -99.416397
-81.506370 -156.581855 14.504349 -79.862420
-99.451552 -172.360684 26.331643 -92.121263
-108.533575 -193.121095 24.829960 -103.062637
-98.781500 -185.957530 17.108199 -96.778930
-85.208211 -168.454088 8.487803 -85.472822
-139.708391 -246.210350 29.360679 -133.840397
-87.169226 -123.723057 -8.018953 -63.540138
-76.488387 -151.183421 7.721132 -74.679336
-111.374295 -209.084345 14.406153 -108.167251
-100.307654 -185.962924 19.434182 -97.362541
-121.019653 -218.567460 23.971014 -117.051155
-95.952016 -181.315068 16.601922 -94.043185
-133.807709 -222.823616 35.139607 -129.163493
-119.491765 -188.910913 35.965916 -112.289877
-106.158642 -189.736280 24.215361 -100.926377
-119.167900 -199.852562 31.961818 -115.816229
-100.294548 -175.774293 25.480796 -101.422048
-129.655378 -194.549474 40.902194 -111.272080
-129.185320 -188.238769 41.912659 -108.799001
-128.931073 -208.742892 36.450405 -121.359372
-112.601473 -195.515867 27.876746 -105.421937
-124.359887 -191.931425 38.397596 -108.353447
-123.284270 -172.488935 41.465149 -100.931127
-104.727070 -182.459149 26.635370 -97.719700
-109.192922 -186.981343 28.630808 -101.067530
-121.323191 -154.105507 41.796233 -93.358436
-124.558772 -157.743047 43.050607 -95.953721
-129.674516 -174.018812 43.754751 -103.702988
-118.458698 -182.347872 37.168784 -102.690141
-115.069990 -183.573134 34.657356 -101.892854
-127.014619 -203.211530 36.890382 -113.484977
-96.631931 -180.751577 18.210461 -94.068088
-106.607599 -190.474350 24.318181 -101.347012
-96.746270 -173.101886 23.297151 -91.389260
-109.594730 -188.665243 28.258847 -101.820343
-96.428943 -179.701018 18.712961 -93.620203
-99.985500 -185.120594 19.573136 -96.938585
-122.506839 -171.975419 41.246100 -100.419230
-107.272240 -167.648552 33.948292 -93.240388
-109.179663 -176.576190 32.579089 -97.247553
-106.819259 -179.994635 29.675839 -97.546018
-114.965056 -187.359420 33.299345 -103.275515
-105.996627 -186.178622 25.948102 -99.594171
-122.064837 -213.178201 28.458960 -115.861401
-120.955059 -207.535820 29.196954 -113.238376
-130.711045 -222.516308 17.948549 -121.141375
-138.836570 -240.680363 16.145390 -130.348860
-128.972369 -210.028643 36.013680 -116.714435
-124.668721 -205.084233 34.407026 -114.459614
-133.843031 -221.053355 35.810363 -131.454721
-120.500488 -208.430640 27.401993 -123.880807
-114.122968 -199.228215 27.452244 -109.722260
-113.665508 -199.949767 26.480179 -120.631961
-135.848063 -226.267418 35.383697 -125.152374
-127.073723 -206.226021 35.761043 -115.237204
-144.311219 -248.103387 33.182791 -136.250500
-101.354953 -187.605672 19.027120 -100.554190
-143.747991 -252.047195 30.317589 -137.457480
-109.723228 -198.580633 22.704346 -119.229349
-120.599363 -212.842783 26.440849 -129.045405
-144.731207 -260.618120 25.483795 -140.971495
-111.261488 -211.563385 12.079853 -112.364699
-130.205605 -235.268949 24.043839 -139.603357
-129.057277 -241.369282 12.572703 -128.549208
-152.957527 -275.920900 -0.122673 -158.786239
-158.721811 -298.548476 -3.552936 -169.642609
-128.990333 -112.435512 27.360727 -73.181666
-147.379699 -264.408476 3.473663 -153.046657
-150.640962 -272.215213 2.321685 -158.553691
-122.753986 -127.469634 39.902290 -82.110091
-127.979603 -136.550641 26.972139 -79.359073
-138.257336 -151.395018 33.718969 -90.086068
-134.430834 -154.247266 26.930298 -86.631925
-130.856184 -160.306738 25.193969 -87.633317
-128.134898 -236.367593 20.003896 -138.407086
-106.385442 -164.019128 34.257409 -91.615928
-162.483581 -302.445636 13.478574 -163.132066
-102.007159 -125.011599 37.002005 -75.782972
-156.597058 -287.563418 18.390389 -161.421849
-139.845310 -256.158485 21.248133 -145.862301
-156.594767 -289.690103 18.456766 -156.166439
-122.324589 -155.722898 28.726837 -86.514437
-125.937004 -143.996000 29.755515 -82.683365
-152.868710 -278.064323 23.499501 -157.373398
-126.614623 -162.722263 30.480144 -90.669396
-143.114685 -258.355764 6.746556 -153.418566
-155.393968 -284.075397 10.541536 -153.364020
-158.612433 -299.164154 0.024802 -159.968101
-126.904535 -151.025636 26.960242 -84.145913
-126.785221 -156.684515 30.431894 -88.184448
-129.295148 -147.874550 31.614402 -85.763915
-131.935870 -168.473958 45.373404 -102.582218
-129.404880 -157.470870 27.176605 -87.272978
-122.859090 -219.869224 23.575980 -127.747076
-120.308897 -198.947493 25.372963 -109.310131
-132.409642 -227.208222 31.706757 -124.271180
-117.234765 -204.752576 27.749844 -112.156385
-107.832650 -196.325469 21.692407 -117.282831
-135.319268 -235.893879 30.216819 -140.752868
-106.679739 -194.709125 21.379948 -105.070155
-139.698720 -233.789866 35.561137 -129.345564
-126.817273 -213.815873 32.597686 -117.308677
-129.945944 -210.962452 36.343953 -117.715226
-132.485717 -219.417166 35.324482 -121.690428
-167.413189 -314.632598 2.660551 -179.185335
-126.111606 -211.613863 32.967184 -118.165578
-131.766101 -215.323509 36.233503 -130.726864
-134.009400 -218.444946 36.913796 -121.620723
-122.663595 -205.427703 32.626990 -114.014022
-123.608782 -205.794659 33.300633 -114.649997
-140.175432 -230.454069 37.374626 -128.296740
-121.365841 -201.455795 33.135484 -125.006929
-141.026914 -234.976396 36.270747 -142.235888
-136.366166 -239.950894 26.166031 -140.796311
-134.155224 -228.531675 31.314645 -137.017047
-122.047794 -207.739578 30.993576 -115.751364
-123.967832 -208.219360 32.585466 -115.712426
-122.792706 -208.286306 31.536369 -115.321273
-134.893624 -221.172428 36.601278 -122.939176
-121.373746 -218.184009 24.358327 -127.682403
-127.408740 -221.228684 24.571548 -130.083448
-141.783107 -235.196794 36.765950 -130.628153
-130.618081 -216.340095 34.825094 -119.619466
-115.934777 -199.802965 27.032200 -122.414491
-131.922264 -222.354708 33.478166 -122.281776
-127.384094 -210.426663 34.455618 -131.418352
-134.746592 -219.753798 36.921510 -122.362442
-156.966129 -279.833309 11.453928 -162.839918
-97.111994 -172.907293 23.493569 -106.700303
-135.902102 -242.259631 24.525498 -130.841328
-130.057983 -244.861127 13.332525 -137.508512
-131.319358 -243.711231 15.235531 -130.270126
-139.222396 -167.215140 41.250019 -100.041147
-127.198400 -158.190899 30.612900 -88.979074
-131.736388 -159.639415 29.393649 -89.579779
-140.455891 -262.542281 15.472025 -140.474436
-161.434307 -301.000086 2.621859 -173.549007
-122.212576 -230.460112 11.129922 -136.164504
-152.589654 -288.118266 7.488991 -164.767036
-128.115099 -157.122512 27.457779 -87.057082
-129.185491 -171.229740 30.637591 -95.030443
-126.899459 -152.278951 31.803904 -87.172258
-129.748740 -158.595421 28.435462 -88.392802
-112.675315 -125.740800 39.784343 -79.960161
-121.043858 -121.749178 40.902774 -81.571243
-170.509932 -282.374686 5.760561 -165.389572
-109.747019 -193.757593 25.574156 -113.735288
-148.268957 -264.134035 19.253846 -152.579634
-114.732752 -207.757880 23.071317 -117.766108
-155.125948 -290.817877 6.240111 -167.471797
-143.622492 -192.777542 47.934821 -115.754151
-132.466404 -168.968297 31.427611 -94.690907
-149.581863 -160.082364 21.440060 -92.899268
-163.532588 -303.793141 11.324594 -163.802786
-138.833811 -204.539094 36.940011 -114.143455
-128.866109 -184.568842 34.014811 -102.642047
-131.204968 -165.693093 27.060940 -90.876983
-138.074501 -182.884536 35.100752 -103.401029
-136.208246 -164.147289 28.504487 -91.637195
-132.857582 -163.042036 28.995154 -90.942885
-127.608078 -117.565244 39.620941 -80.656453
-159.223091 -259.218370 33.007020 -152.135129
-128.954834 -222.531225 21.369103 -119.592189
-109.099579 -193.030314 21.474599 -113.336548
-150.746279 -242.700550 39.778637 -136.554313
-148.547840 -246.037725 34.744020 -148.476824
-161.251276 -256.206919 37.451118 -143.707703
-147.292243 -249.620798 32.904600 -137.708869
-152.000074 -253.915599 33.715371 -140.983466
-134.489931 -228.768429 28.751735 -125.618893
-138.553845 -248.797530 23.129294 -145.031768
-144.871394 -265.856806 17.110227 -154.064369
-136.160625 -163.670992 46.716653 -102.405816
-126.561402 -213.536859 32.309974 -117.460955
-129.367121 -216.410673 30.637936 -120.491526
-123.969678 -212.072279 30.768405 -128.564608
-140.261261 -240.268821 32.864181 -132.290978
-128.178911 -214.816007 33.436712 -119.740083
-141.368217 -234.440239 36.772420 -130.179489
-141.579417 -179.845476 48.010112 -110.261191
-135.100285 -158.940942 45.354992 -99.345073
-125.781798 -193.071512 38.910550 -109.408652
-142.226256 -187.414318 47.820789 -113.271569
-134.167317 -223.557067 35.078478 -123.691600
-127.327413 -203.230050 37.002298 -113.643637
-124.565200 -196.189699 37.247739 -121.096374
-125.631491 -210.264476 33.249372 -115.561741
-127.272612 -194.426030 39.491646 -114.923484
-126.000484 -204.003099 35.858626 -119.361685
-132.619470 -210.939851 38.412183 -119.078555
-122.063331 -187.738504 37.953334 -106.047592
-144.142545 -171.371616 48.061227 -107.170262
-128.131552 -232.873455 21.000784 -124.862376
-127.738625 -190.215396 40.725879 -109.005787
-125.181446 -153.670959 43.429404 -94.733620
-124.632645 -158.608192 42.939921 -96.339840
-137.291167 -168.656255 46.864839 -104.564887
-135.548092 -194.898156 43.993728 -113.561439
-133.114192 -208.360117 39.538602 -126.843402
-129.136533 -164.840275 44.136274 -100.150764
-150.569793 -275.027670 13.084877 -156.062639
-132.015546 -165.233610 45.026208 -101.218970
-136.434267 -183.090627 45.844316 -109.553435
-126.542179 -184.592423 41.201892 -106.498385
-127.616280 -188.647471 40.988174 -108.385438
-125.424488 -202.764482 35.836481 -120.674131
-113.886499 -191.269204 30.935627 -104.360100
-126.073078 -188.537697 40.143546 -107.785905
-131.460714 -196.287316 41.521908 -118.190689
-132.315655 -209.961298 38.305073 -125.854855
-135.222503 -216.792125 38.415197 -127.736680
-118.365963 -198.890668 31.657723 -113.500884
-122.808508 -205.571539 32.746841 -118.805111
-110.548132 -190.331593 28.382472 -107.427691
-122.676444 -199.738767 34.813417 -110.793115
-74.047057 -149.310059 7.019520 -84.597580
-157.944031 -276.449045 32.378125 -164.800994
-85.227593 -158.158923 18.809361 -90.938352
-97.394112 -168.667215 26.046979 -98.340167
-62.969480 -124.413793 12.810128 -63.834616
-96.637895 -180.511775 18.198863 -97.832828
-70.460161 -139.347351 11.704372 -80.989977
-116.149394 -225.091425 3.908778 -132.933999
-104.834922 -186.959813 24.341221 -99.423240
-77.503649 -126.042197 25.904059 -68.733765
-89.100551 -157.757969 23.317153 -83.132403
-91.668272 -165.994614 21.642325 -86.958823
-106.645385 -182.374011 27.932326 -97.063635
-106.400004 -153.322408 34.777967 -85.902362
-90.441602 -124.648147 15.349231 -64.526925
-70.816062 -120.360966 6.761355 -57.353108
-103.476959 -183.190069 24.949370 -97.551176
-76.192618 -130.927171 23.383780 -71.382052
-104.663934 -174.107930 30.048079 -94.713965
-60.487916 -122.641098 9.995630 -59.782658
-113.136013 -186.059655 -4.359390 -94.120597
-70.214325 -139.747967 10.821529 -69.830040
-115.134104 -182.883113 20.923313 -95.524995
-101.452054 -177.868515 25.626485 -94.874132
-125.108221 -208.510341 33.504766 -120.032093
-125.734905 -203.128412 35.948385 -120.319425
-112.170039 -209.029918 18.378421 -113.988447
-146.703181 -244.725343 36.537593 -134.015954
-176.014276 -321.570093 22.768973 -174.574293
-93.502801 -149.832069 10.790278 -74.601527
-123.456751 -203.629581 34.097080 -112.589412
-94.624354 -168.482013 23.476286 -88.955988
-107.663156 -182.306095 29.360116 -99.453805
-116.408249 -207.591523 25.395782 -111.370471
-93.648353 -132.726096 25.177954 -70.769302
-96.016848 -135.664051 24.561865 -72.098959
-102.257422 -158.376252 27.682039 -84.730608
-90.017946 -133.534835 23.291649 -69.974759
-189.489443 -246.930848 61.389126 -152.268356
-90.939148 -151.536842 23.503406 -78.991767
-23.734606 -47.891101 12.240915 -21.487712
-95.029719 -162.078492 24.988017 -85.093706
-27.720622 -53.120497 13.406055 -30.590440
-92.098643 -154.375179 25.098320 -81.053545
-163.797310 -236.130013 51.249844 -138.939921
-60.707578 -99.984067 22.053347 -56.542029
-38.634431 -67.885847 16.464117 -35.248689
-96.969901 -170.161255 22.492379 -88.578166
-116.131266 -186.519396 34.400798 -103.447617
-143.459544 -221.117386 42.807573 -131.406345
-97.497513 -149.665191 32.257127 -84.059822
-105.104345 -154.058185 35.531371 -87.878348
-120.853644 -164.881221 37.654035 -99.435387
-120.063398 -162.232198 37.112802 -98.614480
-108.567036 -143.857996 30.745967 -86.636397
-104.893406 -164.465724 33.252456 -91.221106
-137.616529 -139.282496 37.485655 -88.254186
-104.342274 -111.682159 35.835985 -70.199091
-107.764319 -129.385436 37.589187 -77.925841
-98.642286 -94.054479 32.809869 -62.717815
-110.824473 -125.129323 38.460520 -77.591611
-100.093731 -103.850846 34.476999 -66.950758
-119.797928 -158.235355 35.848071 -97.766341
-134.876285 -182.212441 45.378595 -108.716358
-112.787834 -142.163863 32.126479 -84.471764
-106.932563 -139.068891 28.348323 -78.943443
-103.719684 -127.181929 37.100496 -76.040147
-113.693718 -125.637410 39.941962 -79.388146
-112.344792 -136.962883 31.384675 -80.794458
-116.465675 -145.129245 31.197541 -84.914726
-119.026542 -136.254366 36.912288 -83.668696
-112.968319 -141.617383 33.066772 -81.398498
-107.195076 -122.447603 38.303331 -76.185004
-124.646781 -128.338849 42.251767 -84.461669
-110.828474 -126.846692 39.264432 -78.914076
-102.591777 -120.460669 36.103498 -73.865734
-115.850733 -141.665711 36.284004 -84.223181
-117.825430 -106.114677 36.047608 -74.406380
-121.046059 -130.464648 41.803910 -83.884750
-58.226363 -83.763858 23.693549 -44.789030
-112.658422 -137.379468 30.654354 -84.034036
-113.809453 -144.217131 30.895097 -83.475490
-115.133459 -138.020096 33.974652 -82.336893
-113.784082 -140.104487 31.606952 -80.385330
-98.313360 -142.024317 34.143307 -86.376486
-144.966610 -186.510233 48.950090 -113.423007
-123.979758 -167.277544 35.197289 -103.969610
-125.681302 -188.551113 39.319579 -107.173286
-156.892271 -188.972112 52.793749 -119.217007
-172.275865 -236.075380 55.331130 -142.009757
-110.188001 -146.736884 30.150761 -84.784374
-120.377509 -156.837626 30.712884 -91.049893
-97.656652 -137.621757 25.454700 -73.567133
-80.759642 -128.303506 17.404119 -64.512474
-177.102522 -233.635360 57.637185 -142.888628
-36.901281 -66.107754 15.855492 -30.902711
-85.856083 -141.055300 14.530501 -70.540351
-197.273090 -201.981391 62.551175 -138.705518
-182.920664 -253.604230 57.849868 -152.291490
-74.161501 -139.220667 17.255954 -70.838526
-182.800092 -252.022557 58.005249 -151.661580
-33.645610 -60.043036 15.365359 -28.106594
-88.067144 -119.616921 11.443197 -62.305219
-98.987674 -144.493001 25.253712 -76.806472
-71.937961 -131.704603 12.999969 -64.749809
-194.718690 -228.279805 63.715552 -147.350429
-53.593445 -85.555595 21.169907 -48.950367
-51.047114 -79.953886 20.889135 -50.832223
-149.420341 -168.713454 50.414674 -109.097918
-174.395783 -228.218689 57.023570 -144.030767
-139.095226 -171.710186 45.405832 -103.928843
-109.786078 -131.888361 36.234898 -83.072662
-112.410286 -148.153584 29.815105 -85.341965
-111.310237 -134.591338 29.523860 -82.991790
-186.471262 -224.669040 61.346325 -143.041190
-98.159333 -130.015108 19.052582 -68.452332
-178.178346 -215.402206 58.935104 -142.982594
-140.688776 -162.262100 46.030347 -108.412779
-59.817874 -90.128176 23.578962 -53.078298
-92.302780 -131.773549 11.197875 -67.222899
-36.846675 -64.219146 16.277410 -37.935414
-72.190835 -104.510483 27.306238 -60.446373
-105.417849 -110.184587 17.256315 -64.680731
-95.458906 -122.219749 23.211386 -65.432447
-97.591557 -119.612193 8.166086 -65.161125
-71.230821 -106.044762 -0.538694 -53.182675
-69.774070 -99.398216 26.867311 -63.554487
-102.591838 -123.648837 35.715765 -79.285266
-123.729554 -150.379983 35.993460 -96.559320
-117.991497 -150.874971 31.466483 -94.719231
-165.714122 -193.295800 55.309767 -124.013903
-158.970939 -176.545696 53.014781 -115.438807
-98.895183 -124.174796 35.990115 -79.380419
-134.918482 -155.200414 45.007846 -96.883346
-136.046756 -169.994261 45.202552 -102.602454
-121.177486 -148.833720 40.702882 -89.866749
-114.881839 -136.806096 33.138182 -82.462798
-119.991049 -135.202484 33.022001 -83.685764
-120.188158 -131.520278 36.520724 -81.110274
-115.074819 -134.963624 32.352777 -82.184831
-109.896973 -133.892186 29.493484 -78.838929
-119.301909 -147.800073 30.043481 -91.783033
-118.156168 -132.639254 35.133052 -81.015245
-115.180980 -132.590419 33.841959 -79.049439
-117.972549 -131.951181 37.574408 -81.298986
-115.559432 -130.128468 36.434461 -79.383983
-118.617277 -128.538083 37.193203 -80.308834
-118.388625 -133.155765 34.426677 -80.983945
-113.854083 -117.267696 36.759585 -75.684319
-121.166297 -129.156000 37.050371 -80.720703
-124.426917 -139.199918 40.504772 -86.933811
-119.509975 -125.942902 41.129736 -82.559287
-118.426605 -119.679173 39.203587 -79.235408
-98.902853 -56.706832 19.733658 -49.686409
-133.691267 -141.895533 43.875948 -92.991551
-126.079768 -132.336292 42.947632 -87.281935
-99.430500 -122.658592 36.195994 -73.990702
-145.446826 -107.885830 29.838134 -80.322200
-118.986074 -133.409833 33.575881 -81.902037
-115.865760 -135.727359 32.578941 -83.050011
-104.584415 -103.437355 34.998822 -69.578276
-119.800629 -120.270329 38.012585 -78.213463
-116.296294 -151.366631 32.005486 -90.803448
-114.722959 -140.548062 31.158961 -86.424168
-120.655324 -142.769262 32.813926 -87.758700
-117.228686 -147.438239 31.709737 -86.034530
-117.682043 -130.053477 35.768065 -79.495855
-118.850466 -134.876795 35.435955 -82.290656
-130.979778 -140.243439 43.622989 -91.925165
-111.357704 -122.381051 39.239827 -77.947269
-120.018255 -136.586398 41.989214 -86.394746
-110.301224 -118.724942 38.755548 -76.559587
-117.707251 -112.573200 37.717882 -75.806724
-122.163456 -96.137495 25.636609 -66.731486
-104.093717 -89.565631 32.844703 -63.523272
-103.656582 -90.085536 32.918762 -63.470239
-107.429057 -96.009999 32.719876 -66.422053
-98.043532 -78.457643 29.656385 -57.187133
-104.915155 -85.671609 31.570497 -62.343302
-104.656283 -88.358430 32.347798 -63.306819
-110.303738 -98.804967 34.913976 -68.982553
-109.604446 -99.278852 35.379126 -69.059239
-113.565004 -102.440963 36.349428 -71.724193
-113.172712 -100.482106 35.916759 -70.863650
-115.666301 -72.645772 25.512028 -61.670224
-113.420872 -122.031843 38.951667 -77.482557
-108.055483 -100.950275 34.964755 -68.510504
-96.148042 -109.553455 34.543506 -68.773260
-111.264511 -69.516318 24.748210 -58.868104
-109.988050 -109.980306 37.657639 -73.067122
-105.700540 -95.165117 34.520926 -65.886519
-104.766308 -97.608833 34.645620 -65.788695
-108.137848 -60.440146 19.170198 -54.498280
-127.369867 -137.924739 41.920269 -89.178377
-116.296671 -67.265619 21.587119 -59.908343
-111.653269 -70.684023 25.333992 -59.451902
-98.732442 -79.796712 30.382839 -58.125960
-107.823292 -95.124021 34.218562 -66.838040
-97.851904 -79.730488 30.152542 -57.664404
-105.299233 -90.763007 32.543632 -64.271076
-112.661155 -109.885475 36.800741 -73.422621
-111.677088 -103.971264 36.140330 -71.383999
-106.372575 -94.546063 33.985786 -66.076180
-108.612379 -98.266326 34.783562 -68.166332
-104.714464 -91.123053 33.462660 -64.342777
-111.118449 -96.882280 34.766990 -68.723120
-106.086307 -90.905010 32.286670 -65.314435
-103.720631 -89.213439 30.637663 -61.987150
-105.674036 -88.190615 32.112827 -63.505424
-111.377839 -104.372158 30.289157 -68.986105
-97.273812 -77.039100 29.291018 -56.416532
-102.864977 -84.596413 31.162215 -61.127472
-100.883659 -83.828537 31.124129 -59.298923
-95.750769 -77.662535 27.486053 -54.141147
-102.650241 -71.686859 18.923130 -52.301130
-98.103234 -86.001309 19.850109 -55.428262
-77.973803 -37.117989 10.962756 -34.973451
-93.766587 -51.207543 16.858713 -45.744451
-103.511434 -89.901900 29.994949 -61.684604
-101.976555 -87.250570 23.225129 -58.030270
-96.292360 -77.307357 17.838915 -52.079915
-97.280732 -73.433351 19.062944 -51.214225
-89.229773 -50.656162 12.744009 -41.965780
-88.029185 -46.636387 15.511714 -41.922243
-87.953286 -59.546330 16.633664 -44.249885
-78.589712 -37.197355 10.659074 -35.228425
-107.778929 -100.022930 30.635173 -68.500688
-102.141288 -93.713575 25.840491 -61.116121
-100.268012 -79.391788 19.439326 -53.897940
-102.080696 -87.221140 22.179854 -57.174646
-107.927918 -91.212094 32.724563 -65.394333
-104.628437 -93.279939 29.309354 -63.945802
-108.641424 -100.448861 31.405689 -68.167027
-113.979217 -116.240773 34.001981 -77.795272
-105.797528 -97.487379 26.709172 -63.626799
-100.439890 -94.279315 23.109066 -60.685865
-85.864043 -78.560694 26.736168 -51.165160
-91.489233 -76.147083 20.778888 -50.290895
-81.598717 -60.024304 17.683403 -42.486906
-85.815470 -52.953490 17.341939 -41.630688
-93.818376 -79.893439 29.540532 -55.040133
-82.102117 -48.409447 18.838816 -40.151650
-91.566053 -67.037332 23.901661 -48.778731
-77.987523 -69.044156 20.160737 -44.109504
-76.226136 -51.145470 21.350880 -39.066629
-91.581779 -89.243692 26.336188 -54.815434
-79.131729 -36.004141 8.525052 -34.992989
-85.015205 -67.048911 14.284613 -45.619235
-114.546110 -105.578106 32.933340 -72.678923
-109.193802 -97.188635 30.961578 -66.905152
-73.970797 -74.755215 23.347935 -45.832048
-96.102275 -80.365307 23.107916 -52.940275
-111.594424 -91.244266 32.903878 -66.703547
-114.354196 -101.310227 35.637458 -71.454821
-100.841244 -96.322924 29.603335 -64.975728
-105.279032 -101.907075 27.206433 -65.767871
-105.061591 -100.292027 34.852223 -67.758305
-111.962125 -105.808443 36.419777 -73.772957
-104.114885 -94.288629 33.764493 -65.239212
-121.624181 -110.778313 38.568636 -77.697933
-82.867201 -106.947804 31.313536 -62.245276
-134.037621 -150.309323 45.297441 -96.241941
-124.578560 -128.462085 38.976097 -84.419884
-102.785533 -102.773268 34.375353 -70.290451
-101.491403 -51.870720 14.166728 -48.871815
-72.496185 -80.520301 27.468416 -50.538336
-102.533035 -107.301453 32.568005 -72.165165
-106.016164 -107.704716 34.362412 -69.710786
-104.685187 -106.011102 33.425714 -69.179459
-111.546196 -111.324102 35.590399 -76.496595
-134.407959 -123.703054 42.112625 -87.038852
-110.169236 -105.287786 36.309699 -73.360535
-100.192239 -91.162149 32.656672 -62.620921
-105.849230 -96.752648 32.256255 -69.744257
-101.469223 -97.809377 31.706608 -64.429329
-100.560326 -111.310090 33.430381 -70.777099
-98.743613 -96.615899 32.568769 -64.298777
-109.721670 -106.979789 35.811572 -74.583211
-132.671509 -155.010188 43.606454 -95.559678
-120.535102 -103.318804 34.845547 -72.344617
-132.002968 -118.638806 40.097283 -82.612455
-129.775984 -109.447918 39.086242 -80.291724
-107.007241 -118.055613 37.475267 -74.574524
-114.270595 -60.435905 16.445267 -56.652240
-113.765651 -62.482333 18.720386 -57.211804
-195.465810 -177.529586 58.247048 -129.122093
-120.053544 -125.969623 40.022997 -81.460343
-69.293954 -39.919950 -6.016817 -32.764171
-152.198490 -134.136562 44.234163 -96.878001
-95.774194 -89.878465 32.165078 -60.777958
-121.667100 -111.567342 38.692798 -77.960337
-91.072168 -88.566222 31.385098 -59.676946
-85.680274 -83.405703 29.802862 -57.254226
-131.308652 -117.050231 39.454200 -83.040010
-119.565368 -111.271829 35.333641 -76.199748
-122.927406 -105.314780 36.493912 -75.823446
-108.619362 -94.725425 32.903762 -66.741939
-117.732475 -100.074503 34.992482 -71.898556
-111.938595 -118.172981 33.482233 -76.048846
-106.418196 -107.743791 30.300322 -69.552971
-102.671886 -102.031195 30.416801 -66.675267
-100.744205 -100.157290 26.987751 -63.644453
-95.431348 -89.981650 24.676061 -56.139647
-101.185079 -90.976294 32.091492 -61.458430
-109.359400 -115.572699 34.754244 -74.075445
-109.293379 -111.450909 31.850476 -71.934719
-104.895795 -104.520285 29.650269 -66.315044
-98.145259 -88.008606 30.756059 -59.237028
-69.875595 -69.007044 13.160329 -41.664792
-75.116201 -52.598835 8.959738 -38.314511
-101.672576 -96.673568 28.125182 -60.802987
-104.231890 -107.964825 31.502749 -69.648013
-103.381275 -95.393161 34.202659 -64.423034
-77.649417 -58.613523 24.131126 -42.394182
-102.019683 -103.868145 34.445556 -67.272278
-103.872355 -107.452153 34.515642 -68.311462
-98.424360 -80.249083 30.658849 -58.120290
-74.928132 -70.686043 27.261386 -45.771405
-95.864072 -93.199170 31.077477 -67.001465
-142.652311 -136.755686 44.897092 -94.590079
-95.558760 -107.230579 32.427418 -66.687784
-111.723831 -118.497882 37.965289 -76.865609
-117.788509 -122.900017 37.907556 -80.094174
-109.035431 -96.612341 32.496414 -67.306505
-124.011741 -132.731126 39.610766 -87.171701
-115.102631 -126.167441 37.625289 -80.716398
-133.904604 -133.828171 42.699986 -89.933234
-183.642721 -150.849513 51.028948 -115.066219
-88.931639 -99.094234 30.756460 -62.057509
-155.429200 -167.510698 51.540358 -110.698216
-69.354596 -107.255290 22.959922 -56.980984
-137.440159 -123.764129 42.495401 -86.950521
-111.559743 -111.234264 35.624681 -71.893333
-153.633510 -94.409890 29.370977 -83.424578
-122.052099 -156.222094 40.288671 -93.285777
-97.075539 -106.471348 35.138518 -67.259129
-91.464594 -92.225676 32.039754 -61.047829
-91.230628 -92.320872 20.094074 -55.065450
-156.452913 -150.816034 48.477583 -104.320030
-183.918015 -181.830142 57.872947 -126.114219
-157.603962 -137.915298 46.364670 -100.516956
-161.160969 -154.759258 49.996057 -107.800005
-141.491705 -128.370478 43.613212 -91.323662
-154.159063 -174.169968 51.425517 -112.674562
-79.584530 -87.742689 28.675935 -55.126323
-68.689382 -80.988116 26.739218 -48.639299
-151.323985 -153.445639 48.638505 -103.885727
-148.671336 -141.315049 46.703669 -98.659043
-149.666486 -203.996081 48.669785 -135.506065
-135.223587 -150.151699 46.083807 -96.992618
-107.697941 -128.921957 38.061833 -77.980542
-96.690495 -91.904002 33.306274 -61.784789
-98.007165 -101.738512 32.676063 -63.725406
-74.183621 -83.417530 2.743392 -47.280345
-105.078206 -116.743955 27.785900 -67.519159
-100.687373 -120.165773 27.326687 -67.647318
-68.184736 -82.990596 26.796105 -49.612550
-155.384505 -166.915089 51.081789 -110.417060
-80.797443 -80.659818 28.950345 -52.966381
-70.157406 -79.495447 26.840167 -48.562831
-88.149519 -92.125038 30.406345 -60.065426
-84.786066 -103.129553 30.394489 -63.902156
-92.684909 -103.184023 30.538630 -64.074312
-96.404381 -100.962518 31.697759 -64.632894
-91.216280 -86.900708 30.091515 -58.831992
-86.211071 -88.249942 29.428377 -57.770756
-95.165035 -82.824850 29.875165 -56.683941
-103.432762 -105.725022 35.422303 -68.955238
-92.373087 -77.049300 26.763180 -53.585132
-111.170491 -113.377113 37.092211 -73.270275
-83.053833 -73.478149 28.264663 -50.410424
-77.153034 -94.331933 29.252918 -54.468904
-95.637689 -83.054595 29.118501 -57.047792
-109.424694 -106.738951 36.902858 -71.621886
-98.249125 -86.278517 32.137101 -59.524400
-98.891129 -83.873596 31.673891 -59.623934
-123.518529 -126.952007 40.443009 -83.815065
-103.154558 -86.224208 32.381844 -61.786572
-102.688517 -96.337193 34.635723 -65.226161
-101.922904 -108.152900 30.629296 -65.655182
-99.539086 -101.545280 33.580048 -65.782733
-87.716453 -104.745899 29.577571 -60.828794
-130.787572 -130.566238 42.302292 -88.074182
-77.661785 -95.766551 29.110627 -58.644009
-130.911899 -136.240626 42.588636 -90.228047
-128.510678 -144.012894 43.240379 -92.262276
-124.226442 -140.700668 41.675448 -89.541436
-121.736305 -142.937377 40.235119 -90.859516
-116.799445 -137.338598 39.288777 -85.601163
-86.909522 -108.085267 30.556076 -66.091277
-114.598036 -129.935495 39.072015 -81.984601
-88.894985 -105.376851 31.870870 -63.717882
-103.181405 -95.294763 34.055554 -64.256087
-98.874232 -111.053419 35.391508 -69.322555
-72.255451 -58.248390 23.484971 -40.331570
-102.125924 -102.830459 33.302814 -65.689788
-79.228436 -88.453441 28.607933 -55.264101
-93.683928 -95.982991 33.490066 -63.640512
-107.794699 -96.399979 32.721614 -65.541703
-94.896432 -100.834849 32.737224 -62.759825
-74.138464 -72.699326 27.003866 -46.305818
-84.759018 -56.300004 19.932806 -42.836858
-119.562922 -147.198262 41.982683 -90.841334
-120.230984 -133.084839 41.120679 -85.278389
-130.417307 -163.295099 44.103039 -103.390087
-123.457938 -146.544166 42.478142 -91.511990
-128.983489 -150.196542 44.251692 -94.844746
-81.519512 -97.992116 29.861256 -60.219505
-84.060341 -109.087038 30.979109 -66.386245
-76.575503 -100.507723 28.648233 -58.176256
-85.563700 -113.008782 31.117061 -68.508435
-68.307565 -93.659135 26.255482 -54.398987
-63.092814 -82.212759 25.603824 -47.656853
-63.573495 -80.481851 25.650488 -46.919223
-62.624709 -109.672213 20.342327 -55.559544
-108.850352 -137.981586 38.633670 -83.036728
-80.677039 -120.360943 28.960128 -66.341720
-68.425422 -88.267361 27.184063 -51.718694
-58.296041 -104.381644 18.882438 -52.336062
-83.733568 -124.455304 29.874689 -68.900678
-103.229929 -121.031858 36.430712 -73.365445
-97.321543 -130.120404 35.149474 -75.960601
-87.593653 -124.477760 31.040718 -69.137883
-90.958860 -132.259542 31.196068 -73.029198
-105.469040 -136.482412 37.715023 -81.273508
-99.558549 -148.011854 33.823585 -83.281316
-66.959860 -105.641542 13.184271 -51.865644
-92.754785 -131.453476 30.348399 -72.580433
-96.848705 -124.045825 35.330182 -73.591473
-113.995221 -134.543964 40.405914 -83.679195
-93.416133 -126.135955 33.926487 -73.104095
-103.861426 -125.537728 36.727637 -75.263369
-56.196680 -73.666533 23.343766 -42.058045
-61.800798 -74.448750 24.711743 -43.727998
-99.203094 -116.025438 35.271405 -72.596450
-71.921099 -96.387971 27.872774 -56.410227
-147.887137 -169.056473 50.006105 -108.599286
-71.306171 -76.005296 26.892660 -49.857584
-71.590011 -84.684692 28.072950 -50.657995
-89.843435 -104.815896 32.598701 -66.359331
-81.414004 -110.194933 21.135299 -57.835574
-97.073102 -113.691038 15.568413 -63.229242
-78.480387 -115.437187 24.022534 -60.955542
-88.111311 -120.129084 18.298516 -62.538812
-64.535140 -108.215044 17.314634 -53.659351
-63.536603 -108.798773 20.501904 -54.788304
-100.609426 -144.092925 33.066558 -80.388725
-107.903893 -153.774513 37.003754 -88.456765
-82.515753 -81.973056 16.244813 -49.346643
-102.433921 -150.504908 34.557498 -85.041976
-105.499850 -162.765726 34.080286 -90.797126
-132.643727 -187.404718 43.725359 -109.794014
-103.089106 -160.249177 33.240337 -89.002462
-100.814538 -145.809291 32.478454 -83.860588
-107.870421 -172.178335 33.064908 -95.123769
-89.768512 -145.487702 28.468216 -83.638733
-107.754427 -168.276535 34.095018 -93.640211
-103.139438 -162.667994 32.630651 -89.906331
-87.626906 -131.450110 30.048994 -72.577650
-102.131104 -143.358319 28.954459 -78.277370
-81.836448 -147.363315 20.977806 -76.694802
-106.146060 -144.267402 37.354581 -84.322818
-96.841416 -145.626462 32.810040 -81.432485
-95.259414 -150.182601 30.805899 -82.541448
-113.456954 -179.702062 34.558255 -102.154459
-85.493560 -133.890440 28.842235 -73.034986
-105.132928 -151.668189 35.984857 -86.678806
-111.713885 -164.838935 37.170024 -93.802826
-98.933590 -143.843304 34.160551 -81.577074
-92.799650 -137.437658 32.150433 -77.008734
-106.953311 -167.420745 33.818643 -93.026539
-110.318470 -174.046154 34.172573 -96.695769
-107.990338 -154.556241 36.945158 -88.761228
-113.380656 -165.982039 37.731490 -94.905181
-107.406382 -162.147074 35.340534 -91.254599
-106.105912 -155.374486 35.854994 -88.388477
-101.336188 -149.394973 34.505123 -84.424770
-113.534192 -164.057544 38.240463 -94.170400
-95.986860 -140.738621 33.076054 -79.214019
-102.365079 -143.870896 35.809577 -82.820245
-87.660621 -157.447340 18.144734 -80.296956
-111.638752 -193.173280 27.578180 -102.767659
-109.972692 -178.765622 32.496985 -98.304893
-97.864553 -168.037094 26.788081 -90.549254
-106.801025 -177.525588 29.160671 -95.068646
-117.246352 -207.351079 26.423458 -110.313526
-106.623958 -189.963479 20.366344 -98.851369
-105.910401 -178.068900 29.058316 -96.450382
-109.233830 -175.775412 31.206186 -95.135179
-112.583073 -172.532228 34.098963 -95.043023
-99.131075 -168.900650 26.021118 -89.151756
-107.168972 -169.134555 30.328796 -91.394416
-105.152976 -168.861370 30.456519 -91.150693
-97.537357 -155.434690 26.412686 -82.436119
-102.846677 -170.186269 28.849109 -91.019870
-103.228594 -162.245816 28.968812 -87.195301
-102.241823 -165.518631 27.928473 -88.325573
-104.316918 -171.142123 28.804936 -91.586181
-82.055312 -146.771055 21.715934 -76.472818
-101.846806 -173.215651 26.722769 -91.739960
-128.989700 -207.534168 36.952901 -118.670318
-151.820555 -239.643349 43.121865 -140.334402
-127.425785 -215.141511 32.806890 -119.493960
-100.801987 -171.192659 28.014023 -94.318220
-81.377713 -144.290969 20.155224 -73.674704
-86.544305 -153.678910 19.116887 -78.520554
-110.503219 -182.902684 31.444767 -100.566808
-85.145745 -147.968827 24.106215 -78.133787
-99.740297 -163.357442 27.404206 -86.883696
-87.463370 -137.984265 23.703510 -72.076674
-99.458284 -167.501759 25.672742 -88.338746
-89.686760 -150.248038 23.016788 -78.098125
-91.932185 -162.463745 22.376283 -84.299843
-167.261014 -251.697508 49.903364 -145.886256
-103.838890 -156.242739 28.572708 -84.209531
-97.798712 -157.674962 26.097251 -83.442878
-97.937362 -158.822820 26.706641 -84.248281
-93.032817 -156.543187 23.931452 -81.803039
-95.753930 -161.131026 25.025215 -84.665767
-88.427951 -153.627687 21.419394 -79.248023
-149.834218 -233.949651 43.472390 -133.305433
-172.962623 -249.111320 53.658921 -146.992348
-106.539679 -167.666417 33.430863 -94.828142
-112.188653 -189.636269 30.217578 -103.197284
-108.456696 -181.119049 30.477716 -98.635905
-111.506806 -186.040948 31.092419 -110.612228
-161.615119 -240.178214 49.236807 -139.587935
-141.899903 -228.641738 39.463925 -131.469499
-90.881967 -155.475090 25.953088 -85.061983
-92.315447 -159.250629 25.617641 -85.783969
-98.722410 -154.380051 31.883967 -85.348404
-124.055435 -202.814797 34.884753 -112.291570
-106.550644 -159.161756 35.361881 -89.947224
-101.008383 -147.640825 34.386937 -83.526369
-98.246441 -147.140524 32.934463 -82.329769
-103.142622 -149.341050 35.124467 -84.846633
-121.344743 -134.852511 41.187838 -86.064986
-136.659121 -179.081521 44.497839 -109.977661
-116.102479 -127.855441 37.520582 -79.621400
-98.128804 -140.702148 32.182547 -78.265472
-87.374217 -65.263713 23.178742 -46.980091
-109.019835 -133.423676 29.360913 -75.811531
-99.021124 -171.691550 26.231736 -92.228125
-69.971014 -124.721914 20.610661 -66.320104
-76.051772 -126.412913 24.730297 -73.297447
-130.656328 -190.373079 42.243054 -110.154674
-105.287624 -160.304468 34.411593 -89.905255
-101.136160 -153.567029 33.487040 -85.829259
-140.498514 -198.618584 45.800284 -116.748870
-105.203611 -139.864037 30.850318 -80.607430
-111.794864 -150.401193 32.863317 -89.046955
-99.226106 -150.002680 32.951921 -83.756138
-97.720281 -139.752636 33.047275 -78.047643
-97.111849 -130.570156 31.997625 -73.549221
-134.155107 -165.214002 44.549842 -102.356670
-97.487537 -129.339926 33.902275 -75.312672
-113.635543 -133.328543 39.536211 -81.763188
-113.452275 -133.836554 39.263185 -81.614066
-165.463349 -226.984988 50.835792 -135.556396
-93.586704 -121.837600 32.270851 -75.566917
-126.013915 -171.311884 42.409964 -102.515958
-93.089158 -139.013120 31.951934 -80.076064
-95.776475 -130.518273 33.706492 -74.179791
-104.279310 -144.668144 32.241874 -81.258150
-112.543151 -144.607863 37.819826 -84.695926
-114.714388 -138.341909 34.134214 -80.835109
-102.508979 -159.203928 33.078827 -92.099433
-98.773406 -153.630271 32.166457 -86.954979
-76.877886 -134.969080 22.308794 -82.804253
-76.987161 -136.596832 21.708195 -80.942053
-58.049566 -90.673465 22.628241 -52.745554
-159.181234 -236.272420 48.703093 -137.322644
-112.177072 -188.567818 30.631565 -102.743288
-77.748426 -141.723017 19.926757 -81.361373
-94.037839 -152.376935 25.136707 -80.194389
-81.570862 -138.764506 19.846255 -70.727665
-58.856764 -98.253684 21.345619 -50.306797
-46.449169 -78.728649 18.584244 -39.522160
-86.200781 -147.133373 22.376774 -76.094654
-85.193389 -148.877766 20.738147 -76.415910
-87.357998 -155.603607 21.605995 -80.275384
-48.047317 -81.141629 18.984558 -40.242592
-155.607655 -237.757763 46.202965 -136.673511
-31.608985 -58.324406 14.525383 -26.980017
-110.404230 -184.092608 30.916524 -100.469244
-111.630284 -189.912674 29.610650 -104.759006
-92.217858 -146.110641 21.692610 -75.693773
-95.286310 -142.735114 24.971028 -75.522276
-116.327435 -127.888864 13.098597 -73.264890
-90.510126 -147.988755 28.309926 -79.971509
-133.473877 -231.134765 30.958602 -131.242248
-136.026044 -221.012953 37.666515 -134.352563
-101.627848 -176.425069 26.496921 -105.546213
-68.372677 -130.656803 15.663889 -66.849034
-143.174432 -238.158671 36.884055 -132.168049
-113.558169 -192.700529 30.108630 -107.019504
-116.215541 -185.093383 34.910198 -103.905547
-121.402755 -194.052859 35.799182 -108.095520
-98.909003 -141.685767 27.585951 -76.510088
-94.192351 -150.270601 25.008412 -79.114821
-92.644272 -139.427481 25.950213 -74.117091
-107.932296 -141.608746 27.460166 -77.513726
-94.384452 -145.604711 27.386852 -77.804847
-96.963378 -147.490205 29.802392 -79.957323
-138.910379 -220.013332 40.080658 -123.989838
-93.630660 -117.165448 20.969970 -63.238833
-101.709506 -149.808731 26.060695 -79.915804
-94.244644 -133.388271 28.905907 -72.843119
-92.042136 -153.089225 27.761695 -82.704817
-111.752940 -182.391059 32.563901 -100.334708
-135.129488 -202.553391 42.284488 -116.260975
-114.666795 -197.814230 28.832690 -108.991612
-122.330217 -200.516224 34.345464 -110.988485
-129.510924 -217.476740 33.655795 -119.629992
-99.710106 -168.558907 28.144527 -90.878052
-130.682351 -218.587684 34.225618 -129.008860
-127.103781 -202.204002 37.305307 -122.404704
-121.560374 -203.617572 32.506682 -111.672357
-134.930120 -222.021345 27.482072 -133.634021
-123.758537 -208.357553 32.419414 -114.175102
-125.655067 -214.167177 20.826696 -113.687672
-129.093862 -222.019915 31.115138 -121.120679
-129.477018 -209.416837 27.245301 -124.125487
-115.698214 -189.147725 33.188527 -105.639194
-130.985842 -224.978722 27.955358 -127.727361
-101.044363 -118.093799 -11.149902 -65.822445
-145.975158 -215.602442 45.590835 -125.242451
-143.903605 -213.103157 44.790579 -124.594653
-116.472986 -197.778552 30.445883 -121.153918
-140.859554 -220.818675 41.064383 -134.596964
-132.519068 -204.749557 40.127223 -116.442409
-145.038428 -229.989624 41.258679 -139.560501
-131.598655 -209.596602 38.105916 -117.514961
-115.154633 -195.103911 30.418274 -107.348801
-129.732207 -188.165190 42.182102 -117.780543
-156.451235 -235.593106 47.189005 -136.614757
-120.917238 -192.259081 35.956975 -116.587258
-128.401083 -195.238241 39.957685 -111.365693
-153.662891 -236.723830 45.121085 -144.547762
-148.196940 -232.091480 42.828694 -131.781936
-75.461221 -142.814738 16.520988 -74.389703
-100.486814 -106.379021 3.802314 -62.059751
-139.296898 -249.125514 26.816162 -134.726515
-157.048091 -265.694130 37.228663 -147.255154
-60.939502 -127.121783 3.959651 -67.316504
-174.240553 -305.595248 33.638647 -168.095970
-129.203722 -207.893748 36.937942 -116.061252
-125.889101 -204.601733 35.579183 -113.616046
-128.187498 -232.903331 23.271591 -135.531802
-116.139486 -206.205980 25.909710 -111.012913
-94.824770 -179.887466 15.692919 -102.482009
-102.968257 -197.653350 12.403608 -104.012728
-126.772257 -216.773125 31.351321 -134.304459
-145.238058 -188.616791 48.867861 -114.813887
-140.585015 -173.205752 45.711318 -105.402183
-160.277057 -188.072330 53.718627 -120.109648
-134.745316 -165.619820 46.314178 -102.604320
-150.096743 -222.620692 46.419967 -143.645085
-142.659127 -172.582382 48.659558 -108.036450
-147.116839 -181.333468 47.208367 -110.535135
-120.981741 -205.960440 29.337921 -127.571640
-140.047946 -233.103269 35.162343 -129.533024
-124.274920 -209.962900 32.113121 -116.739926
-131.671058 -220.286837 34.246296 -122.019305
-125.037735 -214.940012 30.557606 -118.391682
-143.781537 -241.976958 35.694544 -134.816973
-136.152155 -233.321557 32.475794 -141.525478
-194.773796 -324.362375 17.257706 -201.397661
-133.002505 -177.478880 27.586515 -96.594686
-146.281356 -174.696110 10.053714 -96.293240
-140.871256 -223.067397 17.093817 -133.106702
-157.820642 -261.070477 19.466967 -152.060208
-117.940687 -217.544684 15.778670 -118.249256
-157.338890 -245.982985 45.017812 -140.154721
-118.448679 -166.503285 40.093095 -96.969854
-129.068882 -237.749056 15.400391 -146.184846
-140.373787 -212.525850 43.043638 -121.768988
-157.468137 -291.216272 14.935444 -157.960987
-131.908780 -148.222579 29.295602 -85.161783
-132.262081 -169.853036 27.954374 -93.241911
-169.135437 -309.960908 9.535103 -164.778693
-133.976283 -216.750199 8.960672 -112.127259
-142.501855 -219.141245 30.326378 -122.093723
-139.433502 -221.837407 28.027974 -132.038652
-136.920833 -230.440807 33.974076 -138.849307
-147.402507 -244.861287 35.550028 -135.957517
-155.956344 -232.385082 16.564405 -127.131633
-161.988059 -246.977452 20.791663 -144.663830
-132.021911 -203.238121 31.624952 -114.495640
-149.076093 -226.793422 32.226513 -133.961206
-121.738574 -180.943609 39.305946 -103.434540
-133.602912 -205.379274 40.685403 -116.670345
-183.506183 -291.645944 1.137906 -170.204702
-181.947124 -315.583716 -0.657338 -187.675988
-130.616575 -193.520515 38.603106 -109.060855
-168.143866 -305.796174 17.928413 -167.812498
-138.266589 -172.609183 25.872957 -94.221495
-135.689926 -189.792509 32.446645 -104.757055
-134.287213 -115.547277 31.011731 -77.711385
-135.836643 -159.683794 27.471650 -89.253133
-154.954480 -236.331331 16.091046 -130.250936
-158.542684 -258.446520 -0.667876 -152.743211
-160.725303 -232.943746 24.419055 -130.933561
-147.285470 -234.423304 21.229173 -135.967073
-155.684976 -263.643901 28.896566 -145.724135
-159.476695 -246.610107 29.119782 -155.613006
-129.529013 -197.289694 40.133632 -114.165412
-136.325237 -239.211649 27.237590 -143.858794
-136.279396 -203.515247 38.165046 -117.070547
-135.558290 -207.128320 37.659965 -129.865376
-136.985750 -232.974078 32.193103 -129.118104
-140.410587 -229.060803 36.704043 -128.310540
-131.744822 -232.310153 28.260062 -141.236632
-143.559275 -241.364450 35.762729 -147.099282
-153.570811 -276.722084 10.807530 -162.233875
-134.952862 -170.557306 46.248817 -104.485232
-129.956167 -228.503643 17.140390 -122.407073
-160.988756 -279.789506 6.688185 -152.871371
-134.665639 -159.827995 44.946179 -98.746610
-148.509152 -187.536766 47.496728 -113.244005
-140.396955 -199.999964 45.540506 -117.906983
-156.232006 -226.855392 48.939746 -134.392995
-157.591331 -254.697432 24.911219 -157.220379
-178.798282 -280.123905 10.022593 -165.626610
-180.834004 -329.074269 4.511827 -193.421432
-139.211520 -229.712959 10.858887 -126.369760
-128.839177 -215.984684 33.602964 -120.059079
-166.163997 -246.948935 19.158103 -141.297592
-146.841610 -240.231617 20.665687 -147.862355
-177.880173 -242.115858 12.659650 -158.011385
-136.350367 -205.900209 40.164881 -129.132566
-144.482601 -219.868603 23.362274 -123.066355
-107.184382 -205.068676 12.497333 -106.947480
-128.203742 -237.902352 18.809959 -126.597803
-160.963545 -252.504877 42.360432 -146.201337
-152.651408 -241.771448 42.865205 -137.449816
-162.548760 -243.924499 48.800061 -160.669376
-142.919083 -240.119023 29.615941 -134.225900
-133.948514 -111.597824 22.365734 -73.663901
-130.882843 -176.765710 23.190081 -94.196282
-153.214471 -240.762942 35.266406 -143.164523
-149.509747 -231.281837 33.439566 -139.361179
-126.328132 -192.593017 39.382885 -109.355610
-130.844045 -239.399904 14.325121 -145.504252
-135.930831 -192.255836 30.635577 -105.098954
-142.748734 -198.149164 35.177648 -110.496038
-150.442454 -230.242430 42.350911 -129.727172
-150.874287 -236.279324 43.459991 -134.258034
-142.422904 -214.856105 42.600108 -122.964378
-140.113273 -204.082177 35.592333 -113.368273
-118.066690 -221.264862 16.727572 -116.842912
-142.771102 -234.730846 0.324417 -128.001391
-122.871714 -224.001013 22.383551 -119.592316
-148.183979 -237.214378 18.786936 -140.726889
-155.142980 -239.329455 25.911507 -143.658413
-130.824549 -234.596194 25.591760 -126.327279
-146.045440 -199.663208 27.002779 -108.034989
-151.106121 -228.232242 40.069109 -128.063627
-118.148827 -220.055337 12.264563 -114.291263
-104.963504 -205.036596 3.395128 -106.107733
-155.518014 -240.207386 44.045367 -135.789458
-139.451813 -216.329341 41.522398 -122.801202
-149.202732 -226.389880 39.999741 -127.293487
-145.813062 -218.279213 38.072162 -121.825503
-150.807469 -219.116526 34.789133 -120.958328
-155.572934 -261.238456 37.878058 -145.114291
-147.096050 -225.973779 17.028686 -118.561856
-140.173938 -201.507275 13.759213 -104.383971
-130.876133 -231.183931 27.945617 -125.131487
-131.658097 -237.153307 24.146336 -127.115033
-136.391503 -237.302134 30.634735 -129.374130
-129.987451 -230.488704 27.107867 -124.471613
-200.865827 -290.177445 59.032305 -185.066512
-119.918279 -223.081411 18.444028 -118.165710
-148.100384 -271.715643 21.477949 -146.202386
-138.568202 -250.971865 24.307313 -135.153211
-139.742594 -204.719854 41.006532 -120.440114
-137.813491 -251.257560 22.887842 -134.984214
-143.766844 -239.810869 36.219700 -133.165829
-167.710445 -257.017287 47.929311 -148.481579
-161.934238 -239.008120 28.964728 -150.817318
-157.211988 -231.533180 41.232409 -147.659657
-156.136263 -202.893233 41.872557 -117.949624
-156.214614 -163.940371 38.790061 -101.356091
-142.427192 -245.246370 28.993383 -132.180531
-172.009834 -237.534216 9.575068 -151.905834
-141.920444 -246.501532 29.477374 -132.611447
-141.625915 -249.993518 26.114895 -133.687148
-151.201255 -216.654701 44.887963 -124.781214
-147.972621 -199.339304 49.033305 -119.739199
-149.161890 -206.712625 48.686188 -124.864624
-147.366537 -240.093809 39.544289 -147.411169
-162.144132 -247.459393 47.727353 -142.480502
-147.321017 -234.386633 41.499721 -132.320216
-178.775053 -273.050095 51.578288 -157.930836
-141.758229 -240.150406 29.918353 -142.956429
-134.140309 -226.310211 25.047412 -136.078649
-138.858641 -243.878050 28.117514 -131.372702
-136.228885 -231.478540 27.644373 -139.109789
-138.893154 -230.208668 29.196090 -125.332199
-148.834174 -231.442660 25.938418 -139.629528
-121.487422 -201.784454 33.117466 -111.549055
-174.011997 -249.775806 54.015271 -147.660576
-141.028721 -221.296603 41.113720 -125.751433
-153.193313 -256.145224 30.094459 -151.325130
-153.832087 -260.589860 36.148230 -144.290563
-139.013374 -166.968243 45.151338 -102.409367
-174.946620 -195.719870 52.347205 -123.774424
-166.821688 -242.478669 51.586891 -142.521679
-163.740247 -242.980046 49.754236 -141.471982
-142.748815 -217.380168 43.289765 -139.335772
-128.201886 -139.493974 43.947413 -90.680117
-154.471180 -226.027900 48.148244 -132.255996
-149.945600 -227.320395 45.248234 -131.008568
-141.743162 -233.828021 37.378805 -143.434515
-156.153132 -247.843777 43.566611 -140.475841
-141.533844 -226.208211 28.435369 -137.418971
-135.194405 -222.948571 25.424162 -134.130646
-151.166973 -228.073991 45.796039 -145.733839
-139.765010 -207.245702 43.850705 -120.596216
-129.934463 -209.094015 37.077965 -118.501444
-121.926773 -197.676703 34.954759 -119.350082
-130.476279 -216.662124 27.453395 -129.161238
-151.000448 -249.056963 39.088632 -139.102302
-175.325860 -269.730960 50.233216 -158.593727
-133.927447 -221.928137 30.283253 -126.856601
-112.696544 -185.951743 32.070441 -114.584356
-117.198824 -196.020157 31.901936 -117.913266
-95.036623 -106.416213 -9.394889 -60.435851
-184.891014 -293.804102 49.530147 -167.700079
-76.575496 -143.908985 17.246417 -78.727571
-121.863602 -182.805999 39.019769 -105.972661
-102.344148 -171.659929 29.082654 -104.677951
-132.893244 -221.255004 34.989020 -122.233855
-106.929988 -160.676144 30.281027 -87.306134
-97.146420 -151.078040 26.095683 -80.151844
-123.233498 -172.835283 41.449138 -101.006859
-94.829112 -97.587167 24.835460 -57.724884
-102.545648 -130.026788 37.034809 -77.826852
-109.473234 -154.705090 37.172654 -88.036827
-98.118119 -153.536783 25.907082 -81.353691
-117.150782 -160.449180 32.694854 -89.416804
-124.956654 -170.772206 42.461420 -100.891609
-115.215690 -166.850037 36.196058 -93.647085
-108.303568 -153.556418 35.123141 -86.411594
-112.647518 -164.143394 32.303428 -90.371978
-126.460292 -231.586163 11.866271 -120.624379
-133.054488 -227.479269 30.881526 -129.533898
-95.803222 -165.376726 25.984178 -88.305135
-116.401799 -195.398277 31.479975 -116.863030
-122.800734 -188.701727 21.783128 -99.172610
-143.743777 -183.026631 26.580241 -99.832511
-124.528823 -215.471689 29.816120 -117.060113
-155.305919 -251.697244 41.661693 -142.195892
-132.688758 -201.857782 41.017882 -115.470325
-168.267162 -256.346866 49.353868 -148.844483
-104.505730 -140.260619 37.123261 -82.272366
-152.009556 -222.116137 47.624777 -132.335913
-121.877586 -175.949162 39.617431 -100.072067
-110.583022 -162.001044 33.208796 -89.567830
-114.585475 -180.471944 35.153104 -112.871537
-124.463509 -210.550133 28.479201 -112.674301
-90.891053 -146.324535 29.056406 -79.600882
-123.319458 -199.819565 34.866482 -110.243950
-125.469858 -226.168444 24.434367 -121.314880
-128.225677 -224.794899 28.454580 -125.303228
-120.998820 -171.666404 36.344122 -96.562376
-144.060840 -236.721969 38.142374 -131.952075
-158.022424 -234.631404 48.374662 -140.841932
-115.909899 -199.639440 29.107278 -108.133012
-127.477999 -179.873303 42.454476 -105.113089
-144.601285 -198.454541 47.757140 -118.153951
-128.371960 -186.678944 41.745376 -107.952118
-114.626434 -175.092513 36.533519 -98.691140
-128.022245 -183.244309 42.187666 -106.544786
-113.325437 -169.360483 35.225942 -94.128881
-89.824297 -165.816344 19.457733 -86.258271
-116.799778 -190.216146 31.858554 -103.058407
-110.285032 -162.839048 36.692119 -92.622915
-127.361831 -195.991016 39.157884 -110.986175
-126.048923 -203.628979 35.748971 -112.983204
-94.801593 -167.504073 24.078791 -88.702534
-108.031419 -151.730898 37.345677 -87.756496
-128.102106 -215.711857 33.098995 -118.453840
-133.654562 -201.029864 36.483887 -111.481443
-140.236911 -212.081456 43.052567 -121.568202
-129.512316 -199.719906 35.587494 -110.124780
-127.334235 -196.268022 39.055121 -111.087418
-135.690916 -232.904043 32.177666 -127.898850
-146.848234 -237.815156 39.654322 -132.066245
-129.768366 -185.288047 42.126793 -106.375787
-134.721886 -211.831093 39.607130 -118.883282
-126.118905 -201.460513 34.923524 -110.438904
-78.154750 -152.625554 12.349272 -77.195455
-158.998527 -265.089610 38.608525 -147.982739
-155.992565 -251.214278 42.267431 -141.577500
-149.950307 -252.806932 36.051335 -149.153492
-169.616239 -276.240771 43.345474 -155.684748
-142.646012 -243.856865 33.208188 -134.637187
-213.438568 -286.717231 67.231114 -202.886967
-148.472017 -250.362690 35.862437 -146.308940
-176.223624 -275.517975 49.097860 -157.863431
-132.659739 -230.206737 28.639068 -123.418660
-210.057177 -294.379936 64.457444 -178.619350
-173.632280 -278.315103 46.302013 -157.938175
-188.990250 -254.725298 60.371923 -157.017143
-151.431906 -204.865394 49.914742 -125.032973
-137.942557 -239.106574 31.282635 -130.601446
-152.911139 -225.715452 47.338982 -132.627190
-120.253206 -216.991767 23.891513 -116.077399
-176.971793 -249.240593 55.495176 -150.181725
-184.479488 -261.184473 57.314926 -156.376728
-165.045945 -258.959523 46.396607 -147.927335
-140.401319 -217.082626 41.889005 -125.576748
-136.361002 -236.298270 30.782398 -129.831326
-178.135979 -278.751399 48.873144 -173.549749
-137.470141 -243.954391 27.392060 -132.520603
-135.734298 -238.723816 28.826787 -129.641084
-159.829855 -264.207452 40.435200 -160.499304
-145.004357 -233.824857 39.968307 -133.824988
-153.897024 -265.179124 34.218156 -155.246519
-135.634775 -240.201780 27.547253 -130.423588
-132.973860 -167.393233 28.415404 -92.476265
-168.911860 -239.577662 53.190484 -142.079220
-225.391345 -302.775127 70.537487 -185.757829
-137.916573 -187.806561 46.045771 -113.083167
-178.778532 -249.070028 56.498942 -150.414114
-153.239114 -218.639434 48.673158 -142.965049
-155.538140 -264.723012 36.172673 -146.370705
-146.055671 -252.941133 28.686991 -136.197775
-152.739134 -196.122079 41.057597 -114.057259
-136.649236 -197.478942 41.078929 -112.195907
-144.545579 -254.779793 26.415455 -136.581533
-137.655804 -224.282164 37.659598 -125.082692
-137.070701 -206.952379 39.509721 -116.368091
-146.703422 -252.432490 33.442969 -138.662486
-133.719320 -249.612550 14.736621 -132.720453
-145.821686 -259.405705 28.205386 -140.877949
-144.616324 -254.506609 26.199636 -136.314271
-137.536004 -251.852567 21.837295 -135.127354
-169.668587 -283.954166 38.397322 -156.035986
-211.549747 -291.606075 57.208854 -178.543995
-144.833060 -255.675703 29.307124 -139.171288
-174.560410 -270.059809 24.222728 -165.726173
-121.035801 -223.871235 18.380027 -117.876477
-128.067255 -232.679938 21.420110 -123.479412
-136.648801 -243.792473 24.471832 -130.711710
-130.186635 -236.350444 22.089839 -125.529947
-156.992777 -238.219251 41.824689 -134.629994
-152.408648 -230.106581 38.130318 -128.297953
-131.842359 -238.601885 18.940389 -125.802601
-127.240871 -229.173441 18.947390 -120.636409
-154.794283 -231.632803 37.784528 -128.752218
-165.233912 -255.380941 47.578670 -146.499096
-154.081006 -227.921478 30.644606 -123.920074
-157.959741 -252.493623 42.733834 -140.870991
-142.768367 -226.210779 23.028738 -120.052072
-142.582794 -229.583959 34.847679 -125.555722
-134.531527 -239.092699 26.856720 -128.996211
-128.236499 -230.419224 23.933566 -123.205184
-129.507391 -233.815571 20.906184 -124.274288
-138.362546 -248.732851 22.850638 -133.386062
-137.636069 -230.521021 22.022624 -122.154189
-161.362488 -260.818189 43.020789 -147.072297
-133.949428 -230.820079 22.121601 -122.390893
-137.231259 -238.832229 24.987803 -127.371047
-159.641232 -247.653307 44.826371 -141.201324
-133.457499 -213.839902 38.119703 -119.719308
-153.280130 -233.149330 40.460874 -131.419381
-165.950782 -250.083883 47.839464 -142.446432
-157.842871 -240.487119 39.101143 -133.600239
-143.587559 -230.645317 39.489039 -127.827018
-138.890311 -230.367991 30.150927 -124.263395
-151.130325 -237.109376 32.334565 -128.982672
-136.853258 -236.845137 31.115680 -127.746609
-141.875837 -236.581411 27.476548 -126.839582
-130.820496 -237.823135 21.872981 -126.343913
-131.467699 -236.023675 21.379089 -124.844116
-144.691821 -263.785336 20.621521 -141.392456
-139.732030 -258.173585 17.569312 -136.258120
-149.143427 -260.247973 31.730681 -142.406974
-180.843588 -296.938923 45.018876 -167.363968
-135.063205 -246.724390 20.240490 -130.429321
-129.065827 -232.662317 23.791124 -124.672303
-141.468064 -263.320303 15.063390 -140.328096
-158.700650 -285.128564 25.715978 -154.561412
-162.915822 -287.918973 30.905373 -157.532696
-158.260162 -248.722497 44.770098 -141.528840
-145.913046 -205.819160 15.512015 -107.496921
-118.699740 -145.968308 4.205940 -79.400414
-150.146534 -257.727488 33.377375 -140.883237
-169.830279 -283.616623 40.916275 -158.461494
-145.541201 -217.566961 44.867781 -125.501531
-146.533399 -219.300441 42.703971 -124.302308
-145.581524 -213.958906 44.532507 -122.187555
-144.558512 -209.358488 44.208073 -119.940298
-129.204399 -201.668749 38.799569 -113.749922
-90.731553 -152.179619 -2.922841 -76.036290
-126.938503 -197.441451 37.320762 -109.523685
-128.756786 -228.675167 18.292303 -120.099530
-149.293354 -229.031719 44.391987 -131.066627
-146.531987 -226.339947 43.272219 -129.038911
-138.574741 -212.214781 36.301304 -117.204182
-148.465497 -222.338701 45.525064 -128.321052
-156.790404 -266.485086 36.508009 -147.451296
-168.852542 -291.881809 35.547580 -160.888187
-145.176276 -234.780306 39.756855 -131.659224
-146.215226 -236.566898 39.924727 -132.692240
-136.643946 -246.686137 22.151199 -130.878055
-134.727248 -243.923382 22.510781 -129.934201
-157.250027 -271.419707 34.402657 -149.443230
-157.751416 -271.139483 35.100613 -149.523171
-139.763458 -246.259004 26.416953 -131.611832
-134.727478 -233.833907 26.611563 -125.002824
-129.759031 -236.415976 21.329148 -125.189431
-132.169504 -240.599099 22.743952 -127.693062
-155.521160 -252.916885 41.239578 -142.077127
-199.783681 -292.279861 59.612334 -172.575389
-150.273223 -239.842961 41.868089 -135.369076
-143.669818 -228.384634 40.791727 -128.774637
-159.683295 -255.819208 43.120238 -144.665515
-155.980842 -249.118863 42.996670 -140.840678
-156.723801 -247.966561 43.854588 -140.694720
-146.165370 -233.981198 40.786657 -131.726737
-152.516169 -246.823741 41.108101 -138.764466
-142.638598 -232.989381 38.416684 -130.078829
-142.764809 -239.597335 35.828296 -132.540241
-149.622104 -249.098784 36.091624 -136.271229
-133.387090 -243.686482 22.316692 -130.615431
-132.592923 -242.074963 21.864982 -128.680800
-138.179241 -253.593873 19.940590 -134.097904
-141.086715 -254.964269 20.391694 -135.277163
-148.679900 -257.996968 32.520189 -141.416948
-139.714313 -242.539068 31.347538 -132.501227
-143.694682 -247.907059 30.071105 -133.567245
-160.146300 -253.560988 44.593405 -143.982800
-163.530730 -258.483546 45.459521 -147.011829
-147.572397 -239.647437 39.873306 -134.313690
-143.417447 -254.451597 28.432166 -137.860279
-140.891235 -262.817151 16.354836 -139.724019
-125.946411 -223.574513 26.755636 -120.561442
-141.342842 -260.380256 15.692784 -137.338291
-135.672062 -248.848089 20.801100 -132.495741
-136.904593 -255.222579 17.038088 -135.881980
-149.856470 -222.254701 46.347354 -128.798870
-125.466982 -223.275679 26.376215 -120.273856
-120.393991 -217.289246 23.897612 -116.239931
-128.033976 -199.256575 38.701199 -112.439718
-149.653631 -228.157425 44.848627 -130.879578
-147.394367 -249.378983 33.794180 -135.568347
-163.698830 -265.026896 41.658290 -167.777397
-168.141149 -266.752538 45.956951 -151.670897
-169.698296 -261.132801 48.873594 -150.209979
-169.122822 -257.091828 49.594504 -148.529417
-187.354062 -283.877321 54.177681 -187.498601
-167.735557 -259.812955 47.905944 -149.006266
-162.643481 -256.354382 44.589319 -154.767668
-126.195884 -221.192065 27.826645 -118.148200
-126.988661 -222.913968 28.365383 -120.695666
-140.295704 -242.904955 31.752071 -132.853948
-178.658818 -282.215951 48.735375 -161.214999
-154.784532 -205.251326 51.260508 -130.182860
-129.330711 -223.883890 30.363606 -121.903904
-172.703917 -269.901460 48.375463 -154.547221
-166.206488 -233.278921 52.649495 -157.816715
-145.534158 -204.902301 47.109982 -121.532868
-187.785212 -256.707936 59.600875 -175.556497
-172.886951 -237.959271 55.216076 -144.549645
-174.938957 -275.103650 48.330497 -157.254997
-171.152491 -273.073172 46.147146 -155.092189
-161.798256 -259.110983 43.909302 -146.603903
-148.494785 -245.889694 37.419668 -151.288538
-174.425366 -276.228384 47.580205 -157.489891
-170.285142 -272.712909 45.552209 -154.693726
-153.332571 -239.164582 44.196961 -136.211126
-166.431297 -262.730282 46.144716 -149.588895
-155.408338 -239.411851 45.545057 -137.080164
-147.311930 -241.626317 38.900652 -134.932486
-138.314804 -211.968661 41.908384 -120.824737
-155.884211 -230.668233 47.953637 -134.063743
-139.437606 -208.824933 43.331327 -120.088251
-137.390713 -200.100209 43.967891 -116.150325
-149.645225 -222.684623 46.142020 -128.872887
-144.765595 -225.223749 42.507941 -128.014088
-143.151887 -211.053851 44.952336 -122.257863
-134.025303 -197.438882 42.696918 -113.953115
-127.021289 -198.357984 38.301002 -111.734017
-122.014171 -197.997096 34.702870 -109.135862
-121.269096 -201.283742 32.154508 -109.395625
-124.291621 -203.635145 33.009820 -110.763511
-131.018140 -203.526412 39.488485 -115.080676
-133.909404 -201.339793 41.794344 -115.338594
-125.642823 -196.297762 37.950370 -110.485146
-125.768506 -187.075638 40.163935 -107.125542
-115.195251 -173.165643 37.273671 -98.208422
-120.832961 -179.934349 38.938989 -102.720098
-126.560518 -189.278765 40.223090 -108.254798
-118.405749 -178.876094 37.825445 -101.459655
-133.108302 -201.220439 41.352585 -115.005421
-161.369695 -243.799113 48.137195 -140.832237
-126.918267 -199.370586 37.942928 -112.069760
-148.561797 -216.654765 46.760116 -126.266213
-154.862725 -220.679944 49.306760 -130.044181
-153.535635 -222.062560 48.393470 -130.068063
-145.102816 -216.005814 45.006783 -124.775150
-108.465952 -172.333341 33.215178 -95.420634
-111.436740 -187.862849 30.258474 -102.195620
-129.986465 -202.918832 39.027418 -115.026799
-117.851105 -181.607135 36.864784 -102.268768
-112.257350 -193.189992 28.667946 -104.441911
-107.952745 -182.769518 28.288237 -98.595175
-113.768094 -180.967626 34.439675 -100.524929
-109.760466 -185.202030 29.218307 -99.602882
-119.414082 -191.931873 34.922989 -106.504451
-117.281457 -195.619005 30.645232 -105.782600
-117.773336 -198.511536 31.297812 -108.410993
-106.988818 -179.221459 29.463867 -97.095080
-112.055058 -173.172166 35.193478 -96.992878
-116.081023 -169.813183 38.270797 -97.235970
-118.225872 -171.692468 39.164563 -98.791436
-115.982127 -172.426654 37.830994 -98.240935
-111.011214 -154.621083 38.348721 -89.872945
-111.094706 -152.362054 38.637151 -89.088155
-117.965375 -194.851295 32.894698 -107.148103
-118.531819 -176.824604 38.177786 -100.678399
-120.134535 -188.249297 36.347238 -105.337906
-114.834899 -169.022990 37.905227 -96.565104
-120.043448 -183.342358 37.584035 -103.545596
-110.206054 -169.777937 35.214201 -95.088361
-113.254176 -170.035205 36.711551 -96.336462
-112.944192 -169.438794 36.798117 -96.026940
-113.456805 -168.424851 37.356225 -95.786109
-117.824024 -168.660586 39.482985 -97.524539
-111.326657 -161.891931 37.477606 -92.594067
-113.096125 -166.104504 37.537923 -94.864600
-105.927236 -164.021166 34.028568 -91.424757
-111.591436 -163.852163 37.252205 -93.423481
-103.827921 -152.257586 35.316440 -86.352987
-103.298796 -142.540438 36.468174 -82.599581
-115.825228 -174.784554 37.267888 -99.040873
-112.352336 -164.924137 37.451963 -94.093682
-114.005719 -169.688248 37.320942 -96.515703
-114.193684 -168.367666 37.763303 -96.034560
-106.421025 -185.277246 26.550931 -98.115972
-114.288339 -195.873250 29.318983 -106.171527
-117.958220 -193.150734 32.830331 -105.788084
-118.469932 -191.165128 34.336414 -105.773459
-117.827515 -198.626005 30.323930 -106.815325
-106.923781 -183.521149 27.084336 -97.402665
-113.805277 -174.164025 36.292745 -98.034420
-109.622262 -178.766800 31.657650 -98.015680
-112.146416 -173.380786 35.469026 -97.150692
-126.904143 -191.881151 39.853939 -109.331570
-123.359338 -190.716815 38.043881 -107.569448
-124.787334 -188.039746 39.542101 -107.118422
-125.324417 -202.590203 35.861262 -112.636786
-123.519629 -206.274408 33.078318 -113.322379
-116.916943 -203.296714 28.297973 -109.837387
-110.414112 -196.319769 19.692442 -102.549137
-112.135209 -194.446860 27.943528 -104.859233
-112.413017 -191.205744 29.685686 -102.923773
-127.441409 -187.387408 41.147362 -107.852376
-113.413127 -177.527694 35.185815 -99.127511
-112.445361 -180.648193 33.633489 -99.917045
-117.705404 -180.751374 36.811866 -100.526741
-116.664614 -183.377108 34.758388 -100.816840
-111.499899 -176.116238 34.340724 -97.868418
-111.027832 -182.168785 31.019624 -98.337068
-121.380592 -193.195146 36.028511 -107.765637
-103.814723 -178.613245 27.435019 -96.055216
-103.115813 -176.191090 25.390225 -93.212640
-112.697614 -186.301988 31.927835 -102.066028
-109.289162 -181.638570 30.814650 -99.093131
-109.821396 -189.269179 25.677651 -100.076086
-116.089875 -197.105603 29.455142 -105.625759
-114.266706 -199.796678 24.635317 -105.471307
-116.030429 -195.247875 31.148755 -106.580569
-120.450194 -180.143498 38.790584 -102.646522
-112.025275 -174.234613 33.012149 -95.343264
-107.128405 -177.835791 29.349088 -95.307613
-113.558953 -184.347052 32.067327 -99.988523
-107.591161 -166.226496 31.259530 -90.406956
-112.442733 -169.074865 32.728996 -92.822172
-105.912532 -180.342368 26.478899 -95.525800
-109.959062 -185.211911 28.756797 -98.990520
-139.330470 -224.811055 38.834436 -132.768871
-107.413716 -178.256421 29.964093 -96.554302
-95.447646 -165.492562 25.700773 -88.179554
-114.438113 -189.980518 31.808701 -103.909571
-87.390514 -159.378250 14.890455 -80.625935
-110.013540 -188.983798 26.216897 -100.103206
-117.957190 -201.751106 29.148497 -108.791556
-117.112117 -195.491144 29.839088 -105.560352
-109.140573 -176.257841 32.698395 -97.083974
-115.895066 -188.671153 33.261235 -103.904707
-112.333527 -173.323863 35.544917 -97.231145
-106.567268 -164.894991 34.211526 -91.965567
-113.999790 -177.281623 35.618598 -99.252866
-109.887271 -163.638417 36.415238 -92.699241
-109.976815 -175.464630 33.520036 -97.097701
-111.260150 -172.709588 35.139458 -96.547717
-110.805536 -167.937921 36.010501 -94.622687
-108.243766 -166.780642 34.777608 -93.265386
-99.175324 -141.828202 34.621185 -80.913288
-110.543567 -161.730285 37.078201 -92.273533
-90.885570 -142.776897 29.978286 -78.232892
-109.722118 -147.481173 38.589037 -86.778973
-110.915803 -155.365176 38.242516 -90.084742
-109.691539 -159.894340 37.012709 -91.261821
-103.326147 -147.917810 35.766677 -84.588489
-107.149893 -157.294836 36.171341 -89.376369
-110.220592 -157.169176 37.667415 -90.493537
-99.460172 -145.725462 34.220530 -82.379875
-105.221285 -155.733714 35.455998 -88.101586
-108.234292 -160.338765 36.155815 -90.899404
-102.017844 -155.134534 33.758950 -86.762606
-108.216207 -164.589222 35.302854 -92.431159
-113.045095 -178.356668 34.738531 -99.279486
-108.334975 -178.796987 31.207450 -97.743102
-113.278928 -169.742131 36.995777 -96.209589
-112.241327 -167.055579 36.958510 -94.855856
-107.758124 -177.377512 31.192978 -97.031059
-114.351481 -183.281256 34.146989 -101.580757
-116.971547 -181.084761 36.456710 -101.764191
-112.381386 -176.763046 34.731809 -98.470980
-109.596017 -175.285260 33.226097 -96.954927
-112.840564 -171.990224 36.227475 -96.887245
-110.749688 -161.732904 37.193023 -92.346620
-114.928304 -167.206439 38.335342 -95.900668
-103.982299 -154.960880 34.924109 -87.387614
-110.675285 -156.979642 37.934115 -90.560644
-98.293611 -136.402322 34.988133 -78.563580
-106.816020 -148.135104 37.350690 -85.914446
-105.282983 -143.787668 37.137488 -83.805953
-104.699691 -134.562401 37.541642 -80.295624
-98.701555 -136.252416 35.145056 -78.687445
-92.761478 -130.561908 33.230172 -74.445370
-101.946391 -137.986326 36.312056 -80.500038
-124.314795 -149.743464 43.389869 -93.406312
-101.260026 -141.781998 35.588457 -81.653323
-102.458292 -146.762113 35.468585 -83.900546
-99.443759 -137.888959 35.294750 -79.536182
-88.132157 -128.436804 31.356283 -71.993388
-91.209850 -125.580207 33.103247 -72.080613
-96.936797 -136.557805 34.387859 -78.105977
-103.406909 -141.747949 36.581055 -82.374990
-104.096776 -139.659361 37.015471 -81.899516
-98.097172 -143.743348 33.824416 -81.193224
-103.920828 -150.305394 35.696338 -85.677003
-95.616590 -131.813373 34.341680 -75.925986
-101.568190 -133.418762 35.533938 -77.218214
-102.174395 -137.568574 36.465441 -80.409460
-102.866238 -140.393381 36.424727 -81.736565
-97.052963 -130.725217 35.036088 -76.043315
-99.843982 -134.495146 35.740569 -78.498500
-90.605254 -125.841393 32.799062 -71.974113
-89.380791 -126.914814 32.148626 -71.906109
-121.101260 -139.906885 42.373616 -88.246634
-86.593928 -126.373941 30.997842 -70.625391
-96.714532 -132.644831 34.673713 -76.660237
-85.397191 -126.337001 30.361828 -70.216068
-102.764584 -146.235960 35.690863 -83.819442
-98.964234 -142.813849 34.385180 -81.185269
-123.408124 -158.934512 42.825032 -97.331021
-80.571193 -98.057734 30.761884 -58.221830
-90.980153 -129.606428 32.611541 -73.399662
-124.023781 -151.456865 43.288063 -94.532182
-85.840703 -110.711019 32.141448 -66.036159
-98.686421 -137.419919 35.045922 -79.076783
-117.563457 -142.451043 40.565598 -87.883887
-102.070088 -142.792777 35.838645 -82.304820
-93.205861 -123.356514 34.002947 -80.348126
-120.846277 -145.637229 41.735661 -90.268920
-123.784932 -152.874248 42.837191 -95.198182
-87.765034 -110.807030 32.832193 -65.415688
-102.900073 -128.333704 36.780265 -77.241548
-93.166874 -107.856668 34.110625 -66.149537
-125.231219 -131.093782 42.402469 -88.297790
-87.177101 -72.126480 25.897849 -49.156830
-63.427352 -83.867446 25.632574 -48.264815
-91.402265 -94.760465 32.789502 -60.849216
-113.398803 -142.056775 40.225189 -86.158927
-110.575138 -137.809798 39.074094 -84.103727
-87.321792 -114.707662 32.400245 -66.741834
-104.777365 -136.401941 37.598606 -80.878389
-115.066159 -143.003237 40.535026 -87.179302
-89.672561 -117.212407 33.149583 -70.662297
-99.084369 -131.151690 35.546230 -88.105842
-96.041528 -135.322924 34.158472 -77.331071
-101.248013 -142.216653 35.528101 -81.807376
-97.645770 -135.845614 34.792121 -78.107269
-101.578884 -143.146959 35.597877 -82.237208
-95.709071 -136.166191 33.883837 -77.516760
-100.040042 -118.990791 35.924145 -72.724789
-90.595406 -118.246129 33.570820 -69.086517
-91.943835 -106.819360 33.561576 -65.297012
-103.893876 -121.794336 37.482236 -75.327547
-125.020241 -137.810857 43.093946 -88.878734
-110.886538 -124.861196 39.173495 -81.295618
-87.727707 -104.755938 32.844399 -63.209923
-102.960355 -128.461995 37.319541 -77.320199
-99.687974 -127.345026 36.286434 -75.720562
-92.902420 -115.469187 34.330469 -69.004988
-108.584548 -142.360951 38.533546 -84.510205
-88.723699 -113.518706 33.122178 -66.692255
-59.291206 -93.311318 22.790500 -48.615402
-77.838066 -108.037680 29.451567 -60.719224
-95.885268 -141.762936 33.023692 -79.679156
-96.813256 -141.315739 33.624009 -79.809491
-109.440498 -155.776181 37.447070 -89.741602
-91.197411 -128.853677 32.763139 -73.238712
-104.496069 -149.429309 36.094176 -85.574547
-89.556744 -130.056015 31.898754 -73.032295
-107.345610 -130.936178 38.534629 -79.906364
-86.055380 -112.736809 32.194518 -65.469089
-100.644784 -143.849823 35.020235 -82.184844
-91.268856 -131.719378 32.362829 -74.340463
-96.845541 -140.321438 33.788174 -79.471662
-103.890671 -141.167834 36.821192 -82.349579
-105.023879 -141.828537 37.248953 -82.987310
-97.171541 -135.295974 34.594711 -77.777529
-101.937318 -140.418800 36.088841 -81.360954
-108.940403 -147.387509 38.283488 -86.455082
-99.012645 -137.407617 35.188562 -79.181561
-106.607620 -147.016458 37.357821 -85.464793
-105.048448 -144.747309 36.943773 -84.068706
-90.811534 -132.211764 32.074121 -74.343663
-97.770957 -139.393332 34.351160 -79.477691
-91.646285 -133.079053 32.365489 -74.953319
-98.758220 -143.475637 34.203597 -81.336416
-92.677417 -135.280212 32.546533 -76.114985
-95.727808 -139.309758 33.360308 -78.724778
-97.038799 -136.442211 34.436146 -78.114223
-98.677224 -143.768667 34.123695 -81.402791
-103.552370 -144.919924 36.259990 -83.593500
-106.655504 -144.694500 37.595980 -84.651505
-99.669905 -139.312936 35.246202 -80.126962
-107.502809 -148.280811 37.592322 -86.260023
-102.579418 -143.113912 36.062127 -82.581240
-98.763543 -142.506426 34.388779 -80.965886
-104.846276 -147.325184 36.539521 -84.939314
-97.519170 -139.890546 34.151473 -79.574704
-91.433961 -133.488220 32.191979 -75.031343
-110.859290 -151.269212 38.646844 -88.603371
-96.348235 -139.572589 33.629342 -79.043837
-99.822975 -130.794608 36.090310 -77.080346
-85.305058 -106.417852 32.233266 -62.837662
-97.185210 -122.686843 35.564418 -73.160963
-96.468850 -130.911690 34.822812 -75.870995
-87.622368 -113.921948 32.745201 -66.414505
-100.298384 -126.270528 36.479625 -75.582846
-90.037760 -112.702466 33.555103 -66.886523
-91.720900 -119.608230 33.900866 -69.977529
-91.439386 -119.584230 33.808251 -69.874312
-79.899204 -95.586747 30.742532 -56.858053
-74.847252 -95.522800 29.055697 -55.158426
-81.792410 -108.550656 30.984969 -62.321250
-92.981535 -124.351158 34.082353 -72.141338
-72.584004 -87.452404 28.446535 -51.077042
-79.150392 -98.291581 30.511598 -57.587801
-77.751037 -107.234305 29.474698 -60.410435
-75.968224 -87.308030 29.314838 -52.568421
-96.396560 -125.055245 35.274200 -73.665879
-104.965384 -123.368964 37.857467 -76.241748
-95.594941 -115.638769 35.302050 -69.908278
-118.080469 -143.161826 41.583465 -88.966441
-93.000616 -133.512086 33.059128 -75.523061
-90.269308 -118.757824 33.465466 -69.117539
-76.940309 -105.011686 29.287575 -59.358654
-54.322242 -86.006936 21.582512 -44.101433
-65.855544 -106.725227 23.684883 -55.830575
-97.805135 -130.972039 35.226586 -76.439818
-71.437568 -101.764760 27.275681 -56.169143
-75.906919 -106.702358 28.614848 -59.604199
-78.069941 -108.543664 29.475004 -61.000020
-81.630956 -111.688319 30.616915 -63.459467
-70.409691 -97.042299 27.462271 -54.020691
-81.198292 -110.281517 30.602370 -62.749104
-79.210795 -108.289050 29.846121 -61.395456
-77.793319 -109.162021 29.178189 -61.213939
-87.774126 -113.767025 32.787094 -66.427375
-62.765799 -89.049027 25.012440 -48.371091
-73.887122 -102.623151 28.195938 -57.376604
-82.825812 -108.108946 31.277171 -62.625339
-65.873097 -104.379856 24.082655 -55.106186
-51.591412 -88.657489 19.187903 -44.153918
-83.989151 -99.927149 31.476909 -59.984132
-66.126267 -94.419868 25.817105 -51.539693
-78.869054 -78.797005 29.073859 -50.010569
-79.351521 -102.200827 30.293868 -59.225952
-78.618219 -95.085231 30.197623 -56.377541
-73.124383 -119.982074 23.382356 -62.070767
-94.887929 -131.212193 34.016197 -75.653305
-81.612396 -119.920835 29.493192 -66.528898
-57.839103 -61.677962 23.706796 -36.601853
-83.228624 -127.137230 29.067226 -69.720338
-56.342145 -92.983666 21.069344 -48.750165
-86.564630 -109.334143 32.497977 -64.425031
-76.268412 -99.320741 29.430517 -57.022531
-76.012831 -118.938679 26.698480 -64.124784
-57.816187 -81.071049 23.844188 -43.622470
-85.495310 -115.891603 31.750447 -66.420201
-58.143011 -80.649157 23.947902 -43.634842
-74.892816 -103.374892 28.687285 -57.962740
-60.790131 -79.679328 24.956009 -44.236776
-79.948367 -103.727902 30.515534 -59.950191
-62.432274 -87.013096 25.163715 -47.456333
-76.928089 -104.270312 29.397779 -59.029621
-65.099628 -106.451722 23.158028 -55.548850
-60.157380 -90.771723 23.668883 -48.021322
-65.099628 -106.451722 23.158028 -55.548850
-79.479835 -120.067089 28.446769 -65.755801
-71.577954 -98.913065 27.728899 -55.147572
-39.644687 -83.060929 10.774801 -37.757998
-56.362436 -114.392297 10.587298 -55.306779
-51.082342 -77.192854 21.373992 -39.758036
-48.853265 -99.740382 4.861498 -45.793964
-54.166304 -108.674035 5.566452 -51.221287
-46.333939 -100.480257 5.216209 -46.333939
-74.324414 -124.851848 23.973059 -65.796161
-51.102266 -108.347801 6.367169 -51.102266
-59.407769 -120.468175 10.091430 -58.631993
-57.718750 -114.894834 12.374312 -55.977830
-50.908606 -94.085738 9.135440 -43.498303
-44.708556 -98.491750 3.063363 -44.708556
-49.438508 -106.569330 3.981941 -49.438508
-58.851074 -98.083102 21.099515 -49.396589
-47.262524 -99.052777 2.405952 -44.884481
-62.823649 -124.235967 12.496119 -61.253893
-51.844214 -103.304420 12.764654 -50.033141
-63.028180 -101.778270 23.008072 -53.118522
-57.102565 -114.299006 11.950500 -55.526589
-77.648000 -123.817608 26.528566 -66.494424
-67.285707 -128.250182 15.789496 -64.345127
-47.630133 -84.433953 17.703659 -41.171511
-53.481291 -82.686288 11.858524 -40.850274
-47.233570 -79.680848 10.514321 -38.074325
-40.156411 -84.162847 10.667147 -38.353037
-49.959466 -85.394462 5.414621 -40.606178
-51.956768 -83.316713 8.900107 -40.582044
-45.394930 -91.439585 10.394326 -42.771486
-45.829574 -99.862444 1.577188 -45.342413
-43.836254 -83.560310 4.957337 -38.218969
-47.854988 -70.335238 5.063520 -35.457068
-49.457336 -96.916807 4.214418 -43.912243
-26.246631 -60.730435 -8.275145 -26.093120
-54.896908 -91.302984 20.610883 -46.328143
-56.347928 -85.543083 14.900980 -42.567303
-51.627612 -80.805026 12.808908 -39.729791
-48.343951 -63.193798 5.844405 -33.461325
-66.335401 -124.159079 17.192506 -62.499424
-58.333028 -108.627405 17.009611 -56.795468
-62.044446 -122.476851 12.798948 -60.312487
-56.277886 -78.502678 17.231650 -40.434169
-54.619251 -109.718679 11.875371 -52.960740
-61.774857 -119.659701 14.515474 -59.194017
-72.077297 -108.804886 26.582795 -58.986178
-54.528395 -78.310161 14.140025 -39.851567
-55.375928 -77.349145 17.607872 -39.817522
-67.322285 -94.869277 26.356583 -52.144133
-54.415889 -82.161259 10.306547 -40.973144
-57.049731 -94.095581 15.003332 -45.343594
-48.314295 -66.925923 8.862256 -34.572065
-49.075770 -79.028802 8.944971 -38.431371
-71.577672 -140.059843 12.798620 -70.595736
-59.485154 -96.321784 -1.823031 -46.958799
-47.394872 -98.073944 7.894639 -46.101557
-43.398572 -94.322644 6.239073 -43.185460
-57.569674 -79.335005 16.682026 -41.071404
-51.886154 -76.458428 15.482491 -38.503375
-53.057213 -72.116520 11.219502 -37.552120
-55.031021 -78.812289 14.440608 -40.152993
-52.197871 -67.829594 11.637514 -36.008240
-51.161363 -70.285664 12.011649 -36.434108
-77.113382 -144.886886 16.285922 -74.195305
-42.781880 -55.798617 -0.690220 -29.574149
-50.789642 -100.500963 13.021599 -48.095038
-61.637245 -124.702100 9.888090 -63.648462
-76.357322 -138.959453 18.963521 -73.168803
-59.838865 -92.911595 17.308164 -45.825138
-54.802102 -110.144074 11.795639 -52.495585
-59.393826 -115.577371 14.186637 -56.919868
-59.632225 -115.365683 14.639758 -56.852160
-46.115016 -98.463030 7.638605 -45.744191
-55.527201 -84.881473 15.244469 -42.122602
-51.167525 -75.658251 9.590832 -38.047733
-44.244121 -93.386131 3.949162 -41.895210
-62.866171 -109.298163 16.816818 -53.770717
-48.782566 -91.283123 1.359006 -42.035530
-47.092361 -101.348428 5.405167 -46.497827
-42.169470 -92.767072 5.648672 -42.231226
-41.340779 -91.678843 1.724136 -40.976556
-44.278280 -79.578697 2.839863 -37.157093
-39.462206 -59.665131 -1.419947 -29.738201
-50.370227 -98.914875 13.773480 -47.860185
-44.435666 -94.063494 9.030661 -43.541365
-60.767393 -104.736670 20.650437 -53.386375
-59.599323 -91.591523 18.270709 -45.357254
-50.915224 -74.726981 9.284956 -37.692662
-47.538688 -73.683546 7.185468 -36.366670
-51.673514 -76.430910 8.383655 -38.431327
-44.439122 -61.909663 3.070115 -31.904635
-46.898635 -93.121224 10.561837 -44.485500
-48.273380 -75.764948 20.174460 -38.251339
-49.353148 -67.095082 11.473263 -34.934469
-53.254166 -74.906086 11.451420 -38.448076
-44.799226 -80.129451 3.130740 -37.478603
-46.403937 -100.163817 5.388787 -46.013877
-42.598174 -82.233862 13.823571 -38.229180
-39.431181 -88.366767 -2.242628 -39.163888
-44.929469 -65.266706 1.338092 -33.058852
-38.405373 -68.833571 -0.502855 -32.171683
-49.455045 -96.620412 11.688454 -46.096004
-47.780250 -94.123800 8.601342 -44.195047
-44.081103 -61.944202 3.008391 -31.807591
-51.764023 -71.004014 8.345763 -36.830411
-44.035843 -67.009755 3.477649 -33.313679
-46.279855 -73.340276 1.313386 -35.886039
-69.062419 -126.801633 18.645791 -64.365213
-44.813274 -85.765526 14.660955 -41.242945
-42.226708 -83.553035 12.415924 -38.941344
-51.430629 -101.523966 7.737604 -48.789529
-56.031921 -94.649067 20.419039 -48.134449
-82.510280 -147.867239 20.396122 -77.647269
-42.830925 -84.464675 11.895339 -39.433054
-73.084535 -134.487146 16.003235 -68.686280
-58.875111 -72.643462 13.963753 -39.455572
-55.048027 -72.336925 13.285917 -38.215485
-63.125463 -112.385131 19.709091 -57.143026
-60.004643 -120.829158 10.740902 -58.952272
-52.000230 -64.252913 10.227095 -34.875943
-52.144178 -67.139745 11.264794 -35.785177
-49.339119 -58.616271 9.707884 -32.386617
-51.938432 -67.128401 11.261259 -35.720050
-46.228531 -49.327984 2.337948 -28.666954
-35.240102 -68.919410 12.057576 -31.247854
-55.602298 -64.579965 12.788573 -36.054679
-54.397918 -68.434700 11.470614 -36.849786
-50.666919 -63.748074 10.369200 -34.324498
-61.734339 -70.082045 15.847416 -39.544915
-79.448452 -82.619749 29.640872 -52.134394
-79.319941 -95.819513 29.928274 -56.610630
-71.726118 -100.917059 27.409914 -55.944323
-96.204076 -116.056360 34.300551 -70.299931
-79.409125 -72.917596 28.166609 -48.559436
-80.465933 -85.555775 28.668768 -52.113766
-72.222443 -66.929013 26.379540 -43.763641
-67.211485 -86.832434 26.854291 -50.095726
-65.110555 -100.909598 15.544857 -52.326414
-74.934060 -108.959225 27.935613 -60.296158
-53.129688 -67.740136 11.167562 -36.260947
-52.648532 -50.168761 21.430876 -30.845188
-95.441308 -139.045742 33.207071 -78.567772
-94.462893 -127.391296 34.218505 -73.958162
-67.438954 -84.386971 23.209739 -45.640581
-63.327334 -74.008071 16.438620 -41.200622
-101.150797 -139.893772 35.721137 -80.959437
-63.359135 -107.242973 21.707525 -55.644053
-55.912862 -73.050124 13.604041 -38.688896
-62.844546 -81.575291 19.345766 -43.325951
-46.045290 -86.573667 13.460997 -40.089574
-62.267367 -95.451957 23.889850 -51.042509
-107.385623 -154.725940 36.589396 -88.640070
-49.817145 -86.221070 18.702121 -46.793168
-76.943659 -105.745665 29.125857 -59.632181
-72.234049 -96.352823 28.032430 -54.414087
-75.530820 -99.082570 27.738586 -56.958286
-75.238478 -69.521704 27.038011 -45.449652
-89.211665 -101.650479 33.095054 -62.645493
-106.204000 -115.712801 37.707236 -74.085678
-77.257706 -90.793091 29.713128 -54.223701
-73.813751 -105.178701 27.815753 -58.257957
-77.761038 -99.612846 29.681356 -57.412700
-73.668114 -94.580326 28.676340 -54.325907
-74.987210 -106.048652 28.309581 -59.045917
-73.373977 -104.697601 27.786352 -57.972715
-75.242260 -96.193621 29.141667 -55.481324
-67.941562 -96.605720 26.132999 -52.826272
-122.713404 -147.994571 42.883638 -91.770568
-135.337126 -141.437823 45.414734 -94.034649
-94.318251 -110.773067 34.660765 -67.806279
-81.227789 -118.889839 29.297597 -65.910890
-100.651240 -113.234560 36.284380 -70.986967
-81.028164 -101.890290 14.896728 -54.980135
-50.036557 -77.357779 6.607661 -38.218301
-74.605891 -103.827020 28.274285 -58.090304
-67.543274 -97.842383 25.981823 -53.318484
-72.293906 -99.085011 27.918822 -55.485333
-96.655988 -70.946442 15.440880 -50.280729
-82.544241 -85.120732 24.655475 -50.299492
-68.987296 -97.086637 26.666528 -53.527550
-76.084345 -104.855055 28.815995 -58.964308
-78.631625 -100.795364 30.050842 -58.370110
-72.746079 -92.485404 28.261049 -53.035211
-84.301808 -83.737885 30.256285 -53.785766
-88.927820 -89.183747 27.955565 -54.965792
-144.731573 -169.651961 48.596122 -107.701754
-63.902710 -91.823481 23.961993 -50.742118
-77.565728 -95.672229 29.114526 -54.970235
-79.088155 -63.704607 25.900285 -45.091392
-25.515558 -43.411815 14.016175 -20.678212
-120.860450 -143.239245 41.801817 -89.290838
-70.647284 -79.913131 27.701327 -49.677365
-103.853595 -101.869374 35.723481 -68.234394
-98.561949 -120.647880 35.951369 -72.993269
-77.448254 -73.148055 28.008611 -47.902344
-65.757303 -52.858626 -0.805943 -35.584779
-76.352861 -42.925030 6.288026 -35.783367
-33.798379 -58.140855 10.488251 -27.581770
-78.054364 -83.094537 6.754604 -48.344670
-88.039141 -79.164215 11.855616 -52.098462
-130.226680 -120.228365 41.640837 -84.397115
-129.425914 -150.745040 43.738557 -94.977802
-88.336622 -116.667696 27.861717 -67.449626
-86.295618 -96.949618 25.539499 -57.742965
-86.260065 -104.170041 28.273159 -64.807989
-88.568385 -87.505280 26.719985 -53.654686
-67.793753 -79.205957 25.692613 -46.393925
-66.152344 -87.787804 19.761630 -51.136375
-91.456835 -114.321497 33.203067 -67.856179
-92.698892 -97.183402 30.068908 -59.599177
-80.333537 -97.960707 30.693825 -58.056135
-78.787537 -92.361918 29.137108 -54.089171
-77.162132 -91.940848 29.708763 -54.629107
-80.666956 -106.569573 29.702923 -61.612142
-65.882133 -87.423900 25.845411 -48.740932
-88.738150 -109.194687 29.124983 -62.714395
-91.451198 -101.765432 30.786829 -61.189841
-48.934035 -60.423172 9.612195 -32.807162
-49.685111 -42.180348 13.667950 -27.559638
-76.164431 -89.570469 27.010582 -51.339264
-99.397657 -92.644416 31.632397 -61.038089
-70.127771 -89.366650 18.986352 -49.271703
-75.512836 -100.805064 21.698976 -55.180605
-89.460221 -89.664746 28.039981 -55.254077
-77.770810 -92.868644 29.939863 -55.179611
-83.668722 -91.601097 31.081334 -56.013752
-85.190568 -85.997357 30.959837 -55.450260
-82.607300 -72.965340 28.237730 -49.137305
-80.083370 -78.780700 28.944245 -50.463032
-82.116516 -68.872011 27.359250 -48.088099
-90.358709 -77.927444 29.934429 -54.379909
-38.028106 -66.312692 4.063996 -31.302239
-79.721996 -93.016861 25.117875 -53.233405
-25.874652 -54.319549 -5.518652 -24.058260
-84.747979 -93.762894 18.211504 -53.682199
-49.384112 -61.790052 6.997159 -33.352249
-60.450615 -64.287819 8.063771 -37.421530
-64.399287 -70.309538 25.478708 -41.807759
-55.792989 -77.783542 23.269741 -41.731276
-44.285303 -59.717398 6.485857 -31.200810
-46.029268 -75.938803 2.632879 -36.594828
-78.651243 -77.925603 28.616728 -49.196532
-84.433135 -69.631343 27.624364 -49.191283
-62.684036 -77.519598 19.209897 -42.061090
-89.324249 -97.710149 32.887041 -61.239477
-91.043004 -86.855244 29.041163 -55.726219
-80.811478 -74.395953 18.904156 -46.562229
-75.117179 -68.373882 24.643790 -43.378784
-76.849576 -59.648687 24.574493 -42.641788
-90.113870 -88.589010 27.316671 -54.806167
-83.575749 -94.426708 26.276031 -54.865817
-80.933342 -90.587772 30.625707 -55.576309
-90.773522 -73.576506 28.744011 -52.964618
-84.531700 -108.747860 30.006115 -63.087028
-103.514017 -114.981384 35.422502 -72.347221
-118.098851 -144.043417 38.306260 -85.975956
-68.033843 -42.936274 -3.270897 -33.291035
-94.909854 -91.438340 32.412725 -60.740718
-39.384696 -69.427519 16.480765 -32.695293
-68.456438 -41.614419 -6.072108 -33.021257
-50.764289 -69.249786 12.665955 -36.210269
-105.800558 -112.243975 31.288002 -71.741352
-126.078533 -162.710868 41.082958 -97.196717
-71.162731 -75.793578 19.575379 -46.648302
-89.528839 -83.609613 26.974797 -53.611824
-105.749544 -123.501880 31.832644 -75.566469
-91.172807 -92.425066 25.852287 -56.554131
-95.810637 -91.160063 26.850809 -56.896413
-94.908457 -96.738358 26.784462 -58.918436
-88.431319 -81.080728 23.378014 -50.853614
-92.746498 -91.100664 23.026683 -55.154149
-66.416821 -75.496172 22.020796 -45.364350
-79.766508 -79.616001 22.542261 -50.298365
-78.338407 -77.526306 22.554635 -46.759414
-89.626566 -82.275079 21.814361 -51.570494
-130.179509 -103.726895 20.889414 -70.171921
-80.765010 -51.622541 7.088600 -39.716265
-67.093684 -37.427675 -6.964279 -31.356408
-114.299085 -120.595478 39.659047 -77.950934
-31.150926 -52.668263 1.210900 -25.145757
-68.586006 -55.110285 -2.706732 -37.161259
-71.051068 -46.598617 -9.734029 -35.294905
-123.406230 -119.901410 40.928491 -81.775869
-80.238227 -66.736080 26.764296 -47.457363
-110.447800 -111.535321 37.994315 -74.001932
-105.872786 -104.237344 32.316414 -68.593876
-90.432494 -83.626113 26.817864 -54.100048
-85.901744 -81.469004 23.635202 -50.261269
-88.649143 -82.680234 26.499215 -53.197524
-84.098139 -80.342370 23.471158 -49.332153
-85.645364 -77.954624 21.028828 -49.079996
-101.352476 -107.120433 31.367230 -67.738602
-93.336676 -91.886038 28.632789 -58.859024
-89.648710 -94.155442 26.839859 -57.893147
-89.524107 -86.716435 22.749920 -52.872163
-84.211274 -79.889489 22.393391 -49.230229
-92.052366 -85.279910 25.104482 -53.226951
-70.742726 -52.667127 22.500179 -37.832865
-74.742234 -74.975942 19.329640 -44.915453
-65.405558 -79.946423 18.173880 -43.605594
-57.533641 -60.753570 9.751985 -35.486164
-86.256644 -85.915847 27.235495 -53.106441
-73.760526 -70.864432 17.555096 -43.387488
-64.851994 -45.192193 20.142240 -33.028325
-68.561529 -62.735177 19.767105 -39.389012
-56.778521 -67.763222 13.779199 -37.362523
-59.838099 -81.854455 13.702563 -42.507766
-53.533371 -62.576607 5.156853 -34.832993
-55.787750 -75.115425 15.813667 -39.270953
-41.474885 -70.815848 3.214007 -33.687220
-59.298795 -71.228336 12.513006 -39.158139
-51.468495 -76.153844 6.904018 -38.287482
-48.485727 -66.065535 -3.261445 -34.365379
-42.265996 -63.711480 7.110974 -31.793243
-31.067640 -58.477816 7.643340 -26.863637
-39.489828 -58.622287 2.838684 -29.433634
-41.834997 -62.728331 6.263200 -31.368999
-40.060641 -55.133823 8.066399 -28.558339
-44.162370 -67.020810 5.972380 -33.354954
-87.800983 -95.892801 29.656918 -58.354986
-73.215171 -74.472095 19.864863 -44.306180
-50.766710 -64.804642 9.237152 -34.671406
-64.431891 -72.188603 18.642308 -40.986148
-80.765950 -68.283687 27.036441 -47.146648
-79.332321 -79.662910 23.573619 -47.698569
-75.899560 -61.491886 24.861599 -42.223368
-68.105901 -56.477433 21.503085 -37.375000
-60.992191 -66.579952 20.289585 -38.271643
-72.581714 -83.909618 25.452331 -47.760837
-42.116190 -81.307527 8.626372 -37.136926
-42.710432 -80.450724 6.408651 -36.988275
-45.699283 -53.295868 10.114306 -29.698545
-46.360782 -59.166592 7.438435 -31.658212
-49.251576 -51.359640 10.517945 -30.183365
-47.296400 -54.888533 9.892666 -30.655480
-48.910125 -31.427811 14.839051 -24.101381
-49.906818 -56.007847 11.462167 -31.774400
-45.230849 -72.656828 17.506848 -35.538331
-55.644183 -83.848429 16.066680 -42.563870
-52.814713 -89.415684 16.792208 -44.567336
-50.553346 -92.578804 12.414935 -45.049229
-57.846769 -49.482488 18.283690 -32.198777
-55.910261 -50.211218 14.018509 -31.836444
-50.996131 -89.802103 12.777275 -43.684146
-52.045297 -90.240366 7.966479 -44.457377
-48.465160 -54.968535 10.945398 -31.030108
-47.561492 -54.413326 11.453670 -30.592445
-49.169103 -47.545103 13.603084 -29.014262
-50.501922 -47.600471 15.055427 -29.430718
-41.027943 -51.298660 10.354838 -27.697981
-44.632579 -56.076309 8.163264 -30.212666
-50.603763 -58.717775 21.977657 -32.796461
-41.716119 -57.821195 18.936004 -29.861194
-58.274798 -54.826496 20.306180 -33.930388
-49.724043 -51.602055 15.096896 -30.397829
-48.478402 -31.309208 16.137720 -23.936283
-49.039945 -52.037293 20.107290 -30.323171
-60.898153 -91.010839 18.340928 -46.688585
-54.956017 -87.153696 15.648473 -43.791488
-51.591920 -80.122741 11.208729 -39.621496
-54.778175 -89.668063 14.896099 -44.957033
-55.896654 -91.053684 10.754138 -45.858918
-53.905160 -90.281474 10.015020 -45.125695
-47.498333 -86.072741 13.145610 -41.259122
-49.072559 -86.478228 6.005481 -41.729493
-50.892024 -90.409147 10.980241 -44.386965
-54.591741 -90.229593 0.356468 -45.376629
-43.845749 -45.313928 2.957942 -26.747903
-37.196341 -39.437369 1.717209 -22.990113
-40.182658 -48.236261 4.149611 -26.525675
-37.360653 -41.834864 5.097594 -23.758655
-46.637307 -82.762311 6.919822 -39.869709
-44.464946 -77.250011 3.368539 -36.571383
-38.057999 -45.130035 3.865014 -24.956410
-48.527593 -46.108466 14.212123 -28.390818
-50.065607 -90.461903 9.062422 -43.529476
-45.327362 -83.167786 5.046472 -38.548544
-45.355963 -80.246549 8.917788 -37.680754
-42.947022 -78.459034 8.289203 -36.629262
-40.025086 -44.783562 5.440273 -25.442594
-43.661157 -70.478996 -5.630830 -34.242046
-48.722248 -88.024626 6.855758 -41.545748
-47.132635 -85.043539 10.051809 -40.696285
-48.252530 -91.286534 5.418428 -42.497508
-43.668182 -77.459727 10.433592 -36.338373
-48.238548 -89.327812 8.209888 -41.527899
-45.311183 -81.851280 11.041707 -38.635186
-38.346405 -33.691895 0.485762 -21.611490
-56.043546 -104.191930 10.528886 -51.129569
-46.912832 -88.458106 8.682726 -40.911825
-38.637165 -39.608594 4.373186 -23.473728
-60.288961 -112.384480 14.100664 -55.829371
-43.423873 -79.306551 11.009986 -37.548665
-38.851269 -43.268611 2.780737 -24.635964
-60.481373 -113.562097 15.368043 -56.365803
-40.685799 -51.272321 4.720375 -27.587436
-38.601422 -47.741638 4.023110 -25.902918
-48.532505 -43.619815 6.343922 -27.645696
-40.375825 -49.019334 4.859176 -26.818548
-43.299450 -77.624013 11.627645 -36.419073
-46.805215 -86.286352 11.527712 -40.652224
-40.362243 -25.182459 3.507928 -19.663411
-43.854575 -80.223910 12.394587 -37.223545
-52.329564 -92.654504 7.939889 -44.096027
-55.251354 -103.211805 11.384221 -49.752931
-52.665848 -94.322164 5.007102 -44.330760
-39.151801 -54.321125 -1.285820 -28.041878
-49.597369 -89.910075 10.664277 -42.928862
-48.797939 -91.481888 12.927504 -43.653680
-41.418975 -38.536142 3.867505 -23.986535
-59.979818 -110.264180 12.138969 -54.328100
-45.037274 -47.270482 -0.761097 -27.692327
-41.158979 -49.255023 3.880696 -27.124201
-50.818650 -98.879275 7.093238 -47.279908
-38.971094 -73.557617 7.402599 -33.758613
-42.114844 -55.280565 4.913149 -29.218623
-40.858155 -47.365752 3.885569 -26.467172
-61.535073 -108.638723 16.358563 -55.148958
-54.134035 -94.249318 12.092267 -46.859441
-58.479500 -105.268663 10.988031 -52.712342
-46.027462 -81.703556 15.484274 -39.654495
-48.679124 -58.560738 9.201460 -32.171959
-46.152727 -57.445504 8.407783 -31.079469
-69.721622 -119.304819 21.243819 -61.417969
-71.955278 -111.800386 24.508564 -59.563646
-48.700145 -56.715382 10.368988 -31.624658
-51.407696 -54.267758 13.002582 -31.702636
-49.682865 -36.702176 10.926606 -25.915512
-48.608581 -48.293086 11.761849 -29.070500
-70.856685 -126.789850 20.030772 -64.879447
-55.603273 -98.427892 15.099491 -48.807127
-59.090541 -101.933081 17.790588 -51.411351
-63.923076 -119.817239 15.949028 -59.838243
-61.548593 -112.579355 16.878126 -56.333179
-37.561129 -68.013986 15.054794 -31.672534
-57.489639 -99.738347 16.693168 -50.285339
-47.308432 -89.543263 11.600178 -42.701059
-49.411085 -94.027567 13.997716 -45.470069
-56.370544 -100.484006 18.338553 -50.602800
-50.503659 -63.427971 10.213101 -34.179489
-52.024795 -61.420955 8.593017 -34.033725
-50.410874 -62.536352 10.902989 -33.884168
-49.517636 -58.718857 10.774183 -32.470948
-49.372380 -59.699480 10.010622 -32.721558
-52.200844 -60.465627 10.274140 -33.799941
-50.694386 -57.969045 9.619620 -32.599029
-49.507101 -42.581200 6.956054 -27.626490
-39.152361 -73.416062 12.584434 -33.770527
-71.194899 -133.834650 16.769376 -67.781982
-64.373695 -116.120501 17.701084 -58.796590
-58.381588 -112.798014 14.248379 -55.225423
-60.604578 -112.857055 16.080076 -56.515237
-64.888473 -115.043737 20.132340 -60.051381
-43.759296 -83.976104 12.474980 -39.761429
-45.094026 -88.899383 8.663892 -41.431996
-50.889430 -59.784686 14.006403 -33.202235
-55.418213 -108.425402 11.411701 -52.321715
-60.417699 -108.652571 16.356726 -54.330883
-59.017733 -113.080566 12.782078 -55.543921
-44.668550 -39.759952 9.510054 -25.328551
-46.462422 -59.835684 6.536331 -31.889432
-44.923543 -58.631627 2.202991 -31.066551
-45.159780 -58.510988 7.093291 -31.101230
-54.521883 -98.243508 9.249976 -47.496032
-57.708215 -97.666501 9.399293 -46.612415
-44.227507 -58.302944 3.990577 -30.759135
-53.803265 -69.351052 10.243055 -36.946295
-41.823575 -83.535247 -4.606521 -37.607647
-44.885972 -83.718553 13.593301 -38.924178
-64.403296 -115.787347 19.071612 -58.264868
-26.609418 -54.145434 -10.652299 -24.226455
-52.544905 -102.265571 11.895301 -49.340439
-47.461007 -89.879800 11.997375 -42.633421
-37.277465 -52.713178 17.627995 -26.997193
-54.895551 -104.216034 14.388349 -50.743334
-49.399918 -92.575486 12.633567 -44.362257
-52.201974 -95.596133 11.452597 -46.151937
-62.068723 -94.387779 12.225656 -46.936951
-42.689508 -81.409336 14.346249 -37.970935
-58.572622 -94.902181 10.787434 -46.802570
-29.898431 -49.317822 13.345379 -23.764876
-46.181071 -90.431706 1.709560 -41.826871
-59.148586 -96.937485 9.087176 -46.825821
-53.072827 -61.212703 -0.821592 -34.285659
-59.139773 -87.421495 12.013340 -43.968381
-55.717097 -103.835453 -8.577415 -51.480709
-33.121705 -64.755314 -5.300869 -29.363106
-31.899816 -76.122405 0.678713 -32.406667
-38.133713 -80.592639 -0.321825 -35.624010
-36.024696 -82.985237 -0.957952 -36.009015
-46.860370 -90.637833 1.051436 -44.479976
-40.098834 -90.308250 0.112833 -40.183489
-40.113909 -88.480465 6.490577 -39.919156
-37.980761 -81.292002 9.589081 -36.406727
-36.225455 -81.455286 6.482164 -35.935932
-38.290179 -83.454534 7.641532 -36.914318
-35.317759 -63.269105 3.771369 -29.576059
-39.226618 -81.249226 7.508872 -36.142753
-41.376672 -81.248712 9.022588 -36.787615
-33.865925 -75.185868 -0.235852 -32.715538
-33.553998 -71.805572 -2.784020 -31.607871
-34.273553 -79.297598 -0.982450 -34.101067
-36.305946 -83.984810 1.514345 -36.888621
-34.961438 -81.740046 0.243803 -35.577863
-42.444301 -90.751141 8.713354 -41.598624
-43.462912 -72.435116 6.758116 -34.769408
-30.398116 -67.613562 -3.176178 -29.403503
-33.814015 -66.418446 8.270492 -30.069738
-37.017317 -71.075117 5.829234 -32.427730
-34.040644 -63.900549 10.221603 -29.382358
-38.449424 -69.174558 6.845929 -32.287195
-42.056428 -60.251244 10.085642 -30.692301
-45.437437 -69.935958 -2.209375 -34.612018
-30.039248 -73.010614 -0.679815 -30.914959
-46.118676 -81.958892 7.695983 -38.423270
-43.036511 -74.133286 1.136226 -35.150939
-36.504281 -73.529759 8.076504 -33.010212
-34.670533 -69.197431 -3.592925 -31.160389
-33.263140 -71.755070 -1.231069 -31.505463
-25.970203 -65.331770 -2.355096 -27.390592
-43.285712 -68.191226 4.975767 -33.443081
-27.195942 -66.580340 -3.743912 -28.132885
-53.291938 -90.403618 4.265221 -43.108667
-50.741877 -98.558308 -5.070355 -47.528279
-40.500245 -64.054018 -12.377194 -31.366279
-37.061451 -38.481164 7.241801 -22.662784
-39.345577 -27.489316 -7.005359 -20.050468
-46.168829 -89.549587 5.237573 -41.194764
-49.473086 -80.539225 3.605619 -39.003693
-51.000882 -91.985143 12.318057 -44.052525
-38.296561 -78.211429 4.991482 -35.146827
-41.960327 -22.687566 -0.177717 -19.394368
-55.640953 -101.263858 11.189263 -48.859346
-47.015302 -85.393076 11.669206 -40.700530
-47.803943 -87.717379 12.500874 -41.989400
-45.113745 -84.166908 11.359754 -39.359386
-46.055218 -89.158991 10.686939 -41.612986
-60.988742 -103.356520 21.237644 -52.967871
-55.147727 -39.898123 8.921843 -28.513755
-49.865099 -91.464115 13.648971 -43.833821
-49.203318 -44.709860 2.690193 -28.173953
-48.869241 -88.613860 16.130427 -42.466429
-57.879631 -95.800096 21.167144 -48.265476
-34.814701 -44.392755 6.919726 -23.762237
-46.482884 -49.775435 11.450380 -28.877496
-33.242801 -43.873730 13.599280 -23.134960
-44.588801 -78.918622 6.496839 -37.052227
-34.864696 -70.921221 -0.982931 -31.735775
-45.252899 -92.701092 3.649951 -42.325665
-42.402464 -82.738943 7.570930 -37.542422
-21.676789 -55.259188 0.939887 -23.080793
-48.191081 -87.012201 14.967890 -41.837674
-43.031397 -82.103823 9.643968 -37.605898
-31.301272 -39.191072 2.041855 -21.147703
-34.517794 -30.526199 -3.190404 -19.513198
-46.952431 -83.408031 14.200688 -40.097893
-44.787957 -81.440762 10.347381 -38.122190
-49.551049 -86.639236 17.070343 -42.142444
-48.575184 -85.991646 14.641765 -41.539702
-41.695908 -80.697980 12.560656 -37.219190
-36.768656 -71.500551 11.793598 -32.480762
-51.367245 -94.022353 16.507243 -45.534688
-28.189234 -33.350895 -6.433331 -18.462039
-26.052938 -50.314059 8.798191 -22.910099
-25.587565 -64.990156 -1.088464 -27.173316
-28.249450 -67.045517 -3.290190 -28.588490
-28.877050 -64.560191 -4.023093 -28.031172
-27.793780 -39.913094 -0.759551 -20.312062
-40.189583 -46.081698 -1.149872 -25.881384
-30.817310 -45.934720 7.803718 -23.025609
-29.422046 -44.526968 3.903084 -22.184704
-32.804554 -53.237449 8.428596 -25.812601
-35.717073 -59.687965 11.036140 -28.621511
-30.294464 -71.478705 -0.386479 -30.531951
-44.244606 -78.443950 0.514527 -36.806567
-43.040453 -68.863624 6.583649 -33.571223
-44.667445 -76.367553 7.336610 -36.310499
-27.030007 -54.201060 -11.423548 -24.369320
-28.463470 -57.284695 -10.028411 -25.724450
-24.988652 -47.381089 -12.306456 -21.710922
-29.467832 -56.161629 -12.773193 -25.688838
-41.235082 -65.692629 6.324035 -32.078313
-43.630555 -72.483758 6.822378 -34.834294
-40.174051 -70.730846 5.248016 -33.271469
-42.131134 -67.452120 1.264997 -32.874976
-45.224154 -79.666089 6.150624 -37.467073
-42.206581 -73.883662 1.344818 -34.827073
-39.732928 -72.391394 3.130417 -33.637297
-42.936522 -74.251132 1.733142 -35.156296
-31.590971 -62.411352 11.501811 -28.200697
-47.118923 -65.811196 7.617753 -33.879036
-42.851425 -71.196036 7.156334 -34.214238
-44.411462 -76.499667 6.726655 -36.273339
-45.037919 -79.453286 2.993022 -37.347362
-30.576301 -67.378067 9.236068 -29.386310
-28.368269 -65.107838 -7.744964 -28.042832
-33.821128 -68.060435 -7.825098 -30.564469
-27.662200 -68.702452 -1.386995 -28.909396
-43.543297 -69.275683 5.095718 -33.845694
-35.313393 -68.649612 -12.561496 -31.188902
-34.108939 -65.853623 -8.002083 -29.988769
-27.559678 -66.274875 -4.420524 -28.150366
-36.122780 -70.789508 -11.531522 -32.073686
-42.014613 -80.301650 6.833636 -36.728560
-41.744660 -80.367914 2.626727 -36.633772
-43.897628 -81.257821 1.047205 -37.546635
-33.622598 -73.661882 9.034396 -32.185344
-28.783765 -61.391499 9.603553 -27.052579
-38.537606 -67.956249 7.723518 -31.948157
-35.737483 -39.056863 17.500124 -22.438304
-34.453375 -79.545691 4.621307 -34.616936
-37.600223 -74.888090 10.302153 -33.763487
-32.325652 -57.345465 15.009041 -26.901335
-51.425370 -96.565484 3.714748 -44.785181
-45.709289 -89.444788 6.585199 -41.487736
-41.601477 -84.064048 -2.845012 -38.039652
-59.259853 -113.496465 -8.399031 -57.381723
-40.056834 -82.167308 -2.903565 -36.864265
-48.122491 -91.807979 2.412134 -42.413802
-41.561335 -80.434845 -1.904960 -36.598854
-36.764600 -76.161994 -4.166188 -33.877978
-48.076970 -84.231766 2.154503 -39.692621
-42.850199 -74.304521 6.867714 -35.146416
-40.023623 -79.862517 -2.533622 -35.965842
-48.269714 -86.303628 -0.411990 -40.372003
-41.341897 -52.773019 19.435232 -28.234475
-48.434890 -90.402027 13.671500 -43.558594
-45.353965 -88.937596 8.715092 -40.825713
-46.421174 -79.502489 8.458990 -37.777099
-42.049899 -56.407488 19.586013 -29.537216
-36.570662 -40.131661 17.752907 -23.010697
-43.652112 -76.154576 0.363070 -35.942006
-43.869509 -75.964766 0.250449 -35.950283
-42.233027 -81.465854 -2.295742 -37.109664
-36.569560 -71.799943 -5.669543 -32.510851
-35.419534 -68.911279 -3.467823 -31.299244
-37.382829 -74.609462 -3.130249 -33.597687
-38.387219 -77.046797 -2.721134 -34.630205
-37.606921 -75.697767 -4.297743 -33.991406
-37.161573 -73.111750 -3.703299 -33.081997
-39.488075 -80.175089 -2.991921 -35.898949
-36.851081 -74.878940 -5.542283 -33.519006
-43.755483 -79.197728 -3.498624 -36.885963
-45.662733 -95.627532 -0.561832 -44.061316
-33.750367 -55.801911 15.680216 -26.865683
-28.248946 -68.873405 0.519351 -29.136705
-28.126926 -66.278328 -3.504516 -28.321576
-21.934901 -26.318865 -7.995317 -14.476130
-24.301287 -57.592562 -3.792754 -24.568155
-23.702545 -60.358613 1.404811 -25.218347
-54.575411 -112.997476 4.706571 -53.852079
-24.304109 -61.728014 -1.904547 -25.809637
-30.220935 -55.276533 -4.596570 -25.649240
-29.625504 -47.517355 -0.592111 -23.142858
-23.173696 -57.641543 -5.461721 -24.244572
-34.249394 -55.492779 -1.733827 -26.922652
-29.995283 -51.899548 -4.748741 -24.568449
-31.460731 -50.478309 -0.806277 -24.581712
-28.549441 -54.655728 -8.360756 -24.961551
-27.488220 -46.140273 -13.767983 -22.088548
-31.936154 -52.335753 -2.746528 -25.281572
-27.645398 -68.563283 0.274084 -28.862605
-31.770304 -66.060649 -7.165512 -29.349286
-28.591906 -69.814904 -2.627936 -29.522043
-25.890175 -51.912644 -11.948481 -23.340846
-33.773469 -54.849654 16.328785 -26.586937
-25.375232 -21.298929 2.881476 -14.002248
-41.468166 -86.172696 4.631125 -38.991005
-29.420410 -70.814845 -2.412006 -30.070576
-39.260878 -82.865546 3.697275 -36.776402
-34.022922 -75.293333 -4.010375 -32.794876
-31.959489 -56.431131 -5.438229 -26.517186
-33.639535 -54.774972 -2.818978 -26.524352
-32.212000 -52.243918 -1.113045 -25.336776
-31.893956 -54.703272 -5.557720 -25.979168
-32.785529 -54.188312 -3.077513 -26.092152
-36.851677 -58.073660 -4.721423 -28.477601
-32.560981 -53.068762 -0.995192 -25.688923
-32.259988 -54.033666 -3.438758 -25.888096
-31.816713 -53.795049 -5.990769 -25.683529
-32.355724 -68.630130 -9.890822 -30.295756
-34.553599 -55.071821 -1.494934 -26.887626
-33.633600 -57.213222 -4.419882 -27.254047
-25.550919 -37.620289 -7.687477 -18.951362
-42.774575 -89.086785 3.682389 -40.598294
-35.260015 -64.534227 -11.372954 -29.938272
-43.410364 -91.514530 3.952919 -41.940308
-62.843020 -104.981068 19.776418 -53.800298
-32.467381 -59.073376 14.754863 -27.462227
-31.809540 -73.765888 -4.827432 -31.672629
-45.277009 -96.583851 0.988204 -44.628101
-40.689667 -84.502953 -2.640775 -37.725413
-44.182990 -85.358184 -0.555737 -38.862352
-39.785357 -80.011751 -5.218420 -36.278054
-42.810843 -89.364671 -0.432069 -40.347139
-46.097358 -97.634683 3.637959 -45.267129
-47.844417 -91.433650 1.814327 -41.783420
-47.431574 -89.519854 1.339730 -41.085428
-46.082906 -86.532424 -0.048976 -39.784599
-47.603046 -93.561821 5.251331 -43.552847
-67.197089 -127.638239 16.064984 -64.096702
-49.904891 -90.088411 1.320259 -41.997990
-49.337644 -90.060866 1.037104 -41.819553
-48.054182 -94.287381 -0.760632 -43.270167
-45.564424 -94.068559 -1.449768 -43.415173
-49.787848 -95.498884 2.031888 -44.219783
-49.289261 -107.024305 -0.163489 -49.408848
-39.372036 -79.075266 -3.955315 -36.006409
-48.768565 -93.827091 -6.018051 -44.239246
-44.377833 -90.377797 -3.011630 -42.192142
-49.938316 -102.679668 5.498935 -48.210069
-53.489731 -106.458870 -4.370620 -51.541406
-42.320627 -85.465083 -7.883605 -39.043571
-45.137780 -96.644524 0.320579 -45.401314
-54.270290 -101.928095 7.959531 -48.921426
-51.502429 -99.103225 1.671711 -45.499545
-47.771408 -91.337713 0.421666 -41.732736
-62.273567 -116.162103 17.171216 -57.886468
-31.753128 -35.414517 -5.518836 -20.150294
-32.597267 -76.772043 3.564853 -33.119308
-56.166961 -108.478890 5.121877 -50.762542
-45.472741 -97.347617 3.653073 -44.060215
-49.833077 -93.762369 3.300737 -43.078634
-50.125823 -94.339650 2.904084 -43.339642
-48.498206 -99.354891 0.291182 -46.462318
-48.571992 -100.290088 -0.612628 -47.061831
-32.339043 -71.012035 9.450891 -31.005324
-47.591182 -83.164799 15.463639 -40.170308
-43.808693 -73.880434 -0.916863 -35.306738
-47.448235 -93.308079 7.994033 -43.270011
-38.548961 -87.968836 -1.440392 -39.160635
-43.422743 -86.410772 -6.282396 -40.691146
-31.308993 -62.460957 8.804092 -28.130985
-37.371331 -80.222426 1.712248 -35.367877
-48.124699 -75.396864 16.372160 -37.056469
-46.003301 -93.493444 1.354588 -42.978166
-59.052545 -116.671681 7.576990 -56.831419
-34.591390 -57.415211 -5.844296 -27.601980
-33.458681 -56.843077 -5.485304 -27.090527
-34.322838 -77.452589 -0.200271 -33.532628
-65.630847 -122.480339 -16.181322 -61.544618
-37.347511 -59.862140 -6.796655 -29.162895
-42.618757 -93.200439 -1.559423 -42.432720
-36.054799 -56.495868 -2.239489 -27.765200
-37.254532 -59.850552 -4.672003 -29.131525
-63.660410 -115.857735 16.377181 -56.977462
-38.250154 -67.802279 1.527222 -31.815730
-28.890495 -47.148840 11.686219 -22.811801
-59.185132 -120.138289 6.181203 -58.191710
-42.124126 -84.877659 6.355780 -38.108416
-51.441371 -102.484317 -7.542853 -49.294690
-36.836707 -81.637979 5.936622 -35.542406
-45.359065 -93.262280 7.951706 -42.276452
-56.828647 -112.694985 1.315788 -55.607704
-46.286962 -95.169047 11.040629 -44.600063
-44.327078 -81.380779 3.447882 -37.712357
-36.911236 -72.711752 8.521285 -32.886896
-42.490501 -80.501419 -2.153445 -36.897576
-24.556807 -51.733591 -11.462422 -22.887119
-38.031823 -83.281674 -5.180949 -37.316384
-35.914243 -76.616011 8.985613 -34.093074
-45.458465 -100.269941 0.718919 -46.171974
-42.245696 -94.611146 0.429751 -42.933695
-39.479491 -52.814342 -4.247696 -27.688150
-37.444635 -70.538640 -3.377729 -32.394982
-45.914269 -85.726500 2.755851 -39.492231
-42.183934 -79.749249 8.606895 -36.579955
-42.891735 -82.084312 1.291019 -37.492814
-40.369967 -69.705238 -8.339590 -33.022561
-50.351063 -98.916818 11.832901 -46.224469
-49.150366 -91.625156 7.437466 -42.232656
-44.603909 -79.216716 2.836860 -37.146187
-44.121847 -78.605838 6.564536 -36.818306
-41.363590 -83.801706 10.096700 -37.661980
-39.368388 -83.800097 9.789420 -37.922687
-46.042766 -96.214770 -3.521364 -43.289535
-46.737779 -102.554372 -0.237484 -46.737779
-35.280580 -81.633547 -3.364458 -35.655965
-59.879074 -119.384167 11.562983 -58.478973
-46.023605 -90.079922 -0.460683 -40.831058
-49.271981 -106.813006 2.164086 -49.952542
-53.904599 -114.995761 2.254292 -53.904599
-49.761848 -106.394728 3.623055 -49.039563
-49.446789 -107.259993 1.344531 -50.179659
-49.437029 -106.771127 3.408339 -49.997467
-43.390624 -94.778915 5.921350 -43.413342
-55.398845 -117.418558 3.177833 -56.059464
-46.775912 -85.719300 4.934966 -39.748563
-44.391109 -88.338210 3.323901 -39.818796
-52.240053 -112.129742 -1.721667 -52.963761
-33.499151 -63.468765 -13.898289 -29.090375
-43.008475 -89.548049 8.805004 -40.289253
-43.030343 -90.435629 5.271901 -40.208033
-48.234347 -87.683554 0.000006 -40.775370
-49.794615 -100.189839 -10.961902 -46.701173
-38.848242 -72.352558 6.049767 -33.360240
-43.650759 -82.995320 6.246503 -37.993824
-43.024553 -95.956261 0.848205 -43.811570
-48.373390 -105.387725 1.115746 -49.105042
-49.178287 -105.714541 4.875813 -48.923373
-42.568313 -94.803132 -2.696911 -43.029048
-47.699472 -104.015581 -2.221605 -48.357819
-48.984869 -106.518983 -0.493827 -49.740269
-50.301714 -101.000443 4.994838 -46.908576
-45.421098 -91.622411 0.874297 -41.113052
-51.908084 -106.461263 0.608501 -50.346881
-51.441932 -104.357631 4.391002 -49.537582
-39.455492 -76.258183 7.751269 -34.714102
-40.179602 -79.668421 6.806893 -35.954407
-37.557615 -61.523251 2.087045 -29.724260
-45.111983 -79.188757 2.913014 -37.290222
-47.332458 -102.573267 4.564935 -48.603398
-64.501121 -133.849158 1.630718 -66.599360
-38.614544 -78.470346 -1.398651 -35.125467
-42.161327 -93.483696 3.113520 -41.965776
-41.190366 -87.003325 -1.427372 -38.566809
-35.542613 -82.626042 0.494393 -36.073409
-41.196165 -85.850187 -0.150868 -38.130347
-36.799795 -84.339237 3.327878 -37.194762
-41.193674 -91.741049 4.188471 -41.452292
-42.210267 -86.629582 7.252522 -38.651955
-44.822079 -74.387859 4.583136 -35.762981
-39.674933 -70.709086 1.756588 -33.115206
-41.991153 -81.267464 -0.716371 -36.977585
-39.373722 -79.828400 -0.670143 -35.760637
-44.033190 -68.552437 0.885314 -33.775688
-40.072792 -76.756467 -0.288328 -35.048778
-39.894602 -74.861343 -1.272096 -34.426784
-37.567205 -76.310694 -0.996514 -34.163370
-32.654399 -40.328690 -9.355299 -21.894927
-46.488368 -70.496288 3.248195 -35.095397
-56.352088 -108.431627 3.181898 -52.903267
-54.058802 -106.894779 11.420221 -51.458089
-53.469527 -105.429009 12.590567 -50.849322
-50.434664 -96.274748 12.403510 -46.342087
-52.437243 -99.380506 13.192712 -47.978269
-42.337542 -88.564113 6.312506 -40.421773
-49.819534 -100.268888 12.198458 -47.825589
-49.131162 -98.518218 11.378996 -46.255048
-50.848094 -101.185123 11.269159 -48.307091
-50.943456 -105.762582 9.289010 -50.176097
-52.423087 -96.415983 7.349377 -45.152131
-48.219328 -71.470883 -3.437808 -35.907063
-39.780901 -79.647977 9.508947 -36.742970
-64.756514 -113.663423 7.819171 -55.449140
-48.750124 -87.308918 10.066983 -40.817712
-33.908239 -52.597095 13.542969 -25.951600
-29.440241 -52.359226 -12.935886 -24.539840
-40.966617 -58.754834 1.502920 -29.916435
-66.401250 -128.651744 10.705495 -64.496813
-44.805113 -92.629703 4.991003 -43.216608
-46.181515 -98.742374 7.423781 -45.874191
-52.912487 -107.162167 11.362317 -51.405272
-49.144835 -70.225059 6.284706 -35.810968
-47.592956 -82.908157 11.950004 -39.150334
-48.170808 -95.043445 13.559034 -44.946253
-59.304475 -117.267203 6.062827 -57.595397
-60.777383 -113.654321 16.942285 -56.643828
-55.639355 -93.561820 16.861564 -45.274464
-50.963172 -80.256974 11.493374 -39.366044
-51.106026 -78.106732 12.996265 -38.763827
-45.358790 -86.721546 3.195541 -39.624101
-43.828558 -83.701244 -4.461321 -38.258941
-46.363476 -101.529963 2.710682 -46.962388
-39.319555 -89.441488 -0.369550 -39.978801
-52.466548 -91.673195 7.841931 -43.241923
-47.211477 -86.684239 2.411668 -40.168715
-43.474407 -90.638708 -0.604741 -40.402001
-42.249134 -82.568959 -0.100639 -37.445428
-41.233052 -84.310644 -0.946129 -37.682074
-43.434570 -85.362979 1.852854 -38.639265
-40.883215 -89.968227 -0.089254 -39.766753
-40.505833 -91.169211 2.619177 -40.505833
-39.583062 -84.617371 -0.108995 -37.298817
-41.517983 -92.932968 0.415604 -41.563848
-40.907828 -91.631563 -0.011819 -40.970931
-38.307218 -86.489101 -0.197252 -38.000615
-40.861029 -91.757658 2.642462 -41.377923
-40.346743 -89.479228 -0.857196 -39.550589
-39.741382 -88.129352 6.049416 -39.655080
-39.365783 -88.935132 3.175421 -39.803398
-41.311067 -90.771624 6.314351 -41.191669
-41.854790 -92.190273 5.657433 -41.907945
-40.598792 -91.285286 0.405011 -40.758297
-42.355950 -92.553699 -0.507385 -41.178060
-39.568948 -89.128401 3.448381 -39.921366
-44.348793 -97.233476 4.605703 -44.348793
-43.353656 -96.425920 0.388116 -43.497112
-41.633663 -93.256887 2.213069 -42.207357
-42.328293 -93.673320 3.236317 -42.128053
-42.879373 -95.550524 1.754362 -43.499212
-57.772985 -119.716629 7.312435 -57.761550
-47.510233 -103.912814 -0.280676 -48.105501
-42.184791 -94.305027 0.537266 -42.395702
-43.300812 -92.236711 8.805886 -42.451268
-39.948226 -89.004713 5.281620 -39.948226
-44.671966 -88.015843 0.467418 -39.806343
-41.879664 -91.979112 0.428237 -40.824046
-42.257781 -88.664181 0.819964 -39.280795
-49.782300 -103.027239 9.888784 -48.754837
-52.929675 -109.273789 9.414219 -52.182953
-39.186446 -69.051977 16.449255 -32.484076
-50.412244 -107.972730 4.763421 -50.790981
-47.788325 -101.010323 8.191735 -47.291320
-47.849606 -103.623086 3.738661 -47.944186
-50.731122 -104.372762 10.271085 -49.590464
-50.312133 -104.970180 8.909213 -49.655583
-52.576780 -111.275020 5.866830 -52.576780
-47.688925 -102.335085 6.178355 -47.738783
-54.490639 -99.773447 14.979883 -47.710475
-45.610391 -96.450390 2.410943 -43.467601
-41.408844 -87.373164 10.013152 -39.983923
-45.768543 -86.686530 10.120356 -39.736522
-43.438481 -96.314517 2.813788 -43.438481
-53.821984 -97.579996 8.216694 -45.420594
-50.976426 -99.761881 2.580616 -45.233715
-43.819263 -97.042701 2.619248 -43.819263
-48.733763 -103.261572 0.038106 -47.213011
-48.474136 -105.430258 2.013020 -48.474136
-56.235909 -115.739212 8.908044 -55.751034
-53.003970 -109.148955 9.684388 -52.164763
-51.959100 -100.420396 14.701992 -48.595987
-58.450245 -117.350649 11.423772 -57.146052
-52.807983 -109.465960 8.959357 -52.209464
-40.388952 -89.422786 5.869604 -40.361707
-43.175379 -93.895986 6.649131 -43.010682
-59.161738 -111.288727 16.442907 -54.363682
-52.493910 -98.900113 9.034572 -45.628206
-47.864066 -95.372485 3.841452 -42.970965
-56.021924 -112.458775 11.766496 -54.474530
-45.633852 -96.009497 1.040233 -43.057448
-44.672625 -98.854075 1.011125 -44.672625
-43.729933 -96.536611 3.675278 -43.729933
-42.205825 -94.490124 1.029772 -42.205825
-44.454619 -96.754072 0.047681 -43.471929
-43.760213 -97.280723 0.492603 -43.760213
-49.699346 -100.074445 1.686314 -45.365450
-47.075859 -102.816300 -2.595262 -47.075859
-51.784706 -109.642961 4.172657 -50.915835
-46.850686 -99.214881 8.289120 -46.295140
-51.551479 -110.704557 2.788567 -52.204779
-52.585500 -111.299966 -0.320560 -51.685399
-42.471695 -94.569271 2.908375 -42.471695
-51.496837 -110.950238 -0.037392 -52.230075
-49.512918 -107.106373 -2.691095 -49.512918
-47.668006 -83.820795 -1.598189 -39.446640
-48.454713 -104.269617 -2.647376 -47.778648
-53.931510 -115.271855 -0.052021 -53.931510
-42.503539 -93.987441 4.510871 -42.801383
-42.257625 -93.918546 3.674130 -42.686492
-45.825306 -81.371005 3.315663 -38.158893
-54.768897 -100.685349 -5.763217 -46.705886
-51.112876 -109.763744 3.352057 -51.701340
-54.370808 -115.950817 1.481882 -54.370808
-56.260652 -117.790203 1.591570 -55.379369
-53.363228 -114.002159 -1.874532 -53.353705
-46.905311 -102.305710 -3.163521 -47.407373
-54.459728 -116.060939 1.800659 -54.459728
-50.612868 -109.392407 0.553935 -51.383791
-53.135400 -113.633078 2.262307 -53.851859
-54.380871 -116.045501 0.566916 -54.516533
-56.890555 -120.308104 2.117455 -56.890555
-45.720285 -98.535609 6.564267 -45.635183
-51.025506 -107.773939 7.013577 -50.943287
-45.588187 -90.753956 7.511448 -40.902643
-49.194067 -104.315392 7.237720 -49.011927
-47.244344 -93.640565 -0.961338 -42.265473
-48.303917 -105.201925 1.607603 -49.010871
-43.776864 -91.800435 -1.327126 -40.883322
-57.352911 -120.493112 4.368859 -57.893609
-59.714216 -120.570377 -6.848355 -63.178154
-79.990850 -89.185266 -27.137706 -52.136471
-35.361063 -59.053781 -10.487448 -28.324453
-51.411509 -83.171611 10.814037 -40.374936
-47.748466 -94.925499 12.531071 -44.186209
-44.507421 -94.504149 8.747136 -43.720379
-20.619602 -42.214694 -11.744298 -18.850289
-39.708885 -39.845391 -9.802213 -23.866283
-45.592872 -92.552719 11.990604 -43.404501
-51.630412 -111.173357 0.834149 -51.630412
-44.248596 -86.515521 1.332869 -39.229235
-49.059157 -89.726412 2.723667 -41.635671
-43.810045 -96.792015 -1.572906 -43.713224
-46.917260 -100.967469 -0.450323 -45.848628
-42.924267 -93.404997 6.691214 -42.741913
-48.771850 -102.151726 8.905028 -48.068272
-43.090782 -96.077169 0.802917 -43.090782
-40.652953 -91.083656 3.628665 -40.652953
-47.960791 -104.430256 -1.575356 -48.049344
-54.454090 -112.694761 8.679332 -53.990489
-39.518856 -89.444872 2.532341 -40.053206
-46.546882 -99.738885 6.969731 -46.370596
-49.986497 -102.584343 7.175983 -47.296444
-106.489078 -89.921451 -3.115653 -58.923159
-157.780191 -277.670639 -31.238084 -160.534035
SCALARS strain float 4
LOOKUP_TABLE table3
-0.000077 -0.000747 0.000242 0.000000
0.000263 -0.000575 0.000458 0.000000
-0.000217 -0.001498 0.000303 0.000000
0.000051 -0.001605 0.000875 0.000000
0.000219 -0.002524 -0.000281 0.000000
0.000148 -0.000319 -0.000001 0.000000
-0.000573 -0.000672 0.000318 0.000000
0.000535 -0.000748 0.001318 0.000000
0.000032 -0.000139 0.000041 0.000000
0.000271 -0.000402 0.000421 0.000000
-0.000483 -0.000434 0.000613 0.000000
0.000145 -0.000192 0.000026 0.000000
0.000003 -0.000069 0.000115 0.000000
-0.000034 -0.000065 0.000403 0.000000
0.000143 -0.000330 0.000114 0.000000
-0.000023 -0.000004 0.000006 0.000000
-0.000005 -0.000052 -0.000004 0.000000
-0.000010 -0.000039 -0.000017 0.000000
-0.000369 0.000009 0.000007 0.000000
0.000341 -0.000573 -0.000330 0.000000
0.000004 -0.002397 -0.000041 0.000000
0.000000 -0.002619 0.000008 0.000000
0.000171 -0.000386 0.000118 0.000000
0.000250 -0.002171 0.001215 0.000000
0.000100 -0.000326 -0.000077 0.000000
0.000281 -0.000362 0.000031 0.000000
0.000218 -0.000363 0.000247 0.000000
-0.000043 -0.000231 0.000035 0.000000
-0.000013 -0.000410 0.000127 0.000000
0.000339 -0.000532 0.000245 0.000000
0.000536 -0.001216 0.000702 0.000000
0.000804 -0.001247 -0.000464 0.000000
0.000010 -0.000288 -0.000181 0.000000
0.000947 -0.003108 -0.000938 0.000000
0.000121 -0.000307 -0.000055 0.000000
-0.000141 -0.000980 -0.001376 0.000000
0.000170 -0.000325 0.000005 0.000000
0.000012 -0.000648 -0.000199 0.000000
0.000176 -0.000248 -0.000062 0.000000
0.000058 -0.000173 -0.000040 0.000000
-0.000122 -0.000063 -0.000106 0.000000
-0.000046 -0.000462 0.000174 0.000000
0.000224 -0.000271 0.000054 0.000000
0.000205 -0.000298 -0.000001 0.000000
0.000412 -0.000507 -0.000122 0.000000
-0.000373 -0.000764 0.000598 0.000000
0.000056 -0.000235 0.000075 0.000000
0.000195 -0.000682 0.000039 0.000000
0.000100 -0.000206 0.000131 0.000000
0.000483 -0.000649 0.000140 0.000000
0.000132 -0.000167 0.000066 0.000000
0.000387 -0.000492 0.000188 0.000000
0.000309 -0.000529 0.000284 0.000000
0.000654 -0.000777 0.000197 0.000000
0.000742 -0.000958 -0.000282 0.000000
0.000303 -0.000335 -0.000189 0.000000
0.000176 -0.000258 0.000097 0.000000
-0.000128 -0.000148 -0.000079 0.000000
-0.000005 -0.000036 -0.000007 0.000000
0.000194 -0.000273 -0.000034 0.000000
0.000083 -0.000137 0.000186 0.000000
0.000572 -0.002062 0.001943 0.000000
0.000563 -0.000624 -0.000210 0.000000
0.000356 -0.000501 0.000002 0.000000
-0.000037 -0.000092 0.000042 0.000000
0.000434 -0.002189 0.001105 0.000000
-0.000005 -0.000148 0.000228 0.000000
-0.000038 -0.000017 0.000084 0.000000
-0.000209 0.000012 0.000036 0.000000
0.000510 -0.000696 0.000200 0.000000
0.000269 -0.002505 0.000925 0.000000
-0.000188 -0.000157 0.000894 0.000000
-0.000019 -0.000021 0.000539 0.000000
-0.000321 -0.000113 0.000313 0.000000
-0.000031 -0.000086 0.000319 0.000000
0.000232 -0.002019 0.001919 0.000000
-0.000195 -0.000050 0.000060 0.000000
-0.000119 -0.000122 -0.000040 0.000000
-0.000009 -0.000044 0.000007 0.000000
-0.000004 -0.000026 -0.000009 0.000000
-0.000072 -0.000233 0.000072 0.000000
0.000657 -0.000998 -0.000312 0.000000
-0.000387 -0.001079 -0.000919 0.000000
-0.000141 -0.002347 -0.000277 0.000000
-0.000462 -0.001361 0.000232 0.000000
-0.000493 -0.001300 -0.000383 0.000000
0.000423 -0.000748 -0.000084 0.000000
0.000663 -0.000908 -0.000512 0.000000
-0.000015 -0.000231 -0.000048 0.000000
-0.000343 -0.001338 0.000343 0.000000
0.000242 -0.000487 0.000032 0.000000
-0.000511 -0.001805 -0.000541 0.000000
-0.000195 -0.002305 0.001133 0.000000
0.000521 -0.000750 -0.000386 0.000000
0.000518 -0.002781 -0.000592 0.000000
-0.000219 -0.002031 0.000154 0.000000
-0.000053 -0.002210 -0.000300 0.000000
0.000309 -0.000540 0.000052 0.000000
-0.000454 -0.001506 0.000909 0.000000
0.000138 -0.001567 0.000616 0.000000
0.000000 -0.002057 0.000623 0.000000
0.000185 -0.002291 0.000518 0.000000
-0.000013 -0.002234 0.001068 0.000000
0.000744 -0.002515 0.000781 0.000000
0.000293 -0.000490 0.000195 0.000000
-0.000294 -0.001722 0.000552 0.000000
0.000384 -0.000626 0.000059 0.000000
-0.000787 -0.001541 0.001181 0.000000
-0.000468 -0.001341 0.000006 0.000000
0.000058 -0.000303 -0.000039 0.000000
-0.000375 -0.001570 0.000407 0.000000
-0.000055 -0.002502 -0.000602 0.000000
-0.000694 -0.000772 0.000376 0.000000
0.000270 -0.000559 -0.000050 0.000000
0.000098 -0.000301 0.000004 0.000000
-0.000283 -0.001835 0.000799 0.000000
0.000353 -0.000540 0.000254 0.000000
0.000344 -0.000558 0.000171 0.000000
0.000319 -0.000602 0.000673 0.000000
0.000133 -0.000337 -0.000031 0.000000
0.000470 -0.000678 0.000472 0.000000
-0.000040 -0.000102 0.000079 0.000000
-0.000120 -0.001132 0.001701 0.000000
0.000423 -0.000559 0.000091 0.000000
-0.000177 -0.000885 0.000715 0.000000
0.000203 -0.000420 0.000007 0.000000
0.000226 -0.000384 0.000215 0.000000
-0.000311 -0.000603 0.001007 0.000000
0.000163 -0.000349 0.000083 0.000000
0.000194 -0.000272 0.000021 0.000000
0.000121 -0.000298 -0.000049 0.000000
0.000246 -0.000408 -0.000040 0.000000
-0.000030 -0.001945 -0.000104 0.000000
0.000113 -0.000348 -0.000023 0.000000
0.000436 -0.000723 0.000136 0.000000
0.000115 -0.001596 0.000621 0.000000
0.000800 -0.002817 -0.000642 0.000000
0.000168 -0.000357 0.000120 0.000000
-0.000383 -0.001328 0.000024 0.000000
0.000182 -0.000425 0.000036 0.000000
-0.000656 -0.000566 -0.000770 0.000000
0.000190 -0.000407 -0.000091 0.000000
-0.000090 -0.001062 -0.001359 0.000000
0.000313 -0.000535 0.000004 0.000000
0.000341 -0.000394 0.000078 0.000000
0.000246 -0.000434 -0.000070 0.000000
-0.000176 -0.000920 -0.001243 0.000000
0.000200 -0.000299 0.000085 0.000000
-0.000407 -0.000627 0.000195 0.000000
-0.000734 -0.001325 0.000159 0.000000
0.000225 -0.000322 -0.000188 0.000000
0.000273 -0.000567 0.000261 0.000000
0.000099 -0.000261 -0.000033 0.000000
0.000258 -0.000318 -0.000010 0.000000
-0.000011 -0.000123 -0.000007 0.000000
-0.000015 -0.000106 -0.000020 0.000000
0.000158 -0.000295 0.000002 0.000000
0.000018 -0.000482 -0.000541 0.000000
-0.000448 -0.000455 -0.000062 0.000000
0.000128 -0.000130 0.000047 0.000000
0.000481 -0.001466 0.000174 0.000000
0.000158 -0.000255 0.000101 0.000000
0.000022 -0.000774 -0.000556 0.000000
0.000139 -0.001268 -0.000338 0.000000
-0.000325 -0.000768 0.000032 0.000000
0.000056 -0.000117 -0.000012 0.000000
0.000131 -0.000224 0.000028 0.000000
-0.000026 -0.000105 -0.000018 0.000000
-0.000032 -0.000234 0.000163 0.000000
0.000138 -0.000210 -0.000060 0.000000
0.000055 -0.000087 -0.000016 0.000000
0.000089 -0.000087 -0.000013 0.000000
0.000041 -0.000152 -0.000071 0.000000
0.000186 -0.000223 0.000018 0.000000
0.000074 -0.000110 0.000008 0.000000
0.000014 -0.000050 -0.000013 0.000000
0.000004 -0.000030 -0.000010 0.000000
-0.000001 -0.000110 0.000029 0.000000
0.000197 -0.000186 -0.000043 0.000000
0.000043 -0.000050 -0.000028 0.000000
0.000700 -0.001600 -0.000319 0.000000
0.000263 -0.000323 0.000049 0.000000
0.000368 -0.001068 -0.000404 0.000000
0.000163 -0.001030 -0.000163 0.000000
0.000145 -0.000266 -0.000119 0.000000
0.000142 -0.000185 0.000089 0.000000
0.000092 -0.000181 -0.000051 0.000000
0.000051 -0.000074 0.000020 0.000000
0.000053 -0.000078 0.000042 0.000000
0.000020 -0.000038 0.000007 0.000000
0.000046 -0.000166 0.000104 0.000000
-0.000004 -0.000012 0.000013 0.000000
0.000006 -0.000734 0.000246 0.000000
0.000077 -0.000170 -0.000003 0.000000
0.000224 -0.000271 0.000019 0.000000
0.000081 -0.000179 -0.000023 0.000000
0.000210 -0.000729 0.000109 0.000000
0.000026 -0.000046 0.000029 0.000000
0.000209 -0.001053 0.000186 0.000000
0.000315 -0.000495 -0.000178 0.000000
0.000268 -0.000356 0.000111 0.000000
0.000228 -0.000283 0.000009 0.000000
0.000282 -0.000451 0.000117 0.000000
0.000395 -0.001301 -0.000320 0.000000
0.000514 -0.001617 -0.000484 0.000000
0.000247 -0.000390 0.000011 0.000000
0.000106 -0.001203 0.001109 0.000000
0.000246 -0.000442 0.000164 0.000000
0.000630 -0.000760 0.000219 0.000000
0.000431 -0.000624 0.000147 0.000000
0.000622 -0.000758 0.000229 0.000000
0.000297 -0.000440 -0.000026 0.000000
0.000169 -0.000233 0.000058 0.000000
0.000147 -0.000358 -0.000014 0.000000
-0.000119 -0.001071 0.000390 0.000000
0.000172 -0.000356 0.000333 0.000000
0.000133 -0.000259 0.000175 0.000000
0.000179 -0.000377 0.000298 0.000000
-0.000045 -0.001123 0.000285 0.000000
0.000326 -0.001561 0.000559 0.000000
0.000006 -0.001521 0.001868 0.000000
0.000218 -0.001512 0.001207 0.000000
-0.000108 -0.000398 0.000475 0.000000
0.000466 -0.001612 0.000127 0.000000
0.000009 -0.000128 0.000127 0.000000
0.000046 -0.000179 0.000192 0.000000
-0.000068 -0.000393 0.000627 0.000000
0.000021 -0.001273 0.000689 0.000000
0.000073 -0.000153 0.000135 0.000000
-0.000128 -0.000176 0.000332 0.000000
0.000018 -0.000117 0.000107 0.000000
0.000494 -0.001671 0.001021 0.000000
0.000024 -0.000120 0.000035 0.000000
0.000039 -0.000152 0.000090 0.000000
-0.000031 -0.000391 0.000185 0.000000
-0.000164 -0.000471 0.000463 0.000000
0.000203 -0.000736 0.000040 0.000000
0.000209 -0.000255 -0.000049 0.000000
0.000108 -0.000138 0.000412 0.000000
-0.000040 -0.000013 0.000624 0.000000
0.000110 -0.000276 0.000571 0.000000
0.000089 -0.000758 0.001144 0.000000
-0.000050 -0.000133 0.000206 0.000000
0.000076 -0.000365 0.000615 0.000000
-0.000049 -0.000276 0.000171 0.000000
0.000061 -0.000101 0.000147 0.000000
0.000082 -0.000151 0.000224 0.000000
0.000031 -0.000147 0.000091 0.000000
-0.000156 -0.000048 0.000235 0.000000
0.000008 -0.000071 0.000170 0.000000
0.000004 -0.000051 0.000349 0.000000
0.000000 -0.000100 0.000079 0.000000
-0.000020 -0.000006 0.000245 0.000000
0.000040 -0.000073 0.000349 0.000000
-0.000002 -0.000384 0.000385 0.000000
-0.000092 -0.000039 0.000178 0.000000
-0.000021 -0.000016 0.000026 0.000000
-0.000088 -0.000100 0.000300 0.000000
0.000016 -0.000078 0.000048 0.000000
-0.000158 -0.000132 0.000603 0.000000
0.000047 -0.000095 0.000323 0.000000
-0.000242 0.000097 0.000570 0.000000
-0.000096 -0.000090 0.000216 0.000000
-0.000011 -0.000043 0.000523 0.000000
-0.000018 -0.000021 0.000284 0.000000
-0.000010 -0.000024 0.000019 0.000000
-0.000034 -0.000060 -0.000037 0.000000
-0.000001 -0.000057 0.000139 0.000000
-0.000210 -0.001058 0.000659 0.000000
-0.000059 -0.000016 0.000341 0.000000
-0.000136 -0.000143 0.000194 0.000000
0.000081 -0.000201 0.000469 0.000000
0.000004 -0.000054 0.000178 0.000000
0.000719 -0.000890 0.001061 0.000000
-0.000074 -0.000079 0.000239 0.000000
-0.000037 -0.000005 0.000017 0.000000
-0.000261 0.000002 0.000003 0.000000
-0.000247 -0.000044 0.000131 0.000000
-0.000202 0.000040 0.000019 0.000000
-0.000002 -0.000019 0.000013 0.000000
0.000075 -0.000188 -0.000075 0.000000
0.000014 -0.000059 0.000015 0.000000
-0.000105 -0.000096 -0.000132 0.000000
-0.000069 -0.000273 -0.000035 0.000000
-0.000023 -0.000007 -0.000024 0.000000
-0.000022 -0.000116 0.000012 0.000000
0.000013 -0.000021 -0.000025 0.000000
-0.000005 -0.000011 -0.000013 0.000000
0.000035 -0.000104 0.000038 0.000000
0.000024 -0.000119 0.000302 0.000000
-0.000153 -0.000217 0.000115 0.000000
0.000024 -0.000109 0.000051 0.000000
-0.000012 -0.000041 0.000013 0.000000
0.000091 -0.000159 -0.000015 0.000000
-0.000010 -0.000025 0.000023 0.000000
-0.000005 -0.000006 0.000005 0.000000
-0.000009 -0.000029 0.000021 0.000000
-0.000238 0.000006 -0.000016 0.000000
-0.000360 -0.000222 0.000649 0.000000
-0.000042 -0.000024 0.000026 0.000000
-0.000247 -0.000166 0.000299 0.000000
-0.000047 -0.000053 0.000105 0.000000
-0.000054 0.000029 0.000331 0.000000
-0.000482 0.000158 0.000391 0.000000
-0.000351 -0.000361 0.000008 0.000000
0.000375 -0.002021 0.001915 0.000000
0.000087 -0.002270 0.000479 0.000000
-0.000058 -0.000065 0.000330 0.000000
0.000003 -0.000164 0.000799 0.000000
-0.000021 -0.000123 0.000417 0.000000
-0.000630 0.000002 0.000665 0.000000
-0.000159 0.000003 -0.000119 0.000000
-0.000054 -0.000023 0.000095 0.000000
-0.000267 -0.000028 0.000123 0.000000
-0.000056 -0.000029 0.000055 0.000000
-0.000028 -0.000114 0.000257 0.000000
-0.000012 -0.000124 0.000149 0.000000
-0.000828 -0.000068 0.000881 0.000000
0.000104 -0.001423 0.001804 0.000000
0.000182 -0.000381 0.000340 0.000000
0.000119 -0.002026 0.000925 0.000000
-0.000025 -0.000107 0.000132 0.000000
-0.000405 -0.000520 0.001047 0.000000
-0.000289 -0.001447 0.001841 0.000000
0.000200 -0.000376 0.000315 0.000000
-0.000148 -0.000878 0.000779 0.000000
-0.000005 -0.000146 0.000234 0.000000
0.000016 -0.000149 0.000344 0.000000
-0.000026 -0.000075 0.000348 0.000000
-0.000274 -0.000675 0.000885 0.000000
0.000006 -0.000147 0.000280 0.000000
-0.000034 -0.000028 0.000003 0.000000
-0.000239 -0.000285 0.000305 0.000000
-0.000088 -0.000317 0.000339 0.000000
-0.000210 -0.000450 0.000340 0.000000
-0.000260 -0.000147 0.000187 0.000000
-0.000155 -0.000741 0.000786 0.000000
0.000030 -0.000116 0.000083 0.000000
0.000024 -0.000102 0.000070 0.000000
-0.000012 -0.000045 -0.000000 0.000000
-0.000019 -0.000008 0.000009 0.000000
0.000006 -0.000076 0.000015 0.000000
-0.000006 -0.000045 0.000027 0.000000
-0.000022 -0.000810 0.000054 0.000000
-0.000019 -0.000387 -0.000125 0.000000
-0.000003 -0.000804 -0.000107 0.000000
0.000125 -0.002242 0.000069 0.000000
0.000244 -0.000560 -0.000094 0.000000
-0.000378 -0.001876 -0.000326 0.000000
-0.000406 -0.001629 0.000286 0.000000
0.000014 -0.002537 -0.000111 0.000000
0.000119 -0.002388 0.001517 0.000000
0.000326 -0.000633 -0.000172 0.000000
-0.000217 -0.002115 0.000368 0.000000
0.000559 -0.000883 -0.000356 0.000000
-0.000816 -0.000909 0.000359 0.000000
0.000808 -0.001133 0.000455 0.000000
0.000344 -0.000555 0.000229 0.000000
0.000000 -0.002280 -0.000065 0.000000
0.000707 -0.001019 0.000439 0.000000
0.000809 -0.002797 0.000442 0.000000
0.000553 -0.000865 0.000467 0.000000
-0.000819 -0.000711 -0.000166 0.000000
-0.000100 -0.001807 -0.000260 0.000000
0.000048 -0.002136 -0.000275 0.000000
0.000157 -0.002283 -0.000013 0.000000
-0.000292 -0.001904 -0.000226 0.000000
-0.000383 -0.001380 0.000208 0.000000
0.000406 -0.000617 -0.000367 0.000000
0.000193 -0.000415 -0.000175 0.000000
0.000209 -0.002252 -0.000774 0.000000
-0.000629 -0.000713 -0.000396 0.000000
-0.000527 -0.001447 0.000276 0.000000
0.000198 -0.000448 -0.000280 0.000000
-0.000798 -0.001182 0.000293 0.000000
0.000080 -0.000314 -0.000098 0.000000
0.000575 -0.000722 -0.000177 0.000000
0.000407 -0.002375 -0.000716 0.000000
0.000091 -0.000267 -0.000016 0.000000
-0.000414 -0.001401 0.000144 0.000000
0.000477 -0.002723 0.000929 0.000000
0.000247 -0.000487 -0.000160 0.000000
-0.000154 -0.001506 0.000274 0.000000
-0.000171 -0.001528 0.001067 0.000000
-0.000472 -0.001276 -0.000243 0.000000
-0.000362 -0.001667 0.000771 0.000000
0.000256 -0.000519 0.000279 0.000000
0.000607 -0.002761 0.000376 0.000000
-0.000363 -0.000904 -0.000295 0.000000
0.000086 -0.000340 0.000059 0.000000
0.000305 -0.000559 0.000061 0.000000
0.000267 -0.000517 0.000127 0.000000
0.000416 -0.000737 -0.000037 0.000000
-0.000399 -0.001585 0.000026 0.000000
-0.000376 -0.001634 -0.000054 0.000000
-0.000404 -0.001611 0.000372 0.000000
0.000000 -0.002376 0.000042 0.000000
-0.000340 -0.001785 0.000367 0.000000
0.000074 -0.000302 -0.000061 0.000000
0.000450 -0.000749 0.000059 0.000000
-0.000904 -0.000246 0.000005 0.000000
-0.000239 -0.002029 0.000355 0.000000
-0.000276 -0.001856 0.000218 0.000000
0.000432 -0.000675 0.000192 0.000000
-0.000372 -0.001558 0.000068 0.000000
-0.000051 -0.002027 0.000724 0.000000
0.000276 -0.002643 -0.000239 0.000000
0.000000 -0.002460 -0.000196 0.000000
0.000230 -0.002294 -0.000640 0.000000
0.000035 -0.000307 0.000047 0.000000
0.000000 -0.002543 -0.000093 0.000000
0.000864 -0.003571 0.000029 0.000000
0.000445 -0.002784 0.000208 0.000000
-0.000375 -0.001318 -0.000404 0.000000
0.000129 -0.002712 -0.000195 0.000000
-0.000188 -0.003181 0.002214 0.000000
0.000381 -0.000549 -0.000066 0.000000
0.000499 -0.000697 0.000320 0.000000
0.000232 -0.000487 0.000122 0.000000
0.000300 -0.000596 0.000174 0.000000
-0.000093 -0.002200 0.000536 0.000000
0.000299 -0.000575 0.000081 0.000000
-0.000310 -0.001872 0.000670 0.000000
-0.000365 -0.001724 0.000355 0.000000
0.000276 -0.000533 0.000239 0.000000
-0.000188 -0.001786 0.000706 0.000000
0.000558 -0.002844 -0.000089 0.000000
0.000178 -0.000387 0.000265 0.000000
0.000144 -0.000345 0.000357 0.000000
0.000059 -0.000242 0.000122 0.000000
0.000002 -0.001948 0.001249 0.000000
0.000347 -0.000581 0.000049 0.000000
0.000001 -0.002463 0.001321 0.000000
0.000279 -0.002119 -0.000591 0.000000
0.000675 -0.002694 0.000451 0.000000
-0.000945 -0.000845 0.000535 0.000000
-0.000161 -0.001958 -0.000079 0.000000
0.000529 -0.000859 -0.000357 0.000000
-0.000471 -0.001364 0.000192 0.000000
-0.000393 -0.001608 -0.000316 0.000000
0.000727 -0.002883 0.000068 0.000000
0.000377 -0.002421 0.000790 0.000000
-0.000303 -0.001955 0.000353 0.000000
0.000138 -0.000298 0.000649 0.000000
0.000523 -0.000671 0.000825 0.000000
0.000110 -0.000303 0.000171 0.000000
0.000289 -0.002538 0.002917 0.000000
0.000223 -0.000446 0.000082 0.000000
0.000250 -0.000481 0.000123 0.000000
0.000174 -0.000389 0.000010 0.000000
0.000277 -0.000529 0.000097 0.000000
0.000162 -0.000345 0.000068 0.000000
0.000347 -0.000544 0.000245 0.000000
0.000769 -0.002701 0.000630 0.000000
0.000133 -0.000412 0.000769 0.000000
0.000331 -0.000522 0.000316 0.000000
0.000266 -0.000497 -0.000023 0.000000
0.000489 -0.002697 0.000091 0.000000
0.000409 -0.000627 0.000182 0.000000
0.000207 -0.000402 0.000166 0.000000
0.000149 -0.000394 -0.000072 0.000000
0.000450 -0.000672 0.000274 0.000000
0.001233 -0.003596 0.000341 0.000000
0.000265 -0.000475 0.000107 0.000000
0.000650 -0.000920 0.000208 0.000000
0.000154 -0.000397 0.000092 0.000000
0.000006 -0.000250 0.000014 0.000000
0.000199 -0.000449 0.000020 0.000000
0.000603 -0.002685 0.000063 0.000000
0.000504 -0.000707 0.000044 0.000000
0.000299 -0.000426 0.000712 0.000000
0.000235 -0.002248 -0.000152 0.000000
-0.000025 -0.002015 -0.000717 0.000000
0.000229 -0.000466 0.000394 0.000000
0.000165 -0.000347 -0.000084 0.000000
0.000350 -0.000494 0.000297 0.000000
0.000163 -0.000344 0.000131 0.000000
0.000342 -0.000547 0.000202 0.000000
0.000247 -0.000385 0.000240 0.000000
0.000121 -0.000303 0.000159 0.000000
0.000143 -0.000317 -0.000036 0.000000
-0.000354 -0.000812 -0.000245 0.000000
0.000206 -0.000377 0.000207 0.000000
0.000321 -0.000470 0.000118 0.000000
0.000179 -0.001896 0.002560 0.000000
0.000198 -0.000389 0.000160 0.000000
0.000231 -0.000453 0.000197 0.000000
0.000297 -0.000467 0.000247 0.000000
0.000246 -0.000415 0.000449 0.000000
0.000467 -0.000651 0.000230 0.000000
0.000224 -0.000433 0.000363 0.000000
0.000228 -0.000460 0.000072 0.000000
0.000116 -0.000327 -0.000047 0.000000
0.000044 -0.001642 0.001781 0.000000
-0.000550 -0.000914 0.000618 0.000000
0.000686 -0.000920 -0.000008 0.000000
0.000278 -0.000462 0.000405 0.000000
0.000246 -0.000459 0.000139 0.000000
-0.000061 -0.000144 0.000092 0.000000
0.000620 -0.002212 0.002901 0.000000
-0.000400 -0.000878 0.000212 0.000000
0.000271 -0.001700 0.002623 0.000000
0.000619 -0.000720 -0.000109 0.000000
0.000147 -0.001651 0.000507 0.000000
-0.000382 -0.000893 -0.000103 0.000000
0.000231 -0.000402 -0.000255 0.000000
0.000186 -0.000290 0.000410 0.000000
0.000169 -0.000264 0.000106 0.000000
0.000231 -0.000411 0.000068 0.000000
0.000527 -0.000687 0.000168 0.000000
0.000731 -0.000841 -0.000138 0.000000
-0.000136 -0.001196 0.000644 0.000000
0.000266 -0.000523 -0.000043 0.000000
0.000277 -0.000419 0.000477 0.000000
-0.000291 -0.000974 -0.000470 0.000000
0.000237 -0.001781 0.000689 0.000000
0.000078 -0.001250 0.000079 0.000000
0.000256 -0.000344 -0.000017 0.000000
0.000138 -0.000253 0.000096 0.000000
0.000340 -0.001435 0.000079 0.000000
0.000003 -0.000200 0.000123 0.000000
0.000364 -0.001568 0.000169 0.000000
0.000387 -0.001641 -0.000138 0.000000
0.000217 -0.000353 0.000110 0.000000
0.000551 -0.000712 0.000185 0.000000
0.000204 -0.000378 0.000190 0.000000
0.000269 -0.000435 0.000087 0.000000
0.000153 -0.000352 0.000075 0.000000
0.000219 -0.000394 0.000071 0.000000
0.000113 -0.000301 0.000078 0.000000
0.000053 -0.001665 0.001326 0.000000
0.000529 -0.000669 0.000114 0.000000
0.000573 -0.000725 0.000267 0.000000
0.000444 -0.000594 0.000285 0.000000
0.000229 -0.000429 0.000069 0.000000
0.000469 -0.000609 0.000103 0.000000
0.000164 -0.000325 0.000188 0.000000
-0.000476 -0.000704 0.000251 0.000000
0.000099 -0.000276 0.000144 0.000000
-0.000412 -0.000935 0.000385 0.000000
0.000091 -0.000268 0.000105 0.000000
0.000691 -0.000824 0.000391 0.000000
-0.000446 -0.000603 0.000106 0.000000
-0.000770 -0.000280 -0.000274 0.000000
0.000209 -0.000372 0.000122 0.000000
0.000167 -0.000281 -0.000344 0.000000
0.000098 -0.000302 -0.000106 0.000000
-0.000024 -0.000107 -0.000008 0.000000
0.000065 -0.000235 -0.000031 0.000000
0.000245 -0.000415 0.000096 0.000000
0.000124 -0.000309 -0.000055 0.000000
-0.000548 -0.000467 -0.000236 0.000000
0.000088 -0.000270 -0.000055 0.000000
0.000133 -0.000351 -0.000019 0.000000
-0.000439 -0.000532 -0.000288 0.000000
0.000076 -0.000252 -0.000021 0.000000
-0.000175 -0.001490 0.000955 0.000000
-0.000519 -0.000982 0.000081 0.000000
-0.000233 -0.001107 -0.000120 0.000000
0.000132 -0.000345 0.000268 0.000000
0.000576 -0.000707 0.000273 0.000000
-0.000372 -0.001559 0.000613 0.000000
-0.000049 -0.000156 -0.000046 0.000000
-0.000065 -0.001713 -0.000633 0.000000
-0.000003 -0.002167 0.000644 0.000000
-0.000329 -0.001312 0.000398 0.000000
0.000053 -0.000321 0.000081 0.000000
0.000396 -0.000584 -0.000304 0.000000
0.000099 -0.000273 -0.000037 0.000000
-0.000599 -0.001077 0.000028 0.000000
0.000484 -0.002270 0.000098 0.000000
0.000824 -0.002524 -0.000227 0.000000
0.000195 -0.000417 -0.000060 0.000000
-0.000413 -0.000922 0.000452 0.000000
-0.000000 -0.001496 0.000491 0.000000
0.000316 -0.000522 -0.000175 0.000000
0.000327 -0.000517 -0.000096 0.000000
0.000251 -0.000489 0.000056 0.000000
0.000315 -0.000506 -0.000068 0.000000
0.000308 -0.000549 -0.000298 0.000000
-0.000419 -0.001384 0.000177 0.000000
0.000306 -0.000480 0.000042 0.000000
-0.000044 -0.000164 -0.000061 0.000000
-0.000531 -0.001252 -0.000107 0.000000
-0.000742 -0.000342 0.000101 0.000000
-0.000090 -0.001927 -0.000638 0.000000
0.000164 -0.000328 0.000026 0.000000
0.000233 -0.000428 0.000025 0.000000
0.000343 -0.000620 0.000358 0.000000
0.000283 -0.000455 -0.000087 0.000000
0.000200 -0.000375 -0.000007 0.000000
0.000126 -0.000325 0.000042 0.000000
0.000163 -0.000351 0.000050 0.000000
0.000204 -0.000374 -0.000020 0.000000
0.000211 -0.000399 0.000025 0.000000
0.000274 -0.000449 -0.000050 0.000000
0.000217 -0.000394 -0.000013 0.000000
-0.000276 -0.000798 -0.001610 0.000000
0.000207 -0.000383 -0.000021 0.000000
0.000225 -0.000405 -0.000053 0.000000
0.000238 -0.001586 -0.000221 0.000000
0.000243 -0.000398 -0.000067 0.000000
0.000002 -0.000143 -0.000019 0.000000
-0.000718 -0.000459 -0.000092 0.000000
0.000207 -0.000388 0.000014 0.000000
0.000172 -0.000268 0.000020 0.000000
0.000187 -0.000347 0.000006 0.000000
0.000208 -0.000374 -0.000037 0.000000
0.000316 -0.001593 0.000293 0.000000
-0.000483 -0.000548 0.000174 0.000000
0.000231 -0.000380 -0.000040 0.000000
0.000219 -0.000393 -0.000027 0.000000
-0.000329 -0.000783 0.000084 0.000000
0.000268 -0.000378 0.000083 0.000000
0.000228 -0.000381 0.000016 0.000000
0.000221 -0.000379 -0.000022 0.000000
0.000305 -0.001143 0.000202 0.000000
-0.000024 -0.000098 -0.000010 0.000000
-0.000009 -0.000119 -0.000030 0.000000
-0.000252 -0.000407 -0.000624 0.000000
0.000193 -0.000353 -0.000014 0.000000
-0.000115 -0.000645 0.000619 0.000000
-0.000018 -0.000118 -0.000015 0.000000
0.000256 -0.001474 0.000132 0.000000
0.000083 -0.000260 -0.000077 0.000000
0.000268 -0.001522 -0.000365 0.000000
0.000169 -0.000291 0.000020 0.000000
0.000180 -0.000373 0.000118 0.000000
-0.000243 -0.000750 0.000245 0.000000
0.000090 -0.000222 0.000230 0.000000
0.000185 -0.000945 0.000656 0.000000
0.000043 -0.001052 -0.000046 0.000000
-0.000015 -0.000100 0.000017 0.000000
0.000137 -0.001107 -0.000087 0.000000
0.000017 -0.000117 0.000028 0.000000
0.000078 -0.000176 0.000037 0.000000
-0.000004 -0.000047 -0.000017 0.000000
0.000041 -0.000071 -0.000002 0.000000
-0.000011 -0.000121 -0.000014 0.000000
-0.000016 -0.001048 -0.000382 0.000000
0.000083 -0.001203 -0.000571 0.000000
0.000001 -0.000145 -0.000025 0.000000
-0.000165 -0.000233 0.000286 0.000000
-0.000022 -0.000093 0.000006 0.000000
0.000114 -0.000213 -0.000052 0.000000
0.000172 -0.001016 0.000446 0.000000
0.000123 -0.000231 -0.000108 0.000000
0.000104 -0.000196 -0.000085 0.000000
-0.000104 -0.000590 0.000555 0.000000
0.000315 -0.000353 -0.000010 0.000000
-0.000331 -0.000438 0.000509 0.000000
-0.000270 -0.000402 0.000162 0.000000
0.000070 -0.000804 -0.000562 0.000000
-0.000014 -0.000066 -0.000048 0.000000
0.000166 -0.000290 -0.000104 0.000000
0.000057 -0.000144 -0.000067 0.000000
0.000280 -0.000327 0.000026 0.000000
0.000093 -0.000188 -0.000144 0.000000
-0.000110 -0.000648 -0.000276 0.000000
0.000071 -0.000145 0.000040 0.000000
0.000154 -0.000244 0.000046 0.000000
-0.000132 -0.000450 0.000033 0.000000
0.000112 -0.000192 -0.000068 0.000000
0.000311 -0.000926 -0.000099 0.000000
-0.000018 -0.000969 0.000262 0.000000
0.000206 -0.000312 0.000087 0.000000
0.000031 -0.000611 -0.000428 0.000000
-0.000045 -0.000475 0.000011 0.000000
-0.000060 -0.000604 0.000611 0.000000
0.000261 -0.001678 -0.000068 0.000000
-0.000116 -0.000560 0.000076 0.000000
-0.000230 -0.000886 0.000343 0.000000
0.000115 -0.000143 0.000020 0.000000
0.000441 -0.001177 0.000363 0.000000
0.000102 -0.000221 0.000010 0.000000
-0.000013 -0.000762 -0.000279 0.000000
-0.000067 -0.000512 -0.000003 0.000000
0.000125 -0.000162 0.000018 0.000000
-0.000089 -0.000548 0.000033 0.000000
-0.000070 -0.000575 0.000064 0.000000
0.000198 -0.000276 -0.000052 0.000000
0.000144 -0.000236 -0.000014 0.000000
-0.000063 -0.000457 0.000060 0.000000
-0.000021 -0.000699 -0.000268 0.000000
-0.000066 -0.000517 0.000035 0.000000
0.000010 -0.000065 0.000005 0.000000
0.000144 -0.000209 0.000016 0.000000
-0.000022 -0.000418 0.000013 0.000000
-0.000075 -0.000387 0.000052 0.000000
-0.000039 -0.000444 0.000030 0.000000
0.000045 -0.000094 0.000062 0.000000
0.000107 -0.000141 -0.000017 0.000000
0.000077 -0.000104 0.000026 0.000000
0.000134 -0.000200 0.000106 0.000000
0.000036 -0.000092 0.000034 0.000000
0.000033 -0.000171 0.000113 0.000000
0.000036 -0.000099 0.000022 0.000000
0.000154 -0.000297 0.000127 0.000000
0.000031 -0.000055 0.000028 0.000000
0.000087 -0.000135 0.000060 0.000000
0.000124 -0.000094 0.000013 0.000000
0.000095 -0.000213 0.000032 0.000000
0.000079 -0.000102 0.000023 0.000000
0.000131 -0.000183 0.000005 0.000000
0.000028 -0.000088 -0.000018 0.000000
0.000136 -0.000302 -0.000036 0.000000
0.000085 -0.000052 0.000009 0.000000
0.000077 -0.000232 0.000001 0.000000
0.000139 -0.000254 0.000085 0.000000
0.000104 -0.000132 -0.000072 0.000000
0.000133 -0.000149 0.000121 0.000000
-0.000013 -0.000078 -0.000048 0.000000
0.000149 -0.000112 -0.000017 0.000000
0.000165 -0.000167 0.000044 0.000000
0.000125 -0.000132 0.000006 0.000000
0.000110 -0.000208 -0.000074 0.000000
0.000145 -0.000189 0.000057 0.000000
0.000102 -0.000210 0.000044 0.000000
0.000074 -0.000090 -0.000029 0.000000
0.000116 -0.000135 -0.000008 0.000000
0.000141 -0.000221 0.000075 0.000000
0.000103 -0.000231 -0.000156 0.000000
0.000082 -0.000089 -0.000025 0.000000
0.000028 -0.000051 0.000014 0.000000
-0.000021 -0.000231 -0.000182 0.000000
-0.000022 -0.000354 0.000148 0.000000
0.000024 -0.000264 -0.000057 0.000000
0.000045 -0.000077 -0.000007 0.000000
0.000036 -0.000408 0.000092 0.000000
0.000132 -0.000562 0.000468 0.000000
0.000005 -0.000236 -0.000189 0.000000
0.000112 -0.000192 -0.000069 0.000000
0.000071 -0.000139 -0.000040 0.000000
0.000198 -0.000258 -0.000059 0.000000
0.000162 -0.000246 -0.000066 0.000000
0.000066 -0.000142 -0.000054 0.000000
-0.000013 -0.000067 -0.000033 0.000000
0.000037 -0.000135 -0.000075 0.000000
0.000070 -0.000162 -0.000099 0.000000
0.000131 -0.000254 -0.000028 0.000000
0.000326 -0.000783 0.000337 0.000000
0.000021 -0.000479 0.000148 0.000000
-0.000003 -0.000030 -0.000003 0.000000
0.000257 -0.000329 -0.000026 0.000000
0.000241 -0.000261 0.000100 0.000000
0.000136 -0.000227 0.000228 0.000000
0.000217 -0.000254 -0.000042 0.000000
0.000216 -0.000275 0.000006 0.000000
0.000016 -0.000120 -0.000058 0.000000
0.000169 -0.000212 0.000014 0.000000
0.000112 -0.000288 -0.000053 0.000000
0.000186 -0.000229 -0.000006 0.000000
0.000074 -0.000083 -0.000057 0.000000
0.000155 -0.000222 0.000088 0.000000
0.000039 -0.000059 0.000003 0.000000
0.000158 -0.000207 0.000122 0.000000
0.000190 -0.000232 -0.000057 0.000000
0.000099 -0.000246 -0.000065 0.000000
0.000036 -0.000084 0.000004 0.000000
0.000202 -0.000361 0.000114 0.000000
0.000051 -0.000096 0.000026 0.000000
-0.000078 -0.000056 -0.000070 0.000000
0.000046 -0.000143 -0.000059 0.000000
0.000155 -0.000196 0.000029 0.000000
0.000012 -0.000193 -0.000068 0.000000
0.000021 -0.000030 -0.000014 0.000000
0.000134 -0.000154 -0.000082 0.000000
-0.000012 -0.000009 -0.000005 0.000000
0.000091 -0.000107 -0.000030 0.000000
0.000150 -0.000362 -0.000019 0.000000
0.000140 -0.000155 -0.000061 0.000000
0.000153 -0.000196 -0.000063 0.000000
0.000034 -0.000336 0.000194 0.000000
0.000151 -0.000199 -0.000042 0.000000
0.000051 -0.000269 0.000001 0.000000
0.000064 -0.000316 0.000055 0.000000
0.000221 -0.000256 0.000089 0.000000
0.000100 -0.000105 -0.000008 0.000000
-0.000036 -0.000057 -0.000107 0.000000
0.000147 -0.000176 -0.000065 0.000000
0.000063 -0.000339 0.000164 0.000000
-0.000014 -0.000067 0.000063 0.000000
-0.000038 -0.000002 0.000052 0.000000
0.000012 -0.000175 0.000196 0.000000
-0.000037 -0.000030 0.000078 0.000000
0.000272 -0.000308 0.000096 0.000000
0.000051 -0.000182 0.000063 0.000000
0.000002 -0.000082 0.000008 0.000000
0.000040 -0.000067 0.000059 0.000000
0.000230 -0.000297 0.000028 0.000000
0.000070 -0.000106 0.000025 0.000000
0.000240 -0.000279 0.000073 0.000000
0.000224 -0.000280 0.000032 0.000000
0.000144 -0.000201 -0.000026 0.000000
0.000150 -0.000195 0.000023 0.000000
0.000027 -0.000299 0.000239 0.000000
0.000384 -0.000416 0.000189 0.000000
0.000136 -0.000191 0.000021 0.000000
0.000432 -0.000488 -0.000108 0.000000
0.000290 -0.000363 -0.000008 0.000000
0.000320 -0.000366 -0.000021 0.000000
0.000289 -0.000330 0.000110 0.000000
0.000178 -0.000203 0.000064 0.000000
0.000217 -0.000266 -0.000006 0.000000
0.000200 -0.000251 -0.000021 0.000000
0.000018 -0.000538 0.000155 0.000000
0.000058 -0.000083 0.000017 0.000000
0.000265 -0.000733 0.000175 0.000000
0.000055 -0.000091 0.000053 0.000000
0.000109 -0.000754 0.000410 0.000000
0.000201 -0.000609 0.000261 0.000000
0.000015 -0.000930 0.000151 0.000000
0.000705 -0.001764 -0.000172 0.000000
0.000099 -0.000191 0.000040 0.000000
0.000081 -0.000729 0.000371 0.000000
0.000503 -0.001219 -0.000283 0.000000
0.000517 -0.000669 0.000083 0.000000
0.000274 -0.000335 -0.000013 0.000000
0.000192 -0.000266 0.000035 0.000000
0.000292 -0.000330 0.000112 0.000000
0.000309 -0.000372 0.000067 0.000000
0.000161 -0.000226 0.000022 0.000000
0.000211 -0.000259 -0.000078 0.000000
-0.000128 -0.000201 0.000074 0.000000
0.000306 -0.000358 -0.000086 0.000000
0.000331 -0.001094 0.000610 0.000000
0.000306 -0.000355 -0.000023 0.000000
0.000011 -0.000109 0.000036 0.000000
-0.000074 -0.000391 -0.000068 0.000000
0.000183 -0.000250 0.000109 0.000000
0.000328 -0.000410 0.000047 0.000000
0.000075 -0.000140 0.000071 0.000000
0.000129 -0.000261 0.000173 0.000000
0.000003 -0.000081 0.000003 0.000000
0.000229 -0.000428 0.000011 0.000000
-0.000148 -0.000632 -0.000093 0.000000
0.000124 -0.000993 0.000614 0.000000
0.000416 -0.001262 0.000726 0.000000
0.000303 -0.000388 -0.000043 0.000000
0.000672 -0.001282 -0.000236 0.000000
0.000510 -0.000626 0.000131 0.000000
-0.000080 -0.001004 0.000444 0.000000
0.000575 -0.000710 0.000240 0.000000
0.000606 -0.001481 -0.000223 0.000000
0.000517 -0.001430 0.000896 0.000000
-0.000007 -0.000080 0.000009 0.000000
-0.000029 -0.000941 0.001068 0.000000
0.000236 -0.001197 -0.000114 0.000000
0.000170 -0.000267 0.000243 0.000000
-0.000177 -0.001061 -0.000104 0.000000
-0.000160 -0.000989 -0.000029 0.000000
-0.000225 -0.000962 -0.000045 0.000000
-0.000228 -0.000990 0.000141 0.000000
-0.000321 -0.001015 0.000780 0.000000
0.000598 -0.000737 0.000293 0.000000
0.000137 -0.001079 0.000862 0.000000
0.000496 -0.000635 0.000267 0.000000
0.000666 -0.000790 0.000189 0.000000
0.000400 -0.000500 0.000081 0.000000
0.000382 -0.000503 0.000022 0.000000
0.000250 -0.000415 -0.000136 0.000000
-0.000268 -0.000868 0.001111 0.000000
0.000122 -0.000221 0.000113 0.000000
0.000334 -0.000409 0.000013 0.000000
0.000448 -0.001483 -0.000532 0.000000
0.000219 -0.000305 -0.000005 0.000000
0.000577 -0.000712 -0.000203 0.000000
0.000099 -0.000172 0.000050 0.000000
0.000098 -0.000718 0.000377 0.000000
0.000059 -0.000155 0.000063 0.000000
-0.000127 -0.000662 0.000210 0.000000
0.000673 -0.001801 0.000497 0.000000
0.000485 -0.001872 0.000531 0.000000
0.000130 -0.000244 0.000157 0.000000
0.000128 -0.000229 0.000120 0.000000
0.000558 -0.001791 0.000108 0.000000
0.000365 -0.000473 0.000357 0.000000
0.000253 -0.000443 0.000335 0.000000
0.000437 -0.000582 0.000598 0.000000
0.000516 -0.001650 0.000838 0.000000
-0.000026 -0.000131 0.000028 0.000000
0.000773 -0.002142 0.001200 0.000000
0.000942 -0.002136 0.000795 0.000000
0.000278 -0.000456 0.000319 0.000000
0.000055 -0.000185 0.000082 0.000000
0.000003 -0.001213 0.000404 0.000000
0.000030 -0.000130 0.000121 0.000000
-0.000136 -0.000972 0.000182 0.000000
0.000097 -0.001178 0.000531 0.000000
-0.000042 -0.001117 0.000435 0.000000
0.000040 -0.001264 0.000183 0.000000
-0.000060 -0.001130 0.000181 0.000000
0.000140 -0.001274 0.000753 0.000000
0.000531 -0.001787 0.000364 0.000000
0.000049 -0.000175 0.000156 0.000000
0.000127 -0.000336 0.000505 0.000000
-0.000199 -0.001388 0.001497 0.000000
-0.000141 -0.001048 0.000596 0.000000
0.000033 -0.000172 0.000315 0.000000
-0.000381 -0.000674 0.000943 0.000000
-0.000003 -0.000168 0.000263 0.000000
-0.000010 -0.000085 0.000306 0.000000
0.000006 -0.000109 0.000444 0.000000
-0.000035 -0.000072 0.000069 0.000000
-0.000386 -0.000680 0.000923 0.000000
0.000014 -0.001329 0.000913 0.000000
0.000028 -0.000149 0.000163 0.000000
-0.000690 -0.000225 0.001250 0.000000
0.000081 -0.000208 0.000139 0.000000
-0.000418 -0.000608 0.000868 0.000000
0.000041 -0.000153 0.000311 0.000000
-0.000001 -0.000101 0.000047 0.000000
-0.000007 -0.000124 0.000209 0.000000
0.000032 -0.000134 0.000117 0.000000
0.000035 -0.000122 0.000108 0.000000
-0.000026 -0.000092 0.000069 0.000000
0.000017 -0.000111 0.000148 0.000000
0.000007 -0.000114 0.000097 0.000000
-0.000418 -0.000285 0.000983 0.000000
0.000019 -0.000115 0.000561 0.000000
0.000024 -0.000097 0.000169 0.000000
0.000027 -0.000766 0.000898 0.000000
-0.000139 -0.000079 0.000209 0.000000
0.000057 -0.000133 0.000218 0.000000
-0.000163 -0.000064 0.000033 0.000000
0.000065 -0.000125 0.000197 0.000000
-0.000025 0.000000 0.000144 0.000000
0.000061 -0.000740 0.001139 0.000000
-0.000163 -0.000687 0.001268 0.000000
0.000012 -0.000102 0.000048 0.000000
0.000022 -0.000116 0.000144 0.000000
-0.000030 -0.000092 0.000045 0.000000
0.000184 -0.000297 0.000239 0.000000
-0.000025 -0.000086 0.000104 0.000000
-0.000018 -0.000134 0.000090 0.000000
0.000772 -0.002140 0.001549 0.000000
-0.000004 -0.000777 -0.000633 0.000000
-0.000039 -0.000087 0.000041 0.000000
-0.000235 -0.000469 0.001006 0.000000
0.000085 -0.000176 0.000071 0.000000
0.000051 -0.000176 0.000096 0.000000
0.000114 -0.000221 0.000168 0.000000
0.000193 -0.000805 0.000239 0.000000
0.000166 -0.000331 0.000080 0.000000
0.000016 -0.000724 0.001123 0.000000
-0.000262 -0.000359 0.000314 0.000000
-0.000165 -0.000500 0.000492 0.000000
0.000191 -0.000237 0.000176 0.000000
-0.000163 -0.000415 0.000331 0.000000
-0.000216 -0.000606 0.000626 0.000000
-0.000047 -0.000553 0.000939 0.000000
0.000096 -0.000162 0.000121 0.000000
-0.000177 -0.000435 0.000443 0.000000
-0.000192 -0.000307 0.000159 0.000000
-0.000102 -0.000403 0.000393 0.000000
-0.000060 -0.000471 0.000662 0.000000
0.000001 -0.000052 0.000032 0.000000
0.000069 -0.000162 0.000070 0.000000
0.000105 -0.000177 0.000055 0.000000
0.000210 -0.000319 0.000191 0.000000
-0.000145 -0.000367 0.000267 0.000000
0.000007 -0.000060 0.000032 0.000000
-0.000071 -0.000246 0.000211 0.000000
0.000002 -0.000052 0.000033 0.000000
0.000004 -0.000042 0.000016 0.000000
0.000135 -0.000612 0.000246 0.000000
0.000018 -0.000078 0.000029 0.000000
-0.000010 -0.000042 0.000028 0.000000
-0.000001 -0.000104 0.000136 0.000000
-0.000003 -0.000027 0.000024 0.000000
0.000103 -0.000159 0.000275 0.000000
-0.000064 -0.000027 0.000195 0.000000
-0.000033 -0.000025 -0.000026 0.000000
0.000011 -0.000069 0.000040 0.000000
-0.000006 -0.000034 0.000020 0.000000
-0.000041 -0.000125 0.000228 0.000000
-0.000069 -0.000128 0.000193 0.000000
-0.000059 -0.000150 0.000250 0.000000
-0.000082 -0.000415 0.000502 0.000000
-0.000047 -0.000258 0.000570 0.000000
0.000061 -0.000255 0.000639 0.000000
-0.000050 -0.000056 0.000128 0.000000
0.000323 -0.000348 0.000582 0.000000
0.000000 -0.000111 0.000414 0.000000
-0.000059 -0.000162 0.000322 0.000000
0.000109 -0.000379 0.000441 0.000000
0.000076 -0.000355 0.000620 0.000000
-0.000057 -0.000045 0.000098 0.000000
-0.000013 -0.000018 0.000024 0.000000
-0.000113 -0.000012 0.000067 0.000000
-0.000017 -0.000023 0.000033 0.000000
-0.000185 -0.000088 0.000094 0.000000
-0.000014 -0.000013 0.000021 0.000000
-0.000111 0.000003 0.000189 0.000000
-0.000104 -0.000038 0.000195 0.000000
-0.000132 -0.000124 0.000126 0.000000
-0.000127 -0.000250 0.000229 0.000000
-0.000022 0.000000 0.000136 0.000000
-0.000088 -0.000069 0.000203 0.000000
-0.000083 -0.000302 0.000926 0.000000
-0.000017 -0.000615 0.000874 0.000000
0.000194 -0.000210 0.000434 0.000000
-0.000090 -0.000171 0.000278 0.000000
-0.000102 -0.000350 0.000482 0.000000
-0.000129 -0.000510 0.000582 0.000000
0.000093 -0.000163 0.000145 0.000000
-0.000020 -0.000584 0.000934 0.000000
0.000036 -0.000118 0.000084 0.000000
0.000063 -0.000131 0.000256 0.000000
-0.000005 -0.000057 0.000164 0.000000
-0.000033 -0.000013 0.000047 0.000000
-0.000187 -0.000148 0.000292 0.000000
-0.000130 -0.000154 0.000297 0.000000
-0.000043 -0.000075 0.000203 0.000000
0.000044 -0.000111 0.000338 0.000000
0.000103 -0.000147 0.000331 0.000000
-0.000381 -0.000034 0.000175 0.000000
-0.000028 -0.000085 0.000277 0.000000
-0.000696 -0.000066 0.000859 0.000000
-0.000025 -0.000042 0.000388 0.000000
-0.000033 -0.000066 0.000345 0.000000
-0.000012 -0.000021 0.000452 0.000000
0.000067 -0.000108 0.000316 0.000000
-0.000025 -0.000028 0.000534 0.000000
-0.000038 -0.000004 0.000403 0.000000
0.000016 -0.000052 0.000650 0.000000
-0.000162 -0.000144 0.000367 0.000000
-0.000207 0.000072 0.000481 0.000000
0.000049 -0.000091 0.000472 0.000000
-0.000468 -0.000277 0.001253 0.000000
0.000033 -0.000080 0.000387 0.000000
-0.000186 -0.000098 0.000814 0.000000
-0.000013 -0.000572 0.000783 0.000000
-0.000097 -0.000037 0.000186 0.000000
-0.000098 -0.000036 0.000177 0.000000
-0.000137 -0.000114 0.000215 0.000000
-0.000116 -0.000073 0.000185 0.000000
-0.000078 -0.000230 0.000299 0.000000
0.000058 -0.000123 0.000356 0.000000
0.000058 -0.000132 0.000344 0.000000
-0.000189 -0.000166 0.000132 0.000000
-0.000166 -0.000183 0.000124 0.000000
-0.000139 -0.000225 0.000296 0.000000
-0.000162 -0.000062 0.000232 0.000000
-0.000212 -0.000071 0.000914 0.000000
-0.000126 -0.000097 0.000424 0.000000
-0.000031 -0.000034 0.000453 0.000000
-0.000166 -0.000056 0.000795 0.000000
-0.000146 -0.000039 0.000268 0.000000
-0.000151 0.000024 0.000280 0.000000
-0.000129 -0.000031 0.000274 0.000000
-0.000044 0.000001 0.000028 0.000000
-0.000073 -0.000014 -0.000086 0.000000
0.000014 -0.000097 -0.000004 0.000000
-0.000017 0.000002 -0.000002 0.000000
-0.000006 -0.000013 -0.000015 0.000000
0.000020 -0.000029 0.000010 0.000000
-0.000217 0.000044 -0.000009 0.000000
-0.000170 -0.000030 -0.000010 0.000000
-0.000139 -0.000004 0.000081 0.000000
-0.000157 -0.000178 0.000987 0.000000
-0.000051 -0.000008 0.000556 0.000000
-0.000056 0.000001 0.000429 0.000000
-0.000082 0.000031 0.000491 0.000000
-0.000209 -0.000000 0.000171 0.000000
-0.000050 0.000014 0.000246 0.000000
-0.000038 -0.000010 0.000003 0.000000
-0.000001 -0.000015 0.000004 0.000000
-0.000118 0.000019 0.000033 0.000000
-0.000006 -0.000009 0.000006 0.000000
0.000009 -0.000024 0.000014 0.000000
-0.000033 -0.000103 -0.000056 0.000000
-0.000004 -0.000169 0.000020 0.000000
-0.000021 -0.000041 0.000044 0.000000
-0.000065 -0.000100 -0.000163 0.000000
-0.000078 0.000016 -0.000035 0.000000
-0.000221 0.000022 0.000000 0.000000
-0.000177 0.000062 -0.000024 0.000000
-0.000033 -0.000174 0.000014 0.000000
-0.000014 -0.000005 -0.000003 0.000000
-0.000194 0.000009 0.000031 0.000000
-0.000212 -0.000023 -0.000076 0.000000
-0.000024 0.000001 0.000003 0.000000
-0.000022 -0.000019 -0.000009 0.000000
-0.000055 0.000006 0.000200 0.000000
-0.000119 -0.000047 0.000260 0.000000
-0.000318 0.000019 0.000384 0.000000
0.000015 -0.000126 0.000197 0.000000
0.000001 -0.000090 0.000476 0.000000
-0.000214 -0.000259 0.001209 0.000000
-0.000702 -0.000022 0.000722 0.000000
-0.000586 -0.000028 0.000554 0.000000
0.000041 -0.000144 0.000431 0.000000
-0.000046 -0.000020 0.000336 0.000000
-0.000057 0.000035 0.000256 0.000000
-0.000049 -0.000024 0.000044 0.000000
-0.000345 0.000108 0.000495 0.000000
-0.000112 0.000001 -0.000109 0.000000
-0.000356 -0.000026 0.000392 0.000000
-0.000224 0.000021 -0.000030 0.000000
-0.000030 -0.000004 0.000005 0.000000
-0.000364 -0.000069 0.000339 0.000000
-0.000099 0.000074 0.000313 0.000000
-0.000273 0.000005 -0.000034 0.000000
-0.000034 -0.000018 0.000004 0.000000
-0.000719 0.000030 0.000674 0.000000
-0.000015 -0.000076 0.000265 0.000000
-0.000065 0.000001 0.000201 0.000000
-0.000059 0.000018 0.000257 0.000000
-0.000026 -0.000060 0.000088 0.000000
0.000030 -0.000147 0.000325 0.000000
-0.000033 -0.000081 0.000202 0.000000
-0.000032 -0.000093 0.000312 0.000000
-0.000035 -0.000054 0.000369 0.000000
-0.000821 0.000085 0.001456 0.000000
-0.000222 0.000001 -0.000206 0.000000
-0.000029 -0.000005 0.000002 0.000000
-0.000250 -0.000012 0.000066 0.000000
-0.000047 -0.000026 0.000039 0.000000
-0.000109 -0.000170 -0.000006 0.000000
-0.000035 -0.000017 0.000006 0.000000
-0.000156 0.000021 -0.000006 0.000000
-0.000237 -0.000021 -0.000116 0.000000
-0.000037 -0.000126 0.000004 0.000000
-0.000182 -0.000003 0.000046 0.000000
-0.000027 -0.000005 0.000015 0.000000
-0.000171 -0.000129 -0.000086 0.000000
-0.000028 -0.000010 0.000019 0.000000
-0.000025 -0.000020 0.000009 0.000000
-0.000009 -0.000037 0.000013 0.000000
-0.000004 -0.000450 -0.000034 0.000000
-0.000170 -0.000026 0.000050 0.000000
-0.000155 -0.000281 0.000438 0.000000
-0.000196 -0.000116 0.000091 0.000000
-0.000021 -0.000026 0.000009 0.000000
-0.000009 -0.000024 0.000007 0.000000
-0.000028 -0.000072 -0.000052 0.000000
-0.000008 -0.000039 0.000012 0.000000
-0.000004 -0.000010 0.000006 0.000000
-0.000066 -0.000301 0.000198 0.000000
-0.000001 -0.000033 -0.000006 0.000000
-0.000012 -0.000041 0.000013 0.000000
-0.000008 -0.000024 0.000005 0.000000
-0.000010 -0.000031 0.000016 0.000000
-0.000010 -0.000047 0.000013 0.000000
-0.000011 -0.000039 0.000011 0.000000
-0.000011 -0.000036 0.000010 0.000000
-0.000045 -0.000285 0.000138 0.000000
0.000026 -0.000065 -0.000032 0.000000
-0.000012 -0.000367 -0.000007 0.000000
-0.000049 -0.000219 0.000011 0.000000
-0.000069 -0.000284 -0.000030 0.000000
-0.000036 -0.000293 -0.000008 0.000000
0.000048 -0.000509 -0.000041 0.000000
-0.000058 -0.000262 -0.000019 0.000000
-0.000082 -0.000353 -0.000079 0.000000
-0.000052 -0.000305 -0.000034 0.000000
0.000002 -0.000068 -0.000006 0.000000
-0.000118 -0.000313 0.000678 0.000000
-0.000002 -0.000064 -0.000011 0.000000
-0.000001 -0.000426 -0.000226 0.000000
0.000024 -0.000095 0.000079 0.000000
-0.000045 -0.000398 -0.000218 0.000000
0.000089 -0.000217 0.000113 0.000000
0.000002 -0.000064 -0.000014 0.000000
-0.000010 -0.000052 0.000019 0.000000
-0.000009 -0.000035 0.000011 0.000000
-0.000012 -0.000042 0.000017 0.000000
-0.000011 -0.000044 0.000015 0.000000
-0.000012 -0.000044 -0.000000 0.000000
0.000051 -0.000383 0.000181 0.000000
-0.000186 -0.000214 0.000241 0.000000
0.000063 -0.000808 0.000572 0.000000
0.000024 -0.000086 0.000048 0.000000
-0.000220 -0.000138 0.000327 0.000000
-0.000043 -0.000285 -0.000202 0.000000
-0.000205 -0.000344 -0.000097 0.000000
-0.000035 -0.000394 0.000340 0.000000
-0.000041 -0.000333 -0.000208 0.000000
0.000014 -0.000100 0.000080 0.000000
-0.000145 -0.000204 0.000167 0.000000
0.000017 -0.000096 0.000039 0.000000
-0.000216 -0.000239 0.000293 0.000000
-0.000266 -0.000222 0.000488 0.000000
-0.000038 -0.000023 0.000003 0.000000
0.000056 -0.000103 -0.000055 0.000000
-0.000101 -0.000312 0.000006 0.000000
-0.000029 -0.000273 0.000014 0.000000
-0.000021 -0.000466 -0.000340 0.000000
-0.000020 -0.000009 -0.000000 0.000000
-0.000094 -0.000348 0.000391 0.000000
-0.000173 -0.000034 0.000124 0.000000
-0.000198 -0.000043 0.000169 0.000000
-0.000009 -0.000033 0.000022 0.000000
-0.000062 -0.000286 -0.000033 0.000000
-0.000080 -0.000186 0.000087 0.000000
-0.000165 -0.000041 -0.000042 0.000000
-0.000102 -0.000160 0.000077 0.000000
-0.000026 -0.000011 0.000019 0.000000
-0.000029 -0.000018 0.000017 0.000000
-0.000221 -0.000107 0.000061 0.000000
-0.000129 -0.000163 0.000016 0.000000
-0.000122 -0.000218 -0.000100 0.000000
-0.000172 -0.000054 0.000008 0.000000
-0.000222 -0.000162 0.000309 0.000000
-0.000052 -0.000032 0.000064 0.000000
-0.000044 -0.000012 0.000017 0.000000
-0.000405 -0.000039 0.000143 0.000000
-0.000044 -0.000036 0.000047 0.000000
-0.000050 -0.000035 0.000064 0.000000
-0.000036 -0.000006 0.000001 0.000000
-0.000030 -0.000021 0.000025 0.000000
-0.000114 -0.000516 -0.000042 0.000000
-0.000901 0.000075 0.001081 0.000000
-0.000455 -0.000798 0.000983 0.000000
-0.000045 -0.000063 0.000122 0.000000
-0.000001 -0.000152 0.000832 0.000000
-0.000064 -0.000022 0.000061 0.000000
-0.000044 -0.000019 0.000493 0.000000
-0.000059 -0.000028 0.000047 0.000000
-0.000518 -0.000166 0.000332 0.000000
-0.000914 -0.000060 0.000988 0.000000
-0.000719 0.000006 0.000654 0.000000
-0.000015 -0.000106 0.000184 0.000000
-0.000023 -0.000073 0.000229 0.000000
0.000278 -0.000464 0.000466 0.000000
0.000208 -0.000391 0.000367 0.000000
0.000104 -0.000228 0.000211 0.000000
-0.000339 -0.000881 0.000546 0.000000
-0.000374 -0.001125 0.002102 0.000000
0.000206 -0.000408 0.000293 0.000000
-0.000292 -0.000947 0.001219 0.000000
0.000002 -0.001381 0.000672 0.000000
-0.000331 -0.001170 0.000925 0.000000
0.000367 -0.000553 0.000431 0.000000
-0.000027 -0.000107 0.000109 0.000000
0.000002 -0.000138 0.000122 0.000000
-0.000735 -0.000041 0.000728 0.000000
-0.000043 -0.000075 0.000122 0.000000
0.000419 -0.000551 0.000662 0.000000
0.000034 -0.000159 0.000180 0.000000
-0.000027 -0.000114 0.000100 0.000000
0.000366 -0.001974 0.001915 0.000000
0.000238 -0.000419 0.000379 0.000000
0.000339 -0.001572 0.000622 0.000000
-0.000435 -0.001295 0.001046 0.000000
0.000264 -0.000431 0.000049 0.000000
-0.000166 -0.001308 0.002666 0.000000
0.000045 -0.000220 0.000109 0.000000
0.000226 -0.000440 0.000427 0.000000
0.000670 -0.000919 0.000239 0.000000
0.000185 -0.000391 0.000112 0.000000
0.000417 -0.001696 0.000591 0.000000
0.000263 -0.000428 0.000533 0.000000
0.000358 -0.000569 0.001101 0.000000
0.000040 -0.000177 0.000169 0.000000
0.000386 -0.001905 0.001969 0.000000
-0.000038 -0.000055 0.000405 0.000000
-0.000041 -0.000068 0.000130 0.000000
-0.000055 -0.000049 0.000139 0.000000
-0.000051 -0.000043 0.000106 0.000000
-0.000044 -0.000082 0.000273 0.000000
-0.000059 -0.000033 0.000059 0.000000
-0.000025 -0.000106 0.000430 0.000000
0.000052 -0.000145 0.000533 0.000000
-0.000050 -0.000057 0.000079 0.000000
-0.000052 -0.000048 0.000088 0.000000
-0.000053 -0.000048 0.000061 0.000000
-0.000053 -0.000040 0.000054 0.000000
-0.000426 -0.000175 0.000401 0.000000
-0.000045 -0.000024 0.000034 0.000000
-0.000478 -0.000309 0.000839 0.000000
0.000351 -0.001079 0.000875 0.000000
-0.000242 -0.000223 0.000485 0.000000
0.000000 -0.001204 0.001302 0.000000
-0.000018 -0.000097 0.000391 0.000000
0.000052 -0.001495 0.001933 0.000000
0.000034 -0.000138 0.000315 0.000000
0.000227 -0.001472 0.002184 0.000000
-0.000367 -0.000759 0.000818 0.000000
-0.000029 -0.001382 0.001885 0.000000
0.000098 -0.000190 0.000419 0.000000
0.000043 -0.000194 0.000348 0.000000
0.000818 -0.000939 0.001445 0.000000
0.000217 -0.000386 0.000310 0.000000
-0.000315 -0.000885 0.000979 0.000000
0.000150 -0.000268 0.000315 0.000000
0.000216 -0.001747 0.001882 0.000000
0.000042 -0.001533 0.000579 0.000000
0.000049 -0.000195 0.000331 0.000000
-0.000026 -0.000096 0.000209 0.000000
0.000406 -0.000549 0.000724 0.000000
0.000146 -0.000323 0.000133 0.000000
0.000598 -0.002064 0.001616 0.000000
-0.000371 -0.000744 0.000062 0.000000
0.000149 -0.002223 0.000537 0.000000
0.000244 -0.000450 0.000282 0.000000
0.000229 -0.000417 0.000410 0.000000
-0.000520 -0.000665 0.000010 0.000000
0.000188 -0.002363 0.001309 0.000000
0.000140 -0.000322 0.000223 0.000000
0.000300 -0.000534 0.000558 0.000000
0.000286 -0.000498 0.000484 0.000000
0.000219 -0.000443 0.000296 0.000000
0.000056 -0.000226 0.000081 0.000000
0.000144 -0.001711 0.001012 0.000000
-0.000001 -0.001384 0.002243 0.000000
0.000559 -0.000704 0.000807 0.000000
0.000474 -0.000594 0.000485 0.000000
0.000003 -0.001691 0.002241 0.000000
0.000216 -0.000418 0.000286 0.000000
-0.000373 -0.001156 0.000999 0.000000
0.000376 -0.000551 0.000471 0.000000
0.000077 -0.002427 0.001500 0.000000
0.000171 -0.000404 0.000170 0.000000
0.000062 -0.002101 0.002114 0.000000
-0.000629 -0.000325 0.000009 0.000000
-0.000136 -0.001613 0.001419 0.000000
-0.000563 -0.001128 0.001378 0.000000
-0.000060 -0.001830 0.001620 0.000000
-0.000246 -0.001274 0.001252 0.000000
0.000057 -0.001444 0.001817 0.000000
0.000036 -0.001469 0.001809 0.000000
-0.000000 -0.001309 0.001657 0.000000
0.000104 -0.001582 0.001956 0.000000
-0.000300 -0.000801 0.000879 0.000000
0.000041 -0.001343 0.001979 0.000000
0.000012 -0.000143 0.000494 0.000000
-0.000490 -0.000558 0.000830 0.000000
-0.000246 -0.000935 0.002036 0.000000
-0.000420 -0.000769 0.001295 0.000000
0.000213 -0.000405 0.000987 0.000000
-0.000274 -0.000610 0.001698 0.000000
-0.000474 -0.000518 0.000998 0.000000
0.000042 -0.001157 0.001894 0.000000
-0.000319 -0.000546 0.000852 0.000000
-0.000013 -0.000077 0.000039 0.000000
0.000074 -0.000887 0.000174 0.000000
0.000143 -0.000241 0.000019 0.000000
-0.000189 -0.000330 0.000062 0.000000
0.000000 -0.000711 0.000114 0.000000
-0.000000 -0.001146 0.001349 0.000000
-0.000028 -0.000874 0.001187 0.000000
-0.000174 -0.000632 0.000596 0.000000
-0.000206 -0.000339 0.000241 0.000000
-0.000215 -0.000698 0.000929 0.000000
-0.000007 -0.000117 0.000186 0.000000
0.000067 -0.000193 0.000249 0.000000
-0.000513 -0.000344 0.001313 0.000000
-0.000022 -0.000088 0.000124 0.000000
-0.000364 -0.000226 0.000439 0.000000
0.000020 -0.000102 0.000171 0.000000
-0.000346 -0.000303 0.000498 0.000000
-0.000267 -0.000333 0.000161 0.000000
-0.000201 -0.000278 0.000351 0.000000
-0.000249 -0.000283 0.000197 0.000000
-0.000181 -0.000251 0.000166 0.000000
0.000000 -0.000902 0.000352 0.000000
0.000027 -0.000112 0.000064 0.000000
-0.000117 -0.000656 0.000388 0.000000
0.000032 -0.000098 0.000058 0.000000
0.000048 -0.000127 0.000043 0.000000
0.000048 -0.000122 0.000057 0.000000
-0.000087 -0.000638 0.000412 0.000000
-0.000023 -0.000590 -0.000032 0.000000
-0.000010 -0.000046 0.000006 0.000000
0.000093 -0.000857 0.000516 0.000000
0.000011 -0.000098 0.000019 0.000000
0.000035 -0.000106 0.000049 0.000000
-0.000010 -0.000048 0.000017 0.000000
-0.000013 -0.000042 0.000015 0.000000
-0.000099 -0.000578 -0.000171 0.000000
-0.000013 -0.000046 0.000005 0.000000
0.000021 -0.000083 0.000014 0.000000
0.000024 -0.000493 -0.000240 0.000000
-0.000032 -0.000504 0.000200 0.000000
0.000072 -0.000644 -0.000013 0.000000
-0.000155 -0.000386 0.000150 0.000000
-0.000002 -0.000770 0.000144 0.000000
-0.000097 -0.000484 -0.000015 0.000000
-0.000053 -0.000531 0.000179 0.000000
0.000017 -0.000128 0.000054 0.000000
-0.000068 -0.000750 -0.000083 0.000000
-0.000080 -0.000332 -0.000063 0.000000
0.000000 -0.000542 -0.001412 0.000000
0.000001 -0.000082 0.000057 0.000000
-0.000179 -0.000272 0.000163 0.000000
-0.000011 -0.000633 -0.000042 0.000000
-0.000020 -0.000078 0.000042 0.000000
-0.000042 -0.000710 0.000036 0.000000
-0.000110 -0.000542 0.000186 0.000000
-0.000091 -0.000303 -0.000280 0.000000
-0.000070 -0.000567 0.000176 0.000000
0.000091 -0.000827 0.000008 0.000000
0.000048 -0.000907 0.000065 0.000000
-0.000005 -0.000079 -0.000003 0.000000
0.001332 -0.003860 0.000454 0.000000
0.000684 -0.000948 0.000390 0.000000
-0.000807 -0.001103 0.000443 0.000000
-0.000652 -0.001134 0.000524 0.000000
-0.000730 -0.001014 -0.000358 0.000000
0.000641 -0.000908 -0.000317 0.000000
-0.000071 -0.001868 -0.001669 0.000000
0.000532 -0.000887 -0.000651 0.000000
0.000328 -0.000581 0.000006 0.000000
0.000659 -0.003469 -0.000305 0.000000
0.000813 -0.001258 -0.000112 0.000000
0.000435 -0.000809 -0.000335 0.000000
-0.000141 -0.002289 -0.000264 0.000000
0.000313 -0.002652 0.000098 0.000000
0.000362 -0.002618 0.000736 0.000000
-0.000426 -0.001958 0.000750 0.000000
-0.000516 -0.001876 0.000363 0.000000
0.000000 -0.002215 0.000653 0.000000
-0.000539 -0.001718 0.000490 0.000000
0.000330 -0.000635 0.000161 0.000000
-0.000702 -0.000965 -0.000220 0.000000
-0.000363 -0.002204 0.000028 0.000000
0.000670 -0.001063 -0.000463 0.000000
0.000671 -0.000985 -0.000129 0.000000
0.000366 -0.002469 -0.001301 0.000000
0.000368 -0.000682 -0.000119 0.000000
0.000566 -0.002945 0.000427 0.000000
0.000212 -0.002807 -0.000039 0.000000
0.000264 -0.000561 -0.000072 0.000000
-0.000878 -0.001605 -0.000872 0.000000
0.000374 -0.000609 0.000261 0.000000
0.000364 -0.000694 0.000167 0.000000
0.000787 -0.001098 -0.000023 0.000000
0.000361 -0.000595 0.000139 0.000000
-0.000627 -0.001429 0.000142 0.000000
0.000304 -0.000551 0.000440 0.000000
-0.000413 -0.001475 0.000251 0.000000
0.000923 -0.001270 0.000472 0.000000
-0.000357 -0.001612 0.000436 0.000000
-0.000569 -0.001459 0.000151 0.000000
0.000487 -0.000733 0.000233 0.000000
0.000387 -0.000670 0.000087 0.000000
-0.000441 -0.001511 0.000515 0.000000
0.000926 -0.001167 0.000004 0.000000
0.000514 -0.000800 -0.000096 0.000000
-0.000028 -0.002012 -0.001961 0.000000
0.000278 -0.000544 -0.000182 0.000000
-0.000094 -0.001822 -0.002072 0.000000
-0.000334 -0.001601 -0.000969 0.000000
-0.000415 -0.000967 -0.002474 0.000000
0.000342 -0.000609 -0.000044 0.000000
-0.000865 -0.000804 -0.001091 0.000000
-0.000760 -0.001149 0.000160 0.000000
0.000723 -0.001075 0.000441 0.000000
0.000565 -0.000811 -0.000154 0.000000
-0.000754 -0.001172 0.000424 0.000000
-0.000798 -0.001059 0.000195 0.000000
-0.000753 -0.001244 0.000096 0.000000
-0.000872 -0.001108 0.000311 0.000000
0.000593 -0.000934 0.000392 0.000000
-0.000897 -0.000893 0.000433 0.000000
-0.000727 -0.001226 0.000398 0.000000
-0.000075 -0.001731 -0.000504 0.000000
-0.000454 -0.001529 0.000435 0.000000
-0.000490 -0.001834 -0.000841 0.000000
0.000231 -0.002327 -0.000252 0.000000
0.000471 -0.002769 -0.000429 0.000000
-0.000336 -0.001850 -0.001734 0.000000
0.000719 -0.000965 -0.000218 0.000000
0.000197 -0.002155 -0.000157 0.000000
0.000699 -0.002941 0.000263 0.000000
0.000195 -0.000387 0.000267 0.000000
0.001163 -0.003585 0.001249 0.000000
-0.000510 -0.001350 -0.000056 0.000000
-0.000442 -0.001719 0.000334 0.000000
0.000102 -0.002006 -0.000243 0.000000
0.000322 -0.002732 -0.001232 0.000000
-0.000522 -0.001067 -0.000131 0.000000
0.000517 -0.002745 0.000176 0.000000
-0.000475 -0.001385 -0.000241 0.000000
-0.000242 -0.001879 0.000247 0.000000
-0.000587 -0.000743 -0.000389 0.000000
-0.000550 -0.001118 -0.000393 0.000000
0.000346 -0.000600 0.000256 0.000000
-0.000340 -0.001291 -0.000716 0.000000
0.000077 -0.000292 0.000106 0.000000
-0.000243 -0.001731 -0.000421 0.000000
0.000169 -0.000393 0.000159 0.000000
0.000472 -0.002328 -0.000315 0.000000
-0.000135 -0.001871 -0.000319 0.000000
0.000336 -0.002138 -0.000543 0.000000
0.000176 -0.000462 0.000342 0.000000
0.000121 -0.000387 0.000221 0.000000
0.000607 -0.002510 -0.000120 0.000000
0.000757 -0.002734 0.000038 0.000000
0.000662 -0.000952 -0.000402 0.000000
0.000460 -0.000741 -0.000026 0.000000
0.000514 -0.000772 0.000124 0.000000
-0.000499 -0.001316 -0.000317 0.000000
0.000347 -0.000525 0.000310 0.000000
0.001089 -0.003396 -0.001032 0.000000
0.000522 -0.000699 0.000012 0.000000
0.000445 -0.000676 0.000031 0.000000
0.000745 -0.003090 -0.000535 0.000000
-0.000411 -0.001480 0.000172 0.000000
-0.000425 -0.001361 0.000145 0.000000
-0.000491 -0.001103 -0.000168 0.000000
0.000881 -0.001243 0.000132 0.000000
0.000675 -0.002408 0.000336 0.000000
-0.000477 -0.001508 0.000267 0.000000
-0.000419 -0.001421 0.000180 0.000000
-0.000441 -0.001556 0.000488 0.000000
0.000831 -0.001043 0.000266 0.000000
0.000194 -0.002175 0.001072 0.000000
-0.000454 -0.001494 0.000317 0.000000
0.000895 -0.001192 0.000175 0.000000
0.000594 -0.000825 0.000041 0.000000
-0.000676 -0.001272 -0.000042 0.000000
-0.000478 -0.001531 -0.000555 0.000000
0.000849 -0.001059 0.000075 0.000000
-0.000303 -0.002192 -0.000529 0.000000
-0.000416 -0.001408 0.000009 0.000000
-0.000562 -0.001357 0.000142 0.000000
-0.000547 -0.001349 0.000164 0.000000
-0.000064 -0.001824 0.001242 0.000000
-0.000546 -0.001428 0.000272 0.000000
-0.000586 -0.001424 0.000368 0.000000
-0.000495 -0.001452 0.000430 0.000000
-0.000524 -0.001424 0.000447 0.000000
-0.000364 -0.001338 -0.000038 0.000000
-0.000422 -0.001495 0.000092 0.000000
0.000783 -0.001120 -0.000259 0.000000
-0.000326 -0.001734 0.000033 0.000000
0.000125 -0.002227 -0.000312 0.000000
-0.000633 -0.000995 0.000816 0.000000
0.000139 -0.000379 0.000001 0.000000
0.000074 -0.001756 0.001232 0.000000
0.000032 -0.000304 -0.000050 0.000000
0.000441 -0.002459 0.001321 0.000000
0.000094 -0.000372 0.000053 0.000000
0.000259 -0.000517 0.000023 0.000000
-0.000378 -0.001545 0.000184 0.000000
-0.000428 -0.001376 0.000171 0.000000
0.000252 -0.000488 -0.000247 0.000000
0.000100 -0.000324 -0.000119 0.000000
-0.000447 -0.001321 0.000104 0.000000
-0.000385 -0.001341 0.000387 0.000000
0.000443 -0.000607 -0.000405 0.000000
0.000148 -0.000400 -0.000145 0.000000
-0.000168 -0.001523 0.000205 0.000000
0.000377 -0.002386 0.000228 0.000000
0.000599 -0.002646 -0.000695 0.000000
0.000097 -0.000349 -0.000084 0.000000
0.000289 -0.000512 -0.000115 0.000000
0.000355 -0.000573 -0.000265 0.000000
0.000154 -0.000394 -0.000122 0.000000
0.000037 -0.000272 -0.000031 0.000000
0.000229 -0.000422 -0.000097 0.000000
0.000087 -0.000315 -0.000026 0.000000
0.000036 -0.000289 -0.000021 0.000000
-0.000252 -0.001709 0.000345 0.000000
0.000376 -0.002135 0.001591 0.000000
-0.000163 -0.001629 0.000803 0.000000
0.000111 -0.002233 -0.000923 0.000000
0.000463 -0.002564 -0.000898 0.000000
0.000307 -0.000570 0.000187 0.000000
-0.000383 -0.001513 -0.000363 0.000000
0.001019 -0.003116 0.000678 0.000000
0.000235 -0.000475 0.000136 0.000000
-0.000436 -0.001210 -0.000351 0.000000
0.000477 -0.002597 -0.000698 0.000000
-0.000416 -0.001574 0.000592 0.000000
-0.000022 -0.000198 0.000029 0.000000
0.000057 -0.001817 0.001162 0.000000
0.000011 -0.000190 -0.000097 0.000000
-0.000515 -0.001211 -0.000193 0.000000
-0.000488 -0.001301 -0.000097 0.000000
-0.000259 -0.001753 -0.000453 0.000000
-0.000128 -0.001882 -0.000711 0.000000
-0.000433 -0.001375 0.000075 0.000000
-0.000503 -0.001288 -0.000119 0.000000
-0.000393 -0.001445 0.000200 0.000000
-0.000403 -0.001468 0.000161 0.000000
-0.000572 -0.000759 -0.001009 0.000000
-0.000532 -0.001231 -0.000184 0.000000
-0.000711 -0.000707 -0.000083 0.000000
-0.000543 -0.001092 -0.000097 0.000000
-0.000746 -0.000899 0.000488 0.000000
-0.000360 -0.001596 0.000365 0.000000
0.000243 -0.000461 0.000039 0.000000
0.000217 -0.001818 -0.001012 0.000000
0.000265 -0.000518 0.000043 0.000000
-0.000648 -0.001139 -0.000482 0.000000
0.000568 -0.000883 0.000118 0.000000
0.000380 -0.000591 0.000217 0.000000
-0.000383 -0.001593 0.000180 0.000000
-0.000457 -0.001445 0.000409 0.000000
0.000404 -0.002750 0.001022 0.000000
0.000140 -0.000412 0.000061 0.000000
-0.000546 -0.001402 0.000808 0.000000
0.000540 -0.002730 0.000882 0.000000
-0.000429 -0.001818 0.000848 0.000000
0.000788 -0.003094 -0.000098 0.000000
0.000159 -0.002399 0.000621 0.000000
0.000760 -0.003092 0.000623 0.000000
-0.000460 -0.001720 -0.000039 0.000000
0.000373 -0.000557 0.000130 0.000000
-0.000087 -0.002349 -0.000610 0.000000
0.000250 -0.000506 0.000162 0.000000
0.000114 -0.000388 0.000042 0.000000
0.000355 -0.000608 0.000048 0.000000
0.000206 -0.000448 -0.000009 0.000000
0.000241 -0.000532 0.000073 0.000000
0.000106 -0.000355 0.000050 0.000000
-0.000450 -0.001112 0.000415 0.000000
-0.000186 -0.001987 -0.000166 0.000000
-0.000417 -0.001227 -0.000078 0.000000
0.000360 -0.002774 -0.001378 0.000000
-0.000353 -0.001641 0.000731 0.000000
-0.000289 -0.001786 0.000385 0.000000
-0.000442 -0.001511 0.000088 0.000000
0.000361 -0.000788 0.000133 0.000000
-0.000472 -0.001478 0.000702 0.000000
0.000180 -0.000404 -0.000138 0.000000
-0.000314 -0.001439 0.001346 0.000000
0.000328 -0.000632 -0.000037 0.000000
0.000271 -0.000534 -0.000216 0.000000
0.000441 -0.000708 0.000006 0.000000
0.000125 -0.002150 0.000558 0.000000
0.000054 -0.002095 0.000404 0.000000
0.000122 -0.002234 0.000124 0.000000
-0.000157 -0.001755 -0.000184 0.000000
-0.000191 -0.002001 0.000113 0.000000
-0.000183 -0.002036 0.000140 0.000000
-0.000210 -0.001996 0.000052 0.000000
0.000408 -0.002880 0.001179 0.000000
-0.000205 -0.002148 0.000477 0.000000
0.000175 -0.002625 0.000811 0.000000
-0.000136 -0.002344 0.000739 0.000000
0.000000 -0.002838 -0.000300 0.000000
0.000431 -0.003201 0.000433 0.000000
-0.000508 -0.001339 -0.001456 0.000000
0.000000 -0.002365 0.000764 0.000000
-0.000139 -0.002122 0.000394 0.000000
0.000000 -0.002316 0.000606 0.000000
0.000000 -0.002285 0.000444 0.000000
-0.000100 -0.002172 0.000093 0.000000
0.000059 -0.002414 -0.000037 0.000000
-0.000049 -0.002365 -0.000043 0.000000
-0.000000 -0.002366 -0.000084 0.000000
0.000230 -0.002552 0.000019 0.000000
-0.000097 -0.002159 -0.000009 0.000000
-0.000128 -0.002230 -0.000317 0.000000
-0.000150 -0.002205 -0.000122 0.000000
0.000120 -0.002431 -0.000063 0.000000
0.000362 -0.002688 0.000266 0.000000
0.000000 -0.002273 0.000278 0.000000
-0.000107 -0.002255 -0.000353 0.000000
-0.000384 -0.001784 0.000428 0.000000
0.000258 -0.002443 0.000708 0.000000
-0.000186 -0.001965 0.000298 0.000000
-0.000102 -0.002086 0.000452 0.000000
-0.000385 -0.001633 0.000191 0.000000
0.000000 -0.002219 0.000443 0.000000
0.000173 -0.000373 0.000283 0.000000
0.000000 -0.002532 -0.000110 0.000000
0.000296 -0.000510 0.000270 0.000000
0.000161 -0.000516 0.000378 0.000000
-0.000734 -0.001174 -0.000563 0.000000
0.000563 -0.002859 -0.000182 0.000000
0.000000 -0.002287 -0.000376 0.000000
-0.000384 -0.001764 -0.000681 0.000000
0.000028 -0.002407 -0.000155 0.000000
0.000158 -0.002571 0.000157 0.000000
-0.000372 -0.001680 0.000166 0.000000
-0.000439 -0.001474 0.000426 0.000000
-0.000036 -0.002207 -0.000453 0.000000
0.000080 -0.000337 0.000046 0.000000
-0.000357 -0.001524 0.000185 0.000000
0.000097 -0.000310 0.000103 0.000000
-0.000137 -0.002152 -0.000850 0.000000
0.000276 -0.000553 0.000158 0.000000
0.000552 -0.000755 0.000193 0.000000
0.000650 -0.000809 0.000164 0.000000
0.000421 -0.000710 0.000109 0.000000
-0.000318 -0.001579 -0.000617 0.000000
0.000498 -0.003010 -0.000132 0.000000
0.000178 -0.000460 0.000237 0.000000
0.000285 -0.000699 0.000382 0.000000
0.000442 -0.000667 0.000268 0.000000
0.000570 -0.000978 0.000221 0.000000
0.000278 -0.000521 0.000155 0.000000
-0.000043 -0.002690 0.001210 0.000000
-0.000430 -0.001331 -0.000425 0.000000
-0.000404 -0.001623 -0.000379 0.000000
0.000126 -0.002377 -0.000274 0.000000
-0.000465 -0.001911 0.000741 0.000000
0.000335 -0.002783 -0.000721 0.000000
0.000424 -0.002456 -0.001063 0.000000
-0.000764 -0.000575 -0.000153 0.000000
0.000402 -0.000574 0.000005 0.000000
0.000164 -0.000421 0.000059 0.000000
-0.000290 -0.001665 0.000798 0.000000
0.000401 -0.000714 -0.000033 0.000000
-0.000453 -0.001634 0.000566 0.000000
-0.000220 -0.001854 0.000835 0.000000
-0.000494 -0.001457 0.000289 0.000000
0.000007 -0.002164 0.001058 0.000000
0.000558 -0.003006 0.000729 0.000000
-0.000307 -0.002051 0.000884 0.000000
0.000241 -0.002342 0.000379 0.000000
0.000000 -0.002186 0.000499 0.000000
0.000073 -0.002495 -0.000486 0.000000
-0.000000 -0.002420 -0.000126 0.000000
0.000308 -0.002397 0.000064 0.000000
-0.000000 -0.002362 0.000225 0.000000
-0.000491 -0.001259 0.000970 0.000000
0.000000 -0.002936 0.000729 0.000000
0.000225 -0.002577 0.000731 0.000000
-0.000402 -0.001850 0.000579 0.000000
-0.000016 -0.002189 0.000735 0.000000
-0.000189 -0.002236 0.000703 0.000000
-0.000504 -0.001781 0.000177 0.000000
-0.000313 -0.001931 0.000177 0.000000
-0.000000 -0.003014 0.000844 0.000000
0.000000 -0.001918 0.000473 0.000000
-0.000764 -0.000687 -0.000490 0.000000
-0.000212 -0.001952 0.000112 0.000000
0.000195 -0.000470 0.000314 0.000000
-0.000433 -0.001305 0.000429 0.000000
-0.000121 -0.002263 0.000963 0.000000
-0.000115 -0.002286 -0.000343 0.000000
0.000160 -0.000433 -0.000036 0.000000
-0.000255 -0.002080 0.001224 0.000000
-0.000249 -0.001756 0.000983 0.000000
-0.000436 -0.001512 0.000333 0.000000
0.000773 -0.003309 0.000468 0.000000
-0.000320 -0.001505 0.001401 0.000000
-0.000345 -0.001610 0.000643 0.000000
-0.000205 -0.002063 0.001894 0.000000
0.000539 -0.000736 0.000289 0.000000
0.000356 -0.002425 -0.000080 0.000000
-0.000427 -0.001960 0.001897 0.000000
0.000212 -0.002281 0.001791 0.000000
-0.000426 -0.001498 0.000749 0.000000
-0.000356 -0.001356 -0.000934 0.000000
-0.000327 -0.001683 0.000455 0.000000
0.000035 -0.002168 0.001547 0.000000
-0.000000 -0.002367 0.000605 0.000000
0.000022 -0.002448 0.000025 0.000000
0.000000 -0.002427 0.000505 0.000000
0.000359 -0.001976 0.000097 0.000000
0.000747 -0.001068 0.000265 0.000000
0.000111 -0.002100 -0.000530 0.000000
-0.000145 -0.002195 0.000266 0.000000
0.000364 -0.000674 0.000690 0.000000
0.000000 -0.002538 0.000996 0.000000
-0.000470 -0.001488 0.000970 0.000000
0.000276 -0.000482 0.000100 0.000000
0.000259 -0.000482 0.000196 0.000000
-0.000180 -0.001795 0.001769 0.000000
-0.000392 -0.001565 0.001257 0.000000
-0.000340 -0.001545 0.000440 0.000000
0.000265 -0.000499 0.000295 0.000000
0.000706 -0.003059 0.000215 0.000000
0.000319 -0.000519 0.000353 0.000000
0.000218 -0.000451 0.000158 0.000000
0.000409 -0.000607 0.000536 0.000000
0.000417 -0.002929 -0.000099 0.000000
0.000469 -0.000705 0.000048 0.000000
0.000419 -0.000724 0.000486 0.000000
0.000278 -0.002141 0.001914 0.000000
0.000612 -0.001973 -0.000960 0.000000
-0.000320 -0.001082 -0.000753 0.000000
-0.000843 -0.000731 0.000409 0.000000
0.000461 -0.000771 0.000445 0.000000
0.000239 -0.000565 0.000076 0.000000
-0.000671 -0.001277 0.000883 0.000000
-0.000796 -0.000742 -0.000238 0.000000
0.000254 -0.000513 0.000292 0.000000
0.000218 -0.002505 -0.000399 0.000000
0.000359 -0.000593 0.000291 0.000000
0.000326 -0.000564 0.000397 0.000000
0.001127 -0.003090 -0.000157 0.000000
0.000459 -0.002505 0.000925 0.000000
0.000449 -0.000712 0.000116 0.000000
0.000398 -0.000654 0.000120 0.000000
-0.000093 -0.001936 0.000791 0.000000
-0.000653 -0.001433 0.001239 0.000000
0.000301 -0.002614 0.001031 0.000000
0.000493 -0.002742 0.000485 0.000000
0.000580 -0.002769 0.000887 0.000000
0.000026 -0.000230 -0.000009 0.000000
0.000511 -0.002547 0.001032 0.000000
0.000376 -0.000563 0.000225 0.000000
0.000764 -0.002978 0.000550 0.000000
0.000384 -0.000603 0.000144 0.000000
0.000328 -0.000548 0.000004 0.000000
0.000390 -0.000603 0.000211 0.000000
0.000499 -0.002323 0.000163 0.000000
0.000338 -0.000570 0.000026 0.000000
0.000746 -0.003061 0.000232 0.000000
-0.000252 -0.001858 -0.000067 0.000000
0.000203 -0.002217 0.000595 0.000000
-0.000390 -0.001159 0.000465 0.000000
0.000089 -0.001973 0.000453 0.000000
0.000119 -0.002434 0.000308 0.000000
0.000248 -0.000495 0.000158 0.000000
0.000217 -0.000414 0.000255 0.000000
-0.000750 -0.000848 0.000850 0.000000
0.000069 -0.001881 0.001963 0.000000
0.000241 -0.000470 0.000116 0.000000
0.000281 -0.000472 0.000157 0.000000
0.000197 -0.000424 0.000132 0.000000
0.000237 -0.000465 0.000165 0.000000
0.000237 -0.000448 0.000296 0.000000
0.000217 -0.000436 -0.000002 0.000000
0.000163 -0.000473 0.000831 0.000000
-0.000099 -0.001419 0.001218 0.000000
0.000240 -0.000445 0.000382 0.000000
-0.000130 -0.001303 -0.000524 0.000000
0.000288 -0.000500 0.000074 0.000000
0.000340 -0.000521 0.000253 0.000000
0.000219 -0.000446 0.000062 0.000000
0.000222 -0.000439 0.000285 0.000000
0.000191 -0.000411 0.000019 0.000000
0.000250 -0.000433 0.000109 0.000000
0.000190 -0.000389 -0.000023 0.000000
0.000128 -0.000344 0.000189 0.000000
0.000189 -0.000395 -0.000022 0.000000
0.000093 -0.000286 0.000079 0.000000
-0.000397 -0.000980 0.000190 0.000000
0.000146 -0.000353 -0.000049 0.000000
0.000213 -0.000422 0.000056 0.000000
0.000026 -0.001836 0.002468 0.000000
0.000138 -0.000336 0.000024 0.000000
0.000084 -0.000260 0.000057 0.000000
0.000374 -0.000565 0.000225 0.000000
0.000344 -0.000531 0.000254 0.000000
0.000292 -0.000506 0.000123 0.000000
0.000318 -0.000506 0.000221 0.000000
0.000400 -0.000601 0.000190 0.000000
0.000342 -0.000543 0.000207 0.000000
0.000383 -0.000631 -0.000040 0.000000
0.000291 -0.000497 0.000145 0.000000
0.000389 -0.000607 0.000182 0.000000
0.000448 -0.000628 0.000071 0.000000
0.000384 -0.000586 0.000225 0.000000
0.000381 -0.000585 0.000025 0.000000
0.000219 -0.000418 0.000163 0.000000
0.000123 -0.002216 0.000794 0.000000
0.000296 -0.000487 0.000204 0.000000
0.000359 -0.000567 0.000210 0.000000
0.000347 -0.000547 0.000193 0.000000
0.000226 -0.000421 0.000159 0.000000
0.000035 -0.000258 -0.000035 0.000000
-0.000488 -0.001011 0.000269 0.000000
0.000081 -0.000292 0.000036 0.000000
0.000577 -0.000702 -0.000194 0.000000
0.000440 -0.000649 0.000695 0.000000
0.000152 -0.001470 0.001979 0.000000
0.000463 -0.002650 0.002854 0.000000
-0.000057 -0.001681 0.001532 0.000000
0.000169 -0.002441 0.000678 0.000000
0.000393 -0.002252 0.001582 0.000000
-0.000057 -0.001790 0.000254 0.000000
0.000166 -0.001930 0.000131 0.000000
0.000902 -0.003066 0.000865 0.000000
0.000020 -0.000245 -0.000045 0.000000
0.000127 -0.000335 0.000093 0.000000
0.000038 -0.000233 -0.000001 0.000000
-0.000336 -0.001685 0.000224 0.000000
-0.000038 -0.002068 0.000467 0.000000
0.000234 -0.002279 0.000989 0.000000
0.000171 -0.002301 0.000954 0.000000
-0.000401 -0.001618 0.000967 0.000000
-0.000336 -0.001438 0.000194 0.000000
-0.000021 -0.002279 0.000989 0.000000
0.000398 -0.002496 0.001022 0.000000
0.000265 -0.000565 0.000058 0.000000
0.000237 -0.000532 -0.000084 0.000000
0.000272 -0.000486 -0.000026 0.000000
0.000233 -0.000502 0.000061 0.000000
0.000158 -0.000441 0.000146 0.000000
0.000802 -0.002412 0.000636 0.000000
0.000091 -0.000326 0.000018 0.000000
0.000068 -0.000244 0.000257 0.000000
0.000043 -0.000292 -0.000069 0.000000
0.000107 -0.000391 0.000090 0.000000
0.000620 -0.000814 0.000007 0.000000
-0.000287 -0.002018 0.001304 0.000000
-0.000139 -0.001753 -0.000308 0.000000
0.000630 -0.000813 0.000214 0.000000
0.000619 -0.002615 -0.000249 0.000000
0.000424 -0.000612 0.000161 0.000000
-0.000509 -0.001309 0.000007 0.000000
-0.000094 -0.001912 -0.000865 0.000000
-0.000002 -0.002245 0.000887 0.000000
-0.000573 -0.000736 0.001101 0.000000
0.000263 -0.000507 0.000143 0.000000
-0.000564 -0.001488 0.000924 0.000000
-0.000235 -0.002125 0.001485 0.000000
0.000472 -0.002479 0.001196 0.000000
-0.000322 -0.001878 0.000941 0.000000
0.000027 -0.000298 0.000148 0.000000
0.000532 -0.002688 -0.000072 0.000000
-0.000167 -0.001707 -0.000366 0.000000
0.000251 -0.002147 0.000803 0.000000
-0.000250 -0.001560 0.000667 0.000000
0.000871 -0.003001 -0.000784 0.000000
-0.000386 -0.001416 -0.000003 0.000000
0.000484 -0.002232 -0.000176 0.000000
-0.000286 -0.001538 0.000118 0.000000
-0.000262 -0.001833 -0.000145 0.000000
0.000162 -0.002106 -0.000293 0.000000
0.000949 -0.002785 -0.000248 0.000000
0.000175 -0.002113 0.000915 0.000000
-0.000308 -0.001869 0.000228 0.000000
-0.000702 -0.001125 0.000701 0.000000
-0.000382 -0.001329 -0.000292 0.000000
-0.000292 -0.001538 0.000422 0.000000
-0.000317 -0.001510 0.000146 0.000000
0.000070 -0.002260 0.000457 0.000000
-0.000208 -0.001698 0.000682 0.000000
-0.000132 -0.001124 -0.000692 0.000000
0.000232 -0.000405 0.000228 0.000000
0.000192 -0.000367 0.000093 0.000000
0.000185 -0.000389 0.000179 0.000000
0.000141 -0.000315 0.000246 0.000000
0.000480 -0.002429 0.002011 0.000000
0.000617 -0.000849 0.000319 0.000000
-0.000077 -0.001472 0.000354 0.000000
0.000151 -0.000389 -0.000283 0.000000
0.000384 -0.000614 0.000341 0.000000
-0.000282 -0.001321 0.000272 0.000000
0.000541 -0.000716 0.000500 0.000000
0.000285 -0.000496 0.000184 0.000000
-0.000384 -0.000924 -0.000821 0.000000
0.000043 -0.000263 -0.000364 0.000000
-0.000324 -0.000987 -0.000508 0.000000
-0.000592 -0.000811 0.000148 0.000000
0.000173 -0.000353 0.000170 0.000000
-0.000187 -0.001043 -0.000547 0.000000
0.000181 -0.000349 0.000125 0.000000
0.000438 -0.000535 0.000442 0.000000
0.000229 -0.000396 0.000107 0.000000
0.000080 -0.000280 0.000066 0.000000
0.000173 -0.000356 0.000174 0.000000
0.000219 -0.000412 0.000243 0.000000
0.000193 -0.000354 0.000202 0.000000
0.000097 -0.000270 0.000143 0.000000
0.000158 -0.000347 0.000169 0.000000
-0.000082 -0.000945 -0.000699 0.000000
0.000114 -0.000285 0.000160 0.000000
-0.000382 -0.001052 0.000551 0.000000
-0.000001 -0.000160 0.000087 0.000000
0.000247 -0.000445 0.000145 0.000000
0.000514 -0.000739 0.000146 0.000000
0.000116 -0.000313 0.000087 0.000000
-0.000625 -0.000609 0.000080 0.000000
-0.000425 -0.000781 0.000026 0.000000
0.000459 -0.000683 0.000043 0.000000
0.000514 -0.000655 0.000483 0.000000
-0.000349 -0.000969 0.000351 0.000000
0.000458 -0.000619 0.000195 0.000000
0.000644 -0.000869 0.000257 0.000000
0.000490 -0.000641 0.000322 0.000000
0.000459 -0.000631 0.000213 0.000000
0.000349 -0.000570 0.000088 0.000000
0.000210 -0.000383 0.000121 0.000000
0.000610 -0.000744 0.000066 0.000000
0.000262 -0.000430 0.000096 0.000000
0.000416 -0.000562 0.000156 0.000000
0.000201 -0.000376 0.000089 0.000000
0.000242 -0.000444 0.000056 0.000000
0.000182 -0.000359 0.000090 0.000000
0.000152 -0.000369 0.000013 0.000000
0.000130 -0.000311 0.000097 0.000000
0.000201 -0.000412 0.000035 0.000000
-0.000524 -0.000939 0.000818 0.000000
-0.000275 -0.001029 0.000327 0.000000
-0.000278 -0.001000 0.000082 0.000000
0.000213 -0.000429 0.000001 0.000000
0.000353 -0.000593 0.000184 0.000000
0.000234 -0.000457 -0.000091 0.000000
0.000502 -0.000631 -0.000130 0.000000
0.000879 -0.000965 0.000229 0.000000
0.000698 -0.000920 -0.000118 0.000000
-0.000454 -0.001033 0.000383 0.000000
0.000240 -0.000412 0.000050 0.000000
0.000252 -0.000458 0.000063 0.000000
0.000125 -0.000324 0.000089 0.000000
0.000173 -0.000355 0.000052 0.000000
0.000205 -0.000401 0.000177 0.000000
0.000304 -0.000489 0.000225 0.000000
0.000355 -0.000546 0.000244 0.000000
0.000291 -0.000502 0.000214 0.000000
0.000156 -0.000331 0.000149 0.000000
0.000129 -0.000309 0.000112 0.000000
0.000269 -0.000491 0.000257 0.000000
0.000365 -0.000544 0.000261 0.000000
0.000367 -0.000550 0.000260 0.000000
0.000299 -0.000514 0.000301 0.000000
0.000298 -0.001939 0.002706 0.000000
0.000461 -0.000633 0.000252 0.000000
0.000340 -0.000536 0.000243 0.000000
0.000297 -0.000444 0.000350 0.000000
0.000246 -0.000418 0.000403 0.000000
0.000117 -0.000317 0.000226 0.000000
0.000251 -0.000393 -0.000099 0.000000
0.000272 -0.000460 -0.000180 0.000000
0.000193 -0.000413 -0.000035 0.000000
-0.000737 -0.000390 -0.000154 0.000000
0.000465 -0.000580 -0.000075 0.000000
-0.000349 -0.000914 -0.000156 0.000000
0.000512 -0.000752 0.000046 0.000000
0.000268 -0.000515 0.000083 0.000000
0.000461 -0.000710 -0.000060 0.000000
-0.000348 -0.000948 -0.000428 0.000000
-0.000120 -0.001039 -0.000709 0.000000
-0.000298 -0.000973 0.000474 0.000000
0.000103 -0.001739 0.001643 0.000000
0.000121 -0.000276 0.000251 0.000000
0.000106 -0.000291 -0.000007 0.000000
0.000538 -0.000713 0.000150 0.000000
0.000107 -0.000293 0.000144 0.000000
0.000147 -0.000304 -0.000012 0.000000
0.000502 -0.002108 0.000902 0.000000
0.000149 -0.000321 -0.000056 0.000000
0.000076 -0.000258 0.000052 0.000000
0.000103 -0.000292 0.000027 0.000000
0.000513 -0.001766 0.000611 0.000000
-0.000265 -0.001205 -0.000388 0.000000
0.000270 -0.000439 -0.000167 0.000000
0.000535 -0.000677 -0.000298 0.000000
0.000225 -0.000439 -0.000130 0.000000
0.000441 -0.002136 -0.000473 0.000000
-0.000210 -0.001411 0.000234 0.000000
-0.000314 -0.001102 -0.000240 0.000000
0.000121 -0.000301 -0.000001 0.000000
0.000388 -0.000644 0.000170 0.000000
0.000309 -0.000415 0.000138 0.000000
0.000482 -0.000534 -0.000034 0.000000
0.000210 -0.001627 0.001167 0.000000
0.000558 -0.000748 -0.000015 0.000000
-0.000073 -0.001497 0.001204 0.000000
0.000498 -0.000761 -0.000023 0.000000
0.000406 -0.000597 0.000168 0.000000
0.000439 -0.000595 0.000229 0.000000
-0.000091 -0.001442 0.001673 0.000000
-0.000139 -0.001326 0.001458 0.000000
0.000163 -0.000340 0.000132 0.000000
0.000339 -0.000510 0.000277 0.000000
0.000223 -0.000402 0.000146 0.000000
0.000197 -0.000382 0.000168 0.000000
0.000227 -0.000394 0.000100 0.000000
0.000202 -0.000389 0.000153 0.000000
0.000176 -0.000357 0.000113 0.000000
0.000236 -0.000410 0.000197 0.000000
0.000333 -0.000528 0.000202 0.000000
0.000397 -0.000558 0.000076 0.000000
0.000460 -0.000665 0.000168 0.000000
0.000354 -0.000520 0.000122 0.000000
0.000402 -0.000559 0.000113 0.000000
0.000327 -0.000483 0.000097 0.000000
0.000500 -0.000652 0.000164 0.000000
0.000477 -0.000635 0.000205 0.000000
0.000457 -0.000608 0.000082 0.000000
0.000538 -0.000696 0.000164 0.000000
0.000331 -0.000486 0.000179 0.000000
0.000447 -0.000598 0.000054 0.000000
0.000356 -0.000506 0.000117 0.000000
0.000540 -0.000699 0.000137 0.000000
0.000476 -0.000602 0.000051 0.000000
0.000313 -0.000476 0.000119 0.000000
-0.000186 -0.001054 0.000795 0.000000
-0.000235 -0.000772 0.000558 0.000000
0.000088 -0.001295 0.000019 0.000000
0.000208 -0.001507 0.000411 0.000000
0.000151 -0.001662 0.001230 0.000000
-0.000044 -0.001187 0.000428 0.000000
0.000372 -0.000441 0.000108 0.000000
-0.000028 -0.001599 0.000642 0.000000
0.000212 -0.000434 0.000110 0.000000
0.000263 -0.001662 0.001184 0.000000
0.000081 -0.000199 0.000156 0.000000
0.000413 -0.000531 -0.000114 0.000000
0.000672 -0.001829 -0.000098 0.000000
0.000272 -0.001411 0.000304 0.000000
0.000432 -0.000616 -0.000172 0.000000
-0.000002 -0.001485 0.000819 0.000000
-0.000181 -0.000951 0.000201 0.000000
0.000666 -0.000785 -0.000579 0.000000
-0.000195 -0.000851 0.000452 0.000000
-0.000097 -0.001149 0.000317 0.000000
-0.000387 -0.000576 0.000668 0.000000
0.000306 -0.000463 -0.000077 0.000000
-0.000269 -0.000680 0.001128 0.000000
0.000746 -0.000897 0.000024 0.000000
0.000643 -0.001769 -0.000478 0.000000
0.000003 -0.000159 0.000083 0.000000
0.000224 -0.000358 0.000365 0.000000
0.000670 -0.001683 0.000451 0.000000
0.000306 -0.000396 -0.000226 0.000000
0.000454 -0.001490 0.000518 0.000000
-0.000121 -0.000837 0.000009 0.000000
0.000592 -0.001678 0.000446 0.000000
0.000204 -0.000375 -0.000199 0.000000
0.000554 -0.001441 -0.000326 0.000000
0.000226 -0.000391 -0.000207 0.000000
0.000426 -0.001456 0.000390 0.000000
0.000585 -0.000725 0.000125 0.000000
0.000409 -0.000565 0.000084 0.000000
0.000173 -0.000315 -0.000075 0.000000
0.000187 -0.000324 -0.000070 0.000000
0.000582 -0.000725 0.000284 0.000000
0.000405 -0.000563 0.000131 0.000000
0.000436 -0.000596 0.000067 0.000000
0.000422 -0.000583 0.000117 0.000000
0.000623 -0.000756 0.000276 0.000000
-0.000299 -0.000870 -0.000052 0.000000
0.000579 -0.000703 0.000296 0.000000
0.000596 -0.000742 0.000268 0.000000
0.000146 -0.000286 0.000326 0.000000
0.000305 -0.000438 0.000214 0.000000
0.000556 -0.000684 0.000310 0.000000
-0.000139 -0.001116 0.000655 0.000000
0.000627 -0.000736 0.000185 0.000000
0.000506 -0.001555 0.001697 0.000000
-0.000300 -0.000836 -0.000107 0.000000
0.000206 -0.000347 0.000210 0.000000
0.000397 -0.001601 0.001730 0.000000
0.000258 -0.000388 0.000367 0.000000
-0.000382 -0.000370 -0.000641 0.000000
-0.000244 -0.000895 -0.000035 0.000000
-0.000072 -0.001196 0.000494 0.000000
-0.000212 -0.000986 -0.000075 0.000000
0.000293 -0.000505 0.000395 0.000000
-0.000239 -0.000875 -0.000059 0.000000
0.000564 -0.000708 0.000296 0.000000
-0.000485 -0.000333 0.000310 0.000000
0.000369 -0.000508 0.000239 0.000000
0.000489 -0.000619 0.000294 0.000000
0.000477 -0.000617 0.000261 0.000000
0.000553 -0.000692 0.000293 0.000000
0.000488 -0.000661 0.000454 0.000000
0.000538 -0.000719 0.000333 0.000000
0.000486 -0.000650 0.000314 0.000000
0.000565 -0.000714 0.000304 0.000000
0.000638 -0.000771 0.000469 0.000000
0.000499 -0.000657 0.000373 0.000000
0.000753 -0.000868 0.000279 0.000000
0.000454 -0.000630 0.000212 0.000000
0.000006 -0.000215 -0.000003 0.000000
0.000187 -0.000335 0.000231 0.000000
0.000042 -0.000225 0.000084 0.000000
-0.000431 -0.000748 -0.000095 0.000000
0.000336 -0.001731 -0.000258 0.000000
0.000507 -0.002100 -0.000004 0.000000
-0.000292 -0.000986 -0.000509 0.000000
0.000264 -0.001398 -0.000616 0.000000
0.000043 -0.001431 -0.000401 0.000000
-0.000243 -0.000766 -0.000781 0.000000
0.000204 -0.000382 0.000198 0.000000
0.000194 -0.000373 0.000077 0.000000
0.000205 -0.000357 0.000218 0.000000
-0.000031 -0.001283 -0.000048 0.000000
0.000253 -0.000427 0.000242 0.000000
0.000114 -0.000276 0.000160 0.000000
0.000133 -0.000319 0.000171 0.000000
0.000105 -0.000321 0.000151 0.000000
0.000196 -0.000380 0.000082 0.000000
-0.000547 -0.000334 -0.000063 0.000000
0.000195 -0.000375 0.000099 0.000000
0.000195 -0.000377 0.000096 0.000000
0.000234 -0.000408 0.000097 0.000000
0.000252 -0.000400 0.000062 0.000000
0.000193 -0.000367 0.000118 0.000000
0.000219 -0.000394 0.000077 0.000000
0.000231 -0.000389 0.000201 0.000000
0.000165 -0.000349 0.000101 0.000000
-0.000019 -0.000126 0.000075 0.000000
0.000302 -0.000423 0.000345 0.000000
0.000159 -0.000336 0.000104 0.000000
0.000227 -0.000399 0.000086 0.000000
0.000232 -0.000379 0.000219 0.000000
-0.000178 -0.001079 0.000056 0.000000
0.000187 -0.000395 0.000401 0.000000
-0.000230 -0.000918 -0.000031 0.000000
-0.000027 -0.001445 0.000238 0.000000
-0.000174 -0.001040 -0.000032 0.000000
0.000578 -0.001793 -0.000261 0.000000
0.000204 -0.001620 -0.000362 0.000000
0.000240 -0.000385 0.000105 0.000000
0.000061 -0.000242 0.000236 0.000000
0.000160 -0.001621 -0.000358 0.000000
0.000148 -0.000359 0.000376 0.000000
0.000247 -0.001677 0.000478 0.000000
0.000164 -0.001283 -0.000120 0.000000
-0.000039 -0.000091 -0.000033 0.000000
-0.000502 -0.000540 -0.000228 0.000000
0.000004 -0.000182 0.000079 0.000000
-0.000012 -0.000102 0.000001 0.000000
0.000144 -0.000248 0.000311 0.000000
0.000089 -0.000218 0.000073 0.000000
0.000008 -0.000144 0.000168 0.000000
-0.000026 -0.000120 0.000006 0.000000
-0.000412 -0.000409 -0.000652 0.000000
0.000061 -0.000210 0.000009 0.000000
-0.000374 -0.000804 -0.000204 0.000000
-0.000032 -0.000118 0.000020 0.000000
-0.000074 -0.000080 0.000015 0.000000
0.000135 -0.000281 -0.000030 0.000000
-0.000475 -0.000448 0.000083 0.000000
0.000059 -0.000221 -0.000189 0.000000
0.000073 -0.000212 0.000008 0.000000
0.000046 -0.000183 -0.000039 0.000000
0.000174 -0.000319 -0.000087 0.000000
-0.000428 -0.000338 0.000622 0.000000
-0.000000 -0.000132 -0.000016 0.000000
-0.000024 -0.000097 -0.000004 0.000000
0.000031 -0.000172 -0.000017 0.000000
0.000008 -0.000143 -0.000018 0.000000
-0.000381 -0.001165 -0.000305 0.000000
0.000035 -0.000176 -0.000021 0.000000
0.000033 -0.000186 -0.000025 0.000000
0.000109 -0.000290 -0.000141 0.000000
0.000063 -0.000213 -0.000007 0.000000
0.000127 -0.000302 -0.000078 0.000000
-0.000472 -0.000483 -0.000200 0.000000
0.000133 -0.000303 -0.000200 0.000000
-0.000520 -0.000483 -0.000200 0.000000
-0.000496 -0.000464 -0.000270 0.000000
0.000070 -0.000221 -0.000020 0.000000
0.000098 -0.000290 -0.000087 0.000000
0.000092 -0.000255 -0.000023 0.000000
0.000132 -0.000314 -0.000085 0.000000
0.000068 -0.000224 -0.000013 0.000000
0.000065 -0.000231 -0.000030 0.000000
0.000075 -0.000234 -0.000013 0.000000
0.000073 -0.000243 -0.000048 0.000000
0.000215 -0.000365 -0.000082 0.000000
0.000084 -0.000243 0.000044 0.000000
0.000009 -0.000172 -0.000014 0.000000
0.000122 -0.000310 -0.000051 0.000000
0.000104 -0.000269 -0.000025 0.000000
0.000111 -0.000292 -0.000046 0.000000
0.000118 -0.000286 -0.000068 0.000000
0.000111 -0.000279 -0.000042 0.000000
0.000073 -0.000247 -0.000060 0.000000
0.000128 -0.000319 -0.000076 0.000000
0.000135 -0.000332 0.000071 0.000000
0.000057 -0.000252 -0.000001 0.000000
0.000061 -0.000232 -0.000034 0.000000
0.000181 -0.000328 -0.000026 0.000000
0.000280 -0.000397 -0.000061 0.000000
0.000107 -0.000293 -0.000115 0.000000
-0.000493 -0.000554 -0.000189 0.000000
-0.000277 -0.001003 -0.000420 0.000000
0.000125 -0.001497 0.001297 0.000000
-0.000454 -0.000657 -0.000428 0.000000
-0.000460 -0.000638 -0.000153 0.000000
0.000076 -0.000278 0.000109 0.000000
-0.000267 -0.000976 0.000026 0.000000
-0.000512 -0.000511 -0.000206 0.000000
-0.000311 -0.000835 0.000033 0.000000
-0.000244 -0.001008 0.000992 0.000000
-0.000515 -0.000787 0.000602 0.000000
-0.000387 -0.000702 -0.000067 0.000000
-0.000296 -0.000982 0.000196 0.000000
-0.000302 -0.000914 -0.000048 0.000000
0.000130 -0.000259 0.000281 0.000000
0.000066 -0.000260 0.000038 0.000000
0.000043 -0.000215 0.000078 0.000000
-0.000434 -0.000790 0.000249 0.000000
-0.000409 -0.001155 0.000279 0.000000
-0.000037 -0.000195 -0.000039 0.000000
-0.000421 -0.001053 0.000553 0.000000
-0.000338 -0.000938 0.000219 0.000000
-0.000031 -0.000122 -0.000195 0.000000
0.000075 -0.000285 0.000129 0.000000
-0.000250 -0.000941 -0.000430 0.000000
0.000009 -0.000267 0.000113 0.000000
-0.000029 -0.000185 -0.000001 0.000000
-0.000076 -0.001286 0.000886 0.000000
0.000011 -0.000216 0.000005 0.000000
0.000070 -0.000301 0.000049 0.000000
0.000010 -0.000271 -0.000052 0.000000
0.000033 -0.000222 0.000086 0.000000
-0.000246 -0.001184 -0.000189 0.000000
-0.000620 -0.001014 -0.000499 0.000000
0.000019 -0.000204 0.000113 0.000000
-0.000025 -0.000208 0.000031 0.000000
-0.000032 -0.000215 0.000032 0.000000
0.000023 -0.001689 0.000492 0.000000
-0.000283 -0.001576 -0.000073 0.000000
-0.000058 -0.001628 0.000300 0.000000
0.000127 -0.001741 0.000382 0.000000
-0.000290 -0.001329 0.000352 0.000000
-0.000564 -0.001184 -0.000114 0.000000
0.000292 -0.002195 -0.000918 0.000000
0.000058 -0.000266 0.000024 0.000000
0.000045 -0.001707 0.000352 0.000000
0.000076 -0.001688 0.000482 0.000000
-0.000029 -0.001830 0.000248 0.000000
0.000543 -0.002481 0.001482 0.000000
0.000161 -0.001888 0.000165 0.000000
0.000142 -0.001844 0.000611 0.000000
0.000101 -0.000298 -0.000065 0.000000
0.000308 -0.000511 -0.000145 0.000000
0.000065 -0.000277 -0.000039 0.000000
0.000202 -0.002136 -0.000766 0.000000
0.000108 -0.000285 -0.000016 0.000000
-0.000022 -0.001667 0.000190 0.000000
0.000040 -0.002173 -0.000580 0.000000
0.000691 -0.002556 -0.000860 0.000000
0.000014 -0.001896 -0.000180 0.000000
0.000073 -0.002053 -0.000534 0.000000
0.000076 -0.000276 -0.000066 0.000000
0.000098 -0.000279 -0.000084 0.000000
0.000120 -0.000311 -0.000060 0.000000
0.000100 -0.000270 -0.000073 0.000000
0.000110 -0.000289 -0.000093 0.000000
0.000165 -0.001684 0.000476 0.000000
0.000145 -0.001798 0.000280 0.000000
0.000050 -0.000223 -0.000002 0.000000
0.000103 -0.000278 -0.000030 0.000000
0.000100 -0.000272 -0.000021 0.000000
0.000113 -0.000301 -0.000097 0.000000
0.000118 -0.000303 -0.000068 0.000000
0.000011 -0.000168 -0.000019 0.000000
-0.000264 -0.001048 -0.000750 0.000000
0.000093 -0.000264 -0.000020 0.000000
0.000063 -0.000214 -0.000007 0.000000
0.000124 -0.000295 -0.000031 0.000000
0.000105 -0.000275 -0.000027 0.000000
-0.000396 -0.001052 -0.000445 0.000000
-0.000072 -0.001132 -0.001538 0.000000
0.000073 -0.000239 -0.000011 0.000000
-0.000241 -0.000984 -0.001204 0.000000
0.000257 -0.000430 -0.000086 0.000000
0.000232 -0.000417 -0.000032 0.000000
0.000253 -0.000437 -0.000030 0.000000
0.000233 -0.000424 -0.000038 0.000000
0.000347 -0.000533 -0.000119 0.000000
0.000230 -0.000419 -0.000054 0.000000
0.000228 -0.000418 -0.000018 0.000000
0.000067 -0.000315 -0.000097 0.000000
0.000323 -0.000499 -0.000040 0.000000
0.000296 -0.000477 -0.000018 0.000000
-0.000177 -0.001348 -0.000370 0.000000
0.000124 -0.000312 0.000004 0.000000
-0.000283 -0.001383 -0.000155 0.000000
0.000377 -0.001753 -0.000674 0.000000
-0.000241 -0.001615 -0.000118 0.000000
0.000013 -0.002040 0.000193 0.000000
-0.000572 -0.000926 -0.000135 0.000000
0.000028 -0.002035 0.000076 0.000000
-0.000047 -0.001616 -0.000056 0.000000
-0.000191 -0.001685 0.000072 0.000000
0.000226 -0.000405 -0.000264 0.000000
0.000138 -0.000342 -0.000301 0.000000
0.000055 -0.000315 -0.000231 0.000000
-0.000026 -0.000202 -0.000035 0.000000
0.000358 -0.000568 -0.000190 0.000000
0.000343 -0.000520 0.000014 0.000000
0.000288 -0.000461 -0.000272 0.000000
0.000208 -0.000418 -0.000077 0.000000
0.000245 -0.000436 0.000004 0.000000
0.000164 -0.000393 -0.000130 0.000000
0.000210 -0.000387 -0.000003 0.000000
-0.000639 -0.000666 -0.000104 0.000000
0.000234 -0.000434 0.000037 0.000000
0.000215 -0.000399 0.000010 0.000000
0.000046 -0.000275 0.000057 0.000000
0.000172 -0.000394 0.000090 0.000000
0.000328 -0.000515 -0.000058 0.000000
0.000276 -0.000471 -0.000041 0.000000
0.000210 -0.000411 0.000087 0.000000
-0.000611 -0.000704 -0.000367 0.000000
-0.000421 -0.001152 -0.001067 0.000000
-0.000602 -0.000738 -0.000136 0.000000
0.000200 -0.000433 0.000122 0.000000
-0.000526 -0.000535 0.000103 0.000000
-0.000771 -0.000339 -0.000195 0.000000
0.000123 -0.000296 0.000042 0.000000
0.000143 -0.000361 0.000132 0.000000
0.000185 -0.000388 0.000057 0.000000
0.000220 -0.000412 0.000010 0.000000
0.000291 -0.000487 0.000015 0.000000
0.000271 -0.000466 -0.000013 0.000000
0.000237 -0.000410 -0.000020 0.000000
0.000243 -0.000434 0.000009 0.000000
0.000248 -0.000417 -0.000042 0.000000
0.000250 -0.000422 -0.000053 0.000000
0.000212 -0.000389 -0.000046 0.000000
0.000074 -0.000281 0.000099 0.000000
0.000181 -0.000376 0.000068 0.000000
0.000168 -0.000377 0.000086 0.000000
0.000196 -0.000385 0.000044 0.000000
0.000213 -0.000400 -0.000005 0.000000
0.000040 -0.000225 0.000009 0.000000
0.000181 -0.000350 -0.000050 0.000000
0.000126 -0.000309 -0.000027 0.000000
0.000171 -0.000347 0.000011 0.000000
0.000150 -0.000290 0.000155 0.000000
0.000153 -0.000327 0.000028 0.000000
0.000198 -0.000351 0.000042 0.000000
0.000146 -0.000308 0.000002 0.000000
0.000199 -0.000358 -0.000077 0.000000
0.000208 -0.000387 -0.000040 0.000000
0.000201 -0.000363 -0.000021 0.000000
0.000189 -0.000364 0.000009 0.000000
0.000202 -0.000375 0.000039 0.000000
0.000218 -0.000410 0.000032 0.000000
0.000212 -0.000394 -0.000003 0.000000
0.000221 -0.000407 0.000011 0.000000
0.000239 -0.000420 -0.000035 0.000000
0.000205 -0.000385 -0.000030 0.000000
0.000290 -0.000467 -0.000050 0.000000
-0.000067 -0.001129 -0.001547 0.000000
0.000261 -0.000427 -0.000066 0.000000
-0.000004 -0.000132 -0.000054 0.000000
-0.000279 -0.000938 -0.001125 0.000000
-0.000201 -0.000997 -0.001301 0.000000
-0.000112 -0.001091 -0.001608 0.000000
0.000012 -0.000221 0.000071 0.000000
-0.000024 -0.000110 -0.000006 0.000000
-0.000013 -0.000127 -0.000057 0.000000
0.000195 -0.000362 -0.000027 0.000000
0.000197 -0.000367 -0.000009 0.000000
0.000192 -0.000367 -0.000022 0.000000
-0.000113 -0.000951 -0.001334 0.000000
0.000230 -0.000406 -0.000045 0.000000
-0.000074 -0.001123 -0.001579 0.000000
0.000230 -0.000406 0.000027 0.000000
-0.000065 -0.001051 -0.001523 0.000000
-0.000017 -0.000115 -0.000026 0.000000
-0.000067 -0.001044 -0.001409 0.000000
-0.000005 -0.000150 -0.000016 0.000000
0.000017 -0.000163 -0.000016 0.000000
-0.000010 -0.000144 -0.000013 0.000000
0.000019 -0.000175 -0.000020 0.000000
-0.000015 -0.000120 -0.000005 0.000000
-0.000007 -0.000136 -0.000036 0.000000
-0.000022 -0.000109 -0.000009 0.000000
0.000003 -0.000149 -0.000019 0.000000
0.000254 -0.000439 0.000044 0.000000
0.000218 -0.000380 -0.000024 0.000000
-0.000099 -0.000919 -0.001107 0.000000
0.000201 -0.000364 -0.000005 0.000000
0.000025 -0.000131 -0.000065 0.000000
-0.000004 -0.000161 -0.000224 0.000000
0.000237 -0.000351 -0.000120 0.000000
0.000227 -0.000369 -0.000026 0.000000
0.000248 -0.001621 -0.000162 0.000000
0.000236 -0.000380 -0.000034 0.000000
0.000182 -0.000333 0.000072 0.000000
0.000209 -0.000364 0.000017 0.000000
0.000286 -0.001737 -0.000015 0.000000
0.000219 -0.000363 0.000024 0.000000
-0.000519 -0.000563 0.000410 0.000000
0.000126 -0.000275 -0.000011 0.000000
0.000155 -0.000310 -0.000044 0.000000
0.000168 -0.000308 -0.000040 0.000000
-0.000343 -0.000785 0.000152 0.000000
-0.000276 -0.000735 0.000020 0.000000
0.000257 -0.001729 -0.000218 0.000000
0.000202 -0.000342 -0.000089 0.000000
-0.000217 -0.000881 0.000133 0.000000
-0.000356 -0.000778 0.000049 0.000000
-0.000253 -0.000828 -0.000136 0.000000
-0.000218 -0.000650 -0.000145 0.000000
0.000374 -0.001610 0.000289 0.000000
-0.000300 -0.000858 0.000040 0.000000
0.000258 -0.000364 0.000040 0.000000
0.000439 -0.001742 0.000160 0.000000
0.000234 -0.000342 0.000099 0.000000
0.000508 -0.001908 0.000052 0.000000
0.000216 -0.000302 -0.000020 0.000000
0.000141 -0.000263 0.000049 0.000000
0.000140 -0.000235 0.000116 0.000000
-0.000223 -0.000506 0.000081 0.000000
0.000149 -0.000261 0.000060 0.000000
-0.000183 -0.000709 -0.000216 0.000000
0.000142 -0.000289 0.000167 0.000000
-0.000256 -0.000463 0.000002 0.000000
-0.000043 -0.001197 -0.000031 0.000000
-0.000204 -0.000687 -0.000343 0.000000
0.000125 -0.000244 0.000058 0.000000
-0.000166 -0.000555 0.000238 0.000000
0.000216 -0.000325 -0.000042 0.000000
0.000196 -0.000319 0.000054 0.000000
0.000026 -0.000780 -0.000292 0.000000
0.000165 -0.000934 -0.000207 0.000000
0.000172 -0.000289 0.000022 0.000000
0.000157 -0.000252 0.000036 0.000000
0.000231 -0.000332 0.000062 0.000000
0.000230 -0.000350 -0.000050 0.000000
0.000247 -0.000349 0.000006 0.000000
0.000215 -0.000320 -0.000026 0.000000
0.000227 -0.000357 -0.000083 0.000000
0.000182 -0.000294 -0.000027 0.000000
0.000230 -0.000336 -0.000067 0.000000
-0.000212 -0.000563 -0.000331 0.000000
0.000114 -0.000231 -0.000027 0.000000
0.000027 -0.000731 -0.000317 0.000000
0.000138 -0.000240 -0.000079 0.000000
0.000346 -0.001167 0.000280 0.000000
-0.000322 -0.000585 0.000177 0.000000
-0.000220 -0.001378 -0.000564 0.000000
0.000068 -0.001004 -0.000086 0.000000
0.000050 -0.000208 -0.000207 0.000000
0.000085 -0.000212 -0.000052 0.000000
0.000231 -0.000397 -0.000259 0.000000
-0.000020 -0.000099 -0.000010 0.000000
-0.000000 -0.000122 -0.000015 0.000000
-0.000015 -0.000105 -0.000057 0.000000
-0.000194 -0.000705 0.000336 0.000000
0.000014 -0.000170 -0.000191 0.000000
0.000098 -0.000250 -0.000192 0.000000
0.000223 -0.000357 -0.000101 0.000000
0.000435 -0.001313 0.000440 0.000000
-0.000337 -0.000494 0.000347 0.000000
-0.000217 -0.000723 0.000444 0.000000
-0.000161 -0.000971 -0.001227 0.000000
0.000004 -0.000115 -0.000069 0.000000
0.000027 -0.000142 -0.000186 0.000000
-0.000030 -0.000097 -0.000025 0.000000
-0.000027 -0.000107 -0.000008 0.000000
-0.000012 -0.000121 -0.000035 0.000000
-0.000024 -0.000103 -0.000011 0.000000
-0.000030 -0.000104 -0.000018 0.000000
-0.000020 -0.000109 -0.000006 0.000000
-0.000020 -0.000110 -0.000002 0.000000
0.000025 -0.000163 -0.000020 0.000000
-0.000024 -0.000103 -0.000009 0.000000
0.000039 -0.000175 -0.000024 0.000000
0.000101 -0.000233 -0.000045 0.000000
-0.000018 -0.000111 -0.000009 0.000000
-0.000027 -0.001072 -0.000358 0.000000
-0.000006 -0.000133 -0.000027 0.000000
-0.000004 -0.000114 -0.000058 0.000000
-0.000006 -0.000129 -0.000031 0.000000
0.000071 -0.000205 -0.000019 0.000000
0.000158 -0.000270 -0.000057 0.000000
0.000081 -0.000213 -0.000067 0.000000
0.000039 -0.000177 -0.000024 0.000000
0.000076 -0.000219 0.000014 0.000000
0.000100 -0.000239 0.000034 0.000000
0.000106 -0.000230 -0.000010 0.000000
-0.000534 -0.000359 0.000054 0.000000
0.000165 -0.001178 -0.000255 0.000000
-0.000039 -0.000111 -0.000007 0.000000
0.000017 -0.000154 -0.000063 0.000000
0.000056 -0.001570 -0.000030 0.000000
0.000028 -0.000195 -0.000165 0.000000
-0.000006 -0.000123 -0.000005 0.000000
0.000104 -0.000237 0.000057 0.000000
0.000018 -0.000175 0.000164 0.000000
0.000074 -0.000237 0.000294 0.000000
0.000194 -0.001754 0.000448 0.000000
-0.000058 -0.000913 -0.000394 0.000000
0.000056 -0.000179 -0.000030 0.000000
-0.000144 -0.001024 -0.000254 0.000000
-0.000462 -0.000490 0.000005 0.000000
-0.000300 -0.000887 0.000335 0.000000
0.000356 -0.001664 0.000461 0.000000
-0.000228 -0.000762 0.000098 0.000000
0.000117 -0.000246 -0.000091 0.000000
0.000170 -0.000305 -0.000033 0.000000
0.000223 -0.001476 -0.000202 0.000000
0.000234 -0.001404 -0.000607 0.000000
0.000131 -0.000265 0.000017 0.000000
0.000267 -0.001372 -0.000462 0.000000
-0.000019 -0.000098 0.000030 0.000000
-0.000339 -0.000590 -0.000163 0.000000
-0.000237 -0.000646 0.000039 0.000000
0.000065 -0.000169 -0.000072 0.000000
-0.000338 -0.000575 -0.000149 0.000000
-0.000132 -0.000518 0.000479 0.000000
0.000230 -0.001361 -0.000360 0.000000
-0.000025 -0.001110 -0.000455 0.000000
0.000131 -0.000217 -0.000082 0.000000
0.000136 -0.000252 -0.000114 0.000000
0.000067 -0.000168 -0.000028 0.000000
-0.000021 -0.000104 -0.000006 0.000000
0.000119 -0.000253 -0.000015 0.000000
0.000103 -0.000208 -0.000067 0.000000
-0.000050 -0.001023 -0.000400 0.000000
0.000004 -0.000132 -0.000054 0.000000
0.000006 -0.000131 -0.000044 0.000000
0.000139 -0.001470 -0.000225 0.000000
-0.000022 -0.000098 -0.000010 0.000000
0.000061 -0.001045 0.000227 0.000000
-0.000019 -0.000109 -0.000008 0.000000
-0.000024 -0.000095 -0.000002 0.000000
-0.000071 -0.000991 0.000176 0.000000
0.000247 -0.001292 0.000090 0.000000
-0.000027 -0.000095 -0.000003 0.000000
-0.000108 -0.000820 0.000156 0.000000
-0.000084 -0.000974 0.000086 0.000000
-0.000046 -0.000935 -0.000355 0.000000
0.000070 -0.000947 -0.000114 0.000000
0.000159 -0.001084 0.000394 0.000000
0.000395 -0.001367 0.000347 0.000000
0.000242 -0.001174 0.000389 0.000000
-0.000172 -0.000630 -0.000125 0.000000
0.000382 -0.001321 0.000398 0.000000
0.000255 -0.001240 0.000142 0.000000
0.000272 -0.001203 0.000367 0.000000
-0.000040 -0.000892 0.000273 0.000000
0.000081 -0.000880 0.000434 0.000000
-0.000113 -0.000492 0.000188 0.000000
-0.000085 -0.000768 0.000291 0.000000
0.000280 -0.001297 0.000358 0.000000
0.000082 -0.001037 0.000290 0.000000
0.000108 -0.000202 -0.000120 0.000000
0.000126 -0.000238 -0.000117 0.000000
0.000053 -0.000157 -0.000100 0.000000
0.000146 -0.000242 -0.000154 0.000000
0.000170 -0.000257 -0.000113 0.000000
0.000094 -0.000209 -0.000139 0.000000
-0.000029 -0.000065 0.000038 0.000000
0.000029 -0.000145 -0.000140 0.000000
-0.000395 -0.000498 -0.000324 0.000000
-0.000164 -0.000457 0.000403 0.000000
-0.000007 -0.000082 -0.000012 0.000000
-0.000040 -0.000676 -0.000456 0.000000
-0.000001 -0.000097 0.000007 0.000000
-0.000083 -0.000536 -0.000411 0.000000
0.000063 -0.000181 -0.000128 0.000000
0.000040 -0.000142 -0.000077 0.000000
-0.000209 -0.000397 0.000364 0.000000
-0.000212 -0.000378 0.000383 0.000000
-0.000213 -0.000436 0.000424 0.000000
-0.000129 -0.000491 0.000552 0.000000
0.000157 -0.000218 -0.000040 0.000000
0.000068 -0.000155 -0.000085 0.000000
0.000035 -0.000130 -0.000078 0.000000
0.000046 -0.000132 -0.000055 0.000000
0.000083 -0.000161 -0.000129 0.000000
-0.000015 -0.000692 0.000673 0.000000
-0.000125 -0.000386 0.000226 0.000000
-0.000181 -0.000382 0.000359 0.000000
0.000112 -0.000121 0.000000 0.000000
0.000030 -0.000094 -0.000030 0.000000
0.000089 -0.000563 -0.000003 0.000000
0.000207 -0.000868 -0.000052 0.000000
0.000081 -0.000163 -0.000062 0.000000
0.000004 -0.000430 0.000145 0.000000
0.000072 -0.000149 -0.000048 0.000000
0.000046 -0.000127 -0.000052 0.000000
0.000086 -0.000159 -0.000003 0.000000
0.000110 -0.000194 0.000068 0.000000
-0.000070 -0.000472 0.000207 0.000000
0.000225 -0.000296 -0.000065 0.000000
0.000165 -0.000256 0.000005 0.000000
0.000150 -0.000234 0.000030 0.000000
0.000189 -0.000268 0.000082 0.000000
-0.000097 -0.000419 0.000544 0.000000
0.000046 -0.000152 0.000019 0.000000
0.000165 -0.000256 0.000015 0.000000
0.000162 -0.000244 0.000018 0.000000
0.000163 -0.000284 0.000065 0.000000
0.000078 -0.000678 0.000401 0.000000
0.000108 -0.000190 -0.000007 0.000000
0.000007 -0.000057 0.000016 0.000000
0.000137 -0.000190 -0.000012 0.000000
0.000162 -0.000238 0.000014 0.000000
0.000199 -0.000305 0.000024 0.000000
-0.000040 -0.000449 0.000464 0.000000
0.000158 -0.000239 -0.000010 0.000000
0.000135 -0.000167 0.000012 0.000000
0.000008 -0.000074 -0.000002 0.000000
0.000127 -0.000898 0.000201 0.000000
0.000011 -0.000495 -0.000147 0.000000
-0.000029 -0.000680 -0.000236 0.000000
0.000134 -0.000206 0.000090 0.000000
0.000106 -0.000696 -0.000123 0.000000
0.000538 -0.001360 0.000009 0.000000
0.000129 -0.000237 0.000049 0.000000
-0.000198 -0.000620 -0.000168 0.000000
0.000030 -0.000753 -0.000318 0.000000
0.000426 -0.001349 -0.000078 0.000000
-0.000100 -0.000626 -0.000172 0.000000
0.000013 -0.000636 -0.000180 0.000000
-0.000094 -0.000638 -0.000111 0.000000
-0.000047 -0.000676 -0.000215 0.000000
-0.000142 -0.000640 -0.000130 0.000000
-0.000139 -0.000626 -0.000186 0.000000
-0.000133 -0.000682 -0.000217 0.000000
-0.000188 -0.000695 -0.000107 0.000000
-0.000114 -0.000866 -0.000051 0.000000
-0.000173 -0.000658 -0.000161 0.000000
0.000074 -0.000816 -0.000693 0.000000
-0.000244 -0.000632 -0.000546 0.000000
-0.000199 -0.000642 -0.000235 0.000000
-0.000140 -0.000512 -0.000790 0.000000
0.000159 -0.000253 0.000027 0.000000
0.000306 -0.001163 0.000034 0.000000
0.000115 -0.000231 -0.000070 0.000000
-0.000080 -0.000676 -0.000204 0.000000
0.000108 -0.000911 0.000189 0.000000
0.000267 -0.001093 -0.000468 0.000000
0.000171 -0.000269 0.000047 0.000000
0.000159 -0.001080 0.000014 0.000000
0.000181 -0.000278 0.000032 0.000000
0.000110 -0.000199 0.000054 0.000000
0.000246 -0.000318 0.000034 0.000000
0.000214 -0.001045 0.000122 0.000000
0.000190 -0.000323 -0.000027 0.000000
0.000316 -0.001118 0.000001 0.000000
-0.000198 -0.000578 0.000384 0.000000
0.000189 -0.000273 0.000037 0.000000
-0.000184 -0.000539 0.000147 0.000000
-0.000199 -0.000526 0.000063 0.000000
-0.000246 -0.000455 0.000092 0.000000
-0.000133 -0.000504 0.000529 0.000000
-0.000200 -0.000489 0.000226 0.000000
-0.000134 -0.000610 0.000136 0.000000
-0.000199 -0.000563 0.000203 0.000000
0.000311 -0.001072 0.000112 0.000000
-0.000161 -0.000541 0.000028 0.000000
0.000204 -0.001017 -0.000430 0.000000
0.000213 -0.000283 0.000032 0.000000
0.000085 -0.000177 0.000017 0.000000
0.000271 -0.000325 -0.000008 0.000000
0.000138 -0.000214 -0.000018 0.000000
-0.000047 -0.000539 -0.000037 0.000000
0.000164 -0.000925 0.000295 0.000000
0.000249 -0.000305 -0.000064 0.000000
0.000063 -0.000804 -0.000203 0.000000
-0.000108 -0.000579 0.000082 0.000000
0.000337 -0.000440 0.000023 0.000000
-0.000055 -0.000636 0.000030 0.000000
0.000473 -0.001113 0.000552 0.000000
0.000240 -0.000306 0.000087 0.000000
-0.000040 -0.000476 0.000018 0.000000
0.000342 -0.000387 0.000140 0.000000
-0.000072 -0.000456 0.000024 0.000000
-0.000056 -0.000456 0.000032 0.000000
-0.000034 -0.000462 -0.000001 0.000000
0.000153 -0.000195 -0.000006 0.000000
0.000069 -0.000464 0.000146 0.000000
0.000251 -0.000297 -0.000031 0.000000
0.000337 -0.000368 0.000110 0.000000
0.000132 -0.000186 -0.000022 0.000000
0.000143 -0.000199 -0.000032 0.000000
0.000186 -0.000265 0.000024 0.000000
0.000257 -0.000294 0.000109 0.000000
0.000254 -0.000325 0.000006 0.000000
0.000044 -0.000721 -0.000042 0.000000
0.000025 -0.000626 -0.000230 0.000000
0.000045 -0.000076 0.000013 0.000000
0.000004 -0.000069 0.000002 0.000000
0.000075 -0.000834 0.000136 0.000000
-0.000126 -0.000179 -0.000180 0.000000
0.000013 -0.000070 0.000039 0.000000
-0.000004 -0.000068 -0.000008 0.000000
-0.000078 -0.000493 0.000060 0.000000
0.000019 -0.000077 -0.000009 0.000000
-0.000006 -0.000056 0.000002 0.000000
-0.000006 -0.000058 0.000002 0.000000
0.000116 -0.000204 -0.000067 0.000000
0.000039 -0.000077 -0.000052 0.000000
0.000283 -0.000546 0.000027 0.000000
0.000005 -0.000057 0.000007 0.000000
-0.000106 -0.000181 -0.000198 0.000000
0.000027 -0.000409 -0.000268 0.000000
0.000047 -0.000566 -0.000201 0.000000
0.000051 -0.000103 -0.000002 0.000000
-0.000031 -0.000210 0.000022 0.000000
0.000032 -0.000067 0.000021 0.000000
0.000050 -0.000091 0.000028 0.000000
-0.000008 -0.000054 0.000011 0.000000
0.000128 -0.000149 0.000074 0.000000
0.000047 -0.000091 0.000028 0.000000
0.000116 -0.000133 0.000017 0.000000
0.000051 -0.000087 0.000022 0.000000
0.000058 -0.000097 0.000029 0.000000
0.000027 -0.000068 0.000024 0.000000
0.000049 -0.000093 0.000019 0.000000
-0.000001 -0.000044 0.000013 0.000000
0.000027 -0.000068 0.000025 0.000000
0.000063 -0.000092 0.000018 0.000000
0.000099 -0.000192 -0.000004 0.000000
0.000019 -0.000172 0.000123 0.000000
0.000239 -0.000292 0.000115 0.000000
0.000162 -0.000537 0.000043 0.000000
0.000203 -0.000581 0.000181 0.000000
0.000093 -0.000113 0.000028 0.000000
0.000092 -0.000489 -0.000094 0.000000
0.000117 -0.000148 0.000036 0.000000
0.000124 -0.000158 -0.000014 0.000000
-0.000012 -0.000413 0.000171 0.000000
-0.000012 -0.000239 -0.000019 0.000000
0.000209 -0.000588 0.000183 0.000000
0.000383 -0.000427 0.000121 0.000000
0.000032 -0.000157 0.000066 0.000000
0.000055 -0.000403 -0.000028 0.000000
-0.000030 -0.000446 0.000014 0.000000
0.000096 -0.000125 0.000048 0.000000
-0.000015 -0.000256 -0.000045 0.000000
0.000037 -0.000199 0.000050 0.000000
0.000140 -0.000168 0.000165 0.000000
0.000088 -0.000112 0.000022 0.000000
0.000147 -0.000195 0.000022 0.000000
0.000008 -0.000229 0.000037 0.000000
0.000185 -0.000193 0.000004 0.000000
0.000030 -0.000122 0.000058 0.000000
0.000144 -0.000163 0.000018 0.000000
0.000053 -0.000214 0.000073 0.000000
0.000035 -0.000130 0.000042 0.000000
0.000048 -0.000194 -0.000009 0.000000
0.000081 -0.000213 0.000046 0.000000
0.000026 -0.000161 0.000023 0.000000
0.000100 -0.000125 0.000039 0.000000
0.000055 -0.000170 0.000055 0.000000
0.000022 -0.000108 0.000030 0.000000
0.000003 -0.000049 0.000024 0.000000
0.000042 -0.000163 0.000067 0.000000
0.000022 -0.000094 0.000041 0.000000
-0.000006 -0.000014 0.000011 0.000000
0.000009 -0.000020 0.000013 0.000000
0.000022 -0.000122 0.000010 0.000000
0.000002 -0.000016 0.000011 0.000000
0.000015 -0.000057 0.000023 0.000000
0.000017 -0.000057 0.000029 0.000000
0.000015 -0.000022 0.000011 0.000000
0.000004 -0.000019 0.000012 0.000000
0.000088 -0.000056 0.000014 0.000000
0.000020 -0.000024 0.000004 0.000000
0.000047 -0.000170 -0.000034 0.000000
0.000034 -0.000148 -0.000009 0.000000
0.000034 -0.000089 0.000049 0.000000
0.000029 -0.000086 0.000026 0.000000
0.000091 -0.000170 0.000112 0.000000
0.000052 -0.000068 0.000046 0.000000
0.000031 -0.000058 0.000023 0.000000
0.000039 -0.000088 0.000053 0.000000
0.000024 -0.000052 0.000016 0.000000
0.000041 -0.000033 0.000017 0.000000
0.000059 -0.000105 0.000071 0.000000
0.000028 -0.000026 0.000013 0.000000
0.000065 -0.000144 0.000088 0.000000
0.000047 -0.000067 0.000046 0.000000
0.000131 -0.000168 -0.000006 0.000000
0.000125 -0.000157 0.000078 0.000000
0.000070 -0.000116 0.000067 0.000000
0.000057 -0.000138 0.000100 0.000000
0.000069 -0.000209 0.000030 0.000000
0.000155 -0.000227 0.000076 0.000000
0.000129 -0.000257 0.000147 0.000000
0.000053 -0.000126 0.000089 0.000000
0.000039 -0.000184 0.000135 0.000000
0.000044 -0.000122 0.000081 0.000000
0.000016 -0.000200 0.000054 0.000000
0.000049 -0.000154 0.000104 0.000000
0.000051 -0.000199 0.000127 0.000000
-0.000001 -0.000242 0.000072 0.000000
0.000074 -0.000124 0.000015 0.000000
0.000071 -0.000103 0.000015 0.000000
0.000091 -0.000213 0.000123 0.000000
0.000157 -0.000381 0.000208 0.000000
0.000061 -0.000086 0.000009 0.000000
0.000152 -0.000256 0.000096 0.000000
0.000068 -0.000081 -0.000005 0.000000
0.000092 -0.000188 0.000018 0.000000
0.000052 -0.000068 -0.000010 0.000000
0.000044 -0.000148 -0.000003 0.000000
0.000047 -0.000079 0.000006 0.000000
0.000114 -0.000146 -0.000030 0.000000
0.000008 -0.000036 0.000011 0.000000
0.000010 -0.000050 0.000001 0.000000
0.000064 -0.000103 0.000022 0.000000
0.000044 -0.000166 -0.000002 0.000000
0.000161 -0.000255 0.000019 0.000000
0.000028 -0.000053 0.000014 0.000000
0.000037 -0.000063 0.000003 0.000000
0.000041 -0.000066 0.000011 0.000000
0.000111 -0.000218 -0.000064 0.000000
0.000068 -0.000102 0.000008 0.000000
0.000057 -0.000209 0.000007 0.000000
0.000155 -0.000174 -0.000014 0.000000
0.000112 -0.000251 -0.000024 0.000000
0.000119 -0.000149 -0.000027 0.000000
0.000075 -0.000099 0.000008 0.000000
0.000213 -0.000171 0.000024 0.000000
0.000190 -0.000173 -0.000006 0.000000
0.000083 -0.000076 0.000003 0.000000
0.000089 -0.000052 -0.000001 0.000000
0.000041 -0.000163 0.000065 0.000000
0.000169 -0.000123 -0.000020 0.000000
0.000080 -0.000141 0.000045 0.000000
0.000118 -0.000148 0.000021 0.000000
0.000092 -0.000111 -0.000011 0.000000
0.000109 -0.000122 0.000004 0.000000
0.000128 -0.000194 0.000056 0.000000
0.000100 -0.000120 -0.000001 0.000000
0.000116 -0.000125 -0.000016 0.000000
0.000104 -0.000117 -0.000006 0.000000
0.000103 -0.000237 0.000009 0.000000
0.000135 -0.000164 -0.000018 0.000000
0.000180 -0.000175 0.000006 0.000000
0.000204 -0.000268 -0.000018 0.000000
0.000118 -0.000183 -0.000058 0.000000
0.000133 -0.000139 -0.000036 0.000000
0.000152 -0.000221 0.000046 0.000000
0.000149 -0.000275 0.000084 0.000000
0.000146 -0.000217 0.000053 0.000000
0.000099 -0.000241 0.000025 0.000000
0.000088 -0.000193 -0.000013 0.000000
0.000099 -0.000174 -0.000009 0.000000
0.000188 -0.000300 -0.000046 0.000000
0.000232 -0.000637 0.000000 0.000000
0.000131 -0.000284 -0.000012 0.000000
0.000127 -0.000140 -0.000047 0.000000
0.000144 -0.000165 -0.000017 0.000000
0.000144 -0.000486 -0.000349 0.000000
0.000098 -0.000146 -0.000049 0.000000
0.000142 -0.000231 -0.000067 0.000000
0.000031 -0.000066 0.000013 0.000000
0.000016 -0.000044 0.000008 0.000000
0.000180 -0.000302 -0.000038 0.000000
0.000107 -0.000121 0.000002 0.000000
0.000196 -0.000201 0.000060 0.000000
0.000066 -0.000470 0.000110 0.000000
0.000059 -0.000086 -0.000057 0.000000
-0.000006 -0.000042 -0.000006 0.000000
0.000000 -0.000035 -0.000009 0.000000
0.000052 -0.000063 0.000003 0.000000
0.000199 -0.000346 -0.000078 0.000000
0.000067 -0.000089 0.000074 0.000000
0.000230 -0.000436 -0.000084 0.000000
0.000048 -0.000115 -0.000029 0.000000
0.000270 -0.000624 -0.000033 0.000000
0.000029 -0.000400 0.000072 0.000000
0.000033 -0.000439 -0.000395 0.000000
-0.000004 -0.000037 -0.000008 0.000000
0.000248 -0.000633 0.000019 0.000000
0.000299 -0.000713 0.000030 0.000000
0.000217 -0.000276 -0.000055 0.000000
0.000120 -0.000629 -0.000453 0.000000
0.000370 -0.000746 0.000048 0.000000
0.000323 -0.000328 0.000176 0.000000
0.000356 -0.000657 0.000078 0.000000
0.000287 -0.000530 -0.000049 0.000000
0.000002 -0.000040 0.000007 0.000000
-0.000132 -0.000113 -0.000079 0.000000
0.000015 -0.000049 0.000003 0.000000
0.000015 -0.000067 0.000028 0.000000
0.000082 -0.000104 0.000003 0.000000
0.000035 -0.000078 -0.000024 0.000000
0.000117 -0.000135 -0.000041 0.000000
0.000055 -0.000089 0.000017 0.000000
0.000054 -0.000086 0.000006 0.000000
0.000006 -0.000054 0.000020 0.000000
0.000033 -0.000065 0.000001 0.000000
0.000050 -0.000086 0.000025 0.000000
-0.000006 -0.000183 -0.000205 0.000000
0.000041 -0.000074 -0.000007 0.000000
-0.000091 -0.000127 -0.000176 0.000000
-0.000041 -0.000175 -0.000238 0.000000
0.000309 -0.000357 -0.000065 0.000000
0.000414 -0.000815 0.000307 0.000000
-0.000032 -0.000387 0.000035 0.000000
-0.000042 -0.000365 -0.000038 0.000000
0.000003 -0.000057 -0.000012 0.000000
0.000285 -0.000350 -0.000041 0.000000
0.000028 -0.000074 -0.000070 0.000000
-0.000006 -0.000054 0.000009 0.000000
0.000124 -0.000198 -0.000026 0.000000
-0.000057 -0.000448 0.000100 0.000000
0.000155 -0.000227 -0.000013 0.000000
0.000220 -0.000828 -0.000294 0.000000
0.000149 -0.000883 -0.000138 0.000000
0.000082 -0.000147 0.000032 0.000000
0.000016 -0.000580 -0.000052 0.000000
0.000016 -0.000074 -0.000033 0.000000
-0.000036 -0.000444 0.000080 0.000000
0.000079 -0.000167 0.000036 0.000000
-0.000062 -0.000442 0.000144 0.000000
-0.000166 -0.000427 0.000249 0.000000
0.000107 -0.000184 -0.000066 0.000000
0.000345 -0.000679 0.000454 0.000000
0.000377 -0.000794 0.000393 0.000000
0.000091 -0.000489 0.000148 0.000000
-0.000060 -0.000397 0.000082 0.000000
0.000062 -0.000454 0.000040 0.000000
0.000122 -0.000190 -0.000034 0.000000
0.000157 -0.000548 0.000208 0.000000
-0.000041 -0.000476 0.000075 0.000000
0.000089 -0.000583 0.000073 0.000000
-0.000005 -0.000490 -0.000062 0.000000
0.000049 -0.000104 -0.000033 0.000000
0.000129 -0.000192 -0.000061 0.000000
0.000130 -0.000192 -0.000046 0.000000
0.000052 -0.000120 -0.000035 0.000000
0.000028 -0.000097 -0.000028 0.000000
-0.000188 -0.000160 0.000172 0.000000
0.000108 -0.000604 0.000178 0.000000
-0.000089 -0.000561 0.000262 0.000000
-0.000014 -0.000461 0.000115 0.000000
-0.000028 -0.000365 0.000098 0.000000
0.000003 -0.000029 -0.000007 0.000000
-0.000007 -0.000039 0.000003 0.000000
-0.000014 -0.000438 0.000151 0.000000
0.000030 -0.000376 0.000259 0.000000
-0.000038 -0.000271 0.000142 0.000000
-0.000022 -0.000562 0.000053 0.000000
0.000174 -0.000230 0.000064 0.000000
0.000118 -0.000185 0.000002 0.000000
0.000221 -0.000250 -0.000080 0.000000
0.000127 -0.000184 0.000054 0.000000
0.000157 -0.000209 -0.000006 0.000000
0.000180 -0.000233 0.000093 0.000000
0.000266 -0.000297 -0.000048 0.000000
0.000352 -0.000388 -0.000030 0.000000
0.000206 -0.000249 -0.000075 0.000000
0.000349 -0.000413 -0.000056 0.000000
0.000130 -0.000172 -0.000054 0.000000
0.000244 -0.000290 -0.000089 0.000000
0.000430 -0.000519 0.000223 0.000000
0.000134 -0.000173 -0.000060 0.000000
0.000233 -0.000281 -0.000069 0.000000
0.000072 -0.000115 -0.000064 0.000000
0.000201 -0.000244 0.000025 0.000000
0.000102 -0.000443 -0.000228 0.000000
0.000157 -0.000205 -0.000056 0.000000
0.000170 -0.000250 0.000108 0.000000
0.000196 -0.000247 0.000033 0.000000
0.000155 -0.000213 0.000089 0.000000
0.000211 -0.000276 -0.000065 0.000000
0.000235 -0.000287 -0.000047 0.000000
0.000106 -0.000157 -0.000068 0.000000
0.000231 -0.000259 -0.000058 0.000000
0.000160 -0.000379 -0.000188 0.000000
0.000142 -0.000187 -0.000068 0.000000
0.000051 -0.000292 -0.000016 0.000000
0.000124 -0.000166 -0.000040 0.000000
0.000069 -0.000088 -0.000082 0.000000
0.000022 -0.000334 -0.000153 0.000000
0.000132 -0.000175 0.000012 0.000000
0.000009 -0.000371 -0.000069 0.000000
0.000000 -0.000028 -0.000008 0.000000
0.000074 -0.000353 -0.000227 0.000000
0.000044 -0.000177 -0.000081 0.000000
0.000074 -0.000109 -0.000018 0.000000
0.000055 -0.000359 -0.000204 0.000000
0.000068 -0.000414 -0.000294 0.000000
0.000128 -0.000436 -0.000274 0.000000
0.000176 -0.000218 0.000049 0.000000
0.000170 -0.000218 0.000039 0.000000
0.000151 -0.000463 -0.000093 0.000000
0.000216 -0.000247 -0.000082 0.000000
0.000189 -0.000225 0.000081 0.000000
0.000141 -0.000195 0.000044 0.000000
0.000170 -0.000209 0.000029 0.000000
0.000156 -0.000200 0.000051 0.000000
0.000005 -0.000444 -0.000035 0.000000
-0.000003 -0.000029 0.000005 0.000000
0.000191 -0.000241 0.000066 0.000000
0.000170 -0.000214 0.000084 0.000000
-0.000008 -0.000026 0.000008 0.000000
0.000018 -0.000034 -0.000015 0.000000
-0.000031 -0.000265 0.000128 0.000000
0.000246 -0.000286 0.000091 0.000000
0.000231 -0.000275 0.000075 0.000000
0.000182 -0.000222 0.000050 0.000000
0.000000 -0.000029 -0.000006 0.000000
-0.000006 -0.000043 -0.000016 0.000000
-0.000007 -0.000033 0.000013 0.000000
-0.000009 -0.000217 0.000069 0.000000
0.000180 -0.000448 0.000014 0.000000
0.000189 -0.000477 0.000065 0.000000
0.000150 -0.000460 -0.000026 0.000000
0.000172 -0.000208 0.000002 0.000000
-0.000006 -0.000253 0.000062 0.000000
0.000077 -0.000052 -0.000034 0.000000
0.000111 -0.000375 -0.000065 0.000000
0.000207 -0.000450 -0.000242 0.000000
0.000010 -0.000031 -0.000010 0.000000
-0.000003 -0.000031 -0.000004 0.000000
0.000036 -0.000240 -0.000017 0.000000
0.000051 -0.000089 -0.000012 0.000000
0.000050 -0.000203 -0.000022 0.000000
0.000240 -0.000193 0.000001 0.000000
0.000062 -0.000170 -0.000100 0.000000
0.000062 -0.000044 -0.000033 0.000000
0.000096 -0.000110 -0.000040 0.000000
0.000097 -0.000071 -0.000028 0.000000
0.000050 -0.000069 -0.000005 0.000000
0.000016 -0.000049 0.000016 0.000000
0.000051 -0.000055 -0.000036 0.000000
0.000021 -0.000056 0.000022 0.000000
0.000040 -0.000048 -0.000005 0.000000
0.000007 -0.000011 -0.000008 0.000000
0.000008 -0.000017 0.000002 0.000000
0.000017 -0.000071 -0.000018 0.000000
0.000009 -0.000039 -0.000006 0.000000
0.000066 -0.000070 -0.000014 0.000000
0.000013 -0.000022 -0.000014 0.000000
0.000045 -0.000046 -0.000004 0.000000
0.000038 -0.000078 0.000005 0.000000
0.000018 -0.000024 -0.000018 0.000000
0.000049 -0.000104 -0.000052 0.000000
0.000061 -0.000119 -0.000023 0.000000
0.000011 -0.000018 -0.000006 0.000000
0.000014 -0.000050 -0.000024 0.000000
0.000040 -0.000078 0.000020 0.000000
0.000010 -0.000048 -0.000026 0.000000
0.000051 -0.000134 -0.000077 0.000000
0.000014 -0.000054 0.000004 0.000000
0.000016 -0.000077 -0.000030 0.000000
0.000026 -0.000113 -0.000082 0.000000
0.000020 -0.000023 -0.000005 0.000000
0.000009 -0.000105 -0.000086 0.000000
0.000018 -0.000084 0.000012 0.000000
0.000024 -0.000140 -0.000109 0.000000
0.000050 -0.000137 -0.000126 0.000000
0.000047 -0.000203 -0.000074 0.000000
0.000025 -0.000057 -0.000028 0.000000
0.000082 -0.000151 -0.000046 0.000000
0.000099 -0.000122 -0.000077 0.000000
0.000079 -0.000186 -0.000045 0.000000
0.000073 -0.000250 -0.000123 0.000000
0.000164 -0.000452 -0.000268 0.000000
0.000188 -0.000215 -0.000054 0.000000
0.000029 -0.000186 -0.000004 0.000000
0.000125 -0.000135 -0.000060 0.000000
-0.000011 -0.000248 -0.000222 0.000000
0.000135 -0.000158 -0.000058 0.000000
-0.000014 -0.000142 -0.000228 0.000000
0.000031 -0.000156 -0.000086 0.000000
0.000006 -0.000225 -0.000144 0.000000
0.000016 -0.000047 -0.000036 0.000000
0.000012 -0.000049 -0.000003 0.000000
0.000005 -0.000041 -0.000002 0.000000
-0.000009 -0.000204 0.000028 0.000000
0.000034 -0.000356 -0.000074 0.000000
0.000062 -0.000257 0.000020 0.000000
0.000019 -0.000165 -0.000112 0.000000
0.000055 -0.000267 0.000075 0.000000
0.000083 -0.000284 0.000095 0.000000
0.000001 -0.000018 -0.000003 0.000000
0.000018 -0.000116 -0.000006 0.000000
0.000064 -0.000180 -0.000006 0.000000
-0.000020 -0.000058 -0.000039 0.000000
-0.000002 -0.000139 -0.000152 0.000000
-0.000002 -0.000015 -0.000005 0.000000
-0.000015 -0.000104 -0.000164 0.000000
0.000001 -0.000019 -0.000016 0.000000
0.000004 -0.000188 -0.000169 0.000000
0.000011 -0.000050 -0.000003 0.000000
0.000015 -0.000221 -0.000138 0.000000
0.000002 -0.000018 -0.000000 0.000000
0.000001 -0.000016 0.000003 0.000000
0.000094 -0.000317 0.000064 0.000000
-0.000047 -0.000047 0.000049 0.000000
-0.000037 -0.000037 -0.000091 0.000000
-0.000050 -0.000022 0.000017 0.000000
0.000001 -0.000019 -0.000020 0.000000
0.000032 -0.000137 -0.000053 0.000000
-0.000001 -0.000013 -0.000007 0.000000
0.000000 -0.000025 0.000007 0.000000
0.000029 -0.000089 -0.000025 0.000000
-0.000000 -0.000015 -0.000009 0.000000
-0.000023 -0.000080 -0.000043 0.000000
0.000062 -0.000130 -0.000021 0.000000
-0.000094 0.000001 -0.000015 0.000000
0.000110 -0.000254 -0.000003 0.000000
0.000073 -0.000155 -0.000030 0.000000
0.000103 -0.000233 -0.000028 0.000000
-0.000079 0.000019 0.000021 0.000000
-0.000017 -0.000033 0.000088 0.000000
0.000026 -0.000155 0.000142 0.000000
-0.000035 -0.000009 0.000084 0.000000
0.000067 -0.000210 0.000127 0.000000
0.000089 -0.000239 0.000002 0.000000
0.000002 -0.000069 0.000086 0.000000
0.000027 -0.000120 0.000130 0.000000
0.000012 -0.000110 0.000121 0.000000
0.000035 -0.000118 0.000125 0.000000
0.000026 -0.000046 0.000031 0.000000
0.000041 -0.000190 0.000107 0.000000
0.000187 -0.000424 -0.000035 0.000000
0.000349 -0.000524 -0.000319 0.000000
0.000051 -0.000145 0.000013 0.000000
0.000040 -0.000178 0.000093 0.000000
0.000096 -0.000374 0.000068 0.000000
0.000219 -0.000401 -0.000032 0.000000
0.000165 -0.000313 -0.000042 0.000000
0.000186 -0.000351 -0.000023 0.000000
0.000279 -0.000522 0.000031 0.000000
0.000261 -0.000480 0.000011 0.000000
0.000036 -0.000177 0.000068 0.000000
0.000024 -0.000133 0.000144 0.000000
0.000002 -0.000031 0.000014 0.000000
0.000081 -0.000109 0.000017 0.000000
0.000027 -0.000223 0.000035 0.000000
0.000233 -0.000282 0.000070 0.000000
0.000023 -0.000234 -0.000054 0.000000
0.000182 -0.000224 -0.000051 0.000000
0.000072 -0.000283 -0.000136 0.000000
0.000231 -0.000285 -0.000111 0.000000
0.000179 -0.000213 -0.000050 0.000000
0.000086 -0.000452 -0.000183 0.000000
0.000188 -0.000236 0.000048 0.000000
0.000351 -0.000671 -0.000289 0.000000
0.000263 -0.000306 0.000083 0.000000
0.000359 -0.000604 -0.000379 0.000000
0.000299 -0.000523 0.000031 0.000000
0.000270 -0.000304 0.000072 0.000000
0.000198 -0.000350 -0.000049 0.000000
0.000284 -0.000318 0.000083 0.000000
0.000139 -0.000386 0.000065 0.000000
0.000092 -0.000139 0.000028 0.000000
0.000206 -0.000399 -0.000025 0.000000
0.000183 -0.000207 0.000066 0.000000
-0.000013 -0.000230 0.000159 0.000000
0.000025 -0.000052 -0.000022 0.000000
0.000117 -0.000377 0.000068 0.000000
0.000106 -0.000381 0.000079 0.000000
0.000006 -0.000043 -0.000000 0.000000
0.000034 -0.000054 -0.000038 0.000000
0.000055 -0.000301 0.000108 0.000000
0.000001 -0.000032 -0.000006 0.000000
0.000113 -0.000160 0.000027 0.000000
0.000105 -0.000369 0.000093 0.000000
0.000223 -0.000265 0.000093 0.000000
0.000092 -0.000127 0.000026 0.000000
0.000173 -0.000194 0.000057 0.000000
0.000118 -0.000422 0.000074 0.000000
0.000112 -0.000156 -0.000020 0.000000
0.000317 -0.000393 0.000059 0.000000
0.000107 -0.000152 0.000032 0.000000
0.000312 -0.000351 0.000079 0.000000
-0.000074 -0.000284 0.000068 0.000000
0.000126 -0.000172 -0.000050 0.000000
0.000030 -0.000341 -0.000138 0.000000
-0.000068 -0.000159 -0.000025 0.000000
0.000104 -0.000148 0.000010 0.000000
0.000126 -0.000173 0.000000 0.000000
0.000140 -0.000186 0.000036 0.000000
0.000149 -0.000194 0.000017 0.000000
0.000112 -0.000149 0.000011 0.000000
0.000232 -0.000290 0.000071 0.000000
0.000146 -0.000197 0.000046 0.000000
0.000189 -0.000232 0.000067 0.000000
0.000236 -0.000292 0.000068 0.000000
0.000189 -0.000227 0.000069 0.000000
0.000273 -0.000307 0.000111 0.000000
0.000140 -0.000203 0.000054 0.000000
0.000274 -0.000322 0.000098 0.000000
0.000300 -0.000339 0.000083 0.000000
0.000150 -0.000203 0.000037 0.000000
0.000259 -0.000313 0.000095 0.000000
0.000274 -0.000323 0.000096 0.000000
0.000285 -0.000324 0.000101 0.000000
0.000251 -0.000300 0.000056 0.000000
0.000366 -0.000700 -0.000329 0.000000
0.000233 -0.000268 0.000065 0.000000
0.000221 -0.000264 0.000025 0.000000
0.000243 -0.000296 0.000037 0.000000
0.000277 -0.000323 0.000089 0.000000
0.000253 -0.000298 0.000047 0.000000
0.000244 -0.000293 0.000033 0.000000
0.000323 -0.000695 -0.000380 0.000000
0.000213 -0.000263 0.000056 0.000000
0.000217 -0.000255 0.000040 0.000000
0.000195 -0.000260 0.000040 0.000000
0.000235 -0.000294 0.000044 0.000000
0.000202 -0.000255 -0.000044 0.000000
0.000220 -0.000278 0.000042 0.000000
0.000237 -0.000295 0.000051 0.000000
0.000244 -0.000294 0.000023 0.000000
0.000212 -0.000273 0.000049 0.000000
0.000247 -0.000294 0.000060 0.000000
0.000332 -0.000372 0.000072 0.000000
0.000169 -0.000236 0.000032 0.000000
0.000212 -0.000264 0.000049 0.000000
0.000197 -0.000264 0.000055 0.000000
0.000239 -0.000294 0.000038 0.000000
0.000223 -0.000277 0.000044 0.000000
0.000262 -0.000716 0.000175 0.000000
0.000087 -0.000178 0.000039 0.000000
0.000051 -0.000139 0.000114 0.000000
0.000195 -0.000261 0.000037 0.000000
0.000154 -0.000205 0.000110 0.000000
0.000142 -0.000209 0.000012 0.000000
0.000158 -0.001044 -0.000155 0.000000
0.000121 -0.000203 0.000068 0.000000
-0.000037 -0.000811 0.000347 0.000000
0.000294 -0.000357 0.000069 0.000000
0.000422 -0.001208 -0.000096 0.000000
0.000151 -0.000236 -0.000037 0.000000
0.000312 -0.001249 0.000212 0.000000
0.000277 -0.000342 0.000036 0.000000
0.000180 -0.000251 -0.000009 0.000000
0.000312 -0.000372 0.000042 0.000000
0.000181 -0.000243 0.000037 0.000000
0.000121 -0.000204 0.000027 0.000000
0.000179 -0.000251 0.000049 0.000000
0.000229 -0.000297 0.000046 0.000000
0.000261 -0.000326 0.000021 0.000000
0.000264 -0.000341 0.000088 0.000000
0.000288 -0.000351 0.000032 0.000000
0.000438 -0.001173 -0.000379 0.000000
0.000393 -0.000506 0.000345 0.000000
0.000136 -0.000204 0.000009 0.000000
0.000193 -0.000269 0.000048 0.000000
0.000531 -0.001314 -0.000317 0.000000
0.000526 -0.001161 -0.000053 0.000000
0.000336 -0.001050 -0.000349 0.000000
0.000578 -0.001221 -0.000311 0.000000
0.000573 -0.001236 0.000040 0.000000
0.000085 -0.000142 -0.000017 0.000000
0.000326 -0.000407 -0.000014 0.000000
0.000357 -0.000460 -0.000141 0.000000
0.000233 -0.000287 -0.000042 0.000000
0.000192 -0.000230 0.000050 0.000000
0.000307 -0.000411 -0.000141 0.000000
0.000274 -0.000350 0.000073 0.000000
0.000305 -0.000360 0.000049 0.000000
0.000299 -0.000345 0.000055 0.000000
0.000293 -0.000360 0.000011 0.000000
0.000326 -0.000390 0.000037 0.000000
0.000286 -0.000327 0.000081 0.000000
0.000242 -0.000303 0.000062 0.000000
0.000336 -0.000397 0.000054 0.000000
0.000286 -0.000350 0.000065 0.000000
0.000202 -0.000247 -0.000067 0.000000
0.000231 -0.000277 0.000035 0.000000
-0.000107 -0.000261 0.000027 0.000000
0.000240 -0.000291 0.000037 0.000000
0.000198 -0.000258 0.000029 0.000000
0.000253 -0.000290 0.000087 0.000000
0.000165 -0.000213 0.000084 0.000000
0.000344 -0.000395 -0.000018 0.000000
0.000161 -0.000216 -0.000046 0.000000
0.000348 -0.000403 -0.000011 0.000000
0.000271 -0.000339 0.000023 0.000000
0.000134 -0.000236 -0.000044 0.000000
0.000294 -0.000361 -0.000019 0.000000
0.000330 -0.000399 -0.000023 0.000000
0.000280 -0.000353 0.000101 0.000000
0.000344 -0.000410 0.000159 0.000000
0.000256 -0.000298 0.000065 0.000000
0.000265 -0.000341 0.000066 0.000000
0.000191 -0.000243 0.000093 0.000000
0.000267 -0.000328 0.000078 0.000000
0.000232 -0.000290 0.000059 0.000000
0.000217 -0.000298 0.000067 0.000000
-0.000023 -0.000528 0.000118 0.000000
0.000153 -0.000208 0.000084 0.000000
0.000051 -0.000121 0.000042 0.000000
-0.000029 -0.000405 0.000075 0.000000
-0.000015 -0.000457 -0.000088 0.000000
0.000162 -0.000928 -0.000172 0.000000
-0.000108 -0.000498 0.000002 0.000000
0.000061 -0.000553 0.000104 0.000000
0.000162 -0.000742 -0.000175 0.000000
0.000041 -0.000124 0.000044 0.000000
-0.000013 -0.000549 0.000146 0.000000
-0.000010 -0.000063 0.000001 0.000000
-0.000011 -0.000072 0.000003 0.000000
0.000112 -0.000967 0.000056 0.000000
0.000019 -0.000594 -0.000543 0.000000
0.000000 -0.000097 -0.000012 0.000000
0.000182 -0.000234 0.000213 0.000000
0.000351 -0.000409 0.000096 0.000000
0.000015 -0.000092 -0.000033 0.000000
-0.000051 -0.000490 -0.000501 0.000000
0.000121 -0.000227 0.000021 0.000000
0.000286 -0.000386 0.000114 0.000000
0.000136 -0.000853 0.000141 0.000000
0.000013 -0.000117 0.000043 0.000000
-0.000015 -0.000077 -0.000036 0.000000
0.000016 -0.000113 0.000057 0.000000
0.000008 -0.000110 0.000013 0.000000
0.000014 -0.000936 0.000455 0.000000
-0.000015 -0.000747 -0.000183 0.000000
0.000015 -0.000114 0.000024 0.000000
0.000284 -0.000353 0.000119 0.000000
-0.000103 -0.000668 0.000193 0.000000
0.000264 -0.001075 0.000687 0.000000
0.000166 -0.000256 0.000026 0.000000
-0.000109 -0.000632 -0.000151 0.000000
0.000196 -0.000245 0.000282 0.000000
0.000217 -0.000272 0.000226 0.000000
0.000065 -0.000145 0.000114 0.000000
0.000032 -0.000875 0.000481 0.000000
0.000257 -0.001151 0.000721 0.000000
0.000129 -0.000215 0.000053 0.000000
0.000109 -0.000186 0.000072 0.000000
0.000128 -0.000232 0.000186 0.000000
0.000225 -0.000304 0.000045 0.000000
0.000411 -0.001096 0.000666 0.000000
0.000242 -0.000303 0.000043 0.000000
0.000491 -0.001080 0.000282 0.000000
0.000440 -0.000472 0.000273 0.000000
0.000300 -0.001160 0.000737 0.000000
0.000597 -0.001444 0.000532 0.000000
0.000541 -0.001270 0.000765 0.000000
0.000712 -0.001479 -0.000253 0.000000
0.000589 -0.001294 0.000530 0.000000
0.000656 -0.001338 -0.000367 0.000000
0.000604 -0.001560 0.000665 0.000000
0.000043 -0.000924 0.000120 0.000000
0.000516 -0.001452 0.000815 0.000000
0.000187 -0.001017 0.000511 0.000000
0.000479 -0.000602 0.000041 0.000000
0.000681 -0.001719 0.000895 0.000000
0.000391 -0.000488 0.000072 0.000000
0.000516 -0.001319 0.000838 0.000000
-0.000124 -0.000750 0.000092 0.000000
0.000162 -0.000272 0.000010 0.000000
-0.000221 -0.000528 0.000121 0.000000
0.000292 -0.001155 0.000573 0.000000
-0.000083 -0.000756 0.000097 0.000000
0.000289 -0.001152 0.000648 0.000000
0.000459 -0.001335 -0.000284 0.000000
0.000160 -0.001056 0.000461 0.000000
0.000283 -0.000388 -0.000060 0.000000
-0.000081 -0.000614 0.000181 0.000000
0.000152 -0.000287 0.000059 0.000000
0.000096 -0.001135 -0.000330 0.000000
0.000013 -0.000109 0.000020 0.000000
0.000041 -0.000931 0.001009 0.000000
-0.000001 -0.000103 0.000029 0.000000
-0.000005 -0.000949 0.000490 0.000000
-0.000003 -0.000105 0.000014 0.000000
-0.000020 -0.000087 0.000005 0.000000
0.000055 -0.000158 0.000023 0.000000
0.000095 -0.000199 0.000067 0.000000
-0.000313 -0.000546 -0.000092 0.000000
0.000053 -0.000968 0.000518 0.000000
0.000097 -0.000216 -0.000029 0.000000
0.000066 -0.000176 0.000032 0.000000
-0.000139 -0.000999 -0.000102 0.000000
0.000035 -0.001254 0.000937 0.000000
-0.000261 -0.000692 -0.000259 0.000000
0.000066 -0.000176 0.000066 0.000000
0.000099 -0.000218 -0.000068 0.000000
0.000141 -0.000253 -0.000049 0.000000
-0.000010 -0.000131 0.000008 0.000000
0.000121 -0.000239 0.000121 0.000000
0.000032 -0.000163 0.000031 0.000000
0.000059 -0.000184 0.000107 0.000000
0.000758 -0.001968 -0.000263 0.000000
0.000174 -0.000271 0.000029 0.000000
-0.000233 -0.000968 0.000053 0.000000
0.000131 -0.000269 0.000017 0.000000
0.000242 -0.000427 -0.000100 0.000000
0.000070 -0.000217 -0.000025 0.000000
0.000340 -0.000547 -0.000119 0.000000
-0.000389 -0.000582 -0.000233 0.000000
-0.000408 -0.000214 -0.000538 0.000000
0.000077 -0.000222 -0.000035 0.000000
0.000306 -0.000440 0.000234 0.000000
-0.000046 -0.000740 0.000254 0.000000
-0.000390 -0.000313 -0.000640 0.000000
0.000021 -0.000163 0.000032 0.000000
0.000053 -0.000194 0.000052 0.000000
0.000444 -0.001580 0.001750 0.000000
-0.000092 -0.000978 0.000863 0.000000
0.000666 -0.001692 0.000761 0.000000
0.000676 -0.001702 0.000655 0.000000
0.000419 -0.001283 0.000838 0.000000
0.000639 -0.000758 0.000224 0.000000
0.000603 -0.001633 0.000635 0.000000
0.000535 -0.000632 0.000110 0.000000
0.000483 -0.000578 0.000124 0.000000
0.000616 -0.000751 0.000154 0.000000
0.000631 -0.000755 0.000163 0.000000
0.000376 -0.000465 0.000130 0.000000
0.000573 -0.000675 0.000158 0.000000
0.000591 -0.001468 -0.000390 0.000000
0.000313 -0.000457 0.000006 0.000000
0.000241 -0.000394 -0.000131 0.000000
0.000339 -0.000419 -0.000244 0.000000
0.000237 -0.000349 -0.000112 0.000000
0.000172 -0.000300 -0.000106 0.000000
0.000490 -0.000634 0.000143 0.000000
0.000323 -0.000482 0.000065 0.000000
0.000248 -0.000386 -0.000001 0.000000
0.000250 -0.000355 -0.000169 0.000000
0.000521 -0.000669 0.000110 0.000000
0.000565 -0.000684 0.000105 0.000000
0.000412 -0.000567 0.000098 0.000000
0.000359 -0.000488 0.000172 0.000000
0.000613 -0.001419 -0.000303 0.000000
0.000883 -0.001635 -0.000244 0.000000
0.000448 -0.000538 0.000178 0.000000
0.000596 -0.001653 -0.000296 0.000000
0.000482 -0.001303 -0.000303 0.000000
0.000473 -0.001250 -0.000331 0.000000
0.000302 -0.000436 0.000092 0.000000
0.000622 -0.001465 -0.000318 0.000000
0.000251 -0.000972 0.000054 0.000000
0.000389 -0.001127 -0.000381 0.000000
-0.000050 -0.000592 0.000360 0.000000
0.000601 -0.001450 -0.000410 0.000000
0.000509 -0.000605 0.000233 0.000000
0.000243 -0.000356 -0.000102 0.000000
0.000304 -0.001139 -0.000583 0.000000
0.000290 -0.000389 0.000101 0.000000
0.000663 -0.001569 -0.000368 0.000000
0.000541 -0.001623 -0.000375 0.000000
0.000554 -0.000699 -0.000152 0.000000
-0.000072 -0.000905 -0.000117 0.000000
0.000477 -0.000588 -0.000084 0.000000
0.000478 -0.000599 -0.000124 0.000000
0.000223 -0.000309 0.000021 0.000000
0.000412 -0.000546 -0.000002 0.000000
0.000098 -0.000230 0.000041 0.000000
0.000199 -0.001090 0.000173 0.000000
0.000190 -0.000299 0.000006 0.000000
0.000104 -0.000178 0.000072 0.000000
0.000116 -0.000218 0.000121 0.000000
0.000237 -0.000757 0.000240 0.000000
-0.000087 -0.000647 0.001044 0.000000
0.000027 -0.000145 0.000018 0.000000
-0.000083 -0.000727 0.000915 0.000000
0.000091 -0.000167 0.000055 0.000000
0.000030 -0.000133 0.000055 0.000000
0.000128 -0.000221 0.000132 0.000000
0.000020 -0.000110 0.000103 0.000000
0.000130 -0.000216 0.000145 0.000000
0.000083 -0.000188 0.000077 0.000000
0.000143 -0.000271 0.000269 0.000000
0.000301 -0.001148 -0.000714 0.000000
0.000444 -0.000588 -0.000209 0.000000
0.000038 -0.000113 0.000173 0.000000
0.000324 -0.000406 -0.000373 0.000000
0.000545 -0.001753 -0.000576 0.000000
0.000363 -0.001364 0.000472 0.000000
0.000436 -0.001393 0.000262 0.000000
0.000584 -0.001565 0.000004 0.000000
0.000197 -0.001069 0.000140 0.000000
0.000207 -0.000328 -0.000013 0.000000
0.000336 -0.000473 0.000481 0.000000
-0.000055 -0.000595 -0.000295 0.000000
0.000097 -0.000201 0.000108 0.000000
0.000248 -0.000384 0.000443 0.000000
-0.000391 -0.000905 -0.000006 0.000000
0.000023 -0.001613 0.001468 0.000000
-0.000007 -0.000232 0.000219 0.000000
0.000122 -0.000375 0.000385 0.000000
0.000042 -0.000201 0.000143 0.000000
-0.000096 -0.001488 -0.000064 0.000000
0.000250 -0.000352 0.000567 0.000000
0.000064 -0.001504 0.000668 0.000000
0.000017 -0.000163 0.000143 0.000000
0.000743 -0.001954 0.001449 0.000000
-0.000039 -0.000150 0.000085 0.000000
0.000304 -0.000536 0.000494 0.000000
-0.000527 -0.000846 0.000069 0.000000
0.000233 -0.000400 0.000081 0.000000
-0.000027 -0.000167 0.000029 0.000000
-0.000429 -0.000837 -0.000218 0.000000
0.000100 -0.000242 -0.000003 0.000000
-0.000030 -0.000158 0.000072 0.000000
-0.000071 -0.001331 0.000469 0.000000
-0.000651 -0.000477 0.001611 0.000000
0.000498 -0.001627 -0.000255 0.000000
0.000219 -0.000416 0.000110 0.000000
0.000179 -0.001311 0.000613 0.000000
0.000210 -0.001640 0.000663 0.000000
0.000596 -0.001766 0.000591 0.000000
0.000435 -0.000593 0.000270 0.000000
0.000320 -0.000422 0.000148 0.000000
0.000241 -0.001298 0.000307 0.000000
0.000429 -0.000575 0.000233 0.000000
0.000357 -0.001761 0.000651 0.000000
0.000884 -0.002149 -0.000186 0.000000
0.000411 -0.000566 0.000168 0.000000
0.000928 -0.002243 -0.000285 0.000000
0.000818 -0.002251 0.000522 0.000000
0.000491 -0.000657 0.000429 0.000000
0.000369 -0.001624 0.001293 0.000000
0.000019 -0.001764 0.001694 0.000000
0.000334 -0.001444 0.000680 0.000000
0.000413 -0.000519 0.000140 0.000000
0.000957 -0.002170 0.000014 0.000000
0.000590 -0.001946 0.001228 0.000000
0.000091 -0.000196 0.000082 0.000000
0.001071 -0.002289 0.000819 0.000000
0.000355 -0.001682 0.000720 0.000000
0.000293 -0.001586 0.000684 0.000000
0.000413 -0.001658 0.000877 0.000000
-0.000321 -0.000428 -0.000423 0.000000
0.000222 -0.001409 0.000289 0.000000
0.000378 -0.001536 0.000504 0.000000
0.000261 -0.000433 0.000334 0.000000
0.000640 -0.001854 0.000698 0.000000
0.000794 -0.001921 0.000939 0.000000
0.000625 -0.002034 0.001017 0.000000
0.000277 -0.000413 0.000296 0.000000
0.000522 -0.000764 0.000741 0.000000
0.000463 -0.000593 0.000149 0.000000
0.000478 -0.001909 0.000791 0.000000
0.000241 -0.001862 0.001278 0.000000
0.000280 -0.000437 0.000375 0.000000
0.000257 -0.000429 0.000381 0.000000
0.000262 -0.000407 0.000285 0.000000
0.000834 -0.002114 0.001536 0.000000
0.000290 -0.000460 0.000510 0.000000
0.000214 -0.000380 0.000268 0.000000
0.000267 -0.000424 0.000397 0.000000
0.000194 -0.000356 0.000293 0.000000
0.001010 -0.002401 0.001115 0.000000
0.000230 -0.000423 0.000465 0.000000
0.000117 -0.001503 0.000497 0.000000
0.000225 -0.001590 0.000729 0.000000
0.000173 -0.000352 0.000278 0.000000
-0.000335 -0.001090 0.001083 0.000000
-0.000108 -0.001049 0.000346 0.000000
0.000685 -0.001918 0.000850 0.000000
0.000291 -0.001457 0.000539 0.000000
0.000248 -0.000407 0.000360 0.000000
-0.000033 -0.000112 0.000108 0.000000
-0.000062 -0.001111 -0.000271 0.000000
-0.000027 -0.000113 0.000145 0.000000
-0.000041 -0.001263 0.000252 0.000000
0.000004 -0.001136 0.000598 0.000000
0.000355 -0.001828 0.000440 0.000000
-0.000013 -0.001276 0.000720 0.000000
0.000217 -0.001538 0.001237 0.000000
0.000233 -0.001375 0.000692 0.000000
0.000341 -0.000484 0.000396 0.000000
0.000194 -0.001497 0.001242 0.000000
-0.000043 -0.001209 0.000568 0.000000
-0.000002 -0.000145 0.000237 0.000000
-0.000155 -0.001312 0.002230 0.000000
-0.000248 -0.000917 0.000475 0.000000
-0.000110 -0.001105 0.000573 0.000000
-0.000421 -0.000602 0.000793 0.000000
0.000028 -0.000156 0.000059 0.000000
-0.000354 -0.000687 0.000820 0.000000
-0.000115 -0.000922 0.000688 0.000000
0.000016 -0.000163 0.000281 0.000000
0.000041 -0.000146 0.000144 0.000000
0.000132 -0.001496 0.001291 0.000000
0.000106 -0.000215 0.000296 0.000000
0.000039 -0.000170 0.000280 0.000000
0.000026 -0.000146 0.000143 0.000000
-0.000021 -0.000094 0.000147 0.000000
0.000033 -0.000173 0.000221 0.000000
0.000055 -0.000179 0.000187 0.000000
0.000030 -0.000133 0.000108 0.000000
0.000045 -0.000169 0.000166 0.000000
0.000060 -0.000184 0.000107 0.000000
0.000021 -0.000131 0.000093 0.000000
0.000027 -0.000129 0.000109 0.000000
0.000012 -0.000117 0.000094 0.000000
0.000032 -0.000135 0.000119 0.000000
-0.000004 -0.000093 0.000101 0.000000
0.000009 -0.000106 0.000110 0.000000
0.000012 -0.000105 0.000070 0.000000
-0.000015 -0.000094 0.000048 0.000000
0.000034 -0.000141 0.000120 0.000000
0.000032 -0.000134 0.000118 0.000000
-0.000027 -0.000099 0.000134 0.000000
-0.000040 -0.000122 0.000118 0.000000
-0.000036 -0.000090 0.000053 0.000000
-0.000039 -0.000095 0.000063 0.000000
0.000159 -0.001390 -0.000139 0.000000
-0.000058 -0.000122 0.000174 0.000000
-0.000023 -0.000116 0.000165 0.000000
-0.000031 -0.000101 0.000142 0.000000
-0.000113 -0.001119 0.000407 0.000000
0.000439 -0.001847 0.000744 0.000000
-0.000049 -0.000076 0.000121 0.000000
-0.000028 -0.001292 0.000503 0.000000
-0.000240 -0.000688 -0.000002 0.000000
-0.000056 -0.001236 0.000560 0.000000
-0.000022 -0.000116 0.000107 0.000000
-0.000171 -0.000898 0.000193 0.000000
-0.000047 -0.000088 0.000053 0.000000
-0.000364 -0.000669 0.000859 0.000000
0.000024 -0.000124 0.000098 0.000000
-0.000218 -0.000645 0.000710 0.000000
-0.000002 -0.000108 0.000074 0.000000
-0.000029 -0.000089 0.000049 0.000000
-0.000006 -0.000111 -0.000001 0.000000
-0.000003 -0.000106 0.000056 0.000000
0.000011 -0.000105 0.000072 0.000000
0.000011 -0.000106 0.000016 0.000000
0.000012 -0.000109 0.000082 0.000000
0.000016 -0.000112 0.000114 0.000000
0.000017 -0.000117 0.000115 0.000000
0.000052 -0.000129 0.000207 0.000000
0.000019 -0.000120 0.000117 0.000000
-0.000001 -0.000106 0.000043 0.000000
0.000015 -0.000113 0.000111 0.000000
0.000006 -0.000105 0.000128 0.000000
0.000000 -0.000102 0.000101 0.000000
0.000018 -0.000120 0.000120 0.000000
0.000002 -0.000099 0.000094 0.000000
0.000088 -0.000154 0.000237 0.000000
-0.000007 -0.000099 0.000090 0.000000
-0.000021 -0.000084 0.000116 0.000000
-0.000026 -0.000081 0.000075 0.000000
0.000055 -0.000123 0.000236 0.000000
0.000006 -0.000095 0.000142 0.000000
0.000024 -0.000099 0.000190 0.000000
-0.000002 -0.000099 0.000164 0.000000
-0.000234 -0.000332 0.000712 0.000000
0.000018 -0.000112 0.000128 0.000000
0.000075 -0.000145 0.000253 0.000000
0.000013 -0.000111 0.000148 0.000000
0.000000 -0.000098 0.000105 0.000000
0.000027 -0.000110 0.000169 0.000000
-0.000005 -0.000096 0.000135 0.000000
0.000098 -0.000168 0.000115 0.000000
0.000022 -0.000118 0.000130 0.000000
0.000052 -0.000134 0.000214 0.000000
0.000022 -0.000110 0.000127 0.000000
0.000066 -0.000136 0.000264 0.000000
0.000092 -0.000165 0.000236 0.000000
-0.000013 -0.000052 0.000107 0.000000
0.000054 -0.000113 0.000192 0.000000
-0.000006 -0.000074 0.000264 0.000000
-0.000092 -0.000331 0.000356 0.000000
0.000063 -0.000129 0.000257 0.000000
0.000010 -0.000440 0.000675 0.000000
-0.000058 -0.000667 0.000772 0.000000
0.000079 -0.000145 0.000183 0.000000
0.000097 -0.000166 0.000149 0.000000
0.000057 -0.000117 0.000227 0.000000
0.000158 -0.000242 0.000266 0.000000
0.000112 -0.000671 0.001025 0.000000
0.000015 -0.000111 0.000024 0.000000
0.000040 -0.000125 0.000071 0.000000
0.000006 -0.000106 0.000035 0.000000
0.000016 -0.000107 0.000072 0.000000
0.000010 -0.000108 0.000039 0.000000
0.000009 -0.000104 0.000053 0.000000
-0.000161 -0.000535 0.000517 0.000000
0.000089 -0.000715 0.001140 0.000000
-0.000139 -0.000482 0.000508 0.000000
-0.000166 -0.000628 0.000653 0.000000
-0.000106 -0.000373 0.000547 0.000000
-0.000179 -0.000357 0.000304 0.000000
-0.000165 -0.000573 0.000568 0.000000
0.000029 -0.000130 0.000004 0.000000
-0.000038 -0.000613 0.000858 0.000000
-0.000113 -0.000633 0.000742 0.000000
-0.000173 -0.000384 0.000179 0.000000
-0.000206 -0.000352 0.000357 0.000000
-0.000124 -0.000428 0.000468 0.000000
-0.000122 -0.000408 0.000388 0.000000
0.000044 -0.000133 0.000043 0.000000
0.000212 -0.000313 0.000120 0.000000
0.000115 -0.000183 0.000051 0.000000
0.000157 -0.000213 0.000076 0.000000
0.000080 -0.000185 0.000092 0.000000
0.000033 -0.000137 0.000045 0.000000
0.000135 -0.000247 0.000247 0.000000
0.000100 -0.000202 0.000173 0.000000
0.000051 -0.000129 0.000152 0.000000
-0.000028 -0.000083 0.000040 0.000000
-0.000150 -0.000468 0.000479 0.000000
-0.000212 -0.000370 0.000240 0.000000
-0.000297 -0.000547 0.000846 0.000000
-0.000023 -0.000086 0.000028 0.000000
-0.000247 -0.000554 0.000590 0.000000
-0.000267 -0.000718 0.000917 0.000000
-0.000307 -0.000660 0.000850 0.000000
-0.000007 -0.001009 0.001597 0.000000
-0.000266 -0.000653 0.000824 0.000000
-0.000320 -0.000710 0.000951 0.000000
0.000123 -0.001371 0.000588 0.000000
0.000369 -0.001481 0.001099 0.000000
-0.000304 -0.000850 0.000752 0.000000
-0.000106 -0.000885 0.001455 0.000000
0.000140 -0.000274 0.000203 0.000000
-0.000273 -0.000641 0.000889 0.000000
0.000146 -0.000249 0.000180 0.000000
0.000098 -0.000231 0.000077 0.000000
-0.000346 -0.000105 0.000435 0.000000
0.000074 -0.000189 0.000100 0.000000
0.000135 -0.000258 0.000104 0.000000
0.001303 -0.002603 -0.000120 0.000000
0.000116 -0.000221 0.000055 0.000000
0.000213 -0.000299 0.000161 0.000000
0.000173 -0.000277 0.000025 0.000000
0.001264 -0.002441 -0.000042 0.000000
0.000275 -0.000370 0.000156 0.000000
0.000498 -0.001722 0.000870 0.000000
0.000442 -0.000604 0.000326 0.000000
0.000328 -0.000461 0.000351 0.000000
0.000195 -0.000333 0.000138 0.000000
0.000464 -0.000556 0.000195 0.000000
0.000299 -0.000387 0.000316 0.000000
0.000391 -0.001438 -0.000142 0.000000
0.000223 -0.000333 0.000226 0.000000
0.000641 -0.001788 0.000082 0.000000
0.000162 -0.000292 0.000131 0.000000
0.000230 -0.000368 0.000155 0.000000
0.000322 -0.000421 0.000359 0.000000
0.000144 -0.000272 0.000261 0.000000
0.000214 -0.000322 0.000242 0.000000
0.000087 -0.000207 0.000159 0.000000
0.000111 -0.000218 0.000084 0.000000
0.000107 -0.000209 0.000094 0.000000
0.000043 -0.000167 0.000040 0.000000
0.000054 -0.000159 0.000084 0.000000
0.000109 -0.000203 0.000101 0.000000
0.000061 -0.000152 0.000054 0.000000
0.000072 -0.000175 0.000082 0.000000
0.000065 -0.000180 0.000069 0.000000
0.000117 -0.000243 0.000230 0.000000
0.000093 -0.000177 0.000106 0.000000
0.000172 -0.000304 0.000291 0.000000
0.000134 -0.000229 0.000149 0.000000
0.000121 -0.000219 0.000123 0.000000
0.000094 -0.000189 0.000090 0.000000
0.000116 -0.000213 0.000090 0.000000
0.000049 -0.000126 0.000077 0.000000
0.000083 -0.000855 0.000430 0.000000
0.000095 -0.000200 0.000122 0.000000
0.000059 -0.000890 0.000375 0.000000
0.000052 -0.000119 0.000037 0.000000
0.000057 -0.000139 0.000127 0.000000
0.000038 -0.000549 -0.000019 0.000000
0.000078 -0.000169 0.000154 0.000000
0.000071 -0.000158 0.000062 0.000000
0.000091 -0.000789 0.000450 0.000000
0.000056 -0.000135 0.000059 0.000000
0.000081 -0.000798 0.000456 0.000000
0.000131 -0.000217 0.000151 0.000000
0.000059 -0.000156 0.000087 0.000000
0.000084 -0.000164 0.000112 0.000000
0.000065 -0.000147 0.000057 0.000000
0.000084 -0.000170 0.000091 0.000000
0.000065 -0.000161 0.000074 0.000000
0.000068 -0.000151 0.000049 0.000000
0.000089 -0.000172 0.000061 0.000000
0.000162 -0.000255 0.000079 0.000000
0.000161 -0.000238 0.000072 0.000000
-0.000108 -0.000417 0.000346 0.000000
0.000203 -0.000688 0.000003 0.000000
0.000170 -0.000251 0.000075 0.000000
-0.000048 -0.000512 0.000293 0.000000
-0.000132 -0.000340 0.000375 0.000000
0.000140 -0.000692 0.000306 0.000000
0.000056 -0.000130 0.000065 0.000000
0.000092 -0.000158 0.000044 0.000000
0.000082 -0.000773 0.000412 0.000000
0.000156 -0.000721 0.000114 0.000000
0.000072 -0.000535 0.000187 0.000000
0.000069 -0.000105 -0.000018 0.000000
-0.000004 -0.000038 0.000021 0.000000
0.000053 -0.000095 0.000016 0.000000
0.000012 -0.000050 0.000031 0.000000
0.000021 -0.000068 0.000033 0.000000
-0.000027 -0.000521 0.000337 0.000000
-0.000060 -0.000445 0.000334 0.000000
-0.000007 -0.000029 0.000016 0.000000
-0.000006 -0.000030 0.000017 0.000000
-0.000005 -0.000042 0.000027 0.000000
-0.000007 -0.000031 0.000018 0.000000
-0.000068 -0.000446 0.000307 0.000000
-0.000132 -0.000118 0.000244 0.000000
-0.000136 -0.000230 0.000128 0.000000
-0.000007 -0.000027 0.000014 0.000000
0.000066 -0.000137 0.000035 0.000000
0.000013 -0.000046 0.000010 0.000000
-0.000083 -0.000248 0.000197 0.000000
0.000017 -0.000281 0.000413 0.000000
0.000195 -0.000612 0.000217 0.000000
0.000148 -0.000671 0.000264 0.000000
0.000183 -0.000791 0.000198 0.000000
0.000042 -0.000472 0.000190 0.000000
0.000123 -0.000714 0.000292 0.000000
0.000177 -0.000234 0.000080 0.000000
0.000108 -0.000747 0.000379 0.000000
0.000156 -0.000697 0.000299 0.000000
0.000285 -0.000820 0.000479 0.000000
0.000362 -0.000838 -0.000147 0.000000
0.000205 -0.000556 -0.000026 0.000000
0.000159 -0.000524 0.000024 0.000000
0.000017 -0.000069 0.000014 0.000000
0.000088 -0.000516 0.000205 0.000000
0.000234 -0.000682 0.000191 0.000000
0.000201 -0.000250 -0.000046 0.000000
0.000194 -0.000255 0.000051 0.000000
0.000021 -0.000055 0.000009 0.000000
0.000056 -0.000084 0.000029 0.000000
0.000026 -0.000075 0.000022 0.000000
-0.000025 -0.000057 0.000064 0.000000
0.000023 -0.000058 -0.000001 0.000000
-0.000002 -0.000028 0.000019 0.000000
0.000225 -0.000252 -0.000124 0.000000
0.000009 -0.000054 0.000018 0.000000
0.000018 -0.000046 0.000032 0.000000
0.000000 -0.000038 0.000017 0.000000
0.000101 -0.000120 -0.000048 0.000000
0.000350 -0.000674 -0.000313 0.000000
0.000009 -0.000051 0.000019 0.000000
0.000109 -0.000165 -0.000023 0.000000
0.000152 -0.000165 -0.000040 0.000000
0.000025 -0.000131 0.000007 0.000000
0.000015 -0.000050 0.000013 0.000000
-0.000002 -0.000031 0.000014 0.000000
0.000001 -0.000026 0.000031 0.000000
-0.000002 -0.000055 0.000089 0.000000
0.000004 -0.000024 0.000006 0.000000
0.000042 -0.000168 0.000092 0.000000
0.000027 -0.000159 0.000047 0.000000
0.000002 -0.000016 0.000003 0.000000
-0.000007 -0.000027 0.000053 0.000000
-0.000000 -0.000021 0.000009 0.000000
0.000002 -0.000033 0.000012 0.000000
-0.000001 -0.000025 0.000012 0.000000
0.000001 -0.000031 0.000013 0.000000
-0.000004 -0.000023 0.000014 0.000000
-0.000001 -0.000020 0.000009 0.000000
0.000013 -0.000079 0.000032 0.000000
-0.000016 -0.000062 0.000005 0.000000
-0.000000 -0.000023 0.000014 0.000000
-0.000003 -0.000029 0.000012 0.000000
-0.000014 -0.000013 0.000019 0.000000
-0.000026 -0.000008 0.000032 0.000000
0.000013 -0.000028 0.000021 0.000000
-0.000026 -0.000038 0.000026 0.000000
-0.000119 0.000009 0.000208 0.000000
-0.000044 -0.000028 0.000019 0.000000
-0.000043 -0.000012 0.000086 0.000000
-0.000043 -0.000011 0.000108 0.000000
0.000015 -0.000132 0.000163 0.000000
-0.000015 -0.000033 0.000089 0.000000
0.000041 -0.000066 0.000134 0.000000
0.000006 -0.000104 0.000150 0.000000
0.000025 -0.000222 0.000157 0.000000
-0.000001 -0.000081 0.000127 0.000000
-0.000000 -0.000036 0.000010 0.000000
0.000007 -0.000042 0.000038 0.000000
-0.000004 -0.000026 0.000019 0.000000
-0.000066 -0.000137 0.000299 0.000000
0.000003 -0.000038 0.000031 0.000000
-0.000056 -0.000219 0.000295 0.000000
-0.000026 -0.000092 0.000190 0.000000
-0.000035 -0.000326 0.000297 0.000000
-0.000091 -0.000122 0.000301 0.000000
0.000072 -0.000147 0.000004 0.000000
0.000018 -0.000044 0.000073 0.000000
0.000017 -0.000048 0.000048 0.000000
-0.000002 -0.000025 0.000009 0.000000
0.000033 -0.000107 0.000059 0.000000
-0.000153 -0.000225 0.000371 0.000000
-0.000005 -0.000024 0.000010 0.000000
-0.000121 -0.000111 0.000274 0.000000
-0.000074 -0.000070 0.000141 0.000000
-0.000079 -0.000176 0.000374 0.000000
-0.000113 -0.000020 0.000189 0.000000
-0.000064 -0.000170 0.000309 0.000000
-0.000034 -0.000151 0.000269 0.000000
-0.000072 -0.000092 0.000154 0.000000
-0.000129 -0.000080 0.000121 0.000000
-0.000059 -0.000106 0.000155 0.000000
-0.000044 -0.000117 0.000244 0.000000
-0.000007 -0.000040 0.000027 0.000000
-0.000068 -0.000126 0.000196 0.000000
-0.000130 -0.000016 0.000158 0.000000
-0.000099 -0.000111 0.000205 0.000000
-0.000114 -0.000038 -0.000020 0.000000
-0.000090 -0.000033 0.000029 0.000000
-0.000098 -0.000030 0.000048 0.000000
-0.000007 -0.000021 0.000016 0.000000
0.000012 -0.000193 0.000117 0.000000
-0.000072 0.000004 0.000089 0.000000
-0.000107 0.000012 0.000147 0.000000
-0.000082 -0.000015 0.000060 0.000000
-0.000113 0.000015 0.000152 0.000000
-0.000115 0.000011 0.000172 0.000000
-0.000119 -0.000016 0.000061 0.000000
-0.000098 -0.000024 0.000150 0.000000
-0.000100 -0.000010 0.000091 0.000000
-0.000087 -0.000052 0.000128 0.000000
-0.000016 -0.000139 0.000290 0.000000
-0.000067 -0.000062 0.000253 0.000000
-0.000075 -0.000063 0.000190 0.000000
0.000006 -0.000188 0.000456 0.000000
-0.000027 -0.000111 0.000286 0.000000
-0.000058 -0.000074 0.000230 0.000000
-0.000057 -0.000093 0.000173 0.000000
-0.000092 -0.000032 0.000170 0.000000
-0.000087 -0.000034 0.000264 0.000000
-0.000020 -0.000150 0.000199 0.000000
-0.000002 -0.000116 0.000387 0.000000
-0.000091 -0.000020 0.000250 0.000000
-0.000032 -0.000048 0.000089 0.000000
0.000002 -0.000158 0.000276 0.000000
-0.000026 -0.000120 0.000344 0.000000
0.000029 -0.000222 0.000488 0.000000
-0.000108 0.000005 0.000182 0.000000
-0.000014 -0.000196 0.000189 0.000000
0.000021 -0.000198 0.000292 0.000000
-0.000046 -0.000010 0.000074 0.000000
-0.000030 -0.000091 0.000116 0.000000
0.000058 -0.000283 0.000609 0.000000
-0.000007 -0.000167 0.000401 0.000000
-0.000036 -0.000074 0.000154 0.000000
-0.000032 -0.000096 0.000247 0.000000
-0.000045 -0.000195 0.000415 0.000000
-0.000005 -0.000163 0.000407 0.000000
-0.000073 -0.000304 0.000956 0.000000
0.000157 -0.000190 0.000611 0.000000
-0.000020 -0.000192 0.000007 0.000000
-0.000014 -0.000155 0.000190 0.000000
-0.000049 -0.000156 0.000098 0.000000
-0.000031 -0.000053 0.000079 0.000000
-0.000055 -0.000150 0.000151 0.000000
-0.000049 -0.000082 0.000146 0.000000
-0.000084 -0.000125 0.000110 0.000000
-0.000082 -0.000085 0.000125 0.000000
-0.000011 -0.000020 0.000031 0.000000
-0.000053 -0.000100 0.000188 0.000000
-0.000187 -0.000032 0.000086 0.000000
-0.000013 -0.000015 0.000027 0.000000
-0.000073 -0.000004 0.000053 0.000000
-0.000077 0.000003 0.000083 0.000000
0.000168 -0.000253 0.000307 0.000000
-0.000197 -0.000053 0.000142 0.000000
0.000011 -0.000047 0.000044 0.000000
-0.000114 -0.000072 0.000190 0.000000
-0.000001 -0.000049 0.000042 0.000000
0.000105 -0.000148 0.000245 0.000000
0.000070 -0.000102 0.000150 0.000000
-0.000084 -0.000102 0.000095 0.000000
-0.000119 -0.000212 0.000428 0.000000
-0.000150 -0.000308 0.000420 0.000000
0.000110 -0.000148 0.000319 0.000000
0.000114 -0.000300 0.000220 0.000000
-0.000111 -0.000322 0.000390 0.000000
-0.000096 -0.000182 0.000324 0.000000
-0.000138 -0.000339 0.000397 0.000000
-0.000095 -0.000452 0.000551 0.000000
-0.000091 -0.000402 0.000326 0.000000
-0.000116 -0.000410 0.000396 0.000000
-0.000147 -0.000271 0.000596 0.000000
-0.000142 -0.000244 0.000414 0.000000
-0.000117 -0.000384 0.000679 0.000000
-0.000025 -0.000336 0.000842 0.000000
0.000218 -0.000253 0.000660 0.000000
0.000079 -0.000358 0.000831 0.000000
0.000215 -0.000264 0.000644 0.000000
0.000111 -0.000146 0.000412 0.000000
-0.000121 -0.000347 0.000443 0.000000
-0.000098 -0.000440 0.000287 0.000000
-0.000134 -0.000235 0.000459 0.000000
-0.000109 -0.000383 0.000513 0.000000
0.000138 -0.000650 0.000097 0.000000
-0.000098 -0.000395 0.000451 0.000000
-0.000154 -0.000309 0.000394 0.000000
-0.000119 -0.000382 0.000358 0.000000
-0.000101 -0.000391 0.000526 0.000000
-0.000102 -0.000385 0.000486 0.000000
-0.000013 -0.000481 0.000641 0.000000
-0.000137 -0.000305 0.000434 0.000000
-0.000046 -0.000457 0.000798 0.000000
-0.000031 -0.000470 0.000785 0.000000
-0.000098 -0.000366 0.000647 0.000000
-0.000070 -0.000388 0.000625 0.000000
-0.000047 -0.000426 0.000818 0.000000
-0.000035 -0.000465 0.000816 0.000000
-0.000044 -0.000442 0.000274 0.000000
0.000081 -0.000110 0.000177 0.000000
0.000100 -0.000175 0.000112 0.000000
-0.000066 -0.000271 0.000514 0.000000
0.000269 -0.000360 0.000406 0.000000
0.000190 -0.000223 0.000422 0.000000
0.000264 -0.000288 0.000387 0.000000
0.000106 -0.000170 0.000223 0.000000
-0.000205 -0.000069 0.000149 0.000000
-0.000017 -0.000038 0.000057 0.000000
-0.000018 -0.000021 0.000034 0.000000
0.000022 -0.000217 -0.000082 0.000000
0.000211 -0.000260 0.000408 0.000000
0.000111 -0.000176 0.000244 0.000000
-0.000005 -0.000043 0.000031 0.000000
0.000063 -0.000115 0.000109 0.000000
-0.000121 -0.000056 -0.000091 0.000000
-0.000118 -0.000149 0.000089 0.000000
-0.000509 -0.000693 0.001288 0.000000
-0.000012 -0.000128 0.000149 0.000000
-0.000317 -0.000662 0.000971 0.000000
-0.000025 -0.000075 0.000088 0.000000
-0.000051 -0.000069 0.000069 0.000000
-0.000576 -0.000214 0.001350 0.000000
-0.000718 -0.000270 0.001572 0.000000
-0.000380 -0.000388 0.001250 0.000000
0.000038 -0.000126 0.000565 0.000000
-0.000024 -0.000075 0.000523 0.000000
-0.000006 -0.000098 0.000290 0.000000
0.000041 -0.000107 0.000487 0.000000
-0.000549 -0.000212 0.001029 0.000000
-0.000631 -0.000222 0.001246 0.000000
-0.000747 -0.000245 0.001381 0.000000
-0.000028 -0.000080 0.000275 0.000000
-0.000016 -0.000089 0.000584 0.000000
0.000035 -0.000154 0.000244 0.000000
-0.000477 -0.000621 0.001408 0.000000
0.000019 -0.000126 0.000440 0.000000
-0.000039 -0.000054 0.000144 0.000000
-0.000011 -0.000087 0.000376 0.000000
-0.000037 -0.000056 0.000088 0.000000
-0.000007 -0.000097 0.000351 0.000000
-0.000069 -0.000366 0.000310 0.000000
-0.000025 -0.000052 0.000062 0.000000
-0.000012 -0.000061 0.000066 0.000000
-0.000038 -0.000055 0.000089 0.000000
-0.000166 -0.000472 0.000658 0.000000
0.000034 -0.000147 0.000464 0.000000
0.000029 -0.000122 0.000239 0.000000
-0.000153 -0.000489 0.000557 0.000000
-0.000148 -0.000447 0.000509 0.000000
-0.000190 -0.000509 0.000623 0.000000
-0.000072 -0.000326 0.000905 0.000000
-0.000184 -0.000441 0.000547 0.000000
-0.000016 -0.000619 0.000688 0.000000
-0.000151 -0.000459 0.000586 0.000000
0.000005 -0.000048 0.000267 0.000000
-0.000146 -0.000337 0.000796 0.000000
0.000125 -0.000149 0.000403 0.000000
0.000089 -0.000131 0.000372 0.000000
-0.000068 -0.000242 0.000253 0.000000
-0.000085 -0.000180 0.000263 0.000000
-0.000152 -0.000102 0.000239 0.000000
0.000036 -0.000085 0.000306 0.000000
-0.000191 -0.000206 0.001048 0.000000
-0.000149 -0.000198 0.000888 0.000000
0.000026 -0.000248 0.000258 0.000000
0.000077 -0.000099 0.000277 0.000000
-0.000161 -0.000290 0.000575 0.000000
-0.000162 -0.000260 0.000391 0.000000
-0.000130 -0.000379 0.000412 0.000000
-0.000179 -0.000310 0.000847 0.000000
-0.000404 -0.000302 0.001278 0.000000
-0.000080 -0.000580 0.000783 0.000000
0.000144 -0.000645 0.000656 0.000000
0.000015 -0.000083 0.000315 0.000000
0.000057 -0.000132 0.000229 0.000000
0.000035 -0.000102 0.000206 0.000000
0.000035 -0.000108 0.000197 0.000000
-0.000008 -0.000119 0.000108 0.000000
0.000002 -0.000066 0.000153 0.000000
0.000008 -0.000086 0.000131 0.000000
0.000039 -0.000095 0.000160 0.000000
-0.000209 -0.000362 0.001130 0.000000
-0.000225 -0.000143 0.000619 0.000000
-0.000190 -0.000396 0.000986 0.000000
-0.000216 -0.000281 0.000473 0.000000
-0.000090 -0.000240 0.000137 0.000000
-0.000117 -0.000254 0.000176 0.000000
0.000068 -0.000115 0.000296 0.000000
0.000044 -0.000090 0.000313 0.000000
-0.000102 -0.000399 0.000410 0.000000
0.000030 -0.000078 0.000387 0.000000
0.000028 -0.000069 0.000291 0.000000
-0.000083 -0.000185 0.000354 0.000000
0.000061 -0.000079 0.000373 0.000000
-0.000089 -0.000065 0.000256 0.000000
-0.000018 -0.000009 0.000225 0.000000
-0.000047 -0.000023 0.000328 0.000000
0.000026 -0.000066 0.000270 0.000000
-0.000011 -0.000019 0.000290 0.000000
-0.000012 -0.000024 0.000153 0.000000
-0.000008 -0.000025 0.000213 0.000000
-0.000102 0.000003 0.000172 0.000000
0.000020 -0.000062 0.000319 0.000000
-0.000005 -0.000028 0.000243 0.000000
-0.000089 -0.000007 0.000095 0.000000
-0.000032 -0.000049 0.000080 0.000000
-0.000144 -0.000120 0.000338 0.000000
-0.000066 -0.000087 0.000209 0.000000
-0.000063 -0.000100 0.000171 0.000000
-0.000101 -0.000037 0.000183 0.000000
-0.000084 -0.000043 0.000168 0.000000
-0.000122 0.000008 0.000195 0.000000
-0.000019 -0.000022 0.000256 0.000000
-0.000073 -0.000093 0.000150 0.000000
-0.000088 -0.000062 0.000192 0.000000
-0.000126 0.000005 0.000204 0.000000
-0.000092 -0.000096 0.000163 0.000000
-0.000129 0.000007 0.000226 0.000000
-0.000100 -0.000034 0.000224 0.000000
-0.000025 -0.000009 0.000243 0.000000
-0.000091 -0.000057 0.000247 0.000000
0.000023 -0.000048 0.000253 0.000000
-0.000075 -0.000085 0.000145 0.000000
-0.000097 -0.000045 0.000228 0.000000
-0.000070 -0.000066 0.000220 0.000000
-0.000101 -0.000011 0.000214 0.000000
-0.000070 -0.000113 0.000251 0.000000
-0.000095 -0.000185 0.000338 0.000000
-0.000073 -0.000120 0.000223 0.000000
-0.000072 -0.000014 0.000157 0.000000
-0.000085 -0.000012 0.000186 0.000000
-0.000074 -0.000162 0.000274 0.000000
-0.000095 -0.000096 0.000289 0.000000
0.000005 -0.000294 0.000562 0.000000
-0.000098 -0.000209 0.000428 0.000000
-0.000170 -0.000189 0.000779 0.000000
-0.000096 -0.000357 0.000990 0.000000
-0.000085 -0.000133 0.000314 0.000000
-0.000158 -0.000242 0.000836 0.000000
-0.000283 -0.000147 0.001000 0.000000
0.000004 -0.000037 0.000423 0.000000
-0.000037 -0.000506 0.000540 0.000000
-0.000127 -0.000457 0.000523 0.000000
0.000040 -0.000085 0.000419 0.000000
-0.000239 -0.000155 0.000982 0.000000
0.000105 -0.000150 0.000599 0.000000
0.000048 -0.000079 0.000410 0.000000
0.000026 -0.000071 0.000324 0.000000
-0.000056 -0.000346 0.000438 0.000000
-0.000186 -0.000304 0.000728 0.000000
-0.000026 -0.000055 0.000095 0.000000
0.000018 -0.000088 0.000291 0.000000
-0.000183 -0.000080 0.000259 0.000000
-0.000185 -0.000132 0.000090 0.000000
-0.000197 -0.000108 0.000287 0.000000
-0.000212 -0.000116 0.000203 0.000000
-0.000297 -0.000060 0.000679 0.000000
-0.000194 -0.000122 0.000200 0.000000
-0.000214 -0.000135 0.000237 0.000000
-0.000108 -0.000206 0.000200 0.000000
-0.000068 -0.000519 0.000829 0.000000
0.000080 -0.000152 0.000408 0.000000
0.000053 -0.000122 0.000264 0.000000
0.000011 -0.000534 0.000912 0.000000
-0.000145 -0.000128 0.000216 0.000000
-0.000131 -0.000049 0.000201 0.000000
-0.000113 0.000010 0.000168 0.000000
-0.000086 -0.000155 0.000238 0.000000
-0.000117 -0.000021 0.000172 0.000000
-0.000092 -0.000138 0.000259 0.000000
-0.000089 -0.000005 0.000164 0.000000
-0.000169 -0.000055 0.000266 0.000000
-0.000154 -0.000039 0.000215 0.000000
-0.000221 0.000039 0.000560 0.000000
-0.000126 0.000013 0.000190 0.000000
-0.000162 -0.000107 0.000187 0.000000
-0.000143 -0.000044 0.000206 0.000000
-0.000111 -0.000193 0.000080 0.000000
-0.000185 -0.000096 0.000329 0.000000
-0.000166 -0.000064 0.000218 0.000000
-0.000183 -0.000087 0.000390 0.000000
-0.000178 -0.000098 0.000605 0.000000
-0.000194 -0.000032 0.000592 0.000000
-0.000008 -0.000014 0.000262 0.000000
-0.000126 -0.000017 0.000183 0.000000
-0.000226 0.000040 0.000607 0.000000
-0.000186 0.000046 0.000421 0.000000
-0.000123 -0.000023 0.000280 0.000000
-0.000146 -0.000039 0.000327 0.000000
-0.000167 0.000039 0.000315 0.000000
-0.000010 -0.000013 0.000521 0.000000
-0.000125 -0.000034 0.000349 0.000000
-0.000026 -0.000008 0.000239 0.000000
-0.000133 -0.000025 0.000260 0.000000
-0.000140 -0.000089 0.000390 0.000000
-0.000157 -0.000069 0.000448 0.000000
-0.000024 -0.000031 0.000594 0.000000
0.000007 -0.000035 0.000263 0.000000
-0.000022 0.000001 0.000355 0.000000
-0.000201 -0.000175 0.000821 0.000000
-0.000037 -0.000009 0.000412 0.000000
-0.000042 -0.000011 0.000574 0.000000
0.000018 -0.000042 0.000399 0.000000
-0.000023 0.000010 0.000263 0.000000
-0.000162 -0.000057 0.000329 0.000000
-0.000141 0.000005 0.000254 0.000000
-0.000190 -0.000086 0.000410 0.000000
-0.000146 0.000009 0.000263 0.000000
-0.000351 0.000120 0.000582 0.000000
-0.000343 -0.000029 0.000461 0.000000
-0.000061 -0.000048 0.000227 0.000000
-0.000066 0.000045 0.000301 0.000000
-0.000253 0.000135 0.000491 0.000000
-0.000350 0.000074 0.000377 0.000000
-0.000066 0.000012 0.000260 0.000000
-0.000055 0.000007 0.000372 0.000000
-0.000064 -0.000084 0.000394 0.000000
-0.000112 0.000001 0.000178 0.000000
-0.000134 -0.000135 0.000468 0.000000
-0.000113 -0.000038 0.000251 0.000000
-0.000139 0.000008 0.000226 0.000000
0.000012 -0.000056 0.000474 0.000000
-0.000011 -0.000066 0.000208 0.000000
-0.000003 -0.000039 0.000565 0.000000
-0.000008 -0.000034 0.000652 0.000000
0.000023 -0.000068 0.000219 0.000000
-0.000163 -0.000155 0.000096 0.000000
-0.000016 -0.000074 0.000230 0.000000
-0.000213 -0.000151 0.000144 0.000000
0.000024 -0.000102 0.000206 0.000000
0.000059 -0.000113 0.000248 0.000000
-0.000034 -0.000017 0.000607 0.000000
0.000029 -0.000084 0.000349 0.000000
0.000020 -0.000059 0.000623 0.000000
0.000013 -0.000055 0.000537 0.000000
-0.000207 -0.000347 0.001193 0.000000
-0.000066 0.000017 0.000444 0.000000
-0.000004 -0.000055 0.000608 0.000000
-0.000220 -0.000292 0.001140 0.000000
-0.000204 -0.000365 0.001166 0.000000
-0.000020 -0.000031 0.000530 0.000000
-0.000287 0.000128 0.000656 0.000000
-0.000190 0.000080 0.000321 0.000000
-0.000027 -0.000055 0.000095 0.000000
-0.000010 -0.000067 0.000179 0.000000
-0.000022 -0.000071 0.000371 0.000000
-0.000314 -0.000106 0.000184 0.000000
-0.000027 -0.000054 0.000075 0.000000
-0.000028 -0.000054 0.000071 0.000000
-0.000223 -0.000406 0.001138 0.000000
-0.000010 -0.000039 0.000572 0.000000
-0.000030 -0.000004 0.000001 0.000000
-0.000213 0.000077 -0.000000 0.000000
-0.000208 0.000041 0.000017 0.000000
-0.000018 0.000000 -0.000003 0.000000
-0.000020 -0.000007 -0.000025 0.000000
-0.000212 0.000077 -0.000000 0.000000
-0.000183 0.000029 0.000015 0.000000
-0.000034 -0.000001 -0.000016 0.000000
-0.000040 0.000001 0.000003 0.000000
-0.000119 0.000005 -0.000069 0.000000
0.000032 -0.000033 -0.000008 0.000000
-0.000044 0.000003 0.000013 0.000000
-0.000016 -0.000038 -0.000044 0.000000
-0.000111 0.000015 -0.000033 0.000000
-0.000102 0.000028 -0.000029 0.000000
-0.000016 -0.000057 -0.000085 0.000000
0.000017 -0.000026 -0.000005 0.000000
-0.000005 -0.000015 0.000007 0.000000
-0.000015 -0.000010 -0.000027 0.000000
-0.000112 0.000031 0.000033 0.000000
-0.000001 -0.000007 0.000005 0.000000
-0.000064 0.000012 -0.000033 0.000000
-0.000039 0.000001 -0.000006 0.000000
-0.000036 -0.000001 0.000011 0.000000
-0.000087 -0.000008 -0.000079 0.000000
-0.000125 0.000042 -0.000017 0.000000
-0.000028 -0.000084 -0.000035 0.000000
-0.000040 0.000003 -0.000018 0.000000
-0.000028 -0.000095 -0.000038 0.000000
-0.000040 -0.000025 0.000006 0.000000
0.000012 -0.000129 -0.000126 0.000000
-0.000007 -0.000042 -0.000065 0.000000
-0.000038 -0.000081 -0.000101 0.000000
-0.000062 -0.000076 -0.000140 0.000000
-0.000012 -0.000003 -0.000003 0.000000
-0.000006 -0.000007 0.000005 0.000000
-0.000006 -0.000012 0.000007 0.000000
-0.000010 -0.000024 0.000022 0.000000
-0.000104 0.000006 0.000065 0.000000
0.000001 -0.000016 0.000009 0.000000
0.000000 -0.000008 0.000001 0.000000
-0.000001 -0.000005 0.000003 0.000000
-0.000156 0.000009 0.000001 0.000000
-0.000062 0.000026 -0.000043 0.000000
-0.000014 -0.000007 -0.000003 0.000000
-0.000016 0.000000 -0.000008 0.000000
-0.000185 -0.000017 0.000023 0.000000
-0.000162 -0.000002 0.000023 0.000000
-0.000014 -0.000013 0.000003 0.000000
-0.000015 -0.000001 -0.000005 0.000000
-0.000019 -0.000007 0.000005 0.000000
-0.000029 -0.000007 0.000021 0.000000
-0.000023 -0.000007 0.000013 0.000000
-0.000154 0.000023 -0.000036 0.000000
-0.000179 0.000029 0.000016 0.000000
-0.000190 -0.000089 0.000311 0.000000
-0.000015 -0.000009 -0.000002 0.000000
-0.000023 -0.000002 0.000007 0.000000
-0.000179 0.000063 0.000014 0.000000
-0.000170 -0.000002 0.000034 0.000000
-0.000012 -0.000006 0.000003 0.000000
-0.000124 0.000005 0.000077 0.000000
-0.000015 -0.000011 -0.000006 0.000000
-0.000036 -0.000010 -0.000020 0.000000
-0.000013 -0.000000 -0.000007 0.000000
-0.000013 -0.000001 -0.000001 0.000000
-0.000076 0.000025 0.000031 0.000000
-0.000019 0.000002 -0.000008 0.000000
-0.000142 0.000025 -0.000045 0.000000
-0.000207 0.000073 0.000004 0.000000
-0.000183 0.000063 0.000003 0.000000
-0.000168 0.000026 0.000018 0.000000
-0.000152 0.000045 -0.000044 0.000000
-0.000212 0.000076 0.000002 0.000000
-0.000221 0.000044 -0.000000 0.000000
-0.000134 0.000017 -0.000073 0.000000
-0.000149 0.000021 -0.000090 0.000000
-0.000214 0.000016 -0.000098 0.000000
-0.000060 0.000006 0.000223 0.000000
-0.000298 0.000059 0.000438 0.000000
-0.000302 0.000088 0.000320 0.000000
-0.000252 0.000034 0.000414 0.000000
-0.000164 0.000007 0.000173 0.000000
-0.000053 0.000035 0.000267 0.000000
-0.000107 -0.000004 0.000137 0.000000
-0.000081 0.000053 0.000259 0.000000
-0.000254 -0.000407 0.001178 0.000000
-0.000374 -0.000078 0.000209 0.000000
-0.000214 -0.000346 0.001072 0.000000
-0.000016 -0.000027 0.000474 0.000000
-0.000055 -0.000049 0.000381 0.000000
-0.000033 -0.000065 0.000296 0.000000
-0.000035 -0.000073 0.000233 0.000000
0.000004 -0.000063 0.000342 0.000000
-0.000333 -0.000682 0.000693 0.000000
-0.000037 -0.000070 0.000567 0.000000
-0.000009 -0.000074 0.000223 0.000000
-0.000016 -0.000064 0.000120 0.000000
-0.000204 -0.000389 0.001086 0.000000
-0.000022 -0.000040 0.000554 0.000000
-0.000001 -0.000028 0.000778 0.000000
-0.000046 0.000008 0.000515 0.000000
-0.000058 0.000019 0.000281 0.000000
-0.000055 0.000017 0.000269 0.000000
-0.000347 -0.000684 0.001381 0.000000
-0.000038 -0.000070 0.000272 0.000000
-0.000033 -0.000077 0.000267 0.000000
-0.000019 -0.000069 0.000194 0.000000
-0.000329 -0.000727 0.000598 0.000000
-0.000452 -0.000481 0.000842 0.000000
-0.000354 -0.000619 0.000962 0.000000
-0.000201 -0.000912 0.001659 0.000000
-0.000326 -0.000787 0.001539 0.000000
-0.000393 -0.000672 0.000947 0.000000
0.000062 -0.000159 0.000597 0.000000
-0.000228 -0.000857 0.001684 0.000000
0.000038 -0.000159 0.000552 0.000000
0.000041 -0.000156 0.000609 0.000000
-0.000014 -0.000098 0.000341 0.000000
-0.000004 -0.000081 0.000268 0.000000
-0.000037 -0.000058 0.000465 0.000000
-0.000540 -0.000137 0.000650 0.000000
-0.000052 0.000011 0.000398 0.000000
-0.000029 -0.000032 0.000555 0.000000
-0.000026 -0.000004 0.000007 0.000000
-0.000218 0.000079 0.000069 0.000000
-0.000050 -0.000008 0.000213 0.000000
-0.000041 -0.000027 0.000398 0.000000
-0.000233 0.000051 0.000144 0.000000
-0.000313 0.000023 0.000374 0.000000
-0.000016 -0.000002 0.000001 0.000000
-0.000146 -0.000007 -0.000149 0.000000
-0.000219 0.000021 -0.000028 0.000000
-0.000208 0.000074 -0.000005 0.000000
-0.000023 -0.000003 0.000004 0.000000
-0.000122 0.000041 0.000007 0.000000
-0.000026 -0.000004 0.000004 0.000000
-0.000201 0.000026 -0.000075 0.000000
-0.000237 0.000012 -0.000064 0.000000
-0.000210 0.000044 -0.000026 0.000000
-0.000190 0.000034 0.000022 0.000000
-0.000211 -0.000019 0.000071 0.000000
-0.000218 -0.000018 -0.000093 0.000000
-0.000189 -0.000008 -0.000122 0.000000
-0.000123 -0.000129 0.000114 0.000000
-0.000032 -0.000012 0.000002 0.000000
-0.000142 0.000043 0.000030 0.000000
-0.000157 -0.000029 -0.000021 0.000000
-0.000029 -0.000006 0.000005 0.000000
-0.000023 -0.000002 -0.000001 0.000000
-0.000232 -0.000009 -0.000169 0.000000
-0.000219 0.000013 -0.000075 0.000000
-0.000026 -0.000004 -0.000002 0.000000
-0.000028 -0.000003 0.000000 0.000000
-0.000028 -0.000003 0.000004 0.000000
-0.000033 -0.000006 0.000005 0.000000
-0.000039 -0.000030 0.000373 0.000000
-0.000063 -0.000004 0.000245 0.000000
-0.000052 -0.000012 0.000267 0.000000
-0.000053 -0.000004 0.000227 0.000000
0.000056 -0.000150 0.000526 0.000000
0.000054 -0.000170 0.000538 0.000000
-0.000043 -0.000032 0.000524 0.000000
0.000020 -0.000072 0.000496 0.000000
-0.000712 0.000024 0.000710 0.000000
-0.000008 -0.000060 0.000383 0.000000
-0.000312 -0.000418 0.000972 0.000000
-0.000706 0.000017 0.000747 0.000000
0.000011 -0.000065 0.000488 0.000000
-0.000022 -0.000097 0.000228 0.000000
-0.000060 0.000001 0.000205 0.000000
-0.000052 0.000012 0.000188 0.000000
-0.000051 -0.000025 0.000054 0.000000
-0.000068 -0.000013 0.000104 0.000000
0.000000 -0.000073 0.000416 0.000000
-0.000297 -0.000388 0.001019 0.000000
-0.000032 -0.000043 0.000433 0.000000
-0.000033 -0.000054 0.000356 0.000000
-0.000025 -0.000079 0.000326 0.000000
-0.000050 -0.000072 0.000098 0.000000
-0.000015 -0.000082 0.000355 0.000000
-0.000801 0.000089 0.001433 0.000000
-0.000403 -0.000597 0.000737 0.000000
-0.000327 -0.000731 0.001102 0.000000
0.000041 -0.000167 0.000201 0.000000
-0.000017 -0.000100 0.000401 0.000000
-0.000705 -0.000019 0.000794 0.000000
-0.000676 -0.000011 0.000776 0.000000
-0.000025 -0.000059 0.000334 0.000000
-0.000052 -0.000040 0.000290 0.000000
-0.000055 -0.000003 0.000042 0.000000
-0.000120 0.000094 0.000488 0.000000
-0.000040 -0.000005 0.000033 0.000000
-0.000051 -0.000025 0.000052 0.000000
-0.000416 -0.000003 0.000537 0.000000
-0.000334 -0.000057 0.000479 0.000000
-0.000031 -0.000004 -0.000000 0.000000
-0.000055 -0.000018 0.000051 0.000000
-0.000035 -0.000005 0.000000 0.000000
-0.000189 -0.000007 -0.000187 0.000000
-0.000037 -0.000010 -0.000002 0.000000
-0.000032 -0.000009 -0.000001 0.000000
-0.000031 -0.000004 -0.000001 0.000000
-0.000034 -0.000005 0.000007 0.000000
-0.000040 -0.000011 0.000008 0.000000
-0.000374 0.000005 -0.000014 0.000000
-0.000175 -0.000109 0.000198 0.000000
-0.000035 -0.000016 0.000011 0.000000
-0.000200 -0.000071 -0.000068 0.000000
-0.000245 -0.000014 -0.000061 0.000000
-0.000010 -0.000021 0.000020 0.000000
-0.000141 -0.000005 0.000058 0.000000
-0.000011 -0.000017 0.000018 0.000000
-0.000086 -0.000080 0.000160 0.000000
-0.000011 -0.000016 0.000017 0.000000
-0.000007 -0.000008 0.000007 0.000000
-0.000164 -0.000022 0.000024 0.000000
-0.000024 -0.000017 0.000024 0.000000
0.000005 -0.000295 -0.000097 0.000000
-0.000216 -0.000022 0.000096 0.000000
-0.000161 -0.000080 0.000038 0.000000
-0.000189 -0.000010 -0.000049 0.000000
-0.000195 -0.000031 0.000078 0.000000
-0.000163 -0.000045 0.000022 0.000000
-0.000153 -0.000060 0.000019 0.000000
-0.000017 -0.000005 -0.000003 0.000000
-0.000198 -0.000044 0.000174 0.000000
-0.000179 -0.000056 0.000039 0.000000
-0.000124 -0.000052 0.000143 0.000000
-0.000167 -0.000025 0.000109 0.000000
-0.000014 -0.000013 -0.000002 0.000000
-0.000075 -0.000020 0.000074 0.000000
-0.000195 -0.000040 0.000140 0.000000
-0.000010 -0.000008 0.000011 0.000000
-0.000009 -0.000011 0.000011 0.000000
-0.000008 -0.000014 0.000011 0.000000
-0.000016 -0.000010 -0.000005 0.000000
-0.000014 -0.000004 -0.000005 0.000000
-0.000015 -0.000020 0.000020 0.000000
-0.000013 -0.000002 -0.000005 0.000000
-0.000023 -0.000006 -0.000006 0.000000
-0.000132 -0.000008 -0.000079 0.000000
-0.000008 -0.000011 0.000010 0.000000
-0.000011 -0.000030 0.000011 0.000000
-0.000009 -0.000014 0.000011 0.000000
-0.000008 -0.000016 0.000010 0.000000
-0.000029 -0.000102 -0.000103 0.000000
-0.000001 -0.000256 0.000032 0.000000
-0.000042 -0.000117 -0.000087 0.000000
-0.000020 -0.000118 0.000007 0.000000
-0.000028 -0.000076 -0.000021 0.000000
-0.000028 -0.000109 -0.000018 0.000000
-0.000005 -0.000014 -0.000013 0.000000
-0.000067 -0.000054 -0.000126 0.000000
0.000003 -0.000084 -0.000021 0.000000
-0.000008 -0.000025 -0.000016 0.000000
-0.000005 -0.000027 -0.000013 0.000000
-0.000093 -0.000067 -0.000170 0.000000
-0.000093 -0.000080 -0.000165 0.000000
-0.000080 -0.000015 -0.000083 0.000000
-0.000104 -0.000073 -0.000069 0.000000
-0.000107 -0.000082 -0.000046 0.000000
-0.000097 0.000003 -0.000061 0.000000
-0.000044 -0.000148 0.000007 0.000000
-0.000024 -0.000109 0.000080 0.000000
-0.000027 -0.000149 0.000012 0.000000
-0.000020 -0.000128 0.000014 0.000000
-0.000010 -0.000014 0.000012 0.000000
-0.000011 -0.000023 0.000011 0.000000
-0.000007 -0.000015 0.000010 0.000000
-0.000010 -0.000021 0.000016 0.000000
-0.000005 -0.000011 0.000008 0.000000
-0.000005 -0.000029 0.000008 0.000000
-0.000007 -0.000029 0.000008 0.000000
-0.000030 -0.000258 0.000119 0.000000
-0.000001 -0.000201 0.000033 0.000000
-0.000020 -0.000137 0.000011 0.000000
-0.000006 -0.000016 -0.000014 0.000000
-0.000106 -0.000064 -0.000058 0.000000
-0.000013 -0.000022 -0.000012 0.000000
-0.000071 -0.000309 -0.000048 0.000000
-0.000001 -0.000018 -0.000001 0.000000
-0.000009 -0.000431 -0.000238 0.000000
-0.000007 -0.000025 -0.000016 0.000000
-0.000009 -0.000015 -0.000022 0.000000
-0.000008 -0.000020 0.000005 0.000000
-0.000010 -0.000019 0.000011 0.000000
-0.000038 -0.000124 -0.000031 0.000000
-0.000005 -0.000032 0.000015 0.000000
-0.000006 -0.000013 0.000008 0.000000
-0.000010 -0.000017 0.000011 0.000000
-0.000014 -0.000133 -0.000215 0.000000
0.000001 -0.000027 0.000007 0.000000
-0.000010 -0.000025 0.000015 0.000000
-0.000011 -0.000022 0.000016 0.000000
-0.000009 -0.000014 0.000010 0.000000
-0.000011 -0.000037 0.000011 0.000000
-0.000195 -0.000014 0.000104 0.000000
-0.000128 -0.000134 0.000114 0.000000
-0.000173 -0.000028 0.000174 0.000000
-0.000196 -0.000035 0.000203 0.000000
-0.000040 -0.000187 0.000136 0.000000
-0.000015 -0.000011 -0.000004 0.000000
-0.000128 -0.000115 0.000126 0.000000
-0.000189 -0.000049 0.000204 0.000000
-0.000182 -0.000032 0.000193 0.000000
-0.000191 -0.000081 0.000207 0.000000
-0.000011 -0.000020 0.000020 0.000000
-0.000011 -0.000021 0.000022 0.000000
-0.000009 -0.000018 0.000009 0.000000
-0.000010 -0.000019 0.000014 0.000000
-0.000010 -0.000026 0.000008 0.000000
-0.000009 -0.000020 0.000009 0.000000
-0.000006 -0.000032 0.000010 0.000000
-0.000000 -0.000026 0.000004 0.000000
-0.000010 -0.000022 0.000013 0.000000
-0.000011 -0.000029 0.000014 0.000000
-0.000011 -0.000025 0.000013 0.000000
-0.000011 -0.000029 0.000013 0.000000
-0.000084 -0.000176 0.000082 0.000000
-0.000145 -0.000082 0.000117 0.000000
-0.000012 -0.000029 0.000013 0.000000
-0.000011 -0.000026 0.000012 0.000000
-0.000055 -0.000257 0.000142 0.000000
-0.000010 -0.000032 0.000018 0.000000
-0.000006 -0.000054 -0.000029 0.000000
-0.000002 -0.000030 0.000010 0.000000
-0.000017 -0.000235 0.000079 0.000000
-0.000124 -0.000135 0.000071 0.000000
0.000003 -0.000414 -0.000346 0.000000
-0.000008 -0.000029 -0.000017 0.000000
-0.000002 -0.000032 -0.000009 0.000000
-0.000005 -0.000023 -0.000013 0.000000
-0.000004 -0.000034 -0.000015 0.000000
-0.000006 -0.000016 -0.000015 0.000000
-0.000131 -0.000088 -0.000087 0.000000
-0.000071 -0.000196 -0.000019 0.000000
-0.000108 -0.000088 -0.000083 0.000000
-0.000007 -0.000032 -0.000019 0.000000
-0.000009 -0.000024 -0.000019 0.000000
-0.000009 -0.000027 -0.000021 0.000000
-0.000061 -0.000195 -0.000002 0.000000
-0.000069 -0.000220 -0.000012 0.000000
-0.000064 -0.000262 -0.000037 0.000000
-0.000019 -0.000362 -0.000169 0.000000
-0.000037 -0.000259 0.000003 0.000000
-0.000076 -0.000182 -0.000018 0.000000
0.000032 -0.000391 -0.000190 0.000000
0.000050 -0.000357 0.000086 0.000000
0.000008 -0.000068 -0.000012 0.000000
0.000052 -0.000486 -0.000245 0.000000
-0.000008 -0.000034 0.000010 0.000000
-0.000011 -0.000041 0.000016 0.000000
0.000008 -0.000061 -0.000015 0.000000
-0.000006 -0.000447 -0.000248 0.000000
-0.000021 -0.000390 -0.000163 0.000000
-0.000024 -0.000366 -0.000025 0.000000
0.000025 -0.000473 -0.000230 0.000000
-0.000020 -0.000395 -0.000139 0.000000
0.000006 -0.000076 -0.000002 0.000000
-0.000018 -0.000365 -0.000135 0.000000
-0.000059 -0.000362 -0.000085 0.000000
-0.000033 -0.000352 -0.000020 0.000000
-0.000130 -0.000361 0.000010 0.000000
-0.000000 -0.000381 -0.000015 0.000000
-0.000028 -0.000415 -0.000092 0.000000
-0.000056 -0.000310 -0.000052 0.000000
0.000023 -0.000076 0.000074 0.000000
-0.000043 -0.000376 0.000273 0.000000
-0.000008 -0.000051 -0.000011 0.000000
-0.000054 -0.000216 0.000083 0.000000
0.000004 -0.000064 -0.000005 0.000000
-0.000006 -0.000058 -0.000011 0.000000
0.000006 -0.000475 -0.000200 0.000000
0.000044 -0.000497 -0.000259 0.000000
0.000034 -0.000486 -0.000234 0.000000
0.000048 -0.000085 -0.000071 0.000000
-0.000011 -0.000045 0.000009 0.000000
-0.000010 -0.000036 0.000010 0.000000
-0.000014 -0.000045 0.000006 0.000000
-0.000006 -0.000043 0.000008 0.000000
-0.000012 -0.000038 0.000014 0.000000
-0.000012 -0.000045 0.000017 0.000000
-0.000012 -0.000041 0.000008 0.000000
-0.000012 -0.000041 0.000013 0.000000
0.000032 -0.000100 0.000075 0.000000
-0.000014 -0.000023 -0.000008 0.000000
-0.000014 -0.000392 -0.000294 0.000000
0.000053 -0.000134 -0.000023 0.000000
-0.000021 -0.000367 0.000048 0.000000
-0.000120 -0.000120 0.000072 0.000000
0.000009 -0.000374 -0.000253 0.000000
-0.000083 -0.000300 0.000169 0.000000
-0.000057 -0.000284 0.000024 0.000000
-0.000027 -0.000507 0.000320 0.000000
-0.000009 -0.000044 0.000029 0.000000
0.000017 -0.000448 -0.000196 0.000000
-0.000012 -0.000036 0.000014 0.000000
-0.000011 -0.000040 0.000014 0.000000
-0.000014 -0.000041 0.000009 0.000000
-0.000006 -0.000044 0.000016 0.000000
-0.000012 -0.000034 0.000013 0.000000
-0.000011 -0.000037 0.000011 0.000000
-0.000008 -0.000039 0.000012 0.000000
-0.000008 -0.000048 0.000021 0.000000
-0.000039 -0.000306 -0.000026 0.000000
-0.000082 -0.000274 0.000056 0.000000
-0.000033 -0.000335 0.000049 0.000000
-0.000082 -0.000234 0.000023 0.000000
-0.000011 -0.000038 0.000012 0.000000
-0.000011 -0.000037 0.000010 0.000000
-0.000022 -0.000024 0.000004 0.000000
-0.000189 -0.000222 0.000261 0.000000
-0.000157 -0.000261 0.000457 0.000000
-0.000158 -0.000137 0.000086 0.000000
-0.000037 -0.000019 0.000007 0.000000
-0.000124 -0.000553 0.000545 0.000000
-0.000022 -0.000025 0.000005 0.000000
-0.000006 -0.000046 -0.000051 0.000000
-0.000038 -0.000026 0.000007 0.000000
-0.000038 -0.000019 0.000011 0.000000
-0.000227 -0.000200 0.000369 0.000000
-0.000018 -0.000054 0.000050 0.000000
-0.000257 -0.000252 0.000529 0.000000
0.000003 -0.000068 0.000028 0.000000
-0.000070 -0.000363 0.000354 0.000000
-0.000144 -0.000298 0.000314 0.000000
-0.000178 -0.000275 0.000422 0.000000
0.000033 -0.000099 0.000057 0.000000
-0.000139 -0.000348 0.000396 0.000000
-0.000257 -0.000077 0.000287 0.000000
0.000062 -0.000128 0.000075 0.000000
-0.000013 -0.000048 0.000024 0.000000
0.000037 -0.000098 0.000069 0.000000
0.000036 -0.000104 0.000054 0.000000
-0.000254 -0.000276 0.000309 0.000000
-0.000216 -0.000332 0.000647 0.000000
-0.000184 -0.000229 0.000344 0.000000
-0.000207 -0.000196 0.000239 0.000000
-0.000042 -0.000035 0.000032 0.000000
-0.000415 -0.000025 0.000080 0.000000
0.000031 -0.000125 0.000200 0.000000
0.000014 -0.000082 0.000018 0.000000
-0.000183 -0.000220 0.000244 0.000000
0.000001 -0.000051 -0.000028 0.000000
-0.000255 -0.000318 0.000217 0.000000
-0.000422 -0.000000 0.000031 0.000000
-0.000397 -0.000146 -0.000017 0.000000
-0.000043 -0.000025 0.000026 0.000000
-0.000047 -0.000041 0.000060 0.000000
-0.000049 -0.000028 0.000053 0.000000
-0.000048 -0.000044 0.000074 0.000000
-0.000047 -0.000042 0.000072 0.000000
-0.000496 -0.000264 0.000454 0.000000
-0.000057 -0.000045 0.000068 0.000000
-0.000768 0.000070 0.000452 0.000000
-0.000061 -0.000052 0.000142 0.000000
-0.000026 -0.000078 0.000078 0.000000
-0.000046 -0.000036 0.000052 0.000000
-0.000507 -0.000274 0.000143 0.000000
-0.000047 -0.000038 0.000052 0.000000
-0.000899 0.000098 0.000699 0.000000
-0.000052 -0.000038 0.000075 0.000000
-0.000086 0.000052 0.000385 0.000000
-0.000053 -0.000006 0.000189 0.000000
-0.000041 -0.000027 0.000028 0.000000
-0.000036 -0.000013 0.000007 0.000000
-0.000040 -0.000030 0.000034 0.000000
-0.000424 -0.000080 0.000353 0.000000
-0.000414 -0.000070 0.000119 0.000000
-0.000037 -0.000016 0.000011 0.000000
-0.000029 -0.000049 0.000033 0.000000
-0.000259 -0.000056 0.000237 0.000000
-0.000047 -0.000015 0.000026 0.000000
-0.000052 -0.000015 0.000034 0.000000
-0.000046 -0.000022 0.000035 0.000000
-0.000044 -0.000020 0.000027 0.000000
-0.000039 -0.000012 0.000009 0.000000
-0.000040 -0.000019 0.000020 0.000000
-0.000920 0.000296 0.000578 0.000000
-0.000058 -0.000005 0.000139 0.000000
-0.000054 -0.000028 0.000063 0.000000
-0.000183 0.000055 0.000588 0.000000
-0.000092 0.000042 0.000094 0.000000
-0.000048 -0.000036 0.000061 0.000000
-0.000049 -0.000008 0.000027 0.000000
-0.000185 0.000155 0.000539 0.000000
-0.000048 -0.000018 0.000032 0.000000
-0.000049 -0.000016 0.000035 0.000000
-0.000040 -0.000020 0.000020 0.000000
-0.000036 -0.000013 0.000005 0.000000
-0.000053 -0.000017 0.000042 0.000000
-0.000055 -0.000012 0.000032 0.000000
-0.000041 -0.000018 0.000021 0.000000
-0.000040 -0.000010 0.000010 0.000000
-0.000433 -0.000028 0.000067 0.000000
-0.000399 -0.000023 0.000085 0.000000
-0.000036 -0.000018 0.000010 0.000000
-0.000038 -0.000022 0.000008 0.000000
-0.000244 -0.000191 0.000329 0.000000
-0.000194 -0.000361 0.000548 0.000000
0.000111 -0.000551 0.000041 0.000000
-0.000016 -0.000016 -0.000008 0.000000
0.000006 -0.000074 0.000009 0.000000
-0.000152 -0.000103 -0.000042 0.000000
0.000062 -0.000113 0.000078 0.000000
-0.000015 -0.000013 -0.000006 0.000000
-0.000035 -0.000017 0.000006 0.000000
-0.000036 -0.000023 0.000005 0.000000
-0.000036 -0.000018 0.000024 0.000000
-0.000035 -0.000118 -0.000085 0.000000
-0.000032 -0.000017 0.000015 0.000000
-0.000242 -0.000028 -0.000130 0.000000
-0.000036 -0.000013 0.000003 0.000000
-0.000325 -0.000049 0.000225 0.000000
-0.000035 -0.000012 0.000002 0.000000
-0.000035 -0.000015 0.000006 0.000000
-0.000031 -0.000014 0.000011 0.000000
-0.000033 -0.000014 0.000008 0.000000
-0.000102 -0.000221 0.000006 0.000000
-0.000033 -0.000007 0.000011 0.000000
-0.000117 -0.000182 0.000004 0.000000
-0.000026 -0.000014 0.000019 0.000000
-0.000127 -0.000145 -0.000039 0.000000
-0.000172 -0.000084 0.000031 0.000000
-0.000153 -0.000100 0.000255 0.000000
-0.000034 -0.000013 0.000002 0.000000
-0.000153 -0.000008 0.000021 0.000000
-0.000033 -0.000010 -0.000003 0.000000
-0.000266 -0.000064 0.000007 0.000000
-0.000187 -0.000145 0.000147 0.000000
-0.000036 -0.000006 0.000007 0.000000
-0.000042 -0.000013 0.000013 0.000000
-0.000322 -0.000055 0.000233 0.000000
-0.000255 -0.000058 0.000178 0.000000
-0.000043 -0.000012 0.000013 0.000000
-0.000038 -0.000009 0.000007 0.000000
-0.000382 -0.000009 0.000057 0.000000
-0.000420 -0.000037 0.000115 0.000000
-0.000049 -0.000015 0.000030 0.000000
-0.000034 -0.000008 0.000006 0.000000
-0.000044 -0.000008 0.000011 0.000000
-0.000048 -0.000017 0.000033 0.000000
-0.000060 -0.000013 0.000036 0.000000
-0.000052 -0.000010 0.000022 0.000000
-0.000043 -0.000012 0.000016 0.000000
-0.000039 -0.000010 0.000011 0.000000
-0.000046 -0.000012 0.000020 0.000000
-0.000040 -0.000008 0.000006 0.000000
-0.000035 -0.000049 0.000207 0.000000
-0.000046 0.000001 0.000292 0.000000
-0.000053 -0.000030 0.000167 0.000000
-0.000049 -0.000018 0.000322 0.000000
-0.000048 -0.000016 0.000453 0.000000
-0.000045 -0.000031 0.000366 0.000000
-0.000050 -0.000037 0.000102 0.000000
-0.000026 -0.000040 0.000412 0.000000
-0.000033 -0.000067 0.000311 0.000000
-0.000013 -0.000107 0.000371 0.000000
-0.000057 -0.000024 0.000061 0.000000
-0.000046 -0.000030 0.000230 0.000000
-0.000054 -0.000028 0.000057 0.000000
-0.001015 0.000092 0.000916 0.000000
-0.000094 0.000025 0.000280 0.000000
-0.000120 0.000076 0.000070 0.000000
-0.000053 -0.000031 0.000078 0.000000
-0.000051 -0.000022 0.000179 0.000000
-0.000063 -0.000018 0.000080 0.000000
-0.000060 -0.000032 0.000050 0.000000
-0.000055 -0.000033 0.000068 0.000000
-0.000059 -0.000033 0.000051 0.000000
-0.000060 -0.000026 0.000054 0.000000
-0.000788 0.000028 0.000535 0.000000
-0.000033 -0.000063 0.000250 0.000000
-0.000050 -0.000055 0.000111 0.000000
-0.000056 -0.000048 0.000075 0.000000
-0.000051 -0.000028 0.000103 0.000000
-0.000033 -0.000071 0.000289 0.000000
-0.000007 -0.000109 0.000358 0.000000
-0.000051 -0.000019 0.000504 0.000000
-0.000030 -0.000072 0.000311 0.000000
-0.000042 -0.000050 0.000195 0.000000
-0.000029 -0.000074 0.000258 0.000000
-0.000010 -0.000124 0.000419 0.000000
-0.000033 -0.000065 0.000462 0.000000
-0.000032 -0.000071 0.000291 0.000000
-0.000036 -0.000052 0.000317 0.000000
-0.000928 -0.000028 0.000868 0.000000
-0.000040 -0.000075 0.000172 0.000000
-0.000038 -0.000078 0.000249 0.000000
-0.000032 -0.000092 0.000321 0.000000
0.000032 -0.000174 0.000150 0.000000
0.000038 -0.000163 0.000216 0.000000
-0.000053 -0.000074 0.000093 0.000000
-0.000021 -0.000106 0.000106 0.000000
-0.000005 -0.000119 0.000122 0.000000
0.000003 -0.000100 0.000360 0.000000
-0.000044 -0.000083 0.000212 0.000000
-0.000004 -0.000096 0.000394 0.000000
0.000026 -0.000148 0.000153 0.000000
0.000002 -0.000110 0.000256 0.000000
-0.000045 -0.000077 0.000163 0.000000
-0.000003 -0.000108 0.000176 0.000000
-0.000779 0.000002 0.000679 0.000000
-0.000018 -0.000080 0.000404 0.000000
-0.000810 -0.000042 0.000756 0.000000
-0.000898 0.000012 0.001240 0.000000
-0.000010 -0.000095 0.000274 0.000000
-0.000042 -0.000073 0.000244 0.000000
-0.000767 -0.000053 0.000850 0.000000
-0.000018 -0.000102 0.000297 0.000000
0.000018 -0.000128 0.000294 0.000000
-0.000019 -0.000100 0.000111 0.000000
-0.000050 -0.000076 0.000100 0.000000
-0.000036 -0.000096 0.000094 0.000000
-0.000026 -0.000077 0.000387 0.000000
-0.000032 -0.000087 0.000206 0.000000
-0.000024 -0.000105 0.000215 0.000000
-0.000071 -0.000051 0.000099 0.000000
0.000020 -0.000142 0.000205 0.000000
0.000080 -0.000203 0.000510 0.000000
-0.000000 -0.000138 0.000150 0.000000
-0.000037 -0.000125 0.000153 0.000000
-0.000008 -0.000140 0.000105 0.000000
-0.000023 -0.000172 0.000353 0.000000
0.000283 -0.001584 0.000915 0.000000
0.000211 -0.000403 0.000307 0.000000
0.000163 -0.001508 0.000499 0.000000
0.000371 -0.000527 0.000320 0.000000
0.000029 -0.000198 -0.000036 0.000000
-0.000063 -0.001250 0.000849 0.000000
0.000144 -0.001399 0.000766 0.000000
0.000388 -0.001703 0.000757 0.000000
0.000164 -0.001996 0.001521 0.000000
0.000001 -0.001359 0.001314 0.000000
0.000320 -0.000446 0.000273 0.000000
0.000291 -0.000467 0.000468 0.000000
-0.000550 -0.000801 -0.000274 0.000000
-0.000591 -0.000887 0.000227 0.000000
-0.000294 -0.001145 0.000151 0.000000
-0.000264 -0.001443 0.000565 0.000000
0.000268 -0.000440 0.000363 0.000000
0.000288 -0.000467 0.000497 0.000000
0.000264 -0.000413 0.000354 0.000000
0.000193 -0.000354 0.000322 0.000000
0.000048 -0.000194 0.000113 0.000000
0.000207 -0.000378 0.000274 0.000000
0.000625 -0.001827 0.000405 0.000000
0.000073 -0.000267 0.000145 0.000000
0.000015 -0.000157 0.000007 0.000000
0.000165 -0.000312 0.000283 0.000000
0.000237 -0.000376 0.000336 0.000000
0.000239 -0.000406 0.000426 0.000000
0.000047 -0.001525 0.001601 0.000000
0.000297 -0.001808 0.000217 0.000000
0.000295 -0.000483 0.000431 0.000000
0.000449 -0.000651 0.000284 0.000000
0.000259 -0.000426 0.000403 0.000000
0.000267 -0.000443 0.000428 0.000000
0.000680 -0.002062 0.002533 0.000000
-0.000532 -0.000790 0.001466 0.000000
0.000054 -0.000257 0.000120 0.000000
0.000026 -0.001197 0.000836 0.000000
-0.000274 -0.000844 0.001527 0.000000
-0.000176 -0.001457 0.001955 0.000000
0.000178 -0.001549 0.000390 0.000000
0.000093 -0.001748 0.001198 0.000000
0.000517 -0.001946 0.000526 0.000000
-0.000185 -0.001256 0.000044 0.000000
0.000437 -0.000634 0.000447 0.000000
0.000183 -0.000301 0.000631 0.000000
0.000533 -0.000727 0.000526 0.000000
0.000202 -0.000396 0.000398 0.000000
0.000006 -0.001300 0.000559 0.000000
-0.000174 -0.000819 -0.000227 0.000000
0.000162 -0.000339 0.000203 0.000000
0.000219 -0.000366 0.000146 0.000000
-0.000484 -0.000602 0.001055 0.000000
-0.000046 -0.000098 0.000098 0.000000
-0.000026 -0.000105 0.000104 0.000000
0.000012 -0.000140 0.000130 0.000000
-0.000151 -0.001076 0.000490 0.000000
0.000266 -0.000487 0.000987 0.000000
0.000044 -0.000155 0.000320 0.000000
0.000002 -0.000140 0.000126 0.000000
0.000033 -0.000156 0.000195 0.000000
0.000041 -0.000169 0.000191 0.000000
0.000459 -0.001854 0.000734 0.000000
0.000278 -0.001590 0.001019 0.000000
0.000033 -0.001103 -0.000408 0.000000
0.000148 -0.001403 0.000055 0.000000
0.000188 -0.001781 0.001054 0.000000
0.000245 -0.001762 0.000926 0.000000
-0.000417 -0.001049 0.000027 0.000000
0.000477 -0.000591 0.000622 0.000000
-0.000505 -0.001080 0.002230 0.000000
-0.000256 -0.001319 0.001722 0.000000
0.000083 -0.001493 0.001072 0.000000
-0.000484 -0.000968 0.002886 0.000000
-0.000324 -0.001063 0.002013 0.000000
0.000302 -0.000484 0.000833 0.000000
0.000242 -0.001708 0.000841 0.000000
-0.000236 -0.001302 0.001359 0.000000
0.000276 -0.000449 0.000469 0.000000
0.000271 -0.000445 0.000465 0.000000
0.000168 -0.000348 0.000278 0.000000
0.000038 -0.000225 0.000060 0.000000
-0.000257 -0.001471 0.000954 0.000000
-0.000846 -0.000670 0.000219 0.000000
0.000219 -0.000426 0.000351 0.000000
0.000293 -0.000468 0.000513 0.000000
-0.000679 -0.000604 0.000903 0.000000
0.000106 -0.000281 0.000004 0.000000
-0.000613 -0.001007 0.001344 0.000000
0.000085 -0.000264 -0.000054 0.000000
0.000260 -0.000460 0.000326 0.000000
0.000187 -0.000351 0.000148 0.000000
0.000232 -0.000407 0.000351 0.000000
0.000280 -0.000460 0.000455 0.000000
0.000167 -0.000344 0.000287 0.000000
0.000091 -0.000343 0.000027 0.000000
0.000274 -0.000451 0.000445 0.000000
0.000290 -0.000467 0.000456 0.000000
0.000098 -0.000291 0.000105 0.000000
0.000124 -0.000320 0.000097 0.000000
-0.000687 -0.000901 0.001098 0.000000
-0.000303 -0.001496 0.001964 0.000000
0.000128 -0.000291 0.000148 0.000000
0.000247 -0.000441 0.000309 0.000000
0.000087 -0.002082 0.001031 0.000000
0.000137 -0.000353 0.000194 0.000000
-0.000000 -0.000210 0.000055 0.000000
0.000174 -0.000349 0.000252 0.000000
0.000006 -0.000233 0.000118 0.000000
0.000230 -0.000433 0.000320 0.000000
0.000165 -0.000365 0.000245 0.000000
0.000251 -0.000430 0.000361 0.000000
0.000221 -0.000415 0.000557 0.000000
-0.000380 -0.001212 0.002187 0.000000
0.000260 -0.000429 0.000245 0.000000
0.000202 -0.001767 0.000954 0.000000
-0.000374 -0.001143 0.002071 0.000000
0.000082 -0.000266 0.000074 0.000000
-0.000126 -0.001507 0.001637 0.000000
-0.000293 -0.001136 0.002020 0.000000
0.000260 -0.000440 0.000243 0.000000
0.000565 -0.001934 0.000576 0.000000
0.000505 -0.002020 0.000426 0.000000
0.000393 -0.000572 0.000644 0.000000
0.000146 -0.000340 0.000108 0.000000
0.000567 -0.002040 0.000733 0.000000
0.000400 -0.000510 -0.000003 0.000000
0.000431 -0.000619 0.000069 0.000000
-0.000078 -0.001092 -0.000642 0.000000
0.000141 -0.000342 0.000076 0.000000
0.000471 -0.001846 0.001563 0.000000
0.000139 -0.001387 0.000683 0.000000
-0.000376 -0.000799 0.000505 0.000000
-0.000464 -0.000905 0.001040 0.000000
0.000303 -0.000361 0.000701 0.000000
0.000027 -0.000143 0.000179 0.000000
0.000005 -0.000150 0.000138 0.000000
0.000266 -0.000379 0.000415 0.000000
0.000654 -0.000738 0.001245 0.000000
0.000244 -0.000316 0.000442 0.000000
0.000004 -0.000148 0.000127 0.000000
0.000012 -0.000151 0.000139 0.000000
-0.000349 -0.000793 0.000829 0.000000
-0.000002 -0.000161 0.000302 0.000000
0.000150 -0.000244 0.000375 0.000000
0.000122 -0.000247 0.000223 0.000000
0.000093 -0.000158 0.000578 0.000000
0.000245 -0.000480 0.001348 0.000000
-0.000019 -0.000099 0.000185 0.000000
0.000081 -0.000312 0.000869 0.000000
-0.000809 -0.000542 0.001173 0.000000
-0.000017 -0.000115 0.000312 0.000000
-0.000086 -0.000139 0.000379 0.000000
-0.000319 -0.000473 -0.000148 0.000000
0.000038 -0.000182 0.000244 0.000000
0.000252 -0.000307 0.000809 0.000000
-0.000007 -0.000126 0.000107 0.000000
-0.000013 -0.000126 0.000108 0.000000
0.000038 -0.000181 0.000183 0.000000
0.000030 -0.000176 0.000146 0.000000
0.000045 -0.000187 0.000163 0.000000
0.000059 -0.000190 0.000170 0.000000
0.000006 -0.000146 0.000116 0.000000
0.000015 -0.000157 0.000134 0.000000
-0.000017 -0.000118 0.000101 0.000000
-0.000040 -0.000085 0.000095 0.000000
-0.000045 -0.000069 0.000186 0.000000
-0.000990 0.000066 0.000896 0.000000
-0.000028 -0.000106 0.000118 0.000000
-0.000056 -0.000071 0.000107 0.000000
-0.000045 -0.000092 0.000130 0.000000
-0.000033 -0.000078 0.000237 0.000000
-0.000044 -0.000055 0.000181 0.000000
0.000037 -0.000134 0.000383 0.000000
-0.000054 -0.000041 0.000087 0.000000
-0.000057 -0.000040 0.000057 0.000000
-0.000040 -0.000063 0.000250 0.000000
-0.000056 -0.000038 0.000197 0.000000
-0.000029 -0.000077 0.000415 0.000000
-0.000036 -0.000070 0.000215 0.000000
-0.000049 -0.000045 0.000069 0.000000
-0.000062 -0.000028 0.000044 0.000000
-0.000014 -0.000091 0.000301 0.000000
-0.000035 -0.000081 0.000172 0.000000
-0.000639 -0.000151 0.000483 0.000000
-0.000057 -0.000038 0.000064 0.000000
-0.000009 -0.000126 0.000127 0.000000
-0.000021 -0.000109 0.000166 0.000000
-0.000026 -0.000105 0.000334 0.000000
-0.000034 -0.000069 0.000339 0.000000
0.000012 -0.000155 0.000151 0.000000
-0.000344 -0.000794 0.000852 0.000000
-0.000010 -0.001346 0.001528 0.000000
-0.000032 -0.000106 0.000190 0.000000
-0.000815 0.000037 0.000682 0.000000
-0.000037 -0.000149 0.000947 0.000000
-0.000046 -0.000065 0.000124 0.000000
-0.000602 -0.000513 0.001252 0.000000
-0.000056 -0.000047 0.000090 0.000000
-0.000592 -0.000478 0.001380 0.000000
-0.000049 -0.000062 0.000095 0.000000
-0.000023 -0.000114 0.000349 0.000000
-0.000050 -0.000035 0.000113 0.000000
-0.000053 -0.000060 0.000132 0.000000
-0.000021 -0.000100 0.000334 0.000000
-0.000188 -0.001003 0.001818 0.000000
-0.000004 -0.000096 0.000262 0.000000
-0.000029 -0.000132 0.000722 0.000000
-0.000027 -0.000142 0.000808 0.000000
-0.000115 -0.001118 0.001665 0.000000
0.000004 -0.000150 0.000563 0.000000
-0.000117 -0.001130 0.001513 0.000000
-0.000016 -0.000119 0.000224 0.000000
-0.000588 -0.000457 0.001137 0.000000
-0.000058 -0.000051 0.000094 0.000000
0.000076 -0.000163 0.000282 0.000000
0.000028 -0.000126 0.000231 0.000000
0.000236 -0.001478 0.002046 0.000000
-0.000037 -0.000088 0.000194 0.000000
-0.000036 -0.000076 0.000177 0.000000
0.000093 -0.000248 0.000848 0.000000
0.000138 -0.000286 0.001274 0.000000
-0.000308 -0.000736 0.001418 0.000000
-0.000431 -0.000583 0.001185 0.000000
-0.000148 -0.001119 0.001653 0.000000
0.000075 -0.001299 0.001134 0.000000
-0.000147 -0.000965 0.000711 0.000000
-0.000033 -0.001134 0.000933 0.000000
-0.000379 -0.000795 0.000769 0.000000
-0.000260 -0.000623 0.000211 0.000000
-0.000253 -0.000847 0.000588 0.000000
0.000082 -0.000243 0.001223 0.000000
0.000135 -0.000228 0.000791 0.000000
0.000047 -0.000139 0.000470 0.000000
0.000077 -0.001492 0.001837 0.000000
0.000456 -0.001974 0.001913 0.000000
-0.000166 -0.001142 0.001242 0.000000
-0.000105 -0.001300 0.001656 0.000000
0.000223 -0.001736 0.001902 0.000000
0.000030 -0.001449 0.001879 0.000000
-0.000218 -0.001036 0.001138 0.000000
-0.000056 -0.001444 0.000763 0.000000
0.000705 -0.000824 0.001048 0.000000
0.000301 -0.001857 0.001967 0.000000
0.000169 -0.001662 0.001784 0.000000
0.000777 -0.000893 0.001197 0.000000
0.000469 -0.000610 0.000809 0.000000
0.000195 -0.001661 0.001801 0.000000
0.000504 -0.000644 0.000784 0.000000
-0.000016 -0.001315 0.001560 0.000000
-0.000392 -0.000785 0.000767 0.000000
0.000009 -0.000109 0.000108 0.000000
0.000087 -0.000183 0.000210 0.000000
-0.000385 -0.000691 0.001281 0.000000
-0.000059 -0.000058 0.000108 0.000000
-0.000388 -0.000599 0.000515 0.000000
-0.000594 -0.000504 0.000350 0.000000
-0.000120 -0.001233 0.001591 0.000000
-0.000433 -0.000851 0.001473 0.000000
-0.000536 -0.000537 0.001082 0.000000
-0.000047 -0.000100 0.000364 0.000000
0.000669 -0.000813 0.001107 0.000000
0.000589 -0.000745 0.000982 0.000000
-0.000277 -0.001038 0.001066 0.000000
0.000030 -0.000187 0.000195 0.000000
-0.000302 -0.000967 0.000936 0.000000
-0.000263 -0.001106 0.000962 0.000000
-0.000392 -0.000890 0.000543 0.000000
0.000869 -0.002243 0.000908 0.000000
-0.000280 -0.001148 0.000821 0.000000
-0.000309 -0.000961 0.000440 0.000000
0.000346 -0.001824 0.000968 0.000000
-0.000428 -0.000825 -0.000141 0.000000
0.000698 -0.000864 0.000753 0.000000
-0.000584 -0.000631 0.000341 0.000000
0.000146 -0.000364 0.000150 0.000000
0.000161 -0.000357 0.000282 0.000000
0.000141 -0.000327 0.000082 0.000000
-0.000615 -0.000599 0.000085 0.000000
0.000140 -0.000411 0.000015 0.000000
-0.000568 -0.001238 0.002547 0.000000
0.000200 -0.000394 0.000280 0.000000
0.000110 -0.000330 0.000042 0.000000
0.000208 -0.000400 0.000262 0.000000
0.000233 -0.000437 0.000339 0.000000
0.000216 -0.000428 0.000229 0.000000
0.000265 -0.000456 0.000425 0.000000
-0.000460 -0.001378 0.000966 0.000000
-0.000572 -0.000955 0.000805 0.000000
0.000114 -0.000341 0.000250 0.000000
0.000056 -0.000286 0.000210 0.000000
-0.000482 -0.001389 0.000753 0.000000
0.000094 -0.000367 -0.000179 0.000000
-0.000521 -0.001210 0.000814 0.000000
-0.000105 -0.001927 0.000416 0.000000
0.000130 -0.000360 0.000300 0.000000
0.000136 -0.000379 0.000345 0.000000
0.000139 -0.000324 0.000177 0.000000
0.000211 -0.000416 0.000317 0.000000
0.000135 -0.000341 0.000210 0.000000
0.000141 -0.000355 0.000196 0.000000
-0.000390 -0.001504 0.002333 0.000000
-0.000088 -0.001838 0.001422 0.000000
-0.000411 -0.001236 0.002370 0.000000
0.000096 -0.001985 0.001965 0.000000
-0.000492 -0.001390 0.000920 0.000000
-0.000602 -0.001406 0.000134 0.000000
-0.000057 -0.001947 0.000782 0.000000
0.000107 -0.000287 0.000227 0.000000
-0.000540 -0.001336 0.000748 0.000000
-0.000329 -0.001577 0.000472 0.000000
-0.000011 -0.001981 0.000705 0.000000
-0.000110 -0.001923 0.000739 0.000000
-0.000060 -0.001916 0.000721 0.000000
0.000069 -0.000313 0.000267 0.000000
0.000042 -0.001934 0.000740 0.000000
-0.000043 -0.001965 0.000716 0.000000
0.000098 -0.000332 0.000133 0.000000
0.000057 -0.000281 0.000092 0.000000
0.000146 -0.000404 0.001059 0.000000
0.000054 -0.002074 0.001709 0.000000
0.000237 -0.000454 0.000814 0.000000
-0.000563 -0.001210 0.000976 0.000000
0.000235 -0.000433 0.000653 0.000000
-0.000120 -0.001576 0.002139 0.000000
0.000302 -0.000489 0.000512 0.000000
0.000261 -0.000449 0.000621 0.000000
0.000344 -0.000553 0.000686 0.000000
0.000468 -0.000663 0.000611 0.000000
0.000789 -0.000898 0.001414 0.000000
0.000641 -0.000841 0.001319 0.000000
0.000345 -0.000585 0.000773 0.000000
0.000270 -0.000470 0.000308 0.000000
0.000087 -0.000273 0.000170 0.000000
-0.000282 -0.001458 0.001212 0.000000
-0.000297 -0.001214 0.000917 0.000000
0.000000 -0.001744 0.000901 0.000000
0.000304 -0.000529 0.000641 0.000000
0.000200 -0.000371 0.000967 0.000000
0.000088 -0.002118 0.001676 0.000000
-0.000214 -0.001333 0.001540 0.000000
-0.000411 -0.001182 0.000672 0.000000
0.000239 -0.000445 0.000835 0.000000
0.000218 -0.000451 0.000829 0.000000
0.000000 -0.001876 0.001945 0.000000
-0.000271 -0.001560 0.001299 0.000000
0.000047 -0.002217 0.001002 0.000000
-0.000559 -0.001287 0.000967 0.000000
-0.000707 -0.000666 0.002069 0.000000
-0.000594 -0.001219 0.001224 0.000000
0.000083 -0.002286 0.002096 0.000000
-0.000739 -0.001030 0.000605 0.000000
-0.000717 -0.000566 0.000221 0.000000
0.000206 -0.002186 0.000590 0.000000
0.000091 -0.000364 0.000440 0.000000
0.000255 -0.002463 0.001584 0.000000
0.000096 -0.000344 0.000074 0.000000
0.000040 -0.001972 0.000808 0.000000
-0.000018 -0.002081 0.000601 0.000000
0.000047 -0.000306 0.000284 0.000000
0.000639 -0.002852 0.001283 0.000000
0.000000 -0.002131 0.001815 0.000000
-0.000067 -0.001847 0.000622 0.000000
-0.000149 -0.001829 0.000657 0.000000
-0.000111 -0.001872 0.000699 0.000000
-0.000072 -0.001915 0.000717 0.000000
-0.000052 -0.001967 0.000781 0.000000
0.000081 -0.002310 0.000717 0.000000
0.000637 -0.003084 0.001967 0.000000
0.000000 -0.002335 0.000655 0.000000
0.000694 -0.002759 0.001202 0.000000
-0.000070 -0.001949 0.000707 0.000000
-0.000051 -0.001960 0.000718 0.000000
0.000291 -0.002366 0.000809 0.000000
-0.000141 -0.001872 0.000848 0.000000
-0.000103 -0.001904 0.000775 0.000000
-0.000208 -0.001805 0.001130 0.000000
0.000000 -0.002051 0.000963 0.000000
-0.000000 -0.002034 0.000838 0.000000
-0.000070 -0.002032 0.000795 0.000000
0.000000 -0.002024 0.000690 0.000000
0.000000 -0.002384 0.000972 0.000000
0.000222 -0.002390 0.001504 0.000000
0.000000 -0.001701 0.001330 0.000000
0.000406 -0.002314 0.001411 0.000000
-0.000322 -0.001401 0.000839 0.000000
0.000288 -0.000522 0.000559 0.000000
-0.000162 -0.001588 0.001286 0.000000
0.000053 -0.002060 0.001974 0.000000
0.000120 -0.001769 0.001644 0.000000
0.000362 -0.000549 0.000717 0.000000
0.000000 -0.001831 0.001472 0.000000
-0.000059 -0.001796 0.001445 0.000000
0.000033 -0.001574 0.000902 0.000000
-0.000105 -0.001591 0.001662 0.000000
0.000000 -0.001772 0.001712 0.000000
-0.000000 -0.001738 0.001878 0.000000
-0.000013 -0.001504 0.001892 0.000000
0.000000 -0.001610 0.001499 0.000000
0.000000 -0.001617 0.001345 0.000000
0.000053 -0.001520 0.002059 0.000000
-0.000003 -0.001475 0.001980 0.000000
0.000124 -0.001752 0.001786 0.000000
-0.000003 -0.001461 0.002026 0.000000
-0.000002 -0.001527 0.001926 0.000000
-0.000109 -0.001686 0.000872 0.000000
0.000000 -0.001620 0.001182 0.000000
0.000187 -0.001705 0.001949 0.000000
-0.000000 -0.001520 0.001913 0.000000
-0.000340 -0.001142 0.001043 0.000000
-0.000216 -0.001461 0.001019 0.000000
-0.000178 -0.001412 0.000878 0.000000
-0.000243 -0.001309 0.000992 0.000000
-0.000261 -0.001145 0.001413 0.000000
-0.000324 -0.001035 0.000782 0.000000
-0.000250 -0.001267 0.000895 0.000000
-0.000141 -0.001446 0.001088 0.000000
-0.000136 -0.001362 0.001057 0.000000
-0.000375 -0.000730 0.000588 0.000000
0.000038 -0.001435 0.001956 0.000000
-0.000017 -0.001360 0.001685 0.000000
0.000110 -0.001642 0.001735 0.000000
0.000000 -0.001556 0.001902 0.000000
-0.000114 -0.001296 0.001412 0.000000
-0.000009 -0.001468 0.001913 0.000000
0.000052 -0.001532 0.001937 0.000000
-0.000241 -0.000940 0.001029 0.000000
-0.000070 -0.001188 0.001807 0.000000
-0.000178 -0.001096 0.001297 0.000000
-0.000077 -0.000997 0.000998 0.000000
-0.000035 -0.001253 0.001886 0.000000
0.000063 -0.000177 0.000258 0.000000
-0.000058 -0.001271 0.001950 0.000000
-0.000201 -0.001070 0.001477 0.000000
-0.000136 -0.001108 0.001473 0.000000
0.000031 -0.000187 0.000815 0.000000
-0.000448 -0.000544 0.000947 0.000000
0.000161 -0.000326 0.000892 0.000000
-0.000067 -0.001202 0.001695 0.000000
0.000252 -0.001457 0.002249 0.000000
-0.000595 -0.000399 0.001412 0.000000
-0.000293 -0.000786 0.001371 0.000000
-0.000461 -0.000685 0.001125 0.000000
0.000245 -0.001463 0.002210 0.000000
-0.000422 -0.000767 0.001441 0.000000
-0.000266 -0.000943 0.002055 0.000000
-0.000336 -0.000914 0.001659 0.000000
-0.000049 -0.001235 0.001873 0.000000
0.000000 -0.001502 0.002060 0.000000
0.000120 -0.000219 0.000708 0.000000
0.000205 -0.000306 0.000904 0.000000
-0.000020 -0.001376 0.002146 0.000000
-0.000000 -0.001300 0.001947 0.000000
-0.000133 -0.001077 0.001498 0.000000
0.000031 -0.001322 0.001741 0.000000
-0.000058 -0.001178 0.001637 0.000000
0.000198 -0.001483 0.002432 0.000000
-0.000152 -0.001077 0.002228 0.000000
-0.000087 -0.000978 0.002121 0.000000
-0.000323 -0.000974 0.001158 0.000000
0.000289 -0.000426 0.001047 0.000000
-0.000106 -0.001071 0.001547 0.000000
0.000226 -0.001511 0.002712 0.000000
-0.000243 -0.001013 0.002481 0.000000
-0.000203 -0.000974 0.001904 0.000000
-0.000076 -0.000953 0.001904 0.000000
-0.000300 -0.000797 0.001524 0.000000
-0.000140 -0.001067 0.001814 0.000000
0.000194 -0.000241 0.000418 0.000000
-0.000032 -0.001006 0.001556 0.000000
0.000000 -0.001133 0.001447 0.000000
-0.000257 -0.000451 0.000407 0.000000
-0.000008 -0.000099 0.000069 0.000000
-0.000296 -0.000276 0.000259 0.000000
0.000000 -0.000660 0.000445 0.000000
-0.000020 -0.000747 0.000907 0.000000
0.000075 -0.000932 0.000316 0.000000
0.000000 -0.000664 0.000194 0.000000
-0.000121 -0.000507 0.000130 0.000000
0.000054 -0.000883 0.000210 0.000000
0.000000 -0.000636 0.000681 0.000000
-0.000245 -0.000319 0.000301 0.000000
0.000000 -0.000627 0.000481 0.000000
0.000049 -0.000139 0.000099 0.000000
0.000101 -0.000900 0.000139 0.000000
0.000022 -0.000941 0.000267 0.000000
-0.000283 -0.000759 0.001158 0.000000
0.000028 -0.000518 0.000012 0.000000
-0.000223 -0.000497 0.000521 0.000000
-0.000002 -0.000093 -0.000025 0.000000
-0.000291 -0.000541 0.000639 0.000000
-0.000153 -0.000502 0.000349 0.000000
0.000120 -0.000231 0.000168 0.000000
0.000091 -0.000196 0.000186 0.000000
-0.000152 -0.000643 0.000563 0.000000
-0.000167 -0.000432 0.000153 0.000000
-0.000150 -0.000427 0.000608 0.000000
-0.000190 -0.000511 0.000348 0.000000
-0.000148 -0.000701 0.000119 0.000000
0.000037 -0.000969 0.000473 0.000000
-0.000196 -0.000459 0.000122 0.000000
0.000049 -0.000129 0.000120 0.000000
0.000000 -0.000998 0.001525 0.000000
-0.000048 -0.000044 0.000065 0.000000
-0.000040 -0.000077 0.000530 0.000000
-0.000095 -0.000508 0.000300 0.000000
-0.000325 -0.000556 0.000884 0.000000
-0.000230 -0.000636 0.000902 0.000000
0.000020 -0.000928 0.000927 0.000000
0.000020 -0.000095 0.000048 0.000000
0.000260 -0.000336 0.001102 0.000000
-0.000072 -0.000872 0.002195 0.000000
-0.000247 -0.000744 0.001703 0.000000
-0.000396 -0.000545 0.001139 0.000000
0.000160 -0.000284 0.000861 0.000000
0.000333 -0.000392 0.000854 0.000000
0.000148 -0.000277 0.000772 0.000000
-0.000305 -0.000628 0.000965 0.000000
0.000227 -0.000299 0.000471 0.000000
-0.000029 -0.000882 0.001186 0.000000
-0.000071 -0.000014 0.000108 0.000000
-0.000346 -0.000649 0.001234 0.000000
0.000129 -0.000258 0.000348 0.000000
-0.000072 -0.000831 0.001148 0.000000
-0.000413 -0.000406 0.000801 0.000000
-0.000232 -0.000548 0.000831 0.000000
-0.000453 -0.000341 0.001032 0.000000
-0.000011 -0.000069 0.000110 0.000000
-0.000332 -0.000589 0.000840 0.000000
-0.000038 -0.000044 0.000064 0.000000
0.000011 -0.000104 0.000100 0.000000
-0.000004 -0.000099 0.000025 0.000000
0.000067 -0.000207 0.000570 0.000000
-0.000656 -0.000328 0.001345 0.000000
-0.000031 -0.000049 0.000099 0.000000
-0.000538 -0.000021 0.000143 0.000000
-0.000324 -0.000480 0.000378 0.000000
-0.000077 -0.000072 0.000200 0.000000
-0.000052 -0.000045 0.000079 0.000000
-0.000073 -0.000053 0.000134 0.000000
-0.000343 -0.000234 0.000189 0.000000
-0.000599 -0.000455 0.001191 0.000000
-0.000042 -0.000048 0.000083 0.000000
-0.000042 -0.000054 0.000074 0.000000
-0.000372 -0.000325 0.000614 0.000000
-0.000255 -0.000553 0.000568 0.000000
0.000064 -0.000608 0.000105 0.000000
-0.000297 -0.000227 0.000157 0.000000
-0.000043 -0.000056 0.000077 0.000000
-0.000047 -0.000045 0.000073 0.000000
-0.000443 -0.000284 0.000689 0.000000
-0.000506 -0.000306 0.001061 0.000000
-0.000149 -0.000621 0.000460 0.000000
0.000079 -0.000165 0.000194 0.000000
-0.000196 -0.000391 0.000247 0.000000
-0.000266 -0.000273 0.000380 0.000000
0.000016 -0.000103 0.000040 0.000000
0.000001 -0.000073 0.000020 0.000000
-0.000098 -0.000501 0.000156 0.000000
-0.000225 -0.000333 0.000084 0.000000
-0.000232 -0.000298 0.000281 0.000000
0.000014 -0.000099 0.000098 0.000000
-0.000187 -0.000281 0.000164 0.000000
-0.000119 -0.000235 0.000075 0.000000
-0.000013 -0.000062 0.000022 0.000000
-0.000182 -0.000234 0.000440 0.000000
0.000030 -0.000104 0.000024 0.000000
-0.000184 -0.000251 0.000070 0.000000
0.000010 -0.000079 0.000029 0.000000
0.000039 -0.000119 0.000042 0.000000
0.000033 -0.000097 0.000069 0.000000
0.000025 -0.000091 0.000043 0.000000
0.000040 -0.000137 0.000075 0.000000
0.000092 -0.000161 0.000067 0.000000
0.000083 -0.000953 0.000278 0.000000
0.000001 -0.000064 0.000024 0.000000
-0.000216 -0.000373 0.000089 0.000000
-0.000177 -0.000335 0.000289 0.000000
0.000050 -0.000150 0.000084 0.000000
0.000104 -0.000183 0.000051 0.000000
-0.000014 -0.000070 0.000054 0.000000
0.000042 -0.000120 0.000136 0.000000
-0.000005 -0.000072 0.000017 0.000000
0.000005 -0.000101 0.000065 0.000000
-0.000177 -0.000407 0.000163 0.000000
-0.000095 -0.000555 0.000201 0.000000
-0.000107 -0.000285 -0.000304 0.000000
-0.000143 -0.000511 0.000149 0.000000
0.000040 -0.000115 0.000049 0.000000
0.000042 -0.000123 0.000048 0.000000
-0.000076 -0.000461 0.000533 0.000000
0.000054 -0.000135 0.000041 0.000000
-0.000207 -0.000374 0.000286 0.000000
-0.000055 -0.000767 0.000490 0.000000
-0.000027 -0.000062 0.000067 0.000000
-0.000160 -0.000403 0.000253 0.000000
0.000044 -0.000111 -0.000022 0.000000
-0.000003 -0.000072 0.000025 0.000000
-0.000137 -0.000233 -0.000347 0.000000
-0.000011 -0.000492 -0.000073 0.000000
-0.000022 -0.000556 -0.000042 0.000000
-0.000000 -0.000533 -0.000042 0.000000
-0.000028 -0.000049 0.000057 0.000000
0.000040 -0.000109 0.000088 0.000000
-0.000001 -0.000414 -0.000379 0.000000
-0.000049 -0.000321 -0.000507 0.000000
-0.000326 -0.000198 0.000171 0.000000
-0.000094 -0.000289 0.000099 0.000000
-0.000012 -0.000052 0.000005 0.000000
0.000009 -0.000066 0.000003 0.000000
0.000020 -0.000096 0.000050 0.000000
-0.000143 -0.000305 0.000168 0.000000
0.000006 -0.000070 0.000015 0.000000
-0.000035 -0.000034 0.000033 0.000000
0.000008 -0.000474 -0.000236 0.000000
0.000019 -0.000548 -0.000192 0.000000
-0.000013 -0.000043 0.000012 0.000000
-0.000009 -0.000507 -0.000079 0.000000
-0.000139 -0.000338 0.000307 0.000000
0.000076 -0.000132 -0.000043 0.000000
-0.000011 -0.000462 -0.000448 0.000000
0.000014 -0.000078 0.000024 0.000000
0.000006 -0.000078 -0.000011 0.000000
0.000027 -0.000104 -0.000001 0.000000
0.000041 -0.000639 0.000032 0.000000
-0.000010 -0.000044 0.000010 0.000000
0.000004 -0.000636 0.000009 0.000000
-0.000008 -0.000065 0.000025 0.000000
-0.000009 -0.000049 0.000009 0.000000
-0.000010 -0.000043 0.000013 0.000000
-0.000011 -0.000580 0.000199 0.000000
-0.000072 -0.000399 0.000280 0.000000
-0.000119 -0.000376 0.000652 0.000000
-0.000078 -0.000235 0.000493 0.000000
0.000008 -0.000074 -0.000014 0.000000
-0.000003 -0.000053 -0.000003 0.000000
-0.000169 -0.000224 0.000545 0.000000
-0.000078 -0.000384 0.000543 0.000000
0.000013 -0.000092 -0.000032 0.000000
-0.000001 -0.000076 -0.000034 0.000000
0.000044 -0.000102 0.000038 0.000000
0.000003 -0.000565 -0.000030 0.000000
-0.000004 -0.000596 0.000006 0.000000
-0.000008 -0.000058 -0.000005 0.000000
0.000106 -0.000897 0.000049 0.000000
-0.000148 -0.000413 -0.000071 0.000000
0.000145 -0.000839 0.000012 0.000000
-0.000038 -0.000582 0.000239 0.000000
-0.000065 -0.000619 0.000193 0.000000
-0.000077 -0.000500 0.000167 0.000000
-0.000069 -0.000560 0.000196 0.000000
-0.000080 -0.000388 0.000405 0.000000
-0.000044 -0.000453 0.000395 0.000000
-0.000118 -0.000361 -0.000051 0.000000
-0.000065 -0.000706 0.000033 0.000000
-0.000074 -0.000705 0.000173 0.000000
-0.000024 -0.000748 -0.000036 0.000000
-0.000092 -0.000448 -0.000043 0.000000
-0.000117 -0.000399 -0.000129 0.000000
0.000033 -0.000609 0.000576 0.000000
0.000044 -0.000129 -0.000070 0.000000
-0.000135 -0.000391 -0.000097 0.000000
-0.000500 0.000493 -0.000873 0.000000
-0.000061 -0.000760 0.000295 0.000000
0.000030 -0.000092 -0.000026 0.000000
-0.000004 -0.000074 0.000034 0.000000
-0.000077 -0.000601 0.000130 0.000000
-0.000010 -0.000063 0.000003 0.000000
-0.000015 -0.000802 0.000016 0.000000
0.000019 -0.000866 0.000013 0.000000
0.000036 -0.000104 0.000005 0.000000
-0.000025 -0.000663 0.000283 0.000000
-0.000077 -0.000652 0.000128 0.000000
0.000035 -0.000865 0.000121 0.000000
-0.000007 -0.000075 0.000009 0.000000
-0.000140 -0.000510 0.000391 0.000000
-0.000017 -0.000614 0.000634 0.000000
-0.000086 -0.000553 0.000020 0.000000
-0.000046 -0.000681 0.000182 0.000000
0.000072 -0.000833 0.000127 0.000000
0.000111 -0.000989 0.000438 0.000000
-0.000143 -0.000506 0.000151 0.000000
-0.000148 -0.000592 0.000081 0.000000
-0.000091 -0.000518 0.000136 0.000000
0.000151 -0.000859 0.000119 0.000000
-0.000091 -0.000550 0.000019 0.000000
-0.000071 -0.000509 -0.000049 0.000000
0.000018 -0.000700 -0.000019 0.000000
-0.000035 -0.000618 0.000215 0.000000
0.000000 -0.000923 0.000115 0.000000
0.000164 -0.000948 0.000078 0.000000
-0.000057 -0.000854 0.000605 0.000000
-0.000039 -0.000729 0.000120 0.000000
0.000000 -0.000738 0.000402 0.000000
-0.000159 -0.000575 0.000271 0.000000
-0.000163 -0.000463 0.000215 0.000000
-0.000044 -0.000679 -0.000004 0.000000
-0.000090 -0.000582 0.000111 0.000000
-0.000004 -0.000741 0.000131 0.000000
-0.000004 -0.000705 0.000150 0.000000
0.000000 -0.000722 0.000006 0.000000
-0.000000 -0.000737 0.000123 0.000000
-0.000101 -0.000651 0.000026 0.000000
0.000117 -0.001006 0.000084 0.000000
0.000117 -0.000865 -0.000132 0.000000
0.000002 -0.000076 0.000031 0.000000
0.000071 -0.000788 0.000237 0.000000
0.000079 -0.000955 0.000700 0.000000
0.000061 -0.000174 0.000088 0.000000
-0.000056 -0.000653 -0.000260 0.000000
-0.000178 -0.000396 -0.000194 0.000000
-0.000004 -0.000803 0.000383 0.000000
0.000283 -0.001123 -0.000194 0.000000
-0.000488 -0.001754 -0.000583 0.000000
-0.000433 -0.002036 -0.001166 0.000000
-0.000207 -0.002424 -0.000749 0.000000
0.000000 -0.002287 -0.001088 0.000000
-0.000374 -0.001742 -0.000029 0.000000
-0.000368 -0.001884 -0.000574 0.000000
-0.000483 -0.001340 -0.000715 0.000000
0.000000 -0.001756 0.005111 0.000000
0.000801 -0.001631 0.002716 0.000000
0.000000 -0.002512 -0.000839 0.000000
-0.002229 0.002432 0.003125 0.000000
-0.001661 -0.001595 0.002743 0.000000
-0.000797 -0.000597 0.000763 0.000000
-0.000720 -0.001419 -0.000391 0.000000
-0.000412 -0.002032 0.001010 0.000000
-0.000777 -0.001130 0.000185 0.000000
-0.000537 -0.001117 0.000926 0.000000
-0.000129 -0.002003 -0.000347 0.000000
-0.000601 -0.001508 0.000559 0.000000
-0.000745 -0.001162 0.000386 0.000000
-0.000520 -0.001492 0.000115 0.000000
0.000541 -0.000865 0.000519 0.000000
-0.000330 -0.001918 -0.000087 0.000000
-0.000227 -0.002275 -0.001242 0.000000
-0.000581 -0.001378 0.000067 0.000000
-0.000439 -0.001498 -0.000977 0.000000
-0.000486 -0.001663 -0.000464 0.000000
-0.000408 -0.002031 -0.000728 0.000000
0.000452 -0.000762 -0.000148 0.000000
0.001034 -0.001268 0.000132 0.000000
0.000757 -0.001020 -0.000226 0.000000
0.000678 -0.001016 0.000015 0.000000
0.000724 -0.000991 0.000514 0.000000
0.000781 -0.001004 0.000312 0.000000
0.000624 -0.000986 0.000135 0.000000
0.000655 -0.001044 0.000167 0.000000
0.000629 -0.000934 0.000050 0.000000
0.000462 -0.000768 -0.000204 0.000000
-0.000768 -0.001702 0.000059 0.000000
0.000476 -0.000781 -0.000085 0.000000
0.000837 -0.001054 -0.000272 0.000000
0.000646 -0.001066 -0.000036 0.000000
-0.000454 -0.001686 -0.000356 0.000000
0.000471 -0.000788 0.000051 0.000000
0.000000 -0.003285 -0.000652 0.000000
-0.000456 -0.001346 0.000726 0.000000
0.000000 -0.003322 0.000244 0.000000
-0.000508 -0.002625 0.001246 0.000000
0.000000 -0.002268 -0.001344 0.000000
0.001004 -0.001384 0.000012 0.000000
0.000644 -0.000991 -0.000304 0.000000
0.000662 -0.003258 -0.000953 0.000000
-0.000122 -0.002916 -0.002365 0.000000
0.000000 -0.003183 -0.001464 0.000000
0.000473 -0.003450 0.000078 0.000000
0.000453 -0.003168 0.000796 0.000000
0.000000 -0.002916 0.000755 0.000000
0.000000 -0.002239 0.000265 0.000000
0.000000 -0.002463 -0.000239 0.000000
0.000575 -0.003177 0.000457 0.000000
0.000468 -0.002859 -0.000030 0.000000
-0.000363 -0.002024 -0.000171 0.000000
-0.000295 -0.002253 0.000113 0.000000
-0.000094 -0.002448 -0.000486 0.000000
-0.000128 -0.002105 -0.000479 0.000000
0.000000 -0.002699 0.000390 0.000000
0.000447 -0.000695 0.000128 0.000000
0.000362 -0.003064 0.000739 0.000000
0.000061 -0.002481 0.000882 0.000000
0.000000 -0.002516 0.000842 0.000000
0.000060 -0.002447 0.001005 0.000000
0.000000 -0.002369 0.000908 0.000000
-0.000205 -0.002045 0.000754 0.000000
0.000000 -0.002236 -0.000143 0.000000
-0.000343 -0.001873 0.000466 0.000000
0.000000 -0.002566 -0.000522 0.000000
-0.000511 -0.001680 0.000426 0.000000
-0.000234 -0.002506 -0.001088 0.000000
-0.000338 -0.002388 -0.000611 0.000000
-0.000013 -0.002586 0.001159 0.000000
-0.000209 -0.002293 0.000907 0.000000
0.000000 -0.002174 0.000281 0.000000
-0.000411 -0.001959 0.000704 0.000000
-0.000344 -0.002195 0.000504 0.000000
-0.000589 -0.001745 0.000261 0.000000
-0.000635 -0.001578 -0.000101 0.000000
-0.000485 -0.001715 0.000773 0.000000
-0.000358 -0.001837 0.000197 0.000000
-0.000536 -0.001955 -0.000102 0.000000
-0.000301 -0.001778 -0.001127 0.000000
-0.000544 -0.001653 0.000069 0.000000
0.000395 -0.003019 -0.000365 0.000000
0.000243 -0.000521 -0.000183 0.000000
-0.000464 -0.001401 -0.000523 0.000000
0.000348 -0.000558 0.000009 0.000000
-0.000661 -0.001623 -0.001016 0.000000
-0.000478 -0.001962 -0.000217 0.000000
-0.000565 -0.001889 0.001008 0.000000
0.000297 -0.000639 0.001207 0.000000
-0.000590 -0.001438 0.000140 0.000000
0.000156 -0.002035 0.002170 0.000000
0.000617 -0.003264 -0.000508 0.000000
-0.000224 -0.001953 0.001126 0.000000
0.000268 -0.000603 0.000352 0.000000
0.000436 -0.003098 0.001263 0.000000
0.000457 -0.003011 0.000422 0.000000
0.000323 -0.002980 0.000239 0.000000
0.000268 -0.002587 0.001224 0.000000
0.000395 -0.002709 0.001245 0.000000
-0.000083 -0.002049 -0.000769 0.000000
-0.000781 -0.001077 -0.000160 0.000000
0.000240 -0.002446 -0.000656 0.000000
0.000205 -0.002562 -0.000499 0.000000
-0.000426 -0.002057 -0.000529 0.000000
0.000173 -0.002816 -0.000783 0.000000
0.000702 -0.002826 -0.000895 0.000000
0.000526 -0.003026 0.000371 0.000000
0.000441 -0.000711 0.000096 0.000000
0.000561 -0.003110 0.000409 0.000000
0.000462 -0.000750 0.000116 0.000000
0.000353 -0.000585 0.000409 0.000000
0.000439 -0.000701 0.000091 0.000000
0.000370 -0.000632 0.000205 0.000000
0.000456 -0.000754 0.000162 0.000000
0.000389 -0.000687 0.000057 0.000000
0.000466 -0.000724 0.000202 0.000000
0.000521 -0.000838 0.000280 0.000000
0.000620 -0.000823 0.000360 0.000000
0.000509 -0.000764 0.000307 0.000000
0.000636 -0.000835 0.000588 0.000000
0.000502 -0.000773 0.000247 0.000000
0.000378 -0.000666 0.000256 0.000000
0.000465 -0.000742 0.000227 0.000000
-0.000607 -0.001298 0.000075 0.000000
0.000407 -0.000766 0.000720 0.000000
-0.000867 -0.001316 0.000547 0.000000
-0.000727 -0.000969 -0.000005 0.000000
-0.000673 -0.001562 0.000460 0.000000
-0.000548 -0.001372 0.000270 0.000000
-0.000639 -0.001188 -0.000225 0.000000
-0.000693 -0.000957 -0.001090 0.000000
-0.000860 -0.001298 -0.000566 0.000000
0.000196 -0.000573 0.000148 0.000000
-0.000882 -0.000570 -0.000554 0.000000
0.000199 -0.000420 0.000096 0.000000
0.000078 -0.000396 -0.000089 0.000000
0.000044 -0.000424 0.000192 0.000000
-0.000571 -0.001396 0.000149 0.000000
-0.000567 -0.001388 0.000178 0.000000
-0.000558 -0.001465 0.000116 0.000000
-0.000560 -0.001355 -0.000003 0.000000
-0.000542 -0.001387 0.000509 0.000000
-0.000623 -0.001404 0.000111 0.000000
-0.000672 -0.001268 0.000138 0.000000
-0.000580 -0.001379 0.000237 0.000000
-0.000534 -0.001450 0.000367 0.000000
-0.000721 -0.001531 0.000830 0.000000
-0.000003 -0.000278 0.000023 0.000000
-0.000457 -0.001644 0.000696 0.000000
0.000054 -0.000284 -0.000076 0.000000
-0.000378 -0.001877 0.000978 0.000000
-0.000448 -0.001582 0.000581 0.000000
-0.000526 -0.001518 0.000551 0.000000
0.000096 -0.002473 -0.001532 0.000000
-0.000307 -0.001677 0.000466 0.000000
-0.000549 -0.001360 0.000083 0.000000
-0.000543 -0.001356 0.000235 0.000000
-0.000462 -0.001494 0.000583 0.000000
-0.000505 -0.001508 0.000489 0.000000
0.000644 -0.000968 0.000424 0.000000
0.000958 -0.001137 0.000335 0.000000
0.000636 -0.000855 0.000265 0.000000
-0.000579 -0.001263 0.000105 0.000000
0.000838 -0.000968 0.000473 0.000000
0.000697 -0.001087 0.000732 0.000000
-0.000678 -0.001316 -0.000162 0.000000
-0.000577 -0.001243 0.000046 0.000000
0.000474 -0.000728 0.000084 0.000000
0.000416 -0.000619 -0.000388 0.000000
0.000531 -0.000851 0.000244 0.000000
0.000423 -0.000683 0.000082 0.000000
0.000436 -0.000751 0.000143 0.000000
0.000443 -0.000764 -0.000140 0.000000
0.000530 -0.000773 0.000098 0.000000
0.000482 -0.000741 -0.000055 0.000000
0.000503 -0.000741 0.000196 0.000000
0.000565 -0.000801 0.000159 0.000000
0.000530 -0.000776 -0.000209 0.000000
0.000714 -0.000987 -0.000123 0.000000
0.000512 -0.000783 -0.000252 0.000000
0.000950 -0.001246 -0.000021 0.000000
0.000426 -0.002855 0.000014 0.000000
0.000565 -0.000899 0.000559 0.000000
-0.000037 -0.002056 -0.000371 0.000000
-0.000337 -0.001074 -0.001532 0.000000
0.000705 -0.000996 0.000086 0.000000
0.000362 -0.000742 0.000455 0.000000
0.000519 -0.000797 -0.000144 0.000000
0.000701 -0.000941 -0.000077 0.000000
0.000470 -0.000834 -0.000048 0.000000
0.000297 -0.000634 -0.000298 0.000000
-0.000356 -0.001839 -0.002499 0.000000
0.000421 -0.000730 -0.000406 0.000000
0.000451 -0.000713 -0.000233 0.000000
-0.000274 -0.001833 -0.002709 0.000000
0.000268 -0.000575 -0.000075 0.000000
0.000428 -0.000652 -0.000237 0.000000
-0.000270 -0.001775 -0.002652 0.000000
-0.000472 -0.001773 -0.002601 0.000000
-0.000177 -0.002463 -0.001302 0.000000
-0.000358 -0.001781 -0.001863 0.000000
0.000538 -0.000778 0.000076 0.000000
0.000521 -0.000793 0.000295 0.000000
0.000598 -0.000941 -0.000211 0.000000
0.000488 -0.000733 -0.000513 0.000000
0.000546 -0.000843 0.000072 0.000000
0.000574 -0.000817 0.000088 0.000000
0.000532 -0.000844 -0.000176 0.000000
0.000482 -0.000799 -0.000355 0.000000
0.000469 -0.000707 -0.000043 0.000000
0.000519 -0.000737 -0.000219 0.000000
0.000704 -0.000980 0.000376 0.000000
0.000572 -0.000891 0.000162 0.000000
0.000343 -0.000712 0.000262 0.000000
0.000600 -0.000805 0.000311 0.000000
0.000523 -0.000773 0.000436 0.000000
-0.000771 -0.001150 0.000374 0.000000
0.000522 -0.000830 0.000285 0.000000
-0.000895 -0.001090 0.000559 0.000000
-0.000806 -0.001113 0.000237 0.000000
-0.000654 -0.001259 0.000159 0.000000
-0.000716 -0.001284 0.000322 0.000000
-0.000807 -0.001207 0.000038 0.000000
-0.000750 -0.001193 0.000163 0.000000
0.000582 -0.000893 0.000467 0.000000
-0.000770 -0.001136 0.000409 0.000000
0.000614 -0.000869 0.000536 0.000000
0.000603 -0.000903 0.000576 0.000000
-0.000777 -0.001246 0.000111 0.000000
-0.000758 -0.001175 0.000410 0.000000
-0.000736 -0.001209 0.000150 0.000000
-0.000856 -0.000897 0.000816 0.000000
-0.000864 -0.000902 0.000714 0.000000
0.000364 -0.000569 0.000249 0.000000
0.000541 -0.000735 0.000533 0.000000
0.000170 -0.002177 0.000619 0.000000
0.000374 -0.000682 0.000547 0.000000
0.000327 -0.000647 0.000048 0.000000
0.000465 -0.000722 0.000147 0.000000
-0.000778 -0.001216 0.000117 0.000000
-0.000752 -0.001302 0.000300 0.000000
-0.000815 -0.001175 0.000791 0.000000
-0.000605 -0.001367 0.000819 0.000000
-0.000834 -0.001220 0.000999 0.000000
-0.000777 -0.001239 0.000107 0.000000
-0.000819 -0.001232 0.000365 0.000000
-0.000556 -0.001413 0.000196 0.000000
-0.000735 -0.001384 0.000478 0.000000
0.000350 -0.002406 0.001048 0.000000
-0.000677 -0.001327 0.000349 0.000000
0.000202 -0.002688 0.000550 0.000000
-0.000297 -0.001812 0.000622 0.000000
-0.000370 -0.001554 -0.000507 0.000000
0.000461 -0.002645 0.000334 0.000000
-0.000171 -0.001839 0.000133 0.000000
-0.000513 -0.001816 0.000696 0.000000
-0.000703 -0.001791 0.001267 0.000000
-0.000216 -0.002008 0.000403 0.000000
-0.000294 -0.002048 0.000830 0.000000
0.000582 -0.002756 -0.000304 0.000000
0.000157 -0.002295 -0.000050 0.000000
0.000133 -0.001934 -0.001470 0.000000
0.000415 -0.002551 -0.000059 0.000000
0.000694 -0.000962 -0.000208 0.000000
0.000435 -0.002628 -0.000427 0.000000
0.000569 -0.000878 -0.000141 0.000000
0.000512 -0.000797 0.000023 0.000000
0.000828 -0.001025 -0.000420 0.000000
0.000795 -0.001059 -0.000171 0.000000
0.000921 -0.001222 -0.000039 0.000000
0.000696 -0.000997 -0.000288 0.000000
0.000031 -0.002142 -0.000293 0.000000
0.000040 -0.002254 0.000384 0.000000
-0.000283 -0.001866 -0.000265 0.000000
0.000314 -0.002320 -0.000527 0.000000
0.000124 -0.002170 -0.000493 0.000000
-0.000632 -0.001092 -0.000613 0.000000
0.000038 -0.002354 -0.000767 0.000000
0.000025 -0.002041 -0.000261 0.000000
0.000131 -0.001996 -0.001176 0.000000
0.000257 -0.002283 -0.000008 0.000000
-0.000082 -0.002330 0.000043 0.000000
0.000734 -0.001018 -0.000282 0.000000
0.000504 -0.003042 0.000540 0.000000
0.000568 -0.002202 0.001006 0.000000
0.000404 -0.002825 0.000224 0.000000
0.000960 -0.001239 -0.000270 0.000000
0.001012 -0.003759 0.000766 0.000000
0.001127 -0.002939 0.001148 0.000000
0.000322 -0.002304 0.000109 0.000000
0.000026 -0.002055 -0.000232 0.000000
-0.000008 -0.002054 -0.000231 0.000000
0.000122 -0.002347 -0.000165 0.000000
-0.000398 -0.001511 -0.000063 0.000000
-0.000584 -0.001395 0.000022 0.000000
-0.000335 -0.001767 0.000055 0.000000
-0.000069 -0.001953 -0.000209 0.000000
-0.000284 -0.001720 0.000162 0.000000
-0.000142 -0.001885 0.000256 0.000000
0.000111 -0.002103 -0.000098 0.000000
-0.000112 -0.001941 -0.000071 0.000000
-0.000684 -0.001329 0.000074 0.000000
-0.000533 -0.001538 0.000171 0.000000
-0.000615 -0.001522 0.000367 0.000000
-0.000635 -0.001412 0.000124 0.000000
-0.000398 -0.001538 0.000153 0.000000
-0.000525 -0.001406 -0.000021 0.000000
-0.000319 -0.001647 -0.000036 0.000000
-0.000490 -0.001440 0.000039 0.000000
-0.000555 -0.001440 0.000053 0.000000
-0.000488 -0.001512 0.000004 0.000000
-0.000515 -0.001416 -0.000008 0.000000
-0.000418 -0.001656 0.000049 0.000000
-0.000278 -0.001553 -0.000382 0.000000
-0.000323 -0.001726 -0.000096 0.000000
-0.000140 -0.001883 -0.000149 0.000000
-0.000466 -0.001415 -0.000088 0.000000
-0.000392 -0.001552 -0.000298 0.000000
-0.000404 -0.001595 -0.000122 0.000000
-0.000306 -0.001597 -0.000199 0.000000
-0.000505 -0.001363 -0.000054 0.000000
-0.000472 -0.001458 -0.000121 0.000000
-0.000384 -0.001459 -0.000233 0.000000
-0.000550 -0.001156 -0.000128 0.000000
-0.000514 -0.001278 -0.000088 0.000000
-0.000462 -0.001350 -0.000198 0.000000
-0.000537 -0.001111 -0.000080 0.000000
-0.000509 -0.001091 -0.000290 0.000000
-0.000510 -0.001026 -0.000087 0.000000
-0.000546 -0.000624 -0.001220 0.000000
-0.000319 -0.001686 -0.000882 0.000000
0.000042 -0.001682 -0.001002 0.000000
0.000262 -0.000450 0.000270 0.000000
-0.000474 -0.001249 -0.000320 0.000000
-0.000375 -0.001383 -0.000425 0.000000
-0.000307 -0.001686 -0.000254 0.000000
0.000019 -0.001872 -0.000370 0.000000
0.000079 -0.002134 -0.000444 0.000000
-0.000191 -0.001552 -0.000615 0.000000
0.000200 -0.001927 -0.000764 0.000000
0.000123 -0.000326 0.000187 0.000000
0.000138 -0.000381 0.000167 0.000000
0.000089 -0.000325 0.000096 0.000000
0.000094 -0.000326 0.000072 0.000000
0.000081 -0.000289 -0.000008 0.000000
0.000189 -0.000420 0.000147 0.000000
0.000195 -0.000451 0.000240 0.000000
0.000254 -0.000438 0.000219 0.000000
0.000189 -0.000382 0.000217 0.000000
0.000206 -0.000413 0.000068 0.000000
0.000267 -0.000516 0.000242 0.000000
0.000380 -0.000582 0.000081 0.000000
0.000335 -0.000517 0.000232 0.000000
0.000381 -0.000580 -0.000062 0.000000
0.000403 -0.000598 0.000163 0.000000
0.000405 -0.000634 0.000018 0.000000
0.000424 -0.000661 0.000121 0.000000
0.000264 -0.002941 0.001214 0.000000
0.000414 -0.000622 0.000205 0.000000
0.000404 -0.000637 0.000180 0.000000
0.000352 -0.000547 0.000268 0.000000
-0.000025 -0.002006 -0.000217 0.000000
0.000375 -0.002514 -0.000031 0.000000
0.000263 -0.000525 0.000303 0.000000
0.000284 -0.000464 0.000361 0.000000
-0.000192 -0.001688 -0.000327 0.000000
-0.000082 -0.001896 -0.000217 0.000000
-0.000211 -0.001806 -0.000217 0.000000
-0.000208 -0.001729 -0.000173 0.000000
-0.000013 -0.001956 -0.000247 0.000000
0.000087 -0.002154 -0.000128 0.000000
0.000799 -0.003245 0.001173 0.000000
0.001031 -0.003686 -0.000232 0.000000
0.000984 -0.003009 0.001060 0.000000
0.000409 -0.000668 0.000233 0.000000
0.000510 -0.000707 -0.000107 0.000000
0.000469 -0.000664 0.000198 0.000000
0.000446 -0.000684 -0.000136 0.000000
0.001095 -0.003163 -0.000634 0.000000
0.000472 -0.002833 -0.001357 0.000000
0.000803 -0.002969 -0.001215 0.000000
0.000621 -0.000829 0.000085 0.000000
-0.000012 -0.001846 0.000055 0.000000
0.000384 -0.000581 -0.000186 0.000000
0.000921 -0.003119 -0.000752 0.000000
0.000512 -0.002678 -0.000115 0.000000
0.000319 -0.000569 -0.000310 0.000000
0.000436 -0.000656 -0.000267 0.000000
0.000445 -0.000632 0.000041 0.000000
0.000375 -0.000565 -0.000260 0.000000
0.000482 -0.000725 -0.000056 0.000000
0.000448 -0.000637 -0.000193 0.000000
0.000473 -0.000653 -0.000019 0.000000
0.000382 -0.000638 -0.000216 0.000000
0.000423 -0.000652 -0.000005 0.000000
0.000398 -0.000622 -0.000175 0.000000
0.000328 -0.000525 -0.000012 0.000000
0.000415 -0.000619 -0.000057 0.000000
0.000334 -0.000529 -0.000162 0.000000
0.000316 -0.000539 -0.000208 0.000000
-0.000363 -0.001472 0.000248 0.000000
0.000277 -0.000449 -0.000310 0.000000
0.000268 -0.000530 -0.000363 0.000000
0.000270 -0.000482 -0.000377 0.000000
0.000353 -0.000587 -0.000241 0.000000
0.000206 -0.000505 -0.000476 0.000000
0.000327 -0.000525 -0.000270 0.000000
0.000218 -0.000407 -0.000391 0.000000
0.000960 -0.002688 0.000064 0.000000
0.000197 -0.000448 -0.000301 0.000000
0.000126 -0.000397 -0.000363 0.000000
0.000057 -0.000261 -0.000199 0.000000
0.000265 -0.002411 0.000104 0.000000
0.000011 -0.000249 -0.000118 0.000000
0.000119 -0.000370 -0.000209 0.000000
0.000047 -0.000288 -0.000136 0.000000
0.000226 -0.000461 -0.000280 0.000000
-0.000005 -0.000200 -0.000106 0.000000
-0.000195 -0.001850 -0.000028 0.000000
-0.000304 -0.001616 0.000582 0.000000
0.000286 -0.001898 0.000697 0.000000
-0.000084 -0.001943 0.000407 0.000000
0.000434 -0.002120 0.000554 0.000000
-0.000450 -0.001310 0.000276 0.000000
-0.000243 -0.001494 0.000423 0.000000
-0.000419 -0.001276 0.000208 0.000000
-0.000415 -0.001320 0.000086 0.000000
-0.000422 -0.001329 0.000110 0.000000
-0.000407 -0.001420 0.000155 0.000000
-0.000376 -0.001499 0.000179 0.000000
0.000197 -0.002145 0.000389 0.000000
-0.000241 -0.001649 0.000233 0.000000
-0.000139 -0.001683 0.000179 0.000000
-0.000293 -0.001701 -0.000125 0.000000
-0.000411 -0.001512 0.000146 0.000000
-0.000246 -0.001677 0.000179 0.000000
-0.000407 -0.001562 -0.000001 0.000000
-0.000350 -0.001505 0.000129 0.000000
-0.000353 -0.001588 0.000091 0.000000
-0.000453 -0.001434 0.000188 0.000000
-0.000467 -0.001370 0.000257 0.000000
-0.000441 -0.001432 0.000201 0.000000
-0.000417 -0.001347 0.000177 0.000000
-0.000388 -0.001499 0.000294 0.000000
-0.000432 -0.001408 0.000170 0.000000
-0.000446 -0.001399 0.000201 0.000000
-0.000479 -0.001402 0.000190 0.000000
-0.000515 -0.001465 0.000237 0.000000
-0.000478 -0.001483 0.000188 0.000000
-0.000487 -0.001506 0.000169 0.000000
-0.000361 -0.001510 0.000281 0.000000
-0.000555 -0.001480 -0.000008 0.000000
-0.000087 -0.002122 -0.000237 0.000000
-0.000440 -0.001687 -0.000138 0.000000
-0.000444 -0.001569 0.000032 0.000000
0.000295 -0.002129 -0.000054 0.000000
0.000621 -0.002729 -0.000958 0.000000
-0.000338 -0.001592 0.000017 0.000000
-0.000349 -0.001705 -0.000061 0.000000
0.000585 -0.003075 -0.000880 0.000000
0.000578 -0.003268 -0.000168 0.000000
0.000715 -0.002678 -0.000758 0.000000
0.000749 -0.002979 -0.000743 0.000000
0.000483 -0.003172 0.000486 0.000000
0.001016 -0.001255 0.000055 0.000000
0.000824 -0.003120 0.000218 0.000000
0.000833 -0.003488 0.000230 0.000000
0.000990 -0.003446 0.000068 0.000000
0.001046 -0.003527 0.000303 0.000000
0.000908 -0.001142 0.000102 0.000000
0.000851 -0.001154 0.000225 0.000000
0.000730 -0.001012 0.000117 0.000000
-0.000003 -0.001893 -0.000421 0.000000
0.000270 -0.002620 -0.000338 0.000000
0.000782 -0.003121 -0.000516 0.000000
-0.000333 -0.001667 -0.000292 0.000000
0.000224 -0.002714 -0.000483 0.000000
-0.000649 -0.001238 -0.000125 0.000000
-0.000475 -0.001573 0.000072 0.000000
-0.000686 -0.001347 -0.000252 0.000000
0.000378 -0.002152 -0.001072 0.000000
0.000637 -0.000932 0.000217 0.000000
0.000563 -0.000834 -0.000040 0.000000
0.000663 -0.000972 0.000125 0.000000
0.000737 -0.001062 -0.000143 0.000000
0.000578 -0.000861 -0.000007 0.000000
0.000502 -0.000799 0.000154 0.000000
0.000865 -0.001096 0.000024 0.000000
0.000534 -0.000825 0.000047 0.000000
0.000632 -0.000902 0.000218 0.000000
0.000713 -0.000924 0.000131 0.000000
0.000747 -0.000968 0.000349 0.000000
0.000639 -0.000924 0.000307 0.000000
0.000805 -0.001060 0.000062 0.000000
0.000818 -0.001098 0.000188 0.000000
-0.000628 -0.001054 -0.000526 0.000000
-0.000567 -0.001440 0.000091 0.000000
-0.000472 -0.001505 0.000026 0.000000
-0.000534 -0.001331 -0.000041 0.000000
-0.000480 -0.001497 0.000339 0.000000
-0.000506 -0.001411 0.000218 0.000000
-0.000438 -0.001498 0.000249 0.000000
-0.000491 -0.001494 0.000173 0.000000
-0.000475 -0.001503 0.000338 0.000000
-0.000482 -0.001468 0.000400 0.000000
-0.000406 -0.001508 0.000399 0.000000
-0.000362 -0.001558 0.000494 0.000000
-0.000478 -0.001516 0.000446 0.000000
-0.000475 -0.001509 0.000264 0.000000
-0.000418 -0.001580 0.000604 0.000000
0.000002 -0.001417 -0.001546 0.000000
-0.000395 -0.001654 0.000610 0.000000
-0.000370 -0.001737 0.000651 0.000000
-0.000331 -0.001593 0.000391 0.000000
-0.000306 -0.001755 0.000583 0.000000
-0.000331 -0.001821 -0.000804 0.000000
-0.000282 -0.001890 0.000627 0.000000
-0.000185 -0.001638 -0.000199 0.000000
0.000379 -0.000696 -0.000056 0.000000
0.000572 -0.000762 -0.000457 0.000000
0.000767 -0.000880 -0.000289 0.000000
0.000250 -0.000494 -0.000292 0.000000
0.000237 -0.000463 -0.000223 0.000000
0.000439 -0.000725 -0.000375 0.000000
0.000237 -0.000483 -0.000301 0.000000
0.000124 -0.002110 -0.000282 0.000000
0.000410 -0.000615 -0.000495 0.000000
0.000456 -0.000655 -0.000459 0.000000
0.000256 -0.000507 -0.000246 0.000000
0.000152 -0.000402 -0.000182 0.000000
0.000118 -0.000361 -0.000136 0.000000
0.000120 -0.000348 0.000011 0.000000
-0.000108 -0.002018 0.000658 0.000000
0.000096 -0.000356 -0.000023 0.000000
0.000186 -0.002074 0.000931 0.000000
0.000120 -0.000356 -0.000015 0.000000
-0.000431 -0.001664 0.000770 0.000000
0.000048 -0.000296 -0.000018 0.000000
-0.000006 -0.001667 0.001060 0.000000
-0.000733 -0.000931 0.000922 0.000000
0.000088 -0.000314 0.000075 0.000000
0.000277 -0.000531 -0.000272 0.000000
0.000212 -0.000455 -0.000214 0.000000
0.000149 -0.000409 -0.000220 0.000000
0.000076 -0.000338 -0.000135 0.000000
0.000047 -0.000290 -0.000017 0.000000
0.000120 -0.000389 -0.000171 0.000000
0.000150 -0.000363 -0.000064 0.000000
0.000359 -0.000591 -0.000276 0.000000
0.000075 -0.000329 -0.000080 0.000000
0.000057 -0.000291 -0.000059 0.000000
0.000107 -0.000307 -0.000020 0.000000
0.000085 -0.000303 -0.000045 0.000000
-0.000837 -0.000331 0.000258 0.000000
0.000064 -0.000290 0.000044 0.000000
0.000054 -0.000287 -0.000011 0.000000
0.000019 -0.000259 0.000002 0.000000
-0.000274 -0.001833 -0.000730 0.000000
0.000275 -0.000496 -0.000119 0.000000
0.000279 -0.000503 -0.000120 0.000000
0.000353 -0.000569 -0.000299 0.000000
0.000164 -0.000379 -0.000072 0.000000
0.000222 -0.000458 -0.000127 0.000000
0.000363 -0.000569 -0.000309 0.000000
0.000399 -0.000668 -0.000268 0.000000
0.000235 -0.000483 -0.000237 0.000000
0.000350 -0.000564 -0.000274 0.000000
0.000265 -0.000516 -0.000332 0.000000
0.000357 -0.000591 -0.000296 0.000000
0.000206 -0.000454 -0.000252 0.000000
0.000186 -0.000425 -0.000213 0.000000
-0.000581 -0.001425 -0.000390 0.000000
-0.000412 -0.001310 0.000030 0.000000
0.000586 -0.000919 -0.000074 0.000000
0.000552 -0.000703 -0.000357 0.000000
0.000353 -0.000587 -0.000367 0.000000
-0.000639 -0.001258 0.000153 0.000000
-0.000069 -0.001419 0.001019 0.000000
0.000354 -0.000585 -0.000356 0.000000
0.000430 -0.000725 -0.000228 0.000000
0.000387 -0.000594 -0.000298 0.000000
-0.000413 -0.001393 0.000234 0.000000
-0.000557 -0.001313 0.000496 0.000000
-0.000305 -0.001200 0.000983 0.000000
-0.000403 -0.001377 0.000214 0.000000
0.000332 -0.000547 -0.000350 0.000000
-0.000331 -0.001529 0.000594 0.000000
0.000299 -0.000560 -0.000134 0.000000
0.000409 -0.000682 -0.000529 0.000000
-0.000299 -0.001400 0.000251 0.000000
0.000321 -0.000545 -0.000049 0.000000
0.000358 -0.000549 -0.000405 0.000000
0.000349 -0.000594 -0.000356 0.000000
0.000337 -0.000574 -0.000467 0.000000
-0.000420 -0.001315 0.000094 0.000000
0.000307 -0.000549 -0.000411 0.000000
0.000187 -0.002128 0.000368 0.000000
-0.000452 -0.001272 0.000103 0.000000
-0.000354 -0.001419 0.000180 0.000000
-0.000065 -0.001854 0.000621 0.000000
-0.000485 -0.001238 -0.000052 0.000000
-0.000476 -0.001218 0.000093 0.000000
-0.000427 -0.001319 0.000042 0.000000
-0.000388 -0.001409 -0.000014 0.000000
-0.000470 -0.001227 -0.000004 0.000000
0.000422 -0.002036 0.000291 0.000000
0.000483 -0.002064 0.000646 0.000000
0.000385 -0.000608 -0.000093 0.000000
0.000769 -0.002972 0.000572 0.000000
0.000254 -0.001842 0.000773 0.000000
-0.000306 -0.001523 0.000158 0.000000
0.000348 -0.000614 -0.000457 0.000000
0.000704 -0.002338 0.000570 0.000000
0.000403 -0.000665 -0.000305 0.000000
0.000664 -0.002667 -0.000843 0.000000
0.000561 -0.002738 -0.000764 0.000000
0.000549 -0.002641 -0.000746 0.000000
0.000546 -0.002130 -0.001691 0.000000
0.000574 -0.002501 -0.001069 0.000000
0.000614 -0.002621 -0.000959 0.000000
0.000261 -0.002181 -0.000287 0.000000
0.000318 -0.000529 -0.000055 0.000000
0.000317 -0.000530 -0.000144 0.000000
0.000630 -0.002662 -0.000910 0.000000
0.000705 -0.002737 -0.000873 0.000000
-0.000034 -0.001884 -0.000655 0.000000
-0.000279 -0.001525 0.000052 0.000000
0.000504 -0.002753 -0.001369 0.000000
0.000331 -0.002383 -0.000807 0.000000
-0.000156 -0.001617 -0.000500 0.000000
-0.000101 -0.001964 -0.000358 0.000000
0.000159 -0.000430 0.000024 0.000000
-0.000210 -0.001162 -0.001272 0.000000
-0.000130 -0.001728 -0.000199 0.000000
-0.000405 -0.001527 0.000182 0.000000
0.000095 -0.002255 -0.000993 0.000000
0.000609 -0.002780 -0.000677 0.000000
-0.000146 -0.001986 -0.000507 0.000000
0.000111 -0.001869 -0.000983 0.000000
0.000164 -0.000422 -0.000104 0.000000
0.000279 -0.000489 -0.000122 0.000000
0.000106 -0.000369 -0.000050 0.000000
0.000291 -0.000499 -0.000162 0.000000
0.000166 -0.000381 -0.000091 0.000000
0.000061 -0.000315 0.000024 0.000000
0.000155 -0.000336 0.000033 0.000000
0.000173 -0.001618 -0.001443 0.000000
-0.000640 -0.000942 -0.000067 0.000000
-0.000336 -0.001379 -0.000191 0.000000
-0.000538 -0.001422 -0.000327 0.000000
-0.000138 -0.001254 0.001796 0.000000
-0.000409 -0.001411 0.000552 0.000000
0.000260 -0.000475 0.000013 0.000000
0.000260 -0.000516 0.000021 0.000000
-0.000509 -0.000843 0.001354 0.000000
0.000554 -0.002346 0.001571 0.000000
0.000320 -0.000583 0.000112 0.000000
-0.000180 -0.001798 0.000932 0.000000
0.000135 -0.002181 0.001380 0.000000
0.000364 -0.000633 -0.000025 0.000000
0.000352 -0.002367 0.001441 0.000000
-0.000330 -0.001700 -0.000189 0.000000
0.000050 -0.001963 0.001088 0.000000
-0.000329 -0.001421 0.000381 0.000000
-0.000310 -0.001625 0.000622 0.000000
-0.000266 -0.001764 -0.000033 0.000000
-0.000327 -0.001614 0.000315 0.000000
-0.000079 -0.001845 0.000337 0.000000
-0.000274 -0.001589 0.000392 0.000000
-0.000174 -0.001670 0.000155 0.000000
-0.000006 -0.001769 0.000569 0.000000
-0.000142 -0.001947 0.000017 0.000000
-0.000138 -0.001754 0.000754 0.000000
0.000203 -0.001966 0.000575 0.000000
-0.000143 -0.001685 0.000474 0.000000
0.000203 -0.001844 0.000595 0.000000
0.000127 -0.002079 0.001099 0.000000
0.000173 -0.001906 0.000818 0.000000
-0.000136 -0.001744 0.000746 0.000000
0.000463 -0.002106 0.001037 0.000000
0.000020 -0.001748 0.000936 0.000000
0.000903 -0.002457 0.000880 0.000000
0.000237 -0.001950 0.001199 0.000000
-0.000252 -0.001678 -0.000274 0.000000
-0.000060 -0.001723 0.000184 0.000000
-0.000458 -0.001170 0.000032 0.000000
-0.000243 -0.001376 0.000140 0.000000
0.000079 -0.001751 0.000500 0.000000
0.000259 -0.002013 0.000516 0.000000
-0.000197 -0.001545 0.000119 0.000000
-0.000062 -0.001620 0.000153 0.000000
-0.000340 -0.001185 0.000184 0.000000
-0.000369 -0.001371 0.000024 0.000000
-0.000501 -0.001243 -0.000198 0.000000
-0.000484 -0.001370 -0.000531 0.000000
-0.000486 -0.001242 -0.000145 0.000000
-0.000302 -0.001447 -0.000037 0.000000
-0.000476 -0.001333 -0.000210 0.000000
-0.000113 -0.001358 -0.000948 0.000000
-0.000511 -0.001254 -0.000170 0.000000
-0.000492 -0.001352 -0.000126 0.000000
-0.000494 -0.001253 -0.000183 0.000000
-0.000094 -0.001922 0.000697 0.000000
-0.000050 -0.001736 -0.000117 0.000000
0.000342 -0.000619 0.000452 0.000000
0.000123 -0.002212 -0.000577 0.000000
-0.000436 -0.001350 -0.000194 0.000000
0.000493 -0.002165 -0.000878 0.000000
0.000366 -0.000541 0.000358 0.000000
-0.000433 -0.001336 -0.000219 0.000000
-0.000260 -0.001526 -0.000304 0.000000
-0.000509 -0.001292 -0.000333 0.000000
-0.000363 -0.001377 -0.000468 0.000000
-0.000471 -0.001385 -0.000320 0.000000
-0.000478 -0.001338 -0.000203 0.000000
-0.000520 -0.001188 -0.000347 0.000000
-0.000528 -0.001280 -0.000213 0.000000
-0.000505 -0.001235 -0.000123 0.000000
-0.000489 -0.001280 -0.000089 0.000000
-0.000516 -0.001276 -0.000240 0.000000
-0.000441 -0.001332 0.000039 0.000000
-0.000544 -0.001087 -0.000270 0.000000
-0.000520 -0.001267 -0.000093 0.000000
-0.000345 -0.001580 0.000235 0.000000
-0.000441 -0.001392 0.000029 0.000000
0.000339 -0.000566 0.000141 0.000000
-0.000083 -0.001506 -0.001186 0.000000
0.000302 -0.000566 0.000134 0.000000
0.000373 -0.000661 0.000151 0.000000
0.000265 -0.000485 0.000243 0.000000
0.000356 -0.000536 -0.000014 0.000000
0.000301 -0.000571 0.000066 0.000000
-0.000531 -0.001499 -0.000998 0.000000
0.000170 -0.001944 0.001655 0.000000
-0.000460 -0.001254 0.000646 0.000000
0.000392 -0.000682 0.000185 0.000000
0.000220 -0.000454 0.000058 0.000000
-0.000376 -0.001277 -0.000018 0.000000
-0.000472 -0.001247 0.000644 0.000000
-0.000111 -0.001815 0.001749 0.000000
-0.000448 -0.000971 0.000432 0.000000
-0.000507 -0.001419 0.001224 0.000000
-0.000838 -0.000533 0.001218 0.000000
0.000315 -0.000524 0.000062 0.000000
0.000140 -0.000401 0.000041 0.000000
0.000256 -0.000472 0.000020 0.000000
0.000202 -0.000430 -0.000011 0.000000
0.000277 -0.000524 0.000094 0.000000
0.000261 -0.000514 0.000056 0.000000
0.000308 -0.000535 0.000089 0.000000
0.000392 -0.000581 0.000161 0.000000
0.000142 -0.000354 -0.000065 0.000000
0.000190 -0.000461 0.000046 0.000000
0.000272 -0.000504 0.000023 0.000000
0.000241 -0.000482 0.000036 0.000000
-0.000912 -0.000960 0.000345 0.000000
-0.000673 -0.000928 0.000772 0.000000
0.000032 -0.000317 0.000085 0.000000
0.000159 -0.000433 0.000045 0.000000
-0.000824 -0.001168 0.000121 0.000000
0.000039 -0.000298 0.000037 0.000000
-0.000641 -0.001336 -0.000418 0.000000
0.000158 -0.000379 0.000008 0.000000
0.000122 -0.000427 0.000162 0.000000
0.000248 -0.000494 0.000174 0.000000
0.000201 -0.000428 0.000001 0.000000
0.000116 -0.000365 0.000020 0.000000
0.000302 -0.000567 0.000125 0.000000
0.000252 -0.000486 0.000025 0.000000
0.000530 -0.000694 0.000198 0.000000
-0.000667 -0.000744 -0.000459 0.000000
-0.000780 -0.001146 0.000336 0.000000
-0.000479 -0.001260 -0.000059 0.000000
0.000286 -0.000514 0.000062 0.000000
0.000364 -0.000564 0.000157 0.000000
0.000406 -0.000697 0.000203 0.000000
-0.000665 -0.001102 -0.000176 0.000000
-0.000525 -0.001286 0.000047 0.000000
-0.000430 -0.001363 0.000109 0.000000
-0.000460 -0.001287 0.000079 0.000000
-0.000405 -0.001421 0.000057 0.000000
-0.000430 -0.001364 0.000038 0.000000
-0.000416 -0.001408 0.000093 0.000000
-0.000385 -0.001487 0.000140 0.000000
-0.000367 -0.001471 0.000104 0.000000
-0.000415 -0.001457 0.000153 0.000000
-0.000407 -0.001432 0.000119 0.000000
-0.000439 -0.001314 0.000557 0.000000
-0.000527 -0.001147 0.000120 0.000000
-0.000364 -0.001522 0.000165 0.000000
-0.000415 -0.001397 0.000099 0.000000
0.000335 -0.000628 0.000036 0.000000
0.000316 -0.000533 0.000098 0.000000
-0.000434 -0.001129 0.001214 0.000000
-0.000598 -0.000873 0.000783 0.000000
-0.000389 -0.001700 0.000661 0.000000
-0.000438 -0.001428 0.000306 0.000000
-0.000389 -0.001510 0.000295 0.000000
-0.000378 -0.001517 0.000307 0.000000
-0.000421 -0.001564 0.000530 0.000000
-0.000391 -0.001576 0.000046 0.000000
-0.000368 -0.001499 0.000092 0.000000
-0.000380 -0.001570 0.000200 0.000000
-0.000378 -0.001705 0.001187 0.000000
-0.000420 -0.001685 0.000473 0.000000
-0.000374 -0.001568 0.000208 0.000000
-0.000386 -0.001683 0.000280 0.000000
-0.000341 -0.001775 0.000467 0.000000
-0.000357 -0.001726 0.000322 0.000000
-0.000385 -0.001635 0.000372 0.000000
-0.000376 -0.001682 0.000296 0.000000
0.000553 -0.000775 0.000342 0.000000
0.000363 -0.002723 0.000571 0.000000
-0.000377 -0.001752 0.000476 0.000000
-0.000239 -0.001390 0.001689 0.000000
0.000658 -0.000785 0.000307 0.000000
0.000372 -0.000562 0.000139 0.000000
-0.000389 -0.001692 0.000669 0.000000
0.000698 -0.001016 0.000208 0.000000
-0.000383 -0.001540 0.000590 0.000000
-0.000199 -0.002151 0.001686 0.000000
-0.000304 -0.001829 -0.000076 0.000000
0.000113 -0.002341 -0.000368 0.000000
0.000291 -0.002702 -0.000312 0.000000
0.000778 -0.003141 -0.000134 0.000000
0.000662 -0.002742 -0.000407 0.000000
0.000005 -0.002255 -0.000120 0.000000
0.000569 -0.002897 0.000659 0.000000
0.000329 -0.002601 -0.000059 0.000000
-0.000230 -0.002007 0.000086 0.000000
-0.000150 -0.002070 -0.000041 0.000000
0.000123 -0.002224 -0.000400 0.000000
-0.000329 -0.001918 -0.000176 0.000000
-0.000379 -0.001843 0.000011 0.000000
-0.000244 -0.002031 -0.000029 0.000000
-0.000134 -0.001926 -0.000421 0.000000
-0.000183 -0.002140 -0.000173 0.000000
-0.000344 -0.001676 0.000086 0.000000
-0.000093 -0.002054 0.000569 0.000000
-0.000258 -0.001725 -0.000777 0.000000
-0.000649 -0.000577 -0.000552 0.000000
0.000390 -0.000608 -0.000001 0.000000
0.000384 -0.002708 0.000298 0.000000
0.000386 -0.000707 0.000121 0.000000
0.000235 -0.000517 0.000056 0.000000
0.000142 -0.000387 0.000027 0.000000
0.000319 -0.000529 0.000031 0.000000
0.000150 -0.000393 0.000087 0.000000
0.000249 -0.000495 0.000174 0.000000
-0.000457 -0.001544 0.000295 0.000000
-0.000197 -0.001755 0.000764 0.000000
-0.000533 -0.000936 -0.001062 0.000000
0.000317 -0.000640 0.000130 0.000000
0.000139 -0.000400 0.000013 0.000000
0.000181 -0.000398 0.000030 0.000000
0.000124 -0.000359 -0.000044 0.000000
0.000234 -0.002529 0.000613 0.000000
-0.000123 -0.002083 -0.000231 0.000000
0.000193 -0.002168 0.000736 0.000000
0.000141 -0.002335 0.000519 0.000000
-0.000328 -0.001874 0.000048 0.000000
-0.000291 -0.001642 0.000267 0.000000
-0.000107 -0.002068 0.000426 0.000000
0.000105 -0.002380 -0.001151 0.000000
0.000513 -0.002831 -0.001382 0.000000
-0.000116 -0.002160 -0.001296 0.000000
0.000071 -0.002152 0.000037 0.000000
-0.000069 -0.002526 -0.000813 0.000000
0.000019 -0.002243 0.000054 0.000000
0.000107 -0.000376 -0.000188 0.000000
-0.000007 -0.002298 -0.000112 0.000000
0.000511 -0.002829 -0.001478 0.000000
0.000486 -0.002869 -0.001316 0.000000
0.000459 -0.002907 -0.001346 0.000000
0.000309 -0.002580 -0.001497 0.000000
0.000228 -0.002627 -0.001112 0.000000
-0.000132 -0.002064 -0.000073 0.000000
0.000045 -0.002775 -0.000781 0.000000
0.000486 -0.002941 -0.001484 0.000000
0.000202 -0.000553 -0.000250 0.000000
-0.000147 -0.002198 0.000886 0.000000
0.000101 -0.002431 0.000699 0.000000
0.000318 -0.000556 -0.000239 0.000000
0.000459 -0.000762 -0.000370 0.000000
0.000474 -0.002757 -0.001490 0.000000
0.000541 -0.000724 -0.000498 0.000000
0.000515 -0.002934 -0.001377 0.000000
0.000791 -0.001141 -0.000386 0.000000
0.000308 -0.002841 -0.001581 0.000000
0.000772 -0.000915 -0.000363 0.000000
0.000608 -0.000799 -0.000567 0.000000
-0.000309 -0.001956 0.000161 0.000000
-0.000075 -0.002116 -0.000201 0.000000
0.000203 -0.000429 -0.000207 0.000000
0.000066 -0.000417 -0.000035 0.000000
0.000223 -0.000563 -0.000122 0.000000
0.000438 -0.000663 -0.000450 0.000000
0.000197 -0.000482 -0.000126 0.000000
0.000319 -0.000571 -0.000186 0.000000
0.000336 -0.000571 -0.000092 0.000000
0.000284 -0.000578 -0.000141 0.000000
0.000380 -0.000725 -0.000151 0.000000
0.000555 -0.000911 -0.000358 0.000000
-0.000568 -0.001015 -0.000276 0.000000
-0.000389 -0.001232 -0.001162 0.000000
0.000683 -0.001027 -0.000163 0.000000
0.000108 -0.002314 0.000405 0.000000
-0.000359 -0.001829 0.000322 0.000000
-0.000148 -0.002000 0.000167 0.000000
0.000162 -0.002308 0.000189 0.000000
-0.000224 -0.001979 0.000181 0.000000
-0.000058 -0.002193 -0.000193 0.000000
-0.000039 -0.002159 -0.000037 0.000000
-0.000019 -0.002149 0.000154 0.000000
0.000034 -0.002121 0.000179 0.000000
-0.000094 -0.001961 0.000564 0.000000
-0.000093 -0.002077 0.000334 0.000000
-0.000396 -0.001634 0.000214 0.000000
-0.000229 -0.001894 0.000279 0.000000
-0.000085 -0.002100 0.000151 0.000000
-0.000262 -0.001930 0.000183 0.000000
-0.000109 -0.001986 0.000429 0.000000
-0.000201 -0.001964 0.000212 0.000000
-0.000308 -0.001878 0.000271 0.000000
-0.000084 -0.002014 0.000262 0.000000
-0.000224 -0.001947 0.000219 0.000000
-0.000192 -0.002079 0.000066 0.000000
-0.000200 -0.002001 0.000117 0.000000
-0.000206 -0.002122 -0.000022 0.000000
-0.000147 -0.002214 -0.000012 0.000000
-0.000151 -0.002091 0.000065 0.000000
-0.000095 -0.002292 -0.000081 0.000000
0.000000 -0.002295 -0.000068 0.000000
-0.000217 -0.002020 0.000265 0.000000
-0.000207 -0.001996 0.000220 0.000000
-0.000147 -0.002095 0.000293 0.000000
0.000000 -0.002280 0.000279 0.000000
-0.000039 -0.002088 0.000251 0.000000
-0.000125 -0.001974 0.000088 0.000000
-0.000137 -0.002002 0.000256 0.000000
-0.000219 -0.001959 0.000167 0.000000
0.000588 -0.000839 -0.000349 0.000000
-0.000135 -0.001907 -0.000105 0.000000
-0.000224 -0.002252 0.000644 0.000000
-0.000208 -0.002005 0.000410 0.000000
0.000157 -0.000494 -0.000201 0.000000
0.000155 -0.000461 -0.000182 0.000000
0.000437 -0.000666 -0.000044 0.000000
0.000565 -0.000840 -0.000356 0.000000
0.000395 -0.000633 -0.000131 0.000000
0.000221 -0.000577 -0.000095 0.000000
0.000218 -0.002994 -0.000371 0.000000
-0.000037 -0.002489 0.000981 0.000000
0.000346 -0.003158 -0.000092 0.000000
0.000563 -0.000858 -0.000369 0.000000
0.000440 -0.003103 0.000233 0.000000
0.000408 -0.002512 0.001274 0.000000
-0.000218 -0.002014 0.000292 0.000000
-0.000137 -0.002107 0.000529 0.000000
0.000437 -0.003140 -0.000008 0.000000
0.000375 -0.002916 0.000177 0.000000
-0.000192 -0.002125 0.000458 0.000000
-0.000117 -0.002263 0.000623 0.000000
0.000237 -0.002678 -0.000721 0.000000
0.000375 -0.003163 0.000069 0.000000
0.000344 -0.002871 -0.000254 0.000000
-0.000000 -0.002918 0.000018 0.000000
0.000000 -0.002912 0.000371 0.000000
0.000000 -0.002572 0.000804 0.000000
0.000448 -0.002766 0.000910 0.000000
-0.000082 -0.002251 0.000665 0.000000
-0.000144 -0.002157 0.000494 0.000000
-0.000141 -0.002303 0.000562 0.000000
-0.000207 -0.002113 0.000227 0.000000
-0.000182 -0.002150 0.000106 0.000000
-0.000211 -0.002008 0.000287 0.000000
-0.000203 -0.002046 0.000357 0.000000
-0.000148 -0.002283 0.000374 0.000000
-0.000000 -0.002301 0.000135 0.000000
-0.000100 -0.002321 0.000045 0.000000
-0.000000 -0.002389 -0.000028 0.000000
0.000004 -0.002347 -0.000043 0.000000
-0.000049 -0.002258 0.000009 0.000000
-0.000128 -0.002119 0.000191 0.000000
-0.000128 -0.002289 0.000193 0.000000
0.000000 -0.002343 0.000025 0.000000
0.000000 -0.002406 -0.000023 0.000000
0.000121 -0.002416 -0.000010 0.000000
0.000141 -0.002309 0.000266 0.000000
0.000141 -0.002481 0.000180 0.000000
0.000226 -0.002443 0.000065 0.000000
0.000000 -0.002277 0.000400 0.000000
0.000245 -0.002387 0.000414 0.000000
0.000115 -0.002275 0.000335 0.000000
0.000053 -0.002284 0.000531 0.000000
0.000059 -0.002392 0.000035 0.000000
-0.000000 -0.002342 0.000130 0.000000
0.000084 -0.002423 0.000023 0.000000
0.000081 -0.002360 0.000116 0.000000
0.000003 -0.002335 -0.000157 0.000000
0.000264 -0.002494 -0.000100 0.000000
0.000153 -0.002494 -0.000342 0.000000
0.000262 -0.002577 -0.000160 0.000000
-0.000292 -0.001993 -0.000106 0.000000
-0.000242 -0.001941 0.000003 0.000000
0.000759 -0.002914 -0.000221 0.000000
0.000341 -0.002607 -0.000154 0.000000
0.000444 -0.002643 -0.000107 0.000000
-0.000178 -0.002012 0.000522 0.000000
0.000566 -0.002788 0.000669 0.000000
0.000599 -0.002665 0.000424 0.000000
0.000115 -0.002388 0.000347 0.000000
0.000403 -0.002598 0.000064 0.000000
0.000362 -0.002454 0.000343 0.000000
0.000000 -0.002290 0.000571 0.000000
0.000462 -0.002772 0.000703 0.000000
0.000654 -0.002883 0.000588 0.000000
0.000060 -0.002200 0.000883 0.000000
0.000257 -0.002527 0.000481 0.000000
-0.000122 -0.002084 0.000847 0.000000
0.000054 -0.002283 0.000741 0.000000
0.000054 -0.002266 0.000736 0.000000
0.000402 -0.002608 0.000984 0.000000
-0.000156 -0.002188 0.000983 0.000000
0.000061 -0.002346 0.000860 0.000000
-0.000414 -0.001844 0.000662 0.000000
-0.000373 -0.001814 0.000192 0.000000
-0.000404 -0.001664 0.000313 0.000000
-0.000355 -0.001853 0.000370 0.000000
-0.000212 -0.002006 0.000628 0.000000
-0.000214 -0.002061 0.000651 0.000000
-0.000345 -0.001922 0.000560 0.000000
-0.000016 -0.002251 0.000626 0.000000
-0.000280 -0.001863 0.000402 0.000000
-0.000182 -0.002135 0.000592 0.000000
0.000000 -0.002276 0.000560 0.000000
-0.000281 -0.002019 0.000454 0.000000
-0.000010 -0.002283 0.000577 0.000000
-0.000314 -0.001950 0.000245 0.000000
0.000158 -0.002346 0.000599 0.000000
0.000249 -0.002448 0.000641 0.000000
-0.000015 -0.002185 0.000604 0.000000
0.000102 -0.002386 0.000497 0.000000
0.000100 -0.002277 0.000455 0.000000
-0.000000 -0.002278 0.000510 0.000000
-0.000009 -0.002218 0.000560 0.000000
0.000053 -0.002304 0.000584 0.000000
-0.000104 -0.002245 0.000549 0.000000
-0.000000 -0.002160 0.000235 0.000000
-0.000221 -0.002157 0.000118 0.000000
0.000000 -0.002155 -0.000012 0.000000
0.000000 -0.002234 -0.000259 0.000000
-0.000187 -0.002188 0.000387 0.000000
-0.000221 -0.001910 0.000123 0.000000
-0.000225 -0.001916 -0.000097 0.000000
-0.000222 -0.002191 -0.000196 0.000000
0.000015 -0.002316 -0.000436 0.000000
0.000095 -0.002562 0.000255 0.000000
0.000245 -0.002564 -0.000046 0.000000
0.000236 -0.002444 -0.000476 0.000000
0.000026 -0.002367 -0.000340 0.000000
0.000000 -0.002367 -0.000358 0.000000
0.000131 -0.002405 -0.000369 0.000000
0.000071 -0.002540 -0.000021 0.000000
0.000129 -0.002605 -0.000183 0.000000
0.000000 -0.002591 0.000172 0.000000
0.000009 -0.002459 -0.000057 0.000000
0.000000 -0.002356 0.000679 0.000000
-0.000089 -0.002135 0.000969 0.000000
0.001002 -0.003149 -0.000473 0.000000
0.000078 -0.002647 -0.000177 0.000000
-0.000268 -0.002057 0.000320 0.000000
-0.000353 -0.001873 -0.000333 0.000000
-0.000013 -0.002375 0.000198 0.000000
0.000064 -0.002466 0.000333 0.000000
-0.000039 -0.002484 0.000019 0.000000
0.000078 -0.002492 -0.000223 0.000000
0.000217 -0.002560 -0.000037 0.000000
0.000237 -0.002861 -0.000045 0.000000
0.000097 -0.002508 0.000278 0.000000
0.000183 -0.002566 0.000124 0.000000
0.000456 -0.003149 -0.000193 0.000000
0.000501 -0.002669 -0.000525 0.000000
-0.000182 -0.001487 0.001701 0.000000
0.000536 -0.000889 -0.000319 0.000000
-0.000544 -0.001888 0.000345 0.000000
-0.000489 -0.001672 -0.000202 0.000000
0.000406 -0.000693 0.000085 0.000000
0.000481 -0.000807 -0.000218 0.000000
-0.000467 -0.001788 0.000037 0.000000
-0.000660 -0.001547 0.000366 0.000000
0.000160 -0.000406 0.000022 0.000000
-0.000336 -0.001869 -0.000268 0.000000
0.000070 -0.000341 0.000103 0.000000
0.000091 -0.002525 0.000319 0.000000
-0.000353 -0.001773 -0.000168 0.000000
0.000214 -0.002673 0.000095 0.000000
0.000060 -0.000309 -0.000003 0.000000
0.000220 -0.001941 -0.001534 0.000000
0.000279 -0.002690 -0.000247 0.000000
0.000130 -0.002578 -0.000946 0.000000
0.000173 -0.002593 0.000181 0.000000
0.000471 -0.002540 -0.000595 0.000000
-0.000338 -0.001938 0.000007 0.000000
-0.000103 -0.002133 -0.000274 0.000000
-0.000271 -0.001800 -0.000647 0.000000
-0.000342 -0.002004 -0.000321 0.000000
-0.000391 -0.001736 0.000284 0.000000
-0.000314 -0.001800 0.000251 0.000000
-0.000394 -0.001705 0.000112 0.000000
-0.000341 -0.001762 0.000073 0.000000
-0.000321 -0.001659 -0.000382 0.000000
-0.000376 -0.001824 -0.000039 0.000000
-0.000384 -0.001639 0.000181 0.000000
-0.000375 -0.001601 0.000176 0.000000
-0.000401 -0.001455 -0.000258 0.000000
-0.000405 -0.001716 -0.000191 0.000000
0.000195 -0.000407 0.000112 0.000000
-0.000062 -0.001513 -0.001318 0.000000
0.000067 -0.000350 -0.000022 0.000000
0.000192 -0.000510 0.000202 0.000000
0.000059 -0.000365 -0.000059 0.000000
0.000089 -0.000406 0.000164 0.000000
-0.000237 -0.001151 0.001787 0.000000
0.000132 -0.000384 0.000082 0.000000
-0.000588 -0.001415 -0.000216 0.000000
-0.000375 -0.001552 0.000134 0.000000
-0.000573 -0.001248 0.000080 0.000000
-0.000357 -0.001054 -0.001117 0.000000
-0.000397 -0.001434 -0.000123 0.000000
-0.000357 -0.001514 0.000107 0.000000
-0.000389 -0.001393 0.000302 0.000000
-0.000423 -0.001519 0.000089 0.000000
-0.000423 -0.001488 0.000133 0.000000
-0.000368 -0.001477 0.000148 0.000000
0.000177 -0.000370 -0.000009 0.000000
0.000178 -0.000472 -0.000027 0.000000
0.000072 -0.000325 0.000083 0.000000
0.000179 -0.000428 0.000140 0.000000
0.000159 -0.000406 0.000108 0.000000
0.000240 -0.000466 0.000049 0.000000
0.000025 -0.000307 0.000112 0.000000
0.000114 -0.000355 0.000124 0.000000
0.000079 -0.000331 0.000081 0.000000
0.000089 -0.000359 0.000009 0.000000
0.000057 -0.000315 0.000053 0.000000
0.000129 -0.000351 0.000062 0.000000
0.000131 -0.000433 0.000150 0.000000
0.000095 -0.000363 0.000104 0.000000
0.000052 -0.000317 0.000075 0.000000
0.000398 -0.000651 0.000245 0.000000
0.000278 -0.000506 0.000136 0.000000
0.000161 -0.000398 0.000101 0.000000
0.000248 -0.000445 0.000107 0.000000
0.000258 -0.000517 0.000189 0.000000
0.000296 -0.000528 0.000296 0.000000
0.000424 -0.000637 0.000045 0.000000
0.000425 -0.000699 0.000138 0.000000
-0.000252 -0.001478 -0.000273 0.000000
0.000236 -0.000498 0.000158 0.000000
0.000385 -0.000725 0.000153 0.000000
0.000462 -0.000671 -0.000087 0.000000
0.000214 -0.002077 -0.001157 0.000000
0.000368 -0.000583 0.000170 0.000000
0.000504 -0.000694 -0.000080 0.000000
0.000459 -0.000750 -0.000176 0.000000
-0.000668 -0.000887 0.000417 0.000000
0.000105 -0.000320 0.000161 0.000000
0.000118 -0.000336 0.000100 0.000000
0.000107 -0.000381 0.000184 0.000000
0.000204 -0.000461 0.000225 0.000000
0.000098 -0.000339 0.000063 0.000000
0.000055 -0.000311 0.000045 0.000000
0.000052 -0.000295 0.000081 0.000000
0.000041 -0.000303 0.000073 0.000000
0.000060 -0.000319 0.000137 0.000000
0.000067 -0.000332 0.000111 0.000000
0.000312 -0.000594 0.000269 0.000000
0.000246 -0.000518 0.000187 0.000000
-0.000488 -0.001450 0.000031 0.000000
-0.000505 -0.001315 -0.000199 0.000000
-0.000730 -0.000745 0.000032 0.000000
-0.000711 -0.001326 -0.000104 0.000000
-0.000124 -0.001911 -0.000748 0.000000
0.000140 -0.002213 -0.000903 0.000000
0.000284 -0.000544 0.000003 0.000000
0.000106 -0.002479 -0.000731 0.000000
0.000800 -0.003256 -0.000151 0.000000
0.000387 -0.000669 0.000158 0.000000
0.000240 -0.000497 -0.000037 0.000000
-0.000160 -0.002137 -0.000828 0.000000
0.000338 -0.000606 0.000078 0.000000
0.000280 -0.000538 0.000066 0.000000
-0.000031 -0.001655 -0.001335 0.000000
-0.000425 -0.001637 -0.000365 0.000000
0.000183 -0.000423 -0.000104 0.000000
0.000246 -0.000579 -0.000249 0.000000
-0.000572 -0.001314 -0.000811 0.000000
-0.000734 -0.001258 -0.000493 0.000000
-0.000470 -0.001741 -0.000750 0.000000
0.000121 -0.000364 -0.000052 0.000000
-0.000553 -0.001086 -0.000666 0.000000
-0.000442 -0.001043 -0.000979 0.000000
-0.000773 -0.001033 0.000012 0.000000
-0.000137 -0.001649 -0.000270 0.000000
0.000196 -0.000438 0.000102 0.000000
0.000536 -0.000861 0.000211 0.000000
0.000261 -0.000468 0.000031 0.000000
0.000160 -0.000387 0.000019 0.000000
0.000132 -0.000350 -0.000221 0.000000
0.000201 -0.000468 -0.000027 0.000000
0.000252 -0.000504 0.000027 0.000000
0.000389 -0.000617 0.000125 0.000000
0.000290 -0.000526 0.000132 0.000000
0.000304 -0.000547 0.000112 0.000000
0.000292 -0.000516 -0.000130 0.000000
0.000412 -0.000631 0.000141 0.000000
-0.000223 -0.002035 0.001246 0.000000
0.000290 -0.000622 -0.000273 0.000000
0.000140 -0.000454 -0.000156 0.000000
0.000156 -0.000434 -0.000004 0.000000
-0.000643 -0.001327 0.000989 0.000000
-0.000706 -0.000946 0.001422 0.000000
-0.000444 -0.001310 0.001575 0.000000
-0.000286 -0.001785 0.000853 0.000000
-0.000688 -0.001519 0.001126 0.000000
-0.000539 -0.001567 0.000839 0.000000
-0.000178 -0.001600 0.001578 0.000000
-0.000503 -0.001642 0.000694 0.000000
-0.000714 -0.001298 0.000309 0.000000
0.000033 -0.002449 0.001357 0.000000
-0.000447 -0.001688 0.001252 0.000000
-0.000292 -0.001906 0.000699 0.000000
-0.000631 -0.001398 0.000810 0.000000
-0.000504 -0.001467 0.000851 0.000000
0.000476 -0.000777 0.000108 0.000000
0.000749 -0.001042 -0.000679 0.000000
0.000657 -0.000999 0.000138 0.000000
0.000471 -0.000671 -0.000155 0.000000
0.001018 -0.001288 -0.000493 0.000000
0.000550 -0.002984 -0.000535 0.000000
0.000668 -0.000875 -0.000292 0.000000
0.000642 -0.000798 0.000265 0.000000
0.000077 -0.002386 0.001439 0.000000
0.000716 -0.001063 0.000329 0.000000
0.000195 -0.002231 0.001829 0.000000
0.000065 -0.001862 0.001755 0.000000
-0.000315 -0.001861 0.000688 0.000000
-0.000452 -0.001548 0.000528 0.000000
-0.000041 -0.002362 0.001023 0.000000
-0.000224 -0.002124 0.000989 0.000000
-0.000320 -0.001717 0.000470 0.000000
-0.000420 -0.001667 0.000491 0.000000
-0.000041 -0.002158 0.000829 0.000000
-0.000299 -0.002099 0.000773 0.000000
-0.000305 -0.001864 0.000599 0.000000
-0.000411 -0.001666 0.000496 0.000000
0.001181 -0.003174 0.000665 0.000000
0.000241 -0.002578 0.000495 0.000000
0.000407 -0.002497 0.002083 0.000000
0.001070 -0.003233 0.000012 0.000000
0.000755 -0.003002 -0.000390 0.000000
0.000606 -0.003007 -0.000222 0.000000
0.001177 -0.003912 0.000552 0.000000
0.000443 -0.002824 0.001906 0.000000
-0.000154 -0.002196 -0.000531 0.000000
-0.000211 -0.002168 -0.000461 0.000000
0.000100 -0.002552 -0.000624 0.000000
0.000641 -0.002863 -0.000368 0.000000
-0.000504 -0.001658 0.000153 0.000000
-0.000399 -0.001835 -0.000369 0.000000
-0.000212 -0.001978 -0.000593 0.000000
-0.000297 -0.001940 -0.000546 0.000000
-0.000349 -0.002206 0.000553 0.000000
-0.000426 -0.001791 -0.000008 0.000000
-0.000446 -0.001685 -0.000199 0.000000
-0.000456 -0.002037 0.000252 0.000000
0.000062 -0.002341 -0.000505 0.000000
-0.000200 -0.002041 -0.000182 0.000000
0.000356 -0.002553 -0.000625 0.000000
-0.000015 -0.002168 -0.000654 0.000000
0.000416 -0.002856 -0.000534 0.000000
0.000315 -0.002791 0.000060 0.000000
-0.000281 -0.001961 -0.000378 0.000000
-0.000353 -0.001963 -0.000345 0.000000
-0.000277 -0.002130 -0.000360 0.000000
0.000000 -0.002265 0.000025 0.000000
-0.000244 -0.002335 0.000580 0.000000
-0.000370 -0.002041 -0.000093 0.000000
-0.000360 -0.001865 -0.000215 0.000000
-0.000451 -0.001883 -0.000133 0.000000
0.000000 -0.002309 0.000365 0.000000
-0.000260 -0.001990 0.000058 0.000000
-0.000270 -0.002287 0.000227 0.000000
-0.000202 -0.002288 -0.000139 0.000000
0.000000 -0.002328 -0.000268 0.000000
0.000000 -0.002308 -0.000212 0.000000
0.000289 -0.002669 -0.000398 0.000000
-0.000053 -0.002318 -0.000260 0.000000
0.000548 -0.002606 0.000577 0.000000
-0.000016 -0.002333 0.000827 0.000000
0.000000 -0.002312 0.000489 0.000000
0.000134 -0.002448 -0.000335 0.000000
0.000317 -0.002503 -0.000547 0.000000
0.000690 -0.003142 0.000375 0.000000
0.000477 -0.002679 -0.000220 0.000000
0.000224 -0.002341 0.000539 0.000000
0.000000 -0.002273 0.000724 0.000000
-0.000357 -0.001958 0.000432 0.000000
0.000000 -0.002312 -0.000112 0.000000
0.000000 -0.002379 0.000742 0.000000
-0.000193 -0.001963 0.000504 0.000000
-0.000210 -0.002174 0.000423 0.000000
-0.000214 -0.001913 0.000263 0.000000
-0.000000 -0.002151 -0.000002 0.000000
0.000000 -0.002818 0.000511 0.000000
0.000243 -0.000520 0.000210 0.000000
0.000283 -0.000568 0.000241 0.000000
-0.000170 -0.002083 0.001104 0.000000
0.000097 -0.002528 -0.000022 0.000000
-0.000000 -0.002869 0.000196 0.000000
0.000239 -0.002852 0.000339 0.000000
0.000228 -0.002925 0.000559 0.000000
0.000000 -0.002155 0.000239 0.000000
-0.000098 -0.002242 -0.000208 0.000000
-0.000208 -0.002153 0.000149 0.000000
-0.000295 -0.002077 -0.000186 0.000000
-0.000309 -0.001772 0.000069 0.000000
0.000571 -0.002574 -0.000316 0.000000
-0.000145 -0.001990 -0.000115 0.000000
0.000255 -0.000542 0.000387 0.000000
0.000281 -0.000588 0.000174 0.000000
0.000227 -0.000535 0.000423 0.000000
0.000232 -0.000461 0.000373 0.000000
0.000277 -0.000547 0.000243 0.000000
0.000239 -0.000541 0.000340 0.000000
0.000246 -0.000531 0.000178 0.000000
0.000396 -0.000653 0.000093 0.000000
0.000428 -0.003216 0.000290 0.000000
0.000317 -0.003029 0.000784 0.000000
0.000290 -0.003027 0.000820 0.000000
0.000119 -0.002509 0.000920 0.000000
0.000248 -0.000516 0.000219 0.000000
0.000220 -0.003011 0.000661 0.000000
0.000196 -0.002981 0.000662 0.000000
0.000347 -0.000600 0.000043 0.000000
0.000276 -0.000543 0.000151 0.000000
0.000159 -0.000464 0.000156 0.000000
0.000487 -0.000664 0.000203 0.000000
0.000313 -0.000595 0.000180 0.000000
0.000218 -0.000450 -0.000042 0.000000
0.000235 -0.000523 -0.000082 0.000000
-0.000954 -0.001155 0.000903 0.000000
-0.000307 -0.001429 0.001595 0.000000
-0.000698 -0.000877 -0.000348 0.000000
-0.000466 -0.001446 0.000682 0.000000
-0.000263 -0.001835 0.001250 0.000000
0.000153 -0.000459 -0.000119 0.000000
-0.000576 -0.001293 0.000724 0.000000
-0.000597 -0.001533 0.001246 0.000000
-0.000172 -0.002088 0.000967 0.000000
0.000150 -0.000445 -0.000067 0.000000
-0.000547 -0.001443 0.000637 0.000000
-0.000465 -0.001759 0.000924 0.000000
0.000316 -0.002767 0.001404 0.000000
0.000195 -0.000499 -0.000110 0.000000
0.000142 -0.002553 0.001173 0.000000
0.000118 -0.002285 0.001056 0.000000
-0.000064 -0.002433 0.001540 0.000000
0.000386 -0.003245 0.001025 0.000000
-0.000000 -0.002572 0.001314 0.000000
0.000000 -0.002231 0.001230 0.000000
0.000000 -0.001992 0.000915 0.000000
-0.000411 -0.001949 0.000732 0.000000
-0.000463 -0.002018 0.000006 0.000000
-0.000421 -0.001558 0.000636 0.000000
0.000000 -0.002064 0.000002 0.000000
0.000667 -0.000946 -0.000207 0.000000
0.000000 -0.002834 0.000181 0.000000
-0.000537 -0.001586 0.000509 0.000000
0.000292 -0.002306 -0.000667 0.000000
0.000000 -0.003241 0.000969 0.000000
0.000000 -0.003241 0.000969 0.000000
0.000795 -0.001007 -0.000270 0.000000
-0.000206 -0.002156 0.000565 0.000000
0.000616 -0.000962 -0.000160 0.000000
0.000035 -0.002509 0.001565 0.000000
0.000000 -0.002377 0.001024 0.000000
-0.000291 -0.001982 0.000461 0.000000
-0.000215 -0.002140 0.001017 0.000000
0.000521 -0.003052 0.001579 0.000000
0.000532 -0.003032 0.000576 0.000000
-0.000470 -0.001465 0.001100 0.000000
0.000273 -0.002788 0.000875 0.000000
0.000000 -0.002327 0.001583 0.000000
0.000523 -0.002425 0.001498 0.000000
0.000108 -0.002072 0.002062 0.000000
-0.000280 -0.002137 0.000467 0.000000
-0.000232 -0.001674 0.001395 0.000000
-0.000090 -0.002388 0.000517 0.000000
0.000000 -0.002444 0.000656 0.000000
0.000134 -0.002434 0.000555 0.000000
0.000274 -0.002490 0.000747 0.000000
0.000136 -0.002573 0.000619 0.000000
-0.000459 -0.001903 0.000094 0.000000
0.000234 -0.002693 0.000281 0.000000
0.000029 -0.002401 0.000362 0.000000
0.000494 -0.002703 0.000411 0.000000
0.000496 -0.002668 0.000548 0.000000
0.001344 -0.003985 0.003569 0.000000
0.000728 -0.002879 0.001075 0.000000
0.001522 -0.004084 0.001089 0.000000
0.000797 -0.002810 0.002158 0.000000
0.000439 -0.002456 0.003140 0.000000
-0.000023 -0.002035 0.001908 0.000000
0.000030 -0.002171 -0.000231 0.000000
0.000018 -0.002288 0.000396 0.000000
0.001071 -0.003629 0.000873 0.000000
0.000833 -0.003033 0.000765 0.000000
0.001506 -0.003629 0.000853 0.000000
0.000417 -0.002664 0.003283 0.000000
0.000831 -0.001043 0.000171 0.000000
-0.000302 -0.001844 0.001210 0.000000
-0.000501 -0.001998 0.000597 0.000000
-0.000139 -0.002346 0.000133 0.000000
0.000435 -0.000771 0.000406 0.000000
0.000577 -0.000925 0.000590 0.000000
0.000818 -0.001179 -0.000267 0.000000
-0.000252 -0.002289 0.001172 0.000000
-0.000857 -0.001249 0.000224 0.000000
-0.000554 -0.001248 0.000318 0.000000
0.000464 -0.000712 0.000429 0.000000
-0.000547 -0.001682 -0.000355 0.000000
0.000547 -0.000794 0.000360 0.000000
0.000379 -0.000659 0.000269 0.000000
0.000501 -0.000806 0.000252 0.000000
0.000825 -0.001136 0.000123 0.000000
0.000429 -0.000754 0.000261 0.000000
0.000458 -0.000772 0.000390 0.000000
0.000434 -0.000688 0.000401 0.000000
0.000754 -0.002893 -0.000614 0.000000
0.000816 -0.001092 0.000045 0.000000
0.000788 -0.001032 0.000297 0.000000
0.000367 -0.000678 0.000385 0.000000
0.000808 -0.001103 0.000241 0.000000
0.000815 -0.001040 0.000061 0.000000
0.000670 -0.002692 -0.000780 0.000000
0.000771 -0.001009 0.000271 0.000000
0.000693 -0.000988 -0.000155 0.000000
0.000767 -0.002898 -0.001165 0.000000
-0.000324 -0.002101 -0.000694 0.000000
0.000710 -0.000957 -0.000108 0.000000
0.000755 -0.001098 -0.000072 0.000000
0.000175 -0.002821 -0.001430 0.000000
0.000141 -0.001698 -0.001686 0.000000
0.000947 -0.003099 0.000062 0.000000
0.000226 -0.000516 0.000363 0.000000
0.001215 -0.003309 0.000443 0.000000
0.000237 -0.000447 0.000483 0.000000
0.000588 -0.000977 0.000626 0.000000
0.000521 -0.000856 0.000967 0.000000
0.000724 -0.000877 0.000288 0.000000
0.000728 -0.001048 0.000299 0.000000
0.000588 -0.000772 0.000205 0.000000
0.000445 -0.000772 0.000548 0.000000
0.000478 -0.000765 0.000204 0.000000
0.000587 -0.000877 0.000216 0.000000
0.000157 -0.000418 0.000210 0.000000
0.000259 -0.000557 0.000515 0.000000
0.000823 -0.002933 -0.000101 0.000000
0.000808 -0.003081 -0.000000 0.000000
0.000599 -0.000775 0.000529 0.000000
0.000379 -0.000567 0.000604 0.000000
0.000187 -0.000469 0.000187 0.000000
0.000299 -0.000607 0.000507 0.000000
0.000169 -0.000416 0.000332 0.000000
0.000161 -0.000444 0.000362 0.000000
0.000376 -0.000643 0.000268 0.000000
0.000315 -0.000515 0.000427 0.000000
0.000533 -0.000845 0.000391 0.000000
-0.000099 -0.001912 0.001971 0.000000
0.000477 -0.000651 0.000210 0.000000
0.000493 -0.000774 0.000139 0.000000
0.000285 -0.000514 0.000057 0.000000
0.000286 -0.000478 -0.000001 0.000000
0.000242 -0.000464 0.000149 0.000000
0.000253 -0.000517 0.000333 0.000000
0.000337 -0.000611 0.000380 0.000000
0.000376 -0.000581 0.000233 0.000000
0.000224 -0.000505 0.000253 0.000000
0.000437 -0.000710 0.000570 0.000000
0.000239 -0.000480 0.000222 0.000000
0.000260 -0.000522 0.000175 0.000000
0.000698 -0.002680 -0.000945 0.000000
0.000582 -0.002755 -0.000945 0.000000
0.000254 -0.000459 -0.000002 0.000000
0.000604 -0.002823 -0.000550 0.000000
-0.000103 -0.001883 0.001189 0.000000
0.000766 -0.001027 0.000291 0.000000
0.000622 -0.003128 -0.001053 0.000000
0.000747 -0.003095 -0.001257 0.000000
0.000848 -0.002577 -0.001756 0.000000
0.000168 -0.002190 -0.000312 0.000000
0.000509 -0.002373 0.000009 0.000000
0.000922 -0.002815 -0.000245 0.000000
0.000618 -0.002557 -0.000847 0.000000
0.000484 -0.000723 0.000409 0.000000
-0.000339 -0.001585 0.000600 0.000000
0.000019 -0.001640 0.000175 0.000000
-0.000068 -0.002056 0.000615 0.000000
-0.000368 -0.001676 0.000763 0.000000
0.000836 -0.002540 -0.000221 0.000000
0.000692 -0.002846 -0.000356 0.000000
0.000500 -0.000734 0.000028 0.000000
0.000541 -0.000803 0.000301 0.000000
0.000267 -0.000554 0.000069 0.000000
0.000560 -0.000788 0.000368 0.000000
-0.000610 -0.001012 0.001457 0.000000
-0.000697 -0.001416 -0.000016 0.000000
-0.000368 -0.001543 0.000963 0.000000
-0.000291 -0.001631 0.000961 0.000000
0.000284 -0.002510 0.001911 0.000000
-0.000526 -0.001559 0.000863 0.000000
-0.000764 -0.000531 -0.000384 0.000000
0.000265 -0.000501 0.000011 0.000000
-0.000997 -0.001137 0.000672 0.000000
-0.000276 -0.002154 0.001707 0.000000
-0.000584 -0.001202 0.000564 0.000000
-0.000670 -0.001187 0.000660 0.000000
-0.000284 -0.001406 0.001796 0.000000
-0.000847 -0.001157 0.000928 0.000000
0.000266 -0.000530 -0.000044 0.000000
0.000301 -0.000530 0.000111 0.000000
0.000026 -0.000309 0.000005 0.000000
0.000340 -0.000606 0.000056 0.000000
0.000346 -0.000594 0.000024 0.000000
0.000386 -0.000634 0.000097 0.000000
0.000147 -0.000382 -0.000134 0.000000
0.000374 -0.000586 0.000109 0.000000
0.000077 -0.000417 0.000234 0.000000
0.000314 -0.000516 0.000171 0.000000
0.000272 -0.000573 0.000208 0.000000
0.000406 -0.000633 0.000066 0.000000
0.000431 -0.000636 0.000132 0.000000
0.000459 -0.000695 0.000024 0.000000
0.000337 -0.000561 0.000085 0.000000
0.000406 -0.000643 0.000085 0.000000
0.000298 -0.000567 0.000053 0.000000
0.000399 -0.000653 0.000068 0.000000
0.000574 -0.000872 0.000623 0.000000
-0.000806 -0.000906 0.000154 0.000000
0.000232 -0.000493 0.000722 0.000000
0.000293 -0.000630 0.000493 0.000000
0.000288 -0.000521 0.000465 0.000000
0.000522 -0.000808 0.001039 0.000000
0.000242 -0.000528 0.000413 0.000000
0.000237 -0.000490 0.000139 0.000000
0.000223 -0.000548 0.000226 0.000000
0.000159 -0.000468 0.000290 0.000000
0.000322 -0.002430 0.001185 0.000000
0.000401 -0.000650 0.000102 0.000000
0.000352 -0.000589 0.000119 0.000000
0.000309 -0.000580 0.000180 0.000000
0.000412 -0.000641 0.000049 0.000000
0.000451 -0.000695 0.000051 0.000000
0.000500 -0.000792 0.000209 0.000000
0.000499 -0.000726 0.000072 0.000000
0.000694 -0.000927 0.000184 0.000000
0.000614 -0.002812 0.000589 0.000000
0.000491 -0.000725 0.000057 0.000000
0.000721 -0.000905 0.000338 0.000000
-0.000411 -0.001857 0.001070 0.000000
0.000064 -0.001962 0.001751 0.000000
0.000471 -0.002609 0.000956 0.000000
0.000492 -0.002812 0.000591 0.000000
0.000470 -0.000699 0.000103 0.000000
0.000459 -0.000694 0.000094 0.000000
-0.000765 -0.000700 0.000992 0.000000
-0.000545 -0.001298 0.000829 0.000000
-0.000398 -0.001624 0.000592 0.000000
-0.000147 -0.001791 0.000880 0.000000
-0.000094 -0.002083 0.000833 0.000000
0.000143 -0.002081 0.000936 0.000000
0.000508 -0.002797 0.000887 0.000000
0.000740 -0.002924 0.000721 0.000000
-0.000221 -0.001704 0.000441 0.000000
0.000114 -0.002080 0.000713 0.000000
0.000565 -0.002747 0.000709 0.000000
0.000663 -0.002810 0.000912 0.000000
-0.000474 -0.001367 -0.000157 0.000000
-0.000422 -0.001655 0.000557 0.000000
-0.000648 -0.001424 0.000088 0.000000
-0.000427 -0.001470 0.000642 0.000000
-0.000201 -0.001923 0.000582 0.000000
0.000121 -0.002206 0.000920 0.000000
0.000357 -0.002310 0.000807 0.000000
0.000097 -0.001971 0.000598 0.000000
0.000127 -0.000328 0.000105 0.000000
0.000238 -0.002086 0.000531 0.000000
0.000308 -0.000492 0.000191 0.000000
0.000344 -0.002239 0.000823 0.000000
0.000514 -0.002451 0.000898 0.000000
0.000367 -0.000583 0.000182 0.000000
0.000627 -0.002649 0.001036 0.000000
0.000396 -0.000588 0.000116 0.000000
0.000375 -0.002387 0.000995 0.000000
0.000582 -0.002536 0.000939 0.000000
0.000632 -0.002716 0.000859 0.000000
0.000688 -0.002818 0.000978 0.000000
0.000909 -0.002752 0.000718 0.000000
0.001250 -0.003212 0.000173 0.000000
0.000717 -0.002695 0.000193 0.000000
0.000725 -0.002999 0.000402 0.000000
0.000481 -0.002665 -0.000049 0.000000
0.000380 -0.000674 -0.000246 0.000000
0.000616 -0.002760 0.000583 0.000000
0.000573 -0.002721 0.000329 0.000000
0.000778 -0.002718 0.000391 0.000000
0.000395 -0.000589 0.000004 0.000000
0.000387 -0.001939 0.001743 0.000000
0.000207 -0.000452 -0.000038 0.000000
0.000204 -0.001602 -0.000732 0.000000
-0.000494 -0.000843 -0.000276 0.000000
0.000483 -0.002601 -0.000025 0.000000
-0.000020 -0.002119 0.001040 0.000000
0.000419 -0.002647 0.001680 0.000000
-0.000129 -0.002028 0.000941 0.000000
-0.000145 -0.001646 0.000865 0.000000
-0.000302 -0.001690 0.000643 0.000000
-0.000522 -0.001299 0.000098 0.000000
-0.000250 -0.001756 0.000442 0.000000
0.000984 -0.003019 0.000601 0.000000
0.000726 -0.002916 0.000666 0.000000
0.000420 -0.002528 0.000106 0.000000
0.000682 -0.002854 -0.000013 0.000000
0.001236 -0.003459 -0.000324 0.000000
0.001037 -0.003297 0.000576 0.000000
0.000703 -0.002996 0.000631 0.000000
0.000707 -0.000958 0.000418 0.000000
0.000658 -0.002803 -0.000182 0.000000
0.000718 -0.002964 0.000163 0.000000
-0.000368 -0.001545 0.000554 0.000000
-0.000354 -0.001732 0.000790 0.000000
-0.000261 -0.001666 0.000539 0.000000
-0.000089 -0.001769 0.000926 0.000000
-0.000437 -0.001418 -0.000031 0.000000
-0.000221 -0.001481 0.000105 0.000000
0.000399 -0.000669 0.000433 0.000000
0.000219 -0.000436 0.000262 0.000000
-0.000184 -0.001750 -0.000126 0.000000
0.000424 -0.000590 0.000601 0.000000
0.000398 -0.000583 0.000428 0.000000
0.000320 -0.000495 0.000440 0.000000
0.000312 -0.000599 0.000504 0.000000
0.000260 -0.000493 0.000211 0.000000
0.000213 -0.000444 0.000111 0.000000
0.000300 -0.000497 0.000194 0.000000
0.000237 -0.000477 0.000213 0.000000
0.000327 -0.000591 0.000366 0.000000
0.000231 -0.000487 0.000246 0.000000
0.000233 -0.000475 0.000177 0.000000
0.000267 -0.000492 0.000294 0.000000
0.000250 -0.000519 0.000249 0.000000
0.000224 -0.000453 0.000156 0.000000
0.000295 -0.000584 0.000269 0.000000
0.000330 -0.000603 0.000170 0.000000
0.000305 -0.000514 0.000215 0.000000
0.000372 -0.000581 0.000032 0.000000
0.000236 -0.000471 0.000111 0.000000
0.000236 -0.000485 0.000071 0.000000
-0.000709 -0.000751 0.000755 0.000000
0.000389 -0.000667 0.000128 0.000000
0.000217 -0.000435 -0.000045 0.000000
0.000229 -0.000477 0.000213 0.000000
0.000252 -0.000478 0.000223 0.000000
0.000270 -0.000532 0.000163 0.000000
0.000178 -0.000393 0.000001 0.000000
0.000330 -0.000529 0.000131 0.000000
0.000276 -0.000488 0.000052 0.000000
0.000223 -0.000457 0.000126 0.000000
0.000281 -0.000511 0.000160 0.000000
0.000231 -0.000444 0.000063 0.000000
0.000240 -0.000444 0.000037 0.000000
0.000223 -0.000455 0.000083 0.000000
0.000165 -0.000366 -0.000010 0.000000
0.000206 -0.000443 0.000048 0.000000
0.000166 -0.000371 -0.000035 0.000000
0.000154 -0.000379 -0.000005 0.000000
0.000178 -0.000413 0.000017 0.000000
0.000177 -0.000389 0.000011 0.000000
0.000203 -0.000403 -0.000004 0.000000
0.000235 -0.000454 0.000048 0.000000
0.000205 -0.000429 0.000048 0.000000
0.000216 -0.000434 0.000030 0.000000
0.000211 -0.000426 0.000020 0.000000
0.000208 -0.000400 0.000408 0.000000
0.000232 -0.000504 0.000495 0.000000
0.000260 -0.000449 0.000207 0.000000
0.000187 -0.000410 0.000359 0.000000
0.000244 -0.000444 0.000440 0.000000
0.000258 -0.000524 0.000355 0.000000
0.000296 -0.000553 0.000247 0.000000
0.000260 -0.000461 0.000269 0.000000
0.000233 -0.000529 0.000770 0.000000
-0.000367 -0.001106 -0.000404 0.000000
0.000205 -0.000469 0.000545 0.000000
0.000327 -0.000483 0.000604 0.000000
0.000211 -0.000429 0.000356 0.000000
-0.000152 -0.001431 0.002614 0.000000
0.000173 -0.000340 0.000610 0.000000
0.000236 -0.000407 0.000648 0.000000
0.000210 -0.000411 0.000353 0.000000
0.000207 -0.000442 0.000482 0.000000
-0.000060 -0.001607 0.002661 0.000000
0.000206 -0.000400 0.000437 0.000000
0.000246 -0.000457 0.000391 0.000000
0.000244 -0.000425 0.000449 0.000000
0.000242 -0.000453 0.000493 0.000000
0.000240 -0.000419 0.000335 0.000000
0.000221 -0.000402 0.000223 0.000000
0.000171 -0.000396 0.000247 0.000000
0.000184 -0.000410 0.000187 0.000000
0.000225 -0.000389 0.000425 0.000000
0.000165 -0.000387 0.000070 0.000000
0.000126 -0.000296 0.000196 0.000000
0.000237 -0.000417 0.000165 0.000000
0.000220 -0.000437 0.000207 0.000000
0.000196 -0.000372 0.000117 0.000000
0.000139 -0.000364 0.000138 0.000000
0.000192 -0.000401 -0.000006 0.000000
0.000190 -0.000397 0.000025 0.000000
0.000151 -0.000360 -0.000031 0.000000
0.000159 -0.000369 0.000002 0.000000
0.000155 -0.000365 -0.000014 0.000000
0.000175 -0.000416 -0.000051 0.000000
0.000128 -0.000328 -0.000037 0.000000
0.000174 -0.000383 -0.000026 0.000000
0.000168 -0.000368 -0.000031 0.000000
0.000148 -0.000339 -0.000007 0.000000
0.000146 -0.000350 -0.000022 0.000000
0.000162 -0.000368 -0.000033 0.000000
0.000214 -0.000401 0.000049 0.000000
0.000215 -0.000422 0.000048 0.000000
0.000186 -0.000390 0.000013 0.000000
0.000193 -0.000397 -0.000023 0.000000
0.000188 -0.000390 0.000003 0.000000
0.000167 -0.000381 -0.000018 0.000000
0.000115 -0.000326 0.000084 0.000000
0.000108 -0.000303 0.000033 0.000000
0.000140 -0.000357 0.000028 0.000000
0.000129 -0.000340 -0.000050 0.000000
0.000191 -0.000370 0.000017 0.000000
0.000162 -0.000389 -0.000031 0.000000
0.000175 -0.000365 -0.000067 0.000000
0.000186 -0.000392 -0.000043 0.000000
0.000188 -0.000389 -0.000032 0.000000
0.000057 -0.000283 -0.000031 0.000000
0.000158 -0.000358 -0.000046 0.000000
0.000242 -0.000414 -0.000087 0.000000
0.000081 -0.000274 0.000042 0.000000
0.000109 -0.000299 0.000070 0.000000
0.000113 -0.000330 -0.000059 0.000000
0.000085 -0.000274 0.000068 0.000000
0.000142 -0.000336 0.000320 0.000000
0.000222 -0.000388 0.000290 0.000000
0.000172 -0.000328 0.000241 0.000000
0.000132 -0.000345 0.000295 0.000000
0.000172 -0.000330 0.000343 0.000000
0.000267 -0.001928 0.002627 0.000000
0.000183 -0.000355 0.000176 0.000000
0.000138 -0.000312 0.000129 0.000000
0.000269 -0.000428 0.000262 0.000000
0.000242 -0.000419 0.000501 0.000000
0.000223 -0.000386 0.000362 0.000000
0.000246 -0.000448 0.000451 0.000000
0.000231 -0.000411 0.000185 0.000000
0.000249 -0.001841 0.002690 0.000000
0.000225 -0.000423 0.000422 0.000000
0.000294 -0.001870 0.002710 0.000000
0.000172 -0.000386 0.000334 0.000000
0.000175 -0.000379 0.000421 0.000000
0.000339 -0.000536 0.000239 0.000000
0.000231 -0.000413 0.000190 0.000000
0.000239 -0.000419 0.000206 0.000000
0.000294 -0.000496 0.000216 0.000000
0.000297 -0.000495 0.000219 0.000000
0.000231 -0.000414 0.000213 0.000000
0.000298 -0.000491 0.000228 0.000000
0.000224 -0.000423 0.000193 0.000000
0.000297 -0.000486 0.000228 0.000000
0.000295 -0.000492 0.000193 0.000000
0.000366 -0.000559 0.000166 0.000000
0.000352 -0.000549 0.000214 0.000000
0.000352 -0.000551 0.000211 0.000000
0.000293 -0.000496 0.000155 0.000000
0.000290 -0.000480 0.000185 0.000000
0.000140 -0.001763 0.002680 0.000000
0.000188 -0.000418 0.000149 0.000000
0.000187 -0.000396 0.000098 0.000000
0.000229 -0.000439 0.000485 0.000000
0.000230 -0.000401 0.000581 0.000000
0.000385 -0.000549 -0.000174 0.000000
-0.000289 -0.001544 0.001846 0.000000
0.000205 -0.000490 -0.000129 0.000000
-0.000238 -0.001528 0.001941 0.000000
0.000394 -0.000573 0.000217 0.000000
0.000460 -0.000635 0.000170 0.000000
0.000425 -0.000604 0.000161 0.000000
0.000421 -0.000649 0.000119 0.000000
0.000232 -0.000414 0.000181 0.000000
0.000209 -0.000407 0.000150 0.000000
0.000364 -0.000564 0.000232 0.000000
0.000295 -0.000493 0.000205 0.000000
0.000367 -0.000586 0.000123 0.000000
0.000356 -0.000564 0.000111 0.000000
0.000130 -0.000322 0.000111 0.000000
0.000308 -0.000517 0.000189 0.000000
0.000218 -0.000403 0.000164 0.000000
0.000313 -0.000506 0.000216 0.000000
0.000211 -0.000402 0.000159 0.000000
0.000205 -0.000403 0.000155 0.000000
0.000292 -0.000492 0.000187 0.000000
0.000430 -0.000605 0.000203 0.000000
0.000126 -0.000351 -0.000196 0.000000
0.000072 -0.000283 -0.000069 0.000000
0.000124 -0.000330 0.000087 0.000000
0.000210 -0.000408 0.000151 0.000000
0.000114 -0.000321 0.000000 0.000000
0.000071 -0.000269 0.000050 0.000000
0.000069 -0.000283 0.000052 0.000000
0.000068 -0.000276 0.000026 0.000000
0.000064 -0.000282 0.000019 0.000000
0.000138 -0.000339 0.000084 0.000000
0.000144 -0.000367 -0.000127 0.000000
-0.000314 -0.001215 0.001016 0.000000
0.000244 -0.000404 -0.000305 0.000000
0.000029 -0.000270 -0.000102 0.000000
0.000099 -0.000285 0.000062 0.000000
0.000082 -0.000270 0.000046 0.000000
0.000171 -0.000366 0.000128 0.000000
0.000142 -0.000351 0.000102 0.000000
0.000158 -0.000364 0.000105 0.000000
0.000070 -0.000254 -0.000009 0.000000
0.000174 -0.000354 0.000142 0.000000
0.000114 -0.000321 0.000062 0.000000
0.000068 -0.000290 -0.000084 0.000000
0.000195 -0.000420 -0.000138 0.000000
0.000089 -0.000279 -0.000044 0.000000
0.000263 -0.000485 -0.000125 0.000000
0.000117 -0.000298 0.000079 0.000000
0.000158 -0.000383 -0.000107 0.000000
0.000473 -0.000736 -0.000387 0.000000
0.000445 -0.000687 -0.000247 0.000000
0.000178 -0.000366 -0.000164 0.000000
0.000391 -0.000530 -0.000203 0.000000
0.000380 -0.000672 -0.000572 0.000000
0.000175 -0.000408 -0.000192 0.000000
0.000084 -0.000303 -0.000148 0.000000
0.000553 -0.000824 -0.000415 0.000000
-0.000558 -0.000908 0.000277 0.000000
-0.000365 -0.001250 0.000287 0.000000
-0.000371 -0.001207 0.000189 0.000000
0.000435 -0.000703 -0.000411 0.000000
-0.000278 -0.001830 0.000968 0.000000
-0.000439 -0.001140 0.000394 0.000000
-0.000471 -0.001117 0.000207 0.000000
-0.000548 -0.000799 0.000336 0.000000
0.000785 -0.000949 0.000610 0.000000
-0.000234 -0.001455 0.000538 0.000000
0.000143 -0.002248 0.002158 0.000000
-0.000369 -0.001327 0.000599 0.000000
0.000133 -0.002129 0.000819 0.000000
0.000227 -0.000421 0.000357 0.000000
0.000260 -0.000455 0.000404 0.000000
0.000171 -0.002126 0.001180 0.000000
-0.000057 -0.001960 0.000743 0.000000
0.000164 -0.002298 0.001860 0.000000
0.000202 -0.000401 0.000356 0.000000
-0.000009 -0.002140 0.001077 0.000000
0.000203 -0.002272 0.001449 0.000000
0.000013 -0.001930 0.000518 0.000000
0.000117 -0.002287 0.001880 0.000000
0.000722 -0.002670 0.001782 0.000000
0.001183 -0.002755 0.001719 0.000000
0.000482 -0.002254 0.002116 0.000000
0.000205 -0.002010 0.001379 0.000000
-0.000369 -0.001551 0.000303 0.000000
0.001140 -0.003102 0.002275 0.000000
0.000451 -0.001919 -0.000091 0.000000
-0.000034 -0.001940 0.000864 0.000000
-0.000092 -0.001966 0.001021 0.000000
-0.000110 -0.002062 0.001109 0.000000
-0.000309 -0.001796 0.000584 0.000000
0.000061 -0.001933 0.001665 0.000000
-0.000687 -0.000823 0.000440 0.000000
0.000408 -0.000604 0.000496 0.000000
0.000415 -0.000594 0.000619 0.000000
0.000401 -0.002200 0.002378 0.000000
0.000853 -0.002440 0.000517 0.000000
0.000326 -0.000606 0.000537 0.000000
0.000260 -0.000566 0.000862 0.000000
-0.000045 -0.000239 0.000085 0.000000
-0.000463 -0.001646 -0.000637 0.000000
0.000351 -0.002668 -0.000978 0.000000
0.000412 -0.000542 -0.000414 0.000000
-0.000114 -0.001921 -0.000015 0.000000
-0.000340 -0.001473 0.000325 0.000000
0.000137 -0.001645 -0.000571 0.000000
-0.000478 -0.000874 -0.000185 0.000000
-0.000538 -0.001200 0.000116 0.000000
0.000043 -0.000257 -0.000019 0.000000
0.000547 -0.000839 -0.000570 0.000000
0.000265 -0.000539 -0.000392 0.000000
0.000563 -0.000733 -0.000479 0.000000
0.000373 -0.000535 -0.000517 0.000000
0.000243 -0.000402 -0.000311 0.000000
0.000326 -0.002211 -0.001074 0.000000
0.000092 -0.000307 -0.000115 0.000000
0.000161 -0.000403 -0.000166 0.000000
0.000220 -0.001728 -0.001544 0.000000
-0.000207 -0.001527 -0.000142 0.000000
0.000372 -0.000601 -0.000441 0.000000
0.000243 -0.002306 -0.001365 0.000000
0.000022 -0.000236 -0.000104 0.000000
0.000046 -0.000322 -0.000057 0.000000
0.000376 -0.000616 -0.000502 0.000000
0.000184 -0.002508 -0.000610 0.000000
-0.000042 -0.000194 0.000050 0.000000
0.000099 -0.000322 0.000014 0.000000
0.000153 -0.000400 0.000031 0.000000
0.000168 -0.000339 -0.000186 0.000000
0.000111 -0.001787 -0.000511 0.000000
0.000165 -0.000447 -0.000109 0.000000
-0.000186 -0.001248 -0.001343 0.000000
-0.000236 -0.001647 -0.000014 0.000000
0.000234 -0.000506 0.000158 0.000000
-0.000204 -0.001906 -0.000976 0.000000
0.000091 -0.000379 -0.000110 0.000000
-0.000637 -0.001316 0.000375 0.000000
0.000113 -0.000360 -0.000066 0.000000
0.000084 -0.000369 0.000069 0.000000
0.000116 -0.000417 -0.000132 0.000000
-0.000751 -0.001316 0.000967 0.000000
0.000153 -0.000400 0.000031 0.000000
0.000187 -0.000464 0.000027 0.000000
0.000137 -0.000385 -0.000040 0.000000
0.000229 -0.000409 0.000167 0.000000
0.000026 -0.000318 0.000056 0.000000
0.000032 -0.000304 0.000069 0.000000
0.000061 -0.000323 0.000028 0.000000
0.000099 -0.000358 -0.000019 0.000000
0.000107 -0.000312 -0.000063 0.000000
0.000144 -0.000408 0.000102 0.000000
0.000190 -0.000408 0.000083 0.000000
0.000103 -0.000322 0.000068 0.000000
0.000160 -0.000420 0.000066 0.000000
0.000092 -0.000389 0.000060 0.000000
0.000184 -0.000441 0.000033 0.000000
-0.000597 -0.001094 0.000375 0.000000
0.000176 -0.000441 0.000043 0.000000
0.000156 -0.000399 0.000084 0.000000
-0.000417 -0.001508 -0.000706 0.000000
-0.000518 -0.001038 -0.000014 0.000000
-0.000372 -0.001406 -0.000365 0.000000
-0.000524 -0.001092 0.000187 0.000000
-0.000487 -0.001319 0.000300 0.000000
-0.000386 -0.001320 0.000007 0.000000
0.000271 -0.000589 0.000220 0.000000
0.000329 -0.000496 0.000486 0.000000
0.000466 -0.000599 0.000132 0.000000
0.000258 -0.000431 0.000243 0.000000
-0.000494 -0.001205 0.000336 0.000000
-0.000270 -0.001618 -0.000103 0.000000
-0.000466 -0.001418 0.001204 0.000000
-0.000332 -0.001488 0.000431 0.000000
0.000357 -0.000651 0.000393 0.000000
0.000506 -0.000815 0.000449 0.000000
0.000408 -0.000629 0.000499 0.000000
0.000531 -0.000671 0.000324 0.000000
0.000110 -0.000339 0.000137 0.000000
0.000061 -0.000369 0.000346 0.000000
0.000095 -0.000375 0.000191 0.000000
0.000021 -0.000271 -0.000007 0.000000
-0.000207 -0.001720 0.000959 0.000000
-0.000389 -0.001652 0.000411 0.000000
0.000192 -0.001876 0.002078 0.000000
-0.000691 -0.000751 0.000924 0.000000
0.000355 -0.000579 0.000393 0.000000
0.000407 -0.000606 0.000491 0.000000
0.000594 -0.002626 0.000143 0.000000
0.000583 -0.002650 0.000011 0.000000
-0.000271 -0.001634 0.000039 0.000000
0.000868 -0.002685 -0.000909 0.000000
0.000549 -0.002703 0.000486 0.000000
-0.000140 -0.001730 -0.000004 0.000000
0.000602 -0.002573 0.000171 0.000000
0.000635 -0.002544 -0.000214 0.000000
0.000387 -0.002686 0.000740 0.000000
0.000589 -0.002757 0.000251 0.000000
0.000492 -0.000692 0.000117 0.000000
0.000533 -0.002520 -0.000210 0.000000
0.000158 -0.002127 -0.000432 0.000000
0.000513 -0.002084 -0.001527 0.000000
-0.000302 -0.001647 -0.000036 0.000000
-0.000165 -0.001931 -0.000541 0.000000
0.000516 -0.002525 -0.001306 0.000000
0.000306 -0.002306 -0.001002 0.000000
0.000624 -0.000872 0.000296 0.000000
-0.000256 -0.001594 -0.000334 0.000000
0.000441 -0.000701 0.000285 0.000000
0.000547 -0.000808 0.000258 0.000000
-0.000122 -0.001345 -0.001144 0.000000
0.000294 -0.001811 -0.001260 0.000000
0.000349 -0.000574 0.000141 0.000000
0.000356 -0.000563 0.000168 0.000000
0.000428 -0.000720 0.000193 0.000000
0.000308 -0.000527 0.000107 0.000000
0.000375 -0.000582 0.000097 0.000000
0.000398 -0.002634 0.000297 0.000000
0.000350 -0.000593 0.000135 0.000000
0.000316 -0.000561 0.000133 0.000000
0.000491 -0.002608 0.000042 0.000000
0.000429 -0.000670 0.000101 0.000000
-0.000392 -0.001478 0.000843 0.000000
0.000196 -0.002485 0.001084 0.000000
-0.000038 -0.001876 0.001018 0.000000
0.000546 -0.002633 0.000492 0.000000
0.000165 -0.000409 0.000107 0.000000
0.000227 -0.002190 0.001281 0.000000
0.000077 -0.000330 0.000094 0.000000
0.000158 -0.000406 0.000114 0.000000
-0.000365 -0.001478 0.000175 0.000000
-0.000437 -0.001447 0.000297 0.000000
-0.000382 -0.001476 0.000182 0.000000
-0.000446 -0.001293 0.000398 0.000000
-0.000435 -0.001486 0.000355 0.000000
-0.000219 -0.001807 0.000676 0.000000
-0.000429 -0.001407 0.000229 0.000000
-0.000400 -0.001524 0.000440 0.000000
-0.000345 -0.001559 0.000619 0.000000
-0.000367 -0.001495 0.000351 0.000000
-0.000399 -0.001498 0.000509 0.000000
-0.000372 -0.001554 0.000675 0.000000
-0.000069 -0.001860 0.000843 0.000000
0.000520 -0.002862 0.001066 0.000000
0.000407 -0.002278 0.001057 0.000000
0.000391 -0.002728 0.000317 0.000000
-0.000122 -0.001798 0.000776 0.000000
-0.000222 -0.001542 -0.000156 0.000000
0.000009 -0.002136 0.000747 0.000000
0.000336 -0.002284 0.000124 0.000000
0.000049 -0.002266 -0.000268 0.000000
-0.000369 -0.001456 0.000210 0.000000
-0.000162 -0.001644 0.000723 0.000000
-0.000310 -0.001525 0.000520 0.000000
-0.000248 -0.001681 0.000708 0.000000
-0.000262 -0.001683 0.000760 0.000000
-0.000313 -0.001632 0.000560 0.000000
-0.000239 -0.001641 0.000697 0.000000
-0.000003 -0.001815 0.000870 0.000000
0.000272 -0.002409 0.001214 0.000000
-0.000414 -0.001354 -0.000078 0.000000
-0.000412 -0.001461 -0.000051 0.000000
-0.000245 -0.001796 0.000020 0.000000
0.000258 -0.001964 0.001041 0.000000
-0.000103 -0.001821 0.000969 0.000000
-0.000002 -0.001894 0.000892 0.000000
-0.000218 -0.001752 0.000372 0.000000
-0.000201 -0.001595 0.000877 0.000000
-0.000100 -0.001802 0.000838 0.000000
-0.000210 -0.001748 0.001035 0.000000
-0.000257 -0.001629 0.000691 0.000000
-0.000135 -0.001817 0.000910 0.000000
0.000202 -0.002328 -0.000197 0.000000
-0.000148 -0.001700 0.000507 0.000000
0.000601 -0.002346 -0.000143 0.000000
0.000782 -0.002554 -0.000814 0.000000
0.000903 -0.002808 -0.000466 0.000000
0.000219 -0.002294 0.000379 0.000000
-0.000042 -0.001875 0.000175 0.000000
-0.000039 -0.001870 -0.000120 0.000000
0.000216 -0.002034 -0.000112 0.000000
-0.000056 -0.002044 -0.000001 0.000000
-0.000058 -0.002098 0.000293 0.000000
-0.000223 -0.001746 0.000451 0.000000
0.000176 -0.002094 -0.001018 0.000000
-0.000210 -0.001350 -0.000078 0.000000
0.000889 -0.002739 -0.000350 0.000000
0.000231 -0.002251 -0.000030 0.000000
0.000271 -0.002084 0.000153 0.000000
0.000443 -0.002388 0.000012 0.000000
0.000960 -0.002749 -0.000327 0.000000
0.000692 -0.002380 -0.000098 0.000000
0.000177 -0.000375 0.000132 0.000000
0.000483 -0.002262 0.000192 0.000000
0.000129 -0.000345 0.000166 0.000000
0.000234 -0.002154 0.000532 0.000000
-0.000232 -0.001920 0.000536 0.000000
-0.000035 -0.002106 0.000758 0.000000
0.000141 -0.000358 0.000129 0.000000
0.000199 -0.000448 0.000086 0.000000
0.000072 -0.000289 0.000172 0.000000
0.000164 -0.000358 0.000193 0.000000
0.000600 -0.000713 0.000251 0.000000
0.000293 -0.000514 0.000166 0.000000
0.000603 -0.000860 0.000316 0.000000
0.000350 -0.000562 0.000142 0.000000
0.000309 -0.000456 0.000098 0.000000
0.000413 -0.000562 0.000126 0.000000
-0.000131 -0.001425 -0.000593 0.000000
-0.000348 -0.000854 -0.000233 0.000000
0.000585 -0.000819 0.000388 0.000000
-0.000181 -0.001210 -0.000561 0.000000
-0.000085 -0.001234 -0.000880 0.000000
-0.000288 -0.001192 -0.000141 0.000000
-0.000149 -0.001650 -0.000007 0.000000
0.000143 -0.001425 -0.001216 0.000000
-0.000385 -0.001538 -0.000191 0.000000
0.000160 -0.001737 -0.000753 0.000000
-0.000263 -0.001501 0.000670 0.000000
-0.000298 -0.001454 0.000619 0.000000
0.000030 -0.000239 -0.000011 0.000000
-0.000255 -0.001518 0.000887 0.000000
-0.000288 -0.001402 0.000666 0.000000
-0.000079 -0.001507 0.001168 0.000000
-0.000203 -0.001659 0.000045 0.000000
-0.000275 -0.001440 0.000118 0.000000
0.000007 -0.000196 -0.000001 0.000000
-0.000023 -0.000193 0.000002 0.000000
-0.000031 -0.000186 -0.000024 0.000000
-0.000018 -0.000199 -0.000032 0.000000
-0.000007 -0.000170 0.000105 0.000000
-0.000046 -0.000180 0.000017 0.000000
-0.000004 -0.000193 -0.000003 0.000000
-0.000050 -0.000158 0.000012 0.000000
-0.000769 -0.000766 -0.001420 0.000000
-0.000375 -0.001015 -0.000234 0.000000
-0.000515 -0.000677 -0.000459 0.000000
-0.000653 -0.000317 -0.000884 0.000000
0.000025 -0.000253 0.000048 0.000000
0.000126 -0.000266 -0.000103 0.000000
-0.000549 -0.000398 0.000484 0.000000
-0.000417 -0.001067 0.000626 0.000000
0.000518 -0.000776 0.000405 0.000000
0.000237 -0.000468 0.000291 0.000000
0.000235 -0.000393 0.000189 0.000000
0.000385 -0.000512 0.000303 0.000000
0.000077 -0.000278 0.000142 0.000000
0.000256 -0.000423 0.000217 0.000000
0.000083 -0.000290 0.000174 0.000000
0.000167 -0.000379 0.000131 0.000000
0.000263 -0.000520 0.000238 0.000000
0.000037 -0.000311 0.000347 0.000000
0.000201 -0.000395 0.000240 0.000000
0.000104 -0.000301 0.000150 0.000000
0.000248 -0.000531 0.000541 0.000000
-0.000568 -0.000787 -0.000710 0.000000
0.000522 -0.000624 0.000355 0.000000
-0.000342 -0.000893 -0.000566 0.000000
0.000437 -0.000698 0.000534 0.000000
0.000313 -0.000548 0.000405 0.000000
0.000318 -0.000469 0.000334 0.000000
0.000254 -0.000408 0.000337 0.000000
0.000214 -0.000424 0.000284 0.000000
0.000250 -0.000502 0.000430 0.000000
0.000201 -0.000400 0.000238 0.000000
0.000237 -0.000413 0.000251 0.000000
0.000136 -0.000331 0.000178 0.000000
0.000248 -0.000414 0.000222 0.000000
0.000217 -0.000386 0.000173 0.000000
0.000219 -0.000407 0.000250 0.000000
0.000252 -0.000421 0.000213 0.000000
0.000222 -0.000410 0.000225 0.000000
0.000132 -0.000333 0.000057 0.000000
0.000216 -0.000396 0.000235 0.000000
0.000149 -0.000330 0.000195 0.000000
0.000144 -0.000368 0.000317 0.000000
0.000055 -0.000261 0.000084 0.000000
0.000154 -0.000383 -0.000426 0.000000
0.000089 -0.000267 0.000099 0.000000
0.000170 -0.000346 0.000063 0.000000
-0.000565 -0.001276 -0.001727 0.000000
0.000026 -0.000207 -0.000042 0.000000
-0.000391 -0.000800 -0.000671 0.000000
0.000244 -0.000365 0.000376 0.000000
-0.000023 -0.000163 -0.000001 0.000000
-0.000271 -0.001054 0.000427 0.000000
-0.000144 -0.001361 -0.001354 0.000000
-0.000398 -0.000976 -0.000579 0.000000
-0.000015 -0.001372 -0.000512 0.000000
-0.000152 -0.001160 -0.000238 0.000000
-0.000137 -0.001516 -0.000247 0.000000
-0.000287 -0.001164 -0.000853 0.000000
-0.000217 -0.001477 -0.000813 0.000000
-0.000042 -0.001293 -0.001187 0.000000
-0.000307 -0.001129 0.000313 0.000000
-0.000296 -0.000925 0.000076 0.000000
-0.000258 -0.001213 -0.000084 0.000000
-0.000247 -0.001218 -0.000416 0.000000
-0.000206 -0.001075 -0.000662 0.000000
-0.000199 -0.001070 -0.001176 0.000000
0.000104 -0.000306 0.000122 0.000000
-0.000273 -0.000850 -0.000998 0.000000
0.000272 -0.000496 0.000045 0.000000
0.000103 -0.000282 0.000073 0.000000
0.000132 -0.000310 0.000056 0.000000
0.000107 -0.000291 0.000099 0.000000
-0.000266 -0.000971 -0.000085 0.000000
-0.000337 -0.000875 0.000242 0.000000
-0.000339 -0.000813 -0.000060 0.000000
-0.000481 -0.000804 -0.000341 0.000000
-0.000296 -0.000919 0.000081 0.000000
-0.000332 -0.000758 0.000182 0.000000
0.000235 -0.000403 0.000110 0.000000
-0.000466 -0.000521 0.000332 0.000000
-0.000316 -0.000824 0.000046 0.000000
-0.000346 -0.000724 -0.000016 0.000000
-0.000365 -0.000840 0.000078 0.000000
-0.000533 -0.000734 0.000092 0.000000
-0.000408 -0.000590 0.000615 0.000000
-0.000454 -0.000789 0.000413 0.000000
0.000280 -0.000443 0.000116 0.000000
0.000193 -0.000346 0.000170 0.000000
0.000173 -0.000346 0.000058 0.000000
0.000317 -0.000455 0.000138 0.000000
0.000216 -0.000400 0.000057 0.000000
0.000197 -0.000390 0.000086 0.000000
0.000256 -0.000443 0.000080 0.000000
0.000208 -0.000379 0.000073 0.000000
0.000208 -0.000407 0.000075 0.000000
0.000183 -0.000363 0.000081 0.000000
0.000166 -0.000355 0.000094 0.000000
0.000255 -0.000421 0.000201 0.000000
0.000191 -0.000370 0.000130 0.000000
0.000193 -0.000380 0.000103 0.000000
0.000199 -0.000358 0.000127 0.000000
0.000175 -0.000351 0.000116 0.000000
0.000229 -0.000396 0.000217 0.000000
0.000220 -0.000385 0.000147 0.000000
0.000232 -0.000396 0.000202 0.000000
0.000208 -0.000389 0.000280 0.000000
0.000252 -0.000423 0.000233 0.000000
0.000218 -0.000384 0.000173 0.000000
0.000266 -0.000430 0.000228 0.000000
0.000249 -0.000415 0.000223 0.000000
0.000221 -0.000411 0.000232 0.000000
0.000257 -0.000427 0.000224 0.000000
0.000190 -0.000349 0.000195 0.000000
0.000241 -0.000414 0.000224 0.000000
0.000171 -0.000364 0.000075 0.000000
0.000175 -0.000371 0.000079 0.000000
0.000195 -0.000384 0.000165 0.000000
0.000218 -0.000391 0.000161 0.000000
0.000093 -0.000303 0.000062 0.000000
0.000141 -0.000315 0.000088 0.000000
0.000148 -0.000346 0.000071 0.000000
0.000195 -0.000368 0.000169 0.000000
0.000231 -0.000413 0.000236 0.000000
0.000252 -0.000423 0.000229 0.000000
0.000232 -0.000407 0.000226 0.000000
0.000252 -0.000424 0.000248 0.000000
0.000203 -0.000400 0.000171 0.000000
0.000263 -0.000434 0.000242 0.000000
0.000150 -0.000343 0.000155 0.000000
0.000170 -0.000341 0.000178 0.000000
0.000127 -0.000301 0.000165 0.000000
0.000113 -0.000285 0.000153 0.000000
0.000169 -0.000351 0.000177 0.000000
0.000117 -0.000308 0.000158 0.000000
0.000250 -0.000475 0.000043 0.000000
0.000143 -0.000309 0.000145 0.000000
0.000145 -0.000305 0.000173 0.000000
0.000201 -0.000391 0.000196 0.000000
0.000050 -0.000233 0.000068 0.000000
0.000139 -0.000316 0.000167 0.000000
0.000248 -0.000419 0.000239 0.000000
0.000191 -0.000354 0.000189 0.000000
0.000230 -0.000389 0.000217 0.000000
0.000196 -0.000380 0.000180 0.000000
0.000152 -0.000315 0.000175 0.000000
-0.000002 -0.000192 0.000104 0.000000
0.000142 -0.000297 0.000199 0.000000
0.000166 -0.000351 0.000169 0.000000
0.000180 -0.000364 0.000259 0.000000
0.000143 -0.000329 0.000208 0.000000
0.000167 -0.000348 0.000186 0.000000
0.000137 -0.000308 0.000152 0.000000
0.000033 -0.000231 0.000161 0.000000
0.000139 -0.000341 0.000315 0.000000
-0.000213 -0.000906 -0.000266 0.000000
0.000111 -0.000289 0.000171 0.000000
0.000068 -0.000232 0.000134 0.000000
0.000074 -0.000250 0.000125 0.000000
0.000106 -0.000269 0.000186 0.000000
0.000038 -0.000200 0.000135 0.000000
0.000082 -0.000234 0.000074 0.000000
-0.000020 -0.000154 0.000037 0.000000
-0.000591 -0.000645 -0.000268 0.000000
-0.000363 -0.000808 0.000095 0.000000
-0.000469 -0.000808 -0.000451 0.000000
-0.000429 -0.000755 0.000004 0.000000
-0.000374 -0.000780 -0.000260 0.000000
-0.000395 -0.000731 0.000041 0.000000
-0.000425 -0.000757 0.000036 0.000000
0.000695 -0.000894 0.000369 0.000000
-0.000470 -0.000765 -0.000029 0.000000
0.000771 -0.000892 0.000394 0.000000
0.000413 -0.000586 0.000379 0.000000
0.000535 -0.000722 0.000499 0.000000
-0.000452 -0.000671 0.000057 0.000000
0.000661 -0.000881 -0.000019 0.000000
-0.000370 -0.000884 0.000070 0.000000
-0.000352 -0.000824 0.000130 0.000000
-0.000375 -0.000859 0.000057 0.000000
-0.000406 -0.000898 0.000330 0.000000
0.000777 -0.000992 0.000368 0.000000
-0.000375 -0.000802 0.000215 0.000000
0.000172 -0.000316 0.000135 0.000000
-0.000467 -0.000615 0.000112 0.000000
-0.000645 -0.000209 -0.000086 0.000000
-0.000420 -0.000785 0.000023 0.000000
0.000111 -0.000335 0.000017 0.000000
-0.000558 -0.000496 0.000463 0.000000
-0.000600 -0.000347 0.000272 0.000000
-0.000468 -0.000667 0.000256 0.000000
-0.000347 -0.000936 0.000131 0.000000
-0.000462 -0.000797 0.000168 0.000000
-0.000235 -0.000941 0.000198 0.000000
-0.000400 -0.000996 0.000370 0.000000
0.000776 -0.000887 0.000023 0.000000
-0.000382 -0.000901 0.000268 0.000000
-0.000349 -0.000911 0.000329 0.000000
-0.000466 -0.000743 0.000376 0.000000
0.000610 -0.000842 -0.000214 0.000000
-0.000396 -0.000935 0.000425 0.000000
0.000488 -0.000619 -0.000275 0.000000
-0.000400 -0.000918 0.000414 0.000000
0.000397 -0.000625 -0.000148 0.000000
0.000658 -0.000782 -0.000105 0.000000
-0.000385 -0.000875 0.000593 0.000000
0.000379 -0.000513 0.000296 0.000000
-0.000387 -0.000915 0.000365 0.000000
-0.000471 -0.000813 0.000320 0.000000
-0.000418 -0.000934 0.000451 0.000000
-0.000554 -0.000744 0.000518 0.000000
-0.000438 -0.000849 0.000410 0.000000
-0.000407 -0.000815 0.000324 0.000000
0.000138 -0.000306 0.000188 0.000000
0.000128 -0.000307 0.000166 0.000000
0.000298 -0.000442 0.000172 0.000000
0.000270 -0.000423 0.000254 0.000000
0.000172 -0.000352 0.000203 0.000000
0.000133 -0.000342 0.000165 0.000000
0.000141 -0.000308 0.000166 0.000000
0.000165 -0.000344 0.000188 0.000000
0.000135 -0.000325 0.000192 0.000000
0.000162 -0.000342 0.000178 0.000000
0.000106 -0.000316 0.000180 0.000000
0.000168 -0.000362 0.000192 0.000000
0.000463 -0.000688 0.000264 0.000000
0.000160 -0.000377 0.000155 0.000000
0.000425 -0.000639 0.000225 0.000000
0.000251 -0.000468 0.000180 0.000000
-0.000511 -0.000618 0.000683 0.000000
0.000400 -0.000531 0.000292 0.000000
0.000346 -0.000595 0.000358 0.000000
0.000288 -0.000519 0.000179 0.000000
0.000394 -0.000648 0.000303 0.000000
-0.000309 -0.001327 0.000407 0.000000
0.000105 -0.000297 0.000186 0.000000
0.000145 -0.000334 0.000203 0.000000
0.000078 -0.000306 0.000218 0.000000
0.000192 -0.000390 0.000380 0.000000
0.000075 -0.000299 0.000158 0.000000
0.000073 -0.000287 0.000169 0.000000
0.000194 -0.000399 0.000352 0.000000
0.000210 -0.000424 0.000425 0.000000
0.000555 -0.000825 0.000521 0.000000
0.000257 -0.000451 0.000419 0.000000
0.000495 -0.000613 0.000481 0.000000
0.000828 -0.001078 0.000489 0.000000
-0.000218 -0.000961 0.001367 0.000000
0.000744 -0.000831 0.000557 0.000000
-0.000190 -0.001335 0.001312 0.000000
0.000572 -0.000685 0.000414 0.000000
-0.000349 -0.001161 0.000504 0.000000
-0.000064 -0.001176 0.001596 0.000000
-0.000362 -0.000830 0.001090 0.000000
0.000452 -0.000573 0.000320 0.000000
-0.000320 -0.001248 0.000512 0.000000
-0.000314 -0.001052 0.000588 0.000000
-0.000415 -0.000982 0.000399 0.000000
-0.000461 -0.000966 0.000330 0.000000
-0.000441 -0.000890 0.000423 0.000000
0.000254 -0.000423 -0.000139 0.000000
-0.000392 -0.001128 0.000298 0.000000
0.000548 -0.000796 -0.000310 0.000000
-0.000515 -0.000839 0.000401 0.000000
0.000404 -0.000547 -0.000349 0.000000
0.000293 -0.000546 -0.000339 0.000000
0.000235 -0.000464 -0.000194 0.000000
0.000364 -0.000612 -0.000303 0.000000
0.000301 -0.000458 -0.000260 0.000000
0.000092 -0.000334 -0.000095 0.000000
0.000068 -0.000293 -0.000043 0.000000
0.000096 -0.000279 0.000005 0.000000
0.000137 -0.000362 0.000024 0.000000
0.000094 -0.000309 0.000039 0.000000
0.000103 -0.000303 0.000041 0.000000
0.000206 -0.000374 -0.000049 0.000000
0.000197 -0.000374 0.000030 0.000000
0.000158 -0.000376 -0.000032 0.000000
0.000106 -0.000293 0.000051 0.000000
0.000302 -0.000528 -0.000196 0.000000
0.000229 -0.000395 -0.000075 0.000000
0.000359 -0.000592 -0.000057 0.000000
0.000348 -0.000492 -0.000109 0.000000
0.000465 -0.000597 -0.000036 0.000000
0.000549 -0.000772 -0.000155 0.000000
0.000275 -0.000433 -0.000026 0.000000
0.000319 -0.000465 -0.000041 0.000000
0.000722 -0.000827 0.000116 0.000000
0.000621 -0.000741 -0.000030 0.000000
0.000562 -0.000684 0.000063 0.000000
0.000514 -0.000738 -0.000047 0.000000
0.000403 -0.000608 0.000102 0.000000
0.000410 -0.000538 0.000050 0.000000
0.000274 -0.000458 0.000070 0.000000
0.000289 -0.000516 -0.000046 0.000000
0.000174 -0.000360 0.000003 0.000000
0.000272 -0.000444 0.000032 0.000000
0.000201 -0.000434 -0.000009 0.000000
0.000138 -0.000330 0.000055 0.000000
0.000163 -0.000353 0.000073 0.000000
0.000191 -0.000394 0.000061 0.000000
0.000098 -0.000312 0.000042 0.000000
0.000157 -0.000354 0.000056 0.000000
0.000160 -0.000347 0.000126 0.000000
0.000113 -0.000317 0.000074 0.000000
0.000130 -0.000333 0.000076 0.000000
0.000168 -0.000344 0.000139 0.000000
0.000195 -0.000362 0.000170 0.000000
0.000167 -0.000356 0.000131 0.000000
0.000283 -0.000468 0.000168 0.000000
0.000201 -0.000370 0.000155 0.000000
0.000290 -0.000459 0.000240 0.000000
0.000238 -0.000404 0.000196 0.000000
0.000239 -0.000431 0.000199 0.000000
0.000242 -0.000430 0.000177 0.000000
0.000294 -0.000489 0.000215 0.000000
0.000292 -0.000458 0.000235 0.000000
0.000300 -0.000493 0.000221 0.000000
0.000236 -0.000427 0.000192 0.000000
0.000353 -0.000521 0.000264 0.000000
0.000349 -0.000543 0.000269 0.000000
0.000102 -0.000296 0.000076 0.000000
0.000125 -0.000329 0.000091 0.000000
0.000241 -0.000426 0.000209 0.000000
0.000197 -0.000389 0.000171 0.000000
0.000175 -0.000356 0.000155 0.000000
0.000134 -0.000317 0.000119 0.000000
0.000174 -0.000362 0.000146 0.000000
0.000229 -0.000423 0.000179 0.000000
0.000160 -0.000350 0.000132 0.000000
0.000160 -0.000359 0.000143 0.000000
0.000240 -0.000423 0.000196 0.000000
0.000339 -0.000532 0.000249 0.000000
0.000297 -0.000486 0.000234 0.000000
0.000301 -0.000480 0.000247 0.000000
0.000344 -0.000527 0.000273 0.000000
0.000366 -0.000555 0.000244 0.000000
0.000365 -0.000555 0.000248 0.000000
0.000319 -0.000525 0.000232 0.000000
0.000368 -0.000544 0.000254 0.000000
0.000343 -0.000513 0.000279 0.000000
0.000345 -0.000546 0.000269 0.000000
0.000188 -0.001402 0.002847 0.000000
0.000466 -0.000650 0.000288 0.000000
0.000236 -0.001848 0.002725 0.000000
0.000459 -0.000638 0.000245 0.000000
0.000083 -0.001609 0.001422 0.000000
0.000064 -0.001286 0.002477 0.000000
0.000454 -0.000628 0.000275 0.000000
0.000101 -0.001709 0.002492 0.000000
0.000167 -0.000321 0.000367 0.000000
0.000148 -0.000283 0.000358 0.000000
0.000127 -0.000278 0.000267 0.000000
0.000115 -0.000275 0.000194 0.000000
0.000100 -0.000286 0.000174 0.000000
0.000132 -0.000318 -0.000026 0.000000
0.000103 -0.000269 0.000126 0.000000
0.000095 -0.000306 -0.000033 0.000000
0.000063 -0.000252 0.000051 0.000000
0.000114 -0.000294 -0.000034 0.000000
0.000323 -0.000481 -0.000137 0.000000
0.000159 -0.000385 -0.000122 0.000000
0.000264 -0.000495 -0.000071 0.000000
0.000097 -0.000291 0.000102 0.000000
0.000092 -0.000267 0.000087 0.000000
0.000089 -0.000272 0.000007 0.000000
0.000123 -0.000292 0.000133 0.000000
0.000080 -0.000275 0.000018 0.000000
0.000057 -0.000239 0.000024 0.000000
0.000110 -0.000276 0.000160 0.000000
-0.000139 -0.001296 0.001232 0.000000
0.000135 -0.001668 0.001309 0.000000
0.000103 -0.000268 0.000101 0.000000
0.000063 -0.000240 0.000101 0.000000
0.000115 -0.000283 0.000090 0.000000
0.000527 -0.000670 -0.000343 0.000000
0.000119 -0.000313 -0.000065 0.000000
0.000247 -0.001718 -0.000030 0.000000
0.000167 -0.001677 0.000301 0.000000
0.000514 -0.002167 -0.000659 0.000000
0.000163 -0.001780 -0.000662 0.000000
0.000123 -0.001725 0.001254 0.000000
-0.000081 -0.001242 0.001081 0.000000
0.000019 -0.001498 0.001205 0.000000
0.000176 -0.001719 0.000362 0.000000
0.000194 -0.001729 0.001237 0.000000
0.000125 -0.000299 0.000110 0.000000
0.000519 -0.000701 0.000152 0.000000
0.000512 -0.000661 0.000186 0.000000
0.000524 -0.000707 0.000186 0.000000
-0.000009 -0.001217 0.001993 0.000000
0.000470 -0.000645 0.000207 0.000000
0.000002 -0.001660 0.001952 0.000000
0.000103 -0.001549 0.001720 0.000000
-0.000036 -0.001395 0.001330 0.000000
0.000348 -0.000538 0.000239 0.000000
0.000473 -0.000638 0.000250 0.000000
0.000442 -0.000631 0.000224 0.000000
0.000445 -0.000642 0.000271 0.000000
0.000297 -0.000485 0.000207 0.000000
0.000446 -0.000604 0.000255 0.000000
0.000397 -0.000545 0.000239 0.000000
0.000401 -0.000594 0.000233 0.000000
0.000464 -0.000610 0.000194 0.000000
0.000467 -0.000633 0.000224 0.000000
0.000350 -0.000502 0.000147 0.000000
0.000468 -0.000658 0.000191 0.000000
0.000385 -0.000537 0.000211 0.000000
0.000391 -0.000580 0.000196 0.000000
0.000517 -0.000665 0.000151 0.000000
0.000414 -0.000572 0.000068 0.000000
0.000469 -0.000659 0.000100 0.000000
0.000466 -0.000659 0.000145 0.000000
0.000607 -0.000778 0.000087 0.000000
0.000531 -0.000712 0.000117 0.000000
-0.000147 -0.001056 0.001216 0.000000
0.000565 -0.000713 0.000110 0.000000
-0.000132 -0.001262 0.001264 0.000000
0.000564 -0.000737 0.000121 0.000000
-0.000152 -0.001077 0.001437 0.000000
-0.000081 -0.001407 0.001094 0.000000
0.000050 -0.001611 0.001256 0.000000
0.000281 -0.001574 0.000968 0.000000
0.000273 -0.001892 0.001077 0.000000
0.000250 -0.001911 0.001371 0.000000
0.000175 -0.001600 0.000214 0.000000
0.000504 -0.001838 0.000848 0.000000
-0.000120 -0.001479 -0.000340 0.000000
0.000179 -0.001770 0.000097 0.000000
0.000167 -0.001439 -0.000124 0.000000
-0.000197 -0.001261 0.000037 0.000000
-0.000136 -0.000790 -0.000451 0.000000
0.000107 -0.001055 -0.001062 0.000000
0.000004 -0.001501 0.000861 0.000000
0.000289 -0.001526 0.000270 0.000000
0.000235 -0.001763 0.000696 0.000000
0.000497 -0.001937 0.000722 0.000000
0.000104 -0.001606 0.000168 0.000000
0.000335 -0.001773 0.000321 0.000000
0.000189 -0.001637 0.000025 0.000000
-0.000136 -0.000972 0.000258 0.000000
0.000446 -0.001662 0.000153 0.000000
0.000188 -0.001170 -0.000088 0.000000
0.000441 -0.001777 0.000312 0.000000
0.000201 -0.001627 0.001020 0.000000
-0.000239 -0.000577 0.000083 0.000000
0.000340 -0.000578 0.000266 0.000000
0.000043 -0.001135 0.000132 0.000000
0.000164 -0.001452 0.000085 0.000000
0.000212 -0.001616 0.000989 0.000000
0.000124 -0.001605 0.000813 0.000000
-0.000077 -0.001015 0.000947 0.000000
-0.000163 -0.000960 0.000256 0.000000
-0.000198 -0.001014 0.000502 0.000000
-0.000133 -0.001028 0.000273 0.000000
0.000644 -0.000754 -0.000023 0.000000
0.000481 -0.000671 0.000048 0.000000
0.000442 -0.000627 -0.000099 0.000000
0.000554 -0.000660 -0.000021 0.000000
-0.000094 -0.001265 0.001079 0.000000
0.000635 -0.000808 0.000027 0.000000
-0.000001 -0.001201 0.000805 0.000000
-0.000134 -0.001028 0.000573 0.000000
0.000402 -0.000549 0.000174 0.000000
0.000404 -0.000593 0.000130 0.000000
0.000406 -0.000545 0.000095 0.000000
0.000462 -0.000604 0.000149 0.000000
0.000401 -0.000545 0.000133 0.000000
0.000410 -0.000593 0.000092 0.000000
0.000465 -0.000602 0.000103 0.000000
0.000558 -0.000740 0.000070 0.000000
0.000470 -0.000657 -0.000010 0.000000
0.000559 -0.000680 0.000055 0.000000
0.000264 -0.000436 0.000104 0.000000
0.000366 -0.000518 0.000087 0.000000
0.000336 -0.000502 0.000111 0.000000
0.000373 -0.000542 0.000096 0.000000
0.000303 -0.000481 0.000079 0.000000
0.000321 -0.000488 0.000115 0.000000
0.000279 -0.000440 0.000119 0.000000
0.000366 -0.000517 0.000121 0.000000
0.000239 -0.000424 0.000078 0.000000
0.000292 -0.000451 0.000114 0.000000
0.000258 -0.000423 0.000121 0.000000
0.000352 -0.000535 0.000147 0.000000
0.000258 -0.000425 0.000130 0.000000
0.000322 -0.000479 0.000123 0.000000
0.000296 -0.000455 0.000148 0.000000
0.000357 -0.000535 0.000119 0.000000
0.000280 -0.000447 0.000128 0.000000
0.000221 -0.000391 0.000148 0.000000
0.000321 -0.000494 0.000131 0.000000
0.000331 -0.000482 0.000203 0.000000
0.000335 -0.000519 0.000168 0.000000
0.000251 -0.000436 0.000173 0.000000
0.000296 -0.000474 0.000149 0.000000
0.000247 -0.000417 0.000189 0.000000
0.000147 -0.000328 0.000095 0.000000
0.000172 -0.000359 0.000126 0.000000
0.000282 -0.000443 0.000168 0.000000
0.000256 -0.000433 0.000139 0.000000
0.000186 -0.000376 0.000076 0.000000
0.000186 -0.000384 0.000071 0.000000
0.000264 -0.000427 0.000113 0.000000
0.000209 -0.000380 0.000097 0.000000
0.000216 -0.000395 0.000108 0.000000
0.000178 -0.000351 0.000095 0.000000
0.000345 -0.000517 0.000126 0.000000
0.000368 -0.000527 0.000132 0.000000
0.000232 -0.000409 0.000091 0.000000
0.000456 -0.000612 0.000206 0.000000
0.000206 -0.000401 0.000073 0.000000
0.000222 -0.000408 0.000080 0.000000
0.000164 -0.000366 0.000067 0.000000
0.000222 -0.000395 0.000092 0.000000
0.000600 -0.000828 0.000104 0.000000
0.000795 -0.001015 0.000064 0.000000
0.000739 -0.000966 0.000199 0.000000
0.000616 -0.000736 0.000183 0.000000
0.000648 -0.000844 0.000480 0.000000
0.000616 -0.000820 0.000397 0.000000
0.000536 -0.000721 0.000456 0.000000
0.000653 -0.000776 0.000317 0.000000
0.000574 -0.000783 0.000267 0.000000
0.000530 -0.000661 0.000217 0.000000
0.000613 -0.000754 0.000416 0.000000
0.000589 -0.000773 0.000449 0.000000
0.000435 -0.000600 0.000188 0.000000
0.000536 -0.000695 0.000303 0.000000
0.000345 -0.000527 0.000121 0.000000
0.000443 -0.000610 0.000184 0.000000
0.000271 -0.000466 0.000074 0.000000
0.000282 -0.000460 0.000075 0.000000
0.000429 -0.000582 0.000216 0.000000
0.000371 -0.000535 0.000155 0.000000
0.000327 -0.000503 0.000101 0.000000
0.000395 -0.000548 0.000155 0.000000
0.000578 -0.000765 0.000360 0.000000
0.000504 -0.000663 0.000339 0.000000
0.000586 -0.000730 0.000317 0.000000
0.000512 -0.000679 0.000187 0.000000
0.000455 -0.000610 0.000189 0.000000
0.000566 -0.000706 0.000313 0.000000
0.000545 -0.000699 0.000316 0.000000
0.000531 -0.000682 0.000295 0.000000
0.000538 -0.000700 0.000308 0.000000
0.000520 -0.000700 0.000211 0.000000
0.000525 -0.000670 0.000236 0.000000
0.000538 -0.000695 0.000213 0.000000
0.000459 -0.000621 0.000153 0.000000
0.000365 -0.000547 0.000082 0.000000
0.000541 -0.000690 0.000294 0.000000
0.000537 -0.000685 0.000257 0.000000
0.000553 -0.000700 0.000258 0.000000
0.000581 -0.000727 0.000305 0.000000
0.000466 -0.000604 0.000347 0.000000
0.000313 -0.000489 0.000510 0.000000
0.000509 -0.000652 0.000294 0.000000
0.000551 -0.000706 0.000245 0.000000
0.000520 -0.000672 0.000336 0.000000
0.000349 -0.000493 0.000330 0.000000
0.000525 -0.000668 0.000311 0.000000
0.000490 -0.000642 0.000312 0.000000
0.000444 -0.000591 0.000266 0.000000
0.000524 -0.000668 0.000295 0.000000
0.000544 -0.000681 0.000315 0.000000
0.000545 -0.000695 0.000319 0.000000
0.000572 -0.000718 0.000203 0.000000
0.000580 -0.000725 0.000280 0.000000
0.000604 -0.000748 0.000278 0.000000
0.000571 -0.000714 0.000187 0.000000
0.000564 -0.000699 0.000215 0.000000
0.000502 -0.000645 0.000188 0.000000
0.000513 -0.000675 0.000154 0.000000
0.000565 -0.000691 0.000203 0.000000
0.000504 -0.000668 0.000094 0.000000
0.000596 -0.000731 0.000212 0.000000
0.000422 -0.000571 0.000120 0.000000
0.000504 -0.000649 0.000178 0.000000
0.000360 -0.000510 0.000118 0.000000
0.000593 -0.000733 0.000217 0.000000
0.000512 -0.000657 0.000154 0.000000
0.000443 -0.000596 0.000076 0.000000
0.000455 -0.000593 0.000140 0.000000
0.000635 -0.000765 0.000188 0.000000
0.000371 -0.000527 0.000101 0.000000
0.000401 -0.000544 0.000069 0.000000
0.000479 -0.000633 0.000067 0.000000
0.000344 -0.000505 0.000088 0.000000
0.000427 -0.000575 0.000115 0.000000
0.000415 -0.000565 0.000107 0.000000
0.000399 -0.000546 0.000065 0.000000
0.000378 -0.000528 0.000081 0.000000
0.000368 -0.000511 0.000087 0.000000
0.000338 -0.000496 0.000103 0.000000
0.000362 -0.000520 0.000100 0.000000
0.000396 -0.000547 0.000098 0.000000
0.000381 -0.000538 0.000084 0.000000
0.000431 -0.000588 0.000094 0.000000
0.000402 -0.000544 0.000119 0.000000
0.000335 -0.000501 0.000086 0.000000
0.000346 -0.000506 0.000093 0.000000
0.000295 -0.000468 0.000097 0.000000
0.000375 -0.000547 0.000087 0.000000
0.000336 -0.000506 0.000106 0.000000
0.000336 -0.000490 0.000111 0.000000
0.000316 -0.000478 0.000099 0.000000
0.000333 -0.000482 0.000100 0.000000
0.000342 -0.000496 0.000100 0.000000
0.000372 -0.000518 0.000092 0.000000
0.000370 -0.000520 0.000097 0.000000
0.000421 -0.000555 0.000058 0.000000
0.000393 -0.000545 0.000089 0.000000
0.000424 -0.000600 0.000056 0.000000
0.000421 -0.000546 0.000008 0.000000
0.000399 -0.000540 0.000063 0.000000
0.000406 -0.000537 0.000021 0.000000
0.000465 -0.000583 -0.000008 0.000000
0.000244 -0.000365 -0.000111 0.000000
0.000348 -0.000499 -0.000012 0.000000
0.000420 -0.000588 0.000023 0.000000
0.000374 -0.000543 -0.000054 0.000000
0.000430 -0.000544 -0.000067 0.000000
0.000352 -0.000524 -0.000123 0.000000
0.000533 -0.000712 -0.000090 0.000000
0.000530 -0.000636 -0.000095 0.000000
-0.000243 -0.000913 0.000627 0.000000
-0.000082 -0.000090 0.000056 0.000000
-0.000043 -0.001174 0.000114 0.000000
-0.000003 -0.000113 0.000108 0.000000
0.000047 -0.000904 -0.000199 0.000000
0.000031 -0.000180 0.000128 0.000000
-0.000001 -0.000145 0.000097 0.000000
0.000196 -0.001572 0.001094 0.000000
0.000106 -0.000230 0.000121 0.000000
-0.000032 -0.000095 0.000050 0.000000
0.000596 -0.000696 0.000151 0.000000
0.000010 -0.000151 0.000087 0.000000
0.000063 -0.000230 0.000105 0.000000
-0.000359 -0.000788 0.000428 0.000000
-0.000401 -0.000644 0.000705 0.000000
-0.000071 -0.000582 -0.000201 0.000000
-0.000404 -0.000415 0.000798 0.000000
-0.000002 -0.000112 0.000056 0.000000
-0.000046 -0.000111 0.000079 0.000000
0.000303 -0.000419 -0.000141 0.000000
0.000039 -0.000158 0.000098 0.000000
-0.000367 -0.000536 0.000973 0.000000
-0.000031 -0.000107 0.000046 0.000000
0.000114 -0.000291 0.000213 0.000000
0.000028 -0.001163 0.000538 0.000000
0.000560 -0.000675 0.000171 0.000000
0.000079 -0.000214 0.000075 0.000000
0.000063 -0.000200 0.000122 0.000000
-0.000262 -0.000816 0.000397 0.000000
0.000079 -0.000196 0.000086 0.000000
0.000461 -0.001622 0.000526 0.000000
0.000227 -0.000398 -0.000192 0.000000
-0.000373 -0.000741 0.000874 0.000000
-0.000383 -0.000624 0.000649 0.000000
-0.000108 -0.000913 0.000645 0.000000
0.000224 -0.000366 -0.000022 0.000000
0.000409 -0.000557 0.000048 0.000000
0.000183 -0.000336 -0.000139 0.000000
0.000219 -0.000344 -0.000074 0.000000
0.000342 -0.000461 -0.000095 0.000000
0.000220 -0.000373 -0.000080 0.000000
-0.000356 -0.000642 0.000525 0.000000
-0.000398 -0.000597 0.000677 0.000000
0.000348 -0.000476 -0.000020 0.000000
0.000400 -0.000555 0.000049 0.000000
0.000370 -0.000491 -0.000047 0.000000
0.000303 -0.000428 -0.000069 0.000000
0.000383 -0.000506 0.000028 0.000000
0.000428 -0.000556 0.000052 0.000000
0.000349 -0.000490 0.000016 0.000000
0.000409 -0.000556 0.000026 0.000000
0.000298 -0.000430 -0.000034 0.000000
0.000311 -0.000458 0.000008 0.000000
0.000350 -0.000484 0.000005 0.000000
0.000353 -0.000464 0.000035 0.000000
0.000342 -0.000458 0.000001 0.000000
0.000225 -0.000352 -0.000034 0.000000
0.000355 -0.000515 0.000052 0.000000
0.000433 -0.000591 0.000079 0.000000
0.000385 -0.000537 0.000034 0.000000
0.000313 -0.000442 0.000000 0.000000
0.000254 -0.000373 -0.000004 0.000000
0.000288 -0.000414 -0.000037 0.000000
0.000212 -0.000347 -0.000063 0.000000
0.000172 -0.000300 -0.000068 0.000000
0.000360 -0.000506 0.000026 0.000000
0.000305 -0.000441 0.000008 0.000000
0.000196 -0.000322 -0.000021 0.000000
0.000213 -0.000350 -0.000065 0.000000
0.000215 -0.000336 -0.000149 0.000000
0.000176 -0.000320 -0.000126 0.000000
-0.000381 -0.000588 0.000650 0.000000
0.000189 -0.000308 -0.000168 0.000000
-0.000371 -0.000638 0.000571 0.000000
-0.000097 -0.001178 0.000625 0.000000
0.000560 -0.001613 0.000465 0.000000
0.000132 -0.001050 0.000638 0.000000
0.000587 -0.001517 0.000447 0.000000
0.000394 -0.001420 0.000314 0.000000
0.000613 -0.001517 -0.000298 0.000000
0.000455 -0.001438 -0.000011 0.000000
0.000177 -0.000304 -0.000108 0.000000
0.000206 -0.000348 -0.000116 0.000000
0.000272 -0.000413 -0.000093 0.000000
0.000184 -0.000314 -0.000084 0.000000
-0.000264 -0.000577 0.000379 0.000000
0.000217 -0.000326 -0.000211 0.000000
0.000375 -0.001534 -0.000034 0.000000
0.000291 -0.000450 -0.000220 0.000000
0.000404 -0.001355 0.000192 0.000000
0.000358 -0.001221 -0.000007 0.000000
0.000453 -0.001497 0.000405 0.000000
0.000441 -0.001349 0.000282 0.000000
0.000575 -0.001577 0.000362 0.000000
0.000146 -0.000291 0.000380 0.000000
0.000314 -0.001308 0.000273 0.000000
0.000108 -0.000236 0.000236 0.000000
0.000123 -0.001200 0.000285 0.000000
0.000225 -0.001233 0.000046 0.000000
0.000406 -0.001452 0.000018 0.000000
0.000670 -0.001767 -0.000348 0.000000
0.000317 -0.001237 0.000212 0.000000
0.000787 -0.001772 -0.000472 0.000000
0.000728 -0.001764 -0.000638 0.000000
0.000216 -0.000329 -0.000148 0.000000
0.000297 -0.000395 -0.000258 0.000000
0.000594 -0.001492 -0.000358 0.000000
0.000256 -0.000406 0.000009 0.000000
0.000227 -0.000347 -0.000036 0.000000
0.000268 -0.000429 -0.000133 0.000000
0.000249 -0.000351 -0.000132 0.000000
0.000234 -0.000372 -0.000030 0.000000
0.000310 -0.000406 0.000057 0.000000
0.000215 -0.000349 -0.000053 0.000000
0.000231 -0.000346 0.000011 0.000000
0.000293 -0.000386 0.000088 0.000000
0.000502 -0.000596 0.000118 0.000000
0.000314 -0.000464 0.000081 0.000000
0.000394 -0.000483 0.000101 0.000000
0.000508 -0.001656 -0.000453 0.000000
0.000219 -0.000347 -0.000059 0.000000
0.000622 -0.000733 0.000177 0.000000
0.000640 -0.000753 0.000178 0.000000
0.000630 -0.000750 0.000191 0.000000
0.000587 -0.000724 0.000126 0.000000
0.000597 -0.000732 0.000196 0.000000
0.000659 -0.000775 0.000182 0.000000
0.000637 -0.000771 0.000177 0.000000
0.000639 -0.000765 0.000162 0.000000
0.000640 -0.000775 0.000201 0.000000
0.000659 -0.000779 0.000178 0.000000
0.000537 -0.000665 0.000147 0.000000
0.000571 -0.000681 0.000156 0.000000
0.000582 -0.000708 0.000148 0.000000
0.000426 -0.000540 0.000061 0.000000
0.000515 -0.000647 0.000087 0.000000
0.000417 -0.000518 0.000085 0.000000
0.000518 -0.000660 0.000103 0.000000
0.000492 -0.000644 0.000088 0.000000
0.000488 -0.000596 0.000101 0.000000
0.000443 -0.000592 0.000047 0.000000
0.000461 -0.000608 0.000104 0.000000
0.000464 -0.000603 0.000097 0.000000
0.000516 -0.000655 0.000112 0.000000
0.000469 -0.000594 0.000087 0.000000
0.000582 -0.000726 0.000172 0.000000
0.000620 -0.000759 0.000206 0.000000
0.000539 -0.000669 0.000189 0.000000
0.000579 -0.000703 0.000151 0.000000
0.000614 -0.000752 0.000184 0.000000
0.000663 -0.000787 0.000215 0.000000
0.000610 -0.000743 0.000205 0.000000
0.000583 -0.000726 0.000121 0.000000
0.000547 -0.000701 0.000130 0.000000
0.000512 -0.000666 0.000074 0.000000
0.000576 -0.000712 0.000242 0.000000
0.000644 -0.000776 0.000228 0.000000
0.000603 -0.000724 0.000255 0.000000
0.000603 -0.000735 0.000257 0.000000
0.000603 -0.000734 0.000288 0.000000
0.000638 -0.000773 0.000218 0.000000
0.000622 -0.000759 0.000259 0.000000
0.000596 -0.000737 0.000213 0.000000
0.000543 -0.000683 0.000294 0.000000
0.000488 -0.000631 0.000273 0.000000
0.000555 -0.000697 0.000292 0.000000
0.000583 -0.000713 0.000303 0.000000
0.000380 -0.000506 0.000271 0.000000
0.000519 -0.000652 0.000191 0.000000
0.000448 -0.000580 0.000300 0.000000
0.000479 -0.000617 0.000294 0.000000
0.000448 -0.000592 0.000277 0.000000
0.000552 -0.000674 0.000292 0.000000
0.000449 -0.000572 0.000285 0.000000
0.000122 -0.001281 0.001198 0.000000
0.000374 -0.000516 0.000250 0.000000
0.000449 -0.000581 0.000253 0.000000
0.000453 -0.000590 0.000250 0.000000
0.000496 -0.000621 0.000272 0.000000
0.000488 -0.000613 0.000268 0.000000
0.000487 -0.000627 0.000255 0.000000
0.000540 -0.000674 0.000152 0.000000
0.000575 -0.000676 0.000146 0.000000
0.000613 -0.000759 0.000234 0.000000
0.000635 -0.000770 0.000209 0.000000
0.000373 -0.000500 0.000249 0.000000
0.000453 -0.000579 0.000261 0.000000
0.000448 -0.000567 0.000245 0.000000
0.000390 -0.000519 0.000221 0.000000
0.000522 -0.000638 0.000207 0.000000
0.000606 -0.000719 0.000222 0.000000
0.000316 -0.000445 0.000208 0.000000
0.000586 -0.001708 0.001462 0.000000
0.000442 -0.001549 0.001857 0.000000
0.000622 -0.001590 0.001698 0.000000
0.000400 -0.001477 0.001797 0.000000
0.000115 -0.001190 0.001377 0.000000
0.000323 -0.001550 0.001610 0.000000
0.000309 -0.000442 0.000209 0.000000
0.000286 -0.001285 0.000652 0.000000
0.000019 -0.001395 0.000305 0.000000
0.000107 -0.001141 0.000693 0.000000
0.000116 -0.001162 0.001161 0.000000
0.000109 -0.001332 0.000835 0.000000
0.000234 -0.000319 0.000120 0.000000
0.000121 -0.001229 0.000937 0.000000
0.000291 -0.001312 -0.000197 0.000000
-0.000179 -0.000972 -0.000100 0.000000
-0.000182 -0.000928 -0.000107 0.000000
-0.000211 -0.000914 -0.000084 0.000000
0.000131 -0.000281 0.000141 0.000000
0.000266 -0.000405 0.000005 0.000000
-0.000233 -0.000842 0.000050 0.000000
-0.000198 -0.000670 0.000555 0.000000
-0.000232 -0.000840 -0.000113 0.000000
0.000637 -0.000718 -0.000101 0.000000
-0.000179 -0.000996 0.000028 0.000000
-0.000347 -0.000811 0.000174 0.000000
0.000021 -0.000924 0.000639 0.000000
-0.000247 -0.000759 0.000030 0.000000
-0.000232 -0.000907 -0.000102 0.000000
-0.000214 -0.000961 -0.000057 0.000000
-0.000163 -0.001027 -0.000006 0.000000
0.000015 -0.001097 0.000278 0.000000
0.000068 -0.001120 -0.000024 0.000000
-0.000231 -0.000985 -0.000011 0.000000
-0.000216 -0.000972 -0.000058 0.000000
-0.000199 -0.000959 0.000080 0.000000
-0.000230 -0.000942 -0.000060 0.000000
-0.000201 -0.001024 0.000342 0.000000
0.000626 -0.002184 0.000164 0.000000
-0.000239 -0.000930 -0.000061 0.000000
-0.000245 -0.000891 -0.000029 0.000000
-0.000022 -0.001283 0.000360 0.000000
-0.000061 -0.001153 -0.000035 0.000000
-0.000224 -0.000943 -0.000056 0.000000
0.000427 -0.001806 -0.000167 0.000000
-0.000228 -0.001004 0.000413 0.000000
-0.000212 -0.000990 -0.000062 0.000000
-0.000224 -0.000992 -0.000028 0.000000
-0.000230 -0.000981 0.000025 0.000000
-0.000140 -0.000911 0.000631 0.000000
-0.000142 -0.000987 0.000191 0.000000
-0.000119 -0.001226 0.001109 0.000000
0.000033 -0.001056 0.000865 0.000000
-0.000142 -0.001093 0.000185 0.000000
-0.000188 -0.000965 0.000006 0.000000
-0.000189 -0.001041 0.000305 0.000000
-0.000198 -0.001026 0.000068 0.000000
0.000147 -0.001427 0.001379 0.000000
0.000372 -0.000506 0.000282 0.000000
0.000310 -0.000446 0.000224 0.000000
0.000274 -0.000413 0.000248 0.000000
0.000270 -0.000402 0.000201 0.000000
0.000325 -0.001335 0.001659 0.000000
0.000213 -0.000357 0.000267 0.000000
0.000446 -0.000588 0.000270 0.000000
0.000379 -0.000522 0.000255 0.000000
0.000333 -0.000476 0.000283 0.000000
0.000329 -0.000472 0.000216 0.000000
0.000429 -0.000568 0.000299 0.000000
0.000278 -0.000426 0.000288 0.000000
0.000427 -0.000565 0.000247 0.000000
-0.000230 -0.000855 0.000454 0.000000
-0.000191 -0.000943 0.000299 0.000000
0.000153 -0.001110 0.001483 0.000000
-0.000102 -0.000818 0.001318 0.000000
-0.000340 -0.000915 0.000289 0.000000
-0.000249 -0.000952 0.000110 0.000000
-0.000299 -0.000816 0.000159 0.000000
-0.000265 -0.000891 0.000002 0.000000
0.000163 -0.000345 0.000412 0.000000
-0.000425 -0.000717 0.000028 0.000000
0.000413 -0.000559 0.000305 0.000000
0.000380 -0.000530 0.000284 0.000000
0.000414 -0.000578 0.000286 0.000000
0.000280 -0.000448 0.000299 0.000000
0.000406 -0.000543 0.000337 0.000000
0.000380 -0.000538 0.000280 0.000000
0.000398 -0.000555 0.000437 0.000000
-0.000455 -0.000720 0.000056 0.000000
0.000430 -0.000591 0.000363 0.000000
0.000571 -0.000731 0.000420 0.000000
-0.000334 -0.000821 -0.000137 0.000000
-0.000407 -0.000778 -0.000010 0.000000
-0.000397 -0.000765 -0.000032 0.000000
0.000470 -0.000650 0.000522 0.000000
-0.000348 -0.000725 0.000167 0.000000
-0.000267 -0.000892 0.000173 0.000000
0.000408 -0.000558 0.000382 0.000000
-0.000457 -0.000547 0.000084 0.000000
0.000349 -0.000533 0.000336 0.000000
0.000275 -0.000415 0.000381 0.000000
-0.000153 -0.001122 -0.000181 0.000000
-0.000262 -0.000887 0.000098 0.000000
-0.000149 -0.001044 -0.000222 0.000000
-0.000308 -0.000894 -0.000093 0.000000
0.000100 -0.000244 0.000208 0.000000
-0.000222 -0.001049 -0.000180 0.000000
0.000103 -0.001168 -0.000662 0.000000
-0.000152 -0.001208 -0.000402 0.000000
0.000230 -0.000383 0.000226 0.000000
0.000207 -0.000382 0.000224 0.000000
0.000090 -0.000295 0.000256 0.000000
0.000214 -0.000344 0.000317 0.000000
0.000268 -0.000388 0.000351 0.000000
0.000483 -0.001720 -0.000340 0.000000
0.000157 -0.000297 0.000253 0.000000
-0.000096 -0.001113 -0.000239 0.000000
-0.000044 -0.001188 -0.000199 0.000000
0.000386 -0.001612 -0.000440 0.000000
0.000316 -0.002058 0.000261 0.000000
0.000241 -0.000450 0.000446 0.000000
-0.000106 -0.001188 -0.000186 0.000000
-0.000065 -0.001231 -0.000127 0.000000
-0.000175 -0.001031 -0.000121 0.000000
-0.000173 -0.001062 -0.000078 0.000000
-0.000204 -0.000976 -0.000107 0.000000
-0.000238 -0.000988 -0.000046 0.000000
-0.000204 -0.001037 -0.000087 0.000000
-0.000267 -0.000956 0.000038 0.000000
-0.000229 -0.000944 0.000010 0.000000
-0.000227 -0.000948 -0.000034 0.000000
0.000773 -0.002240 0.000414 0.000000
0.000497 -0.001992 0.000012 0.000000
-0.000170 -0.001070 -0.000043 0.000000
0.000008 -0.001229 -0.000153 0.000000
-0.000216 -0.000989 -0.000064 0.000000
-0.000167 -0.001063 -0.000094 0.000000
0.000385 -0.002002 -0.000084 0.000000
0.000226 -0.000399 0.000105 0.000000
0.000267 -0.001929 0.000099 0.000000
0.000228 -0.000392 0.000124 0.000000
0.000008 -0.001345 0.001323 0.000000
-0.000097 -0.001305 -0.000099 0.000000
0.000355 -0.001806 -0.000207 0.000000
0.000227 -0.000399 0.000098 0.000000
0.000191 -0.000362 0.000097 0.000000
0.000052 -0.001493 0.001099 0.000000
0.000267 -0.000398 0.000012 0.000000
0.000219 -0.000395 0.000252 0.000000
0.000351 -0.002094 0.000612 0.000000
0.000315 -0.000422 0.000091 0.000000
0.000721 -0.001937 -0.000276 0.000000
0.000706 -0.001852 -0.000228 0.000000
0.000215 -0.000367 0.000058 0.000000
0.000210 -0.000368 0.000116 0.000000
0.000304 -0.000425 0.000333 0.000000
0.000349 -0.000452 0.000226 0.000000
0.000196 -0.000371 0.000141 0.000000
0.000232 -0.000391 0.000199 0.000000
0.000231 -0.000396 0.000203 0.000000
0.000230 -0.000398 0.000234 0.000000
0.000192 -0.000371 0.000093 0.000000
0.000232 -0.000407 0.000087 0.000000
0.000179 -0.000348 0.000094 0.000000
0.000190 -0.000359 0.000104 0.000000
0.000190 -0.000367 0.000118 0.000000
0.000179 -0.000355 0.000047 0.000000
0.000168 -0.000341 0.000077 0.000000
0.000215 -0.000411 0.000064 0.000000
0.000205 -0.000361 0.000096 0.000000
0.000206 -0.000383 0.000092 0.000000
0.000249 -0.000405 0.000165 0.000000
-0.000250 -0.000636 -0.000624 0.000000
0.000237 -0.000429 0.000203 0.000000
0.000226 -0.000404 0.000146 0.000000
0.000321 -0.000524 0.000326 0.000000
0.000279 -0.000465 0.000129 0.000000
0.000240 -0.000442 0.000108 0.000000
0.000250 -0.000432 0.000139 0.000000
-0.000273 -0.000841 0.000069 0.000000
-0.000402 -0.000856 0.000698 0.000000
0.000327 -0.000542 0.000154 0.000000
0.000359 -0.000491 0.000240 0.000000
-0.000232 -0.000907 0.000243 0.000000
-0.000033 -0.000118 0.000020 0.000000
-0.000300 -0.000843 0.000319 0.000000
-0.000084 -0.001378 0.001041 0.000000
-0.000201 -0.001011 0.000267 0.000000
-0.000040 -0.000137 0.000076 0.000000
-0.000114 -0.001128 0.000966 0.000000
-0.000249 -0.001158 0.000439 0.000000
0.000114 -0.001348 0.001309 0.000000
0.000198 -0.000374 0.000165 0.000000
0.000090 -0.001462 0.001175 0.000000
0.000245 -0.000365 0.000258 0.000000
-0.000017 -0.000112 0.000104 0.000000
-0.000068 -0.001131 0.001247 0.000000
0.000075 -0.001525 0.001143 0.000000
0.000097 -0.001476 0.001275 0.000000
-0.000025 -0.000136 0.000019 0.000000
-0.000043 -0.000111 0.000013 0.000000
-0.000095 -0.001125 0.000684 0.000000
-0.000036 -0.001224 0.001071 0.000000
-0.000102 -0.001261 0.000882 0.000000
-0.000058 -0.001371 0.000956 0.000000
-0.000575 -0.000184 0.000446 0.000000
-0.000039 -0.000088 0.000060 0.000000
-0.000017 -0.000139 0.000079 0.000000
0.000034 -0.000181 0.000198 0.000000
-0.000044 -0.000119 0.000024 0.000000
-0.000029 -0.000129 0.000018 0.000000
-0.000024 -0.000128 0.000019 0.000000
0.000027 -0.000166 0.000063 0.000000
0.000016 -0.000162 0.000087 0.000000
-0.000014 -0.001241 0.001298 0.000000
0.000045 -0.000178 0.000168 0.000000
0.000352 -0.000567 0.000416 0.000000
0.000091 -0.000220 0.000191 0.000000
0.000037 -0.000170 0.000188 0.000000
0.000018 -0.000181 0.000084 0.000000
0.000048 -0.001411 0.001040 0.000000
-0.000105 -0.001299 0.001047 0.000000
0.000159 -0.001646 0.000063 0.000000
-0.000027 -0.001231 0.000559 0.000000
-0.000017 -0.001742 0.000328 0.000000
0.000470 -0.001999 0.000072 0.000000
0.000473 -0.002004 0.000059 0.000000
0.000301 -0.000484 -0.000049 0.000000
0.000669 -0.002066 0.000383 0.000000
0.000478 -0.000716 0.000359 0.000000
0.000671 -0.002202 0.000162 0.000000
0.000273 -0.001191 0.000710 0.000000
0.000194 -0.000379 -0.000100 0.000000
0.000029 -0.000192 0.000111 0.000000
-0.000102 -0.001345 0.000764 0.000000
0.000045 -0.000171 0.000163 0.000000
-0.000101 -0.000776 0.000838 0.000000
0.000494 -0.000606 0.000118 0.000000
0.000171 -0.001145 -0.000522 0.000000
0.000111 -0.000977 -0.000113 0.000000
0.000094 -0.000229 0.000218 0.000000
0.000307 -0.000484 0.000066 0.000000
0.000294 -0.000494 0.000248 0.000000
0.000286 -0.000386 -0.000090 0.000000
0.000303 -0.000422 0.000063 0.000000
0.000487 -0.000696 -0.000140 0.000000
0.000486 -0.000553 -0.000052 0.000000
0.000483 -0.000535 0.000286 0.000000
0.000225 -0.000324 0.000062 0.000000
0.000190 -0.000286 -0.000124 0.000000
0.000228 -0.000327 -0.000014 0.000000
-0.000223 -0.000496 -0.000313 0.000000
-0.000074 -0.000867 -0.000478 0.000000
0.000358 -0.000406 0.000349 0.000000
-0.000113 -0.000795 -0.000392 0.000000
0.000298 -0.000385 0.000201 0.000000
0.000111 -0.000265 0.000193 0.000000
0.000348 -0.001601 0.000737 0.000000
0.000143 -0.000278 0.000124 0.000000
0.000264 -0.001219 -0.000002 0.000000
-0.000249 -0.000974 -0.000056 0.000000
0.000061 -0.000221 0.000008 0.000000
0.000106 -0.000248 0.000241 0.000000
0.000001 -0.001236 0.000224 0.000000
0.000132 -0.000305 0.000365 0.000000
-0.000384 -0.000596 0.000474 0.000000
-0.000029 -0.000110 -0.000001 0.000000
-0.000005 -0.000151 0.000000 0.000000
0.000096 -0.000252 0.000085 0.000000
-0.000341 -0.000749 0.000137 0.000000
-0.000024 -0.000124 0.000006 0.000000
-0.000072 -0.000889 0.000505 0.000000
0.000247 -0.001725 0.000022 0.000000
0.000133 -0.001140 0.000362 0.000000
-0.000161 -0.001146 0.000201 0.000000
-0.000530 -0.000385 -0.000043 0.000000
-0.000209 -0.000635 0.000155 0.000000
-0.000336 -0.000592 0.000228 0.000000
-0.000157 -0.000547 -0.000554 0.000000
-0.000005 -0.000159 -0.000086 0.000000
0.000003 -0.000121 -0.000016 0.000000
-0.000567 -0.000332 -0.000218 0.000000
-0.000591 -0.000156 -0.000221 0.000000
0.000067 -0.000226 -0.000111 0.000000
0.000129 -0.000242 0.000044 0.000000
0.000080 -0.000224 -0.000162 0.000000
0.000026 -0.000145 -0.000135 0.000000
-0.000596 -0.000346 -0.000064 0.000000
-0.000585 -0.000209 -0.000113 0.000000
-0.000512 -0.000394 -0.000090 0.000000
-0.000449 -0.000591 0.000192 0.000000
-0.000572 -0.000348 -0.000094 0.000000
-0.000574 -0.000438 0.000353 0.000000
-0.000445 -0.000466 0.000082 0.000000
-0.000481 -0.000347 0.000149 0.000000
-0.000580 -0.000343 -0.000040 0.000000
-0.000071 -0.000077 -0.000025 0.000000
-0.000668 -0.000300 0.000092 0.000000
-0.000605 -0.000422 -0.000390 0.000000
-0.000601 -0.000378 -0.000129 0.000000
-0.000540 -0.000394 0.000014 0.000000
-0.000606 -0.000313 -0.000085 0.000000
-0.000769 -0.000311 -0.000159 0.000000
0.000079 -0.000223 -0.000089 0.000000
-0.000630 -0.000350 0.000003 0.000000
0.000152 -0.000287 -0.000165 0.000000
0.000171 -0.000352 -0.000193 0.000000
-0.000511 -0.000352 -0.000055 0.000000
-0.000582 -0.000302 -0.000056 0.000000
0.000105 -0.000257 -0.000014 0.000000
0.000071 -0.000213 0.000013 0.000000
0.000048 -0.000223 -0.000079 0.000000
0.000093 -0.000248 -0.000045 0.000000
0.000082 -0.000277 -0.000019 0.000000
0.000128 -0.000263 0.000034 0.000000
0.000084 -0.000251 -0.000033 0.000000
0.000090 -0.000223 0.000015 0.000000
0.000057 -0.000231 -0.000020 0.000000
0.000096 -0.000201 0.000041 0.000000
0.000063 -0.000220 0.000012 0.000000
0.000077 -0.000236 0.000007 0.000000
0.000097 -0.000240 0.000016 0.000000
0.000076 -0.000221 0.000031 0.000000
0.000077 -0.000225 0.000000 0.000000
0.000144 -0.000254 0.000046 0.000000
0.000134 -0.000275 0.000033 0.000000
0.000089 -0.000229 0.000030 0.000000
0.000110 -0.000242 0.000019 0.000000
0.000080 -0.000232 -0.000000 0.000000
0.000094 -0.000238 -0.000001 0.000000
0.000100 -0.000238 -0.000070 0.000000
0.000053 -0.000205 -0.000018 0.000000
0.000089 -0.000205 0.000007 0.000000
0.000051 -0.000179 -0.000040 0.000000
0.000066 -0.000176 0.000023 0.000000
0.000015 -0.000186 -0.000086 0.000000
0.000055 -0.000179 -0.000001 0.000000
0.000151 -0.000262 -0.000001 0.000000
0.000129 -0.000262 0.000054 0.000000
0.000154 -0.000275 0.000031 0.000000
0.000107 -0.000243 0.000044 0.000000
0.000098 -0.000244 -0.000002 0.000000
0.000095 -0.000243 0.000020 0.000000
0.000055 -0.000198 -0.000011 0.000000
0.000119 -0.000261 0.000001 0.000000
0.000081 -0.000224 0.000001 0.000000
0.000120 -0.000242 0.000012 0.000000
0.000071 -0.000202 -0.000014 0.000000
0.000060 -0.000205 -0.000010 0.000000
0.000107 -0.000226 -0.000008 0.000000
0.000065 -0.000211 -0.000001 0.000000
0.000020 -0.000165 -0.000026 0.000000
0.000035 -0.000175 -0.000022 0.000000
0.000036 -0.000175 -0.000019 0.000000
0.000050 -0.000193 -0.000012 0.000000
-0.000001 -0.000130 -0.000017 0.000000
0.000017 -0.000156 -0.000029 0.000000
0.000019 -0.000154 -0.000023 0.000000
0.000035 -0.000175 -0.000021 0.000000
-0.000018 -0.000118 -0.000017 0.000000
-0.000021 -0.000106 -0.000011 0.000000
-0.000021 -0.000110 -0.000012 0.000000
0.000001 -0.000135 -0.000017 0.000000
-0.000022 -0.000106 -0.000011 0.000000
-0.000023 -0.000103 -0.000009 0.000000
-0.000022 -0.000102 -0.000010 0.000000
-0.000014 -0.000115 -0.000011 0.000000
-0.000020 -0.000117 -0.000008 0.000000
-0.000015 -0.000118 -0.000011 0.000000
-0.000006 -0.000135 -0.000025 0.000000
-0.000009 -0.000129 -0.000018 0.000000
-0.000019 -0.000108 -0.000009 0.000000
-0.000015 -0.000124 -0.000022 0.000000
0.000009 -0.000156 -0.000029 0.000000
0.000021 -0.000157 -0.000021 0.000000
0.000019 -0.000160 -0.000028 0.000000
-0.000002 -0.000139 -0.000026 0.000000
-0.000008 -0.000132 -0.000014 0.000000
0.000053 -0.000204 -0.000021 0.000000
-0.000012 -0.000130 -0.000020 0.000000
-0.000003 -0.000144 -0.000023 0.000000
-0.000001 -0.000145 -0.000012 0.000000
-0.000006 -0.000132 -0.000016 0.000000
-0.000014 -0.000118 -0.000012 0.000000
-0.000014 -0.000124 -0.000011 0.000000
0.000022 -0.000182 -0.000001 0.000000
-0.000008 -0.000134 -0.000014 0.000000
-0.000000 -0.000142 -0.000017 0.000000
0.000000 -0.000153 -0.000010 0.000000
0.000006 -0.000149 -0.000018 0.000000
0.000006 -0.000159 -0.000023 0.000000
0.000015 -0.000153 -0.000020 0.000000
-0.000001 -0.000145 -0.000025 0.000000
0.000053 -0.000196 -0.000012 0.000000
0.000050 -0.000192 -0.000013 0.000000
0.000033 -0.000176 -0.000022 0.000000
0.000063 -0.000209 0.000004 0.000000
0.000027 -0.000175 -0.000025 0.000000
0.000049 -0.000194 -0.000019 0.000000
0.000034 -0.000175 -0.000017 0.000000
0.000050 -0.000193 -0.000015 0.000000
0.000055 -0.000193 -0.000011 0.000000
0.000050 -0.000192 -0.000012 0.000000
0.000080 -0.000211 0.000002 0.000000
0.000060 -0.000206 -0.000005 0.000000
0.000064 -0.000210 -0.000001 0.000000
0.000065 -0.000205 0.000000 0.000000
0.000067 -0.000213 0.000016 0.000000
0.000066 -0.000212 0.000006 0.000000
0.000078 -0.000221 0.000028 0.000000
0.000091 -0.000220 0.000011 0.000000
0.000060 -0.000203 -0.000006 0.000000
0.000063 -0.000213 -0.000013 0.000000
0.000065 -0.000209 0.000002 0.000000
0.000064 -0.000210 -0.000002 0.000000
0.000062 -0.000211 0.000000 0.000000
0.000063 -0.000209 -0.000012 0.000000
0.000056 -0.000220 -0.000022 0.000000
0.000066 -0.000217 -0.000010 0.000000
0.000044 -0.000208 -0.000014 0.000000
0.000060 -0.000207 -0.000011 0.000000
0.000068 -0.000220 -0.000013 0.000000
0.000065 -0.000217 -0.000010 0.000000
0.000063 -0.000213 -0.000015 0.000000
0.000050 -0.000198 -0.000017 0.000000
0.000071 -0.000220 -0.000012 0.000000
0.000066 -0.000212 -0.000005 0.000000
0.000016 -0.000168 -0.000027 0.000000
0.000012 -0.000164 -0.000022 0.000000
0.000040 -0.000183 -0.000015 0.000000
0.000052 -0.000202 -0.000016 0.000000
0.000004 -0.000149 -0.000013 0.000000
0.000040 -0.000192 -0.000001 0.000000
0.000027 -0.000182 -0.000023 0.000000
0.000022 -0.000164 -0.000017 0.000000
0.000005 -0.000162 -0.000018 0.000000
-0.000005 -0.000147 -0.000017 0.000000
0.000011 -0.000157 -0.000016 0.000000
-0.000000 -0.000157 -0.000015 0.000000
0.000016 -0.000165 -0.000013 0.000000
-0.000000 -0.000151 -0.000019 0.000000
0.000068 -0.000223 -0.000011 0.000000
0.000024 -0.000173 -0.000012 0.000000
0.000030 -0.000182 -0.000008 0.000000
0.000034 -0.000179 -0.000012 0.000000
0.000031 -0.000196 -0.000013 0.000000
0.000017 -0.000178 -0.000015 0.000000
0.000054 -0.000203 -0.000001 0.000000
0.000025 -0.000184 -0.000015 0.000000
0.000001 -0.000164 -0.000012 0.000000
0.000009 -0.000159 -0.000012 0.000000
0.000021 -0.000175 -0.000009 0.000000
0.000131 -0.000285 0.000100 0.000000
0.000005 -0.000168 0.000003 0.000000
-0.000009 -0.000181 0.000039 0.000000
0.000021 -0.000187 -0.000009 0.000000
0.000020 -0.000184 0.000011 0.000000
0.000077 -0.000257 0.000019 0.000000
0.000087 -0.000246 -0.000017 0.000000
0.000117 -0.000281 -0.000012 0.000000
0.000057 -0.000206 -0.000010 0.000000
0.000065 -0.000227 -0.000013 0.000000
0.000075 -0.000227 -0.000014 0.000000
0.000069 -0.000227 -0.000009 0.000000
0.000082 -0.000247 -0.000020 0.000000
0.000035 -0.000194 -0.000018 0.000000
0.000043 -0.000191 -0.000008 0.000000
0.000055 -0.000207 -0.000015 0.000000
0.000056 -0.000215 -0.000013 0.000000
0.000070 -0.000227 -0.000016 0.000000
0.000079 -0.000240 -0.000020 0.000000
0.000067 -0.000221 -0.000020 0.000000
0.000078 -0.000231 -0.000019 0.000000
0.000064 -0.000219 -0.000011 0.000000
0.000083 -0.000240 -0.000016 0.000000
0.000078 -0.000234 -0.000012 0.000000
0.000078 -0.000238 -0.000014 0.000000
0.000079 -0.000247 -0.000041 0.000000
0.000071 -0.000231 -0.000023 0.000000
0.000080 -0.000234 -0.000030 0.000000
0.000090 -0.000249 -0.000036 0.000000
0.000073 -0.000231 -0.000035 0.000000
0.000075 -0.000256 -0.000054 0.000000
0.000079 -0.000255 -0.000057 0.000000
0.000072 -0.000242 -0.000050 0.000000
0.000071 -0.000255 -0.000036 0.000000
0.000069 -0.000233 -0.000051 0.000000
0.000064 -0.000213 0.000021 0.000000
0.000062 -0.000222 -0.000027 0.000000
0.000052 -0.000223 -0.000020 0.000000
0.000054 -0.000233 -0.000038 0.000000
0.000059 -0.000213 -0.000007 0.000000
0.000059 -0.000231 -0.000039 0.000000
0.000057 -0.000233 -0.000043 0.000000
0.000050 -0.000222 -0.000030 0.000000
0.000064 -0.000214 -0.000005 0.000000
0.000062 -0.000220 -0.000016 0.000000
0.000057 -0.000213 -0.000005 0.000000
0.000047 -0.000220 -0.000026 0.000000
0.000062 -0.000209 0.000007 0.000000
0.000065 -0.000215 0.000005 0.000000
0.000057 -0.000211 0.000003 0.000000
0.000055 -0.000218 -0.000015 0.000000
0.000057 -0.000213 0.000005 0.000000
0.000119 -0.000279 -0.000045 0.000000
0.000077 -0.000233 -0.000023 0.000000
0.000061 -0.000221 -0.000010 0.000000
0.000053 -0.000214 -0.000007 0.000000
0.000050 -0.000214 -0.000013 0.000000
0.000063 -0.000246 -0.000036 0.000000
0.000055 -0.000222 -0.000004 0.000000
0.000064 -0.000233 -0.000008 0.000000
0.000173 -0.000372 0.000017 0.000000
0.000077 -0.000248 -0.000027 0.000000
0.000079 -0.000255 -0.000027 0.000000
0.000128 -0.000319 -0.000047 0.000000
0.000133 -0.000328 -0.000028 0.000000
0.000080 -0.000255 -0.000017 0.000000
0.000087 -0.000279 -0.000036 0.000000
0.000159 -0.000303 -0.000102 0.000000
0.000091 -0.000259 -0.000054 0.000000
0.000176 -0.000363 -0.000119 0.000000
0.000189 -0.000397 -0.000060 0.000000
-0.000579 -0.000386 -0.000086 0.000000
0.000228 -0.000361 -0.000135 0.000000
-0.000539 -0.000443 -0.000070 0.000000
0.000251 -0.000461 -0.000147 0.000000
-0.000521 -0.000478 -0.000205 0.000000
0.000252 -0.000467 0.000028 0.000000
-0.000442 -0.000667 -0.000252 0.000000
-0.000379 -0.000698 -0.000186 0.000000
-0.000510 -0.000498 -0.000283 0.000000
-0.000460 -0.000585 -0.000140 0.000000
-0.000521 -0.000533 -0.000158 0.000000
-0.000493 -0.000513 -0.000193 0.000000
0.000089 -0.000284 -0.000031 0.000000
0.000197 -0.000398 0.000111 0.000000
0.000234 -0.000370 0.000040 0.000000
-0.000537 -0.000486 -0.000252 0.000000
0.000065 -0.000249 -0.000021 0.000000
0.000123 -0.000284 -0.000021 0.000000
0.000152 -0.000295 0.000163 0.000000
0.000119 -0.000318 0.000010 0.000000
0.000163 -0.000318 0.000024 0.000000
0.000121 -0.000281 0.000056 0.000000
0.000185 -0.000327 0.000106 0.000000
-0.000548 -0.000439 -0.000251 0.000000
-0.000568 -0.000406 -0.000169 0.000000
-0.000288 -0.000864 0.000040 0.000000
-0.000557 -0.000506 -0.000191 0.000000
-0.000350 -0.000864 0.000074 0.000000
-0.000382 -0.000796 -0.000069 0.000000
-0.000449 -0.000713 0.000049 0.000000
-0.000597 -0.000326 0.000240 0.000000
-0.000491 -0.000597 -0.000076 0.000000
-0.000363 -0.000714 0.000020 0.000000
-0.000578 -0.000593 0.000177 0.000000
0.000124 -0.000268 0.000223 0.000000
-0.000583 -0.000373 -0.000010 0.000000
0.000142 -0.000354 0.000223 0.000000
-0.000521 -0.000497 -0.000149 0.000000
0.000105 -0.000304 0.000095 0.000000
0.000167 -0.000370 0.000164 0.000000
-0.000573 -0.000544 -0.000050 0.000000
-0.000485 -0.000547 -0.000042 0.000000
0.000077 -0.000255 -0.000056 0.000000
0.000065 -0.000247 -0.000047 0.000000
0.000091 -0.000284 0.000034 0.000000
0.000107 -0.000276 0.000006 0.000000
0.000085 -0.000254 -0.000069 0.000000
0.000103 -0.000284 -0.000058 0.000000
0.000083 -0.000262 -0.000069 0.000000
0.000074 -0.000250 -0.000057 0.000000
0.000100 -0.000282 -0.000079 0.000000
0.000087 -0.000267 -0.000067 0.000000
0.000082 -0.000263 -0.000068 0.000000
0.000114 -0.000286 -0.000083 0.000000
0.000069 -0.000257 -0.000039 0.000000
0.000065 -0.000241 -0.000025 0.000000
0.000042 -0.000232 0.000011 0.000000
0.000082 -0.000251 0.000011 0.000000
0.000042 -0.000224 0.000084 0.000000
0.000085 -0.000255 0.000081 0.000000
0.000076 -0.000261 -0.000048 0.000000
0.000076 -0.000262 -0.000062 0.000000
0.000041 -0.000216 0.000006 0.000000
0.000060 -0.000227 -0.000021 0.000000
0.000120 -0.000304 -0.000083 0.000000
0.000099 -0.000276 -0.000091 0.000000
0.000088 -0.000279 -0.000078 0.000000
0.000078 -0.000252 -0.000073 0.000000
0.000086 -0.000258 -0.000081 0.000000
0.000081 -0.000266 -0.000026 0.000000
0.000050 -0.000239 0.000005 0.000000
0.000066 -0.000233 -0.000042 0.000000
0.000069 -0.000242 0.000013 0.000000
0.000050 -0.000267 0.000220 0.000000
0.000070 -0.000254 0.000047 0.000000
-0.000298 -0.001336 0.000619 0.000000
0.000114 -0.000273 0.000161 0.000000
-0.000335 -0.001214 0.000836 0.000000
-0.000337 -0.001285 0.001152 0.000000
-0.000606 -0.000664 0.000495 0.000000
0.000070 -0.000238 0.000132 0.000000
-0.000087 -0.001306 0.001212 0.000000
0.000152 -0.000396 0.000369 0.000000
0.000097 -0.000259 0.000335 0.000000
-0.000637 -0.000324 0.000621 0.000000
-0.000338 -0.000793 0.000139 0.000000
-0.000437 -0.000699 0.000276 0.000000
-0.000372 -0.000990 0.000339 0.000000
-0.000684 -0.000869 0.001022 0.000000
-0.000418 -0.000852 0.000415 0.000000
-0.000411 -0.001040 0.000874 0.000000
-0.000379 -0.000907 0.000392 0.000000
-0.000348 -0.000878 0.000229 0.000000
-0.000300 -0.001058 0.000128 0.000000
-0.000325 -0.001284 0.000874 0.000000
-0.000505 -0.001069 0.000993 0.000000
-0.000327 -0.001061 0.000715 0.000000
-0.000205 -0.001393 0.000547 0.000000
0.000073 -0.000255 0.000008 0.000000
-0.000084 -0.001597 0.000648 0.000000
-0.000201 -0.001214 0.000866 0.000000
-0.000302 -0.001074 0.000974 0.000000
0.000021 -0.001486 0.000887 0.000000
-0.000109 -0.001336 0.000587 0.000000
-0.000449 -0.000913 0.000340 0.000000
-0.000372 -0.001093 0.000820 0.000000
-0.000380 -0.001092 0.000950 0.000000
-0.000221 -0.001177 0.001130 0.000000
-0.000461 -0.001177 0.001120 0.000000
-0.000011 -0.000186 -0.000027 0.000000
-0.000495 -0.001120 0.000550 0.000000
0.000005 -0.000266 0.000001 0.000000
-0.000651 -0.000898 0.000809 0.000000
-0.000769 -0.000245 0.000418 0.000000
-0.000477 -0.000841 0.000163 0.000000
-0.000420 -0.001186 0.000050 0.000000
-0.000023 -0.000173 0.000048 0.000000
-0.000756 -0.000843 0.000101 0.000000
-0.000073 -0.001554 0.000303 0.000000
-0.000257 -0.001380 0.000177 0.000000
-0.000166 -0.001328 0.000382 0.000000
-0.000181 -0.001381 0.000264 0.000000
0.000202 -0.001742 0.000393 0.000000
-0.000016 -0.001622 0.000378 0.000000
-0.000146 -0.001497 0.000428 0.000000
-0.000051 -0.001509 0.000399 0.000000
-0.000287 -0.001119 0.000480 0.000000
-0.000296 -0.001156 0.000256 0.000000
0.000241 -0.001899 0.000208 0.000000
0.000193 -0.002144 0.000274 0.000000
0.000076 -0.001672 0.000403 0.000000
0.000072 -0.001625 0.000459 0.000000
0.000033 -0.001640 0.000470 0.000000
0.000146 -0.001773 0.000570 0.000000
0.000064 -0.001672 0.000409 0.000000
0.000079 -0.001710 0.000371 0.000000
0.000137 -0.001927 0.000481 0.000000
0.000311 -0.002148 0.000259 0.000000
0.000085 -0.001784 0.000322 0.000000
0.000015 -0.001790 0.000362 0.000000
-0.000008 -0.002137 -0.000400 0.000000
0.000100 -0.002095 0.000004 0.000000
0.000166 -0.002014 0.000022 0.000000
0.000409 -0.002523 -0.000133 0.000000
0.000126 -0.000321 -0.000083 0.000000
0.000260 -0.002054 0.000152 0.000000
0.000104 -0.000306 -0.000053 0.000000
0.000065 -0.000281 -0.000112 0.000000
0.000125 -0.000311 -0.000090 0.000000
0.000086 -0.000275 -0.000074 0.000000
0.000105 -0.000267 0.000015 0.000000
0.000222 -0.001807 0.000306 0.000000
0.000052 -0.001684 0.000465 0.000000
0.000109 -0.000269 0.000083 0.000000
0.000104 -0.000262 0.000033 0.000000
0.000089 -0.000265 -0.000065 0.000000
0.000067 -0.000243 -0.000042 0.000000
0.000078 -0.000262 -0.000016 0.000000
0.000132 -0.000324 -0.000082 0.000000
0.000120 -0.000313 -0.000058 0.000000
0.000102 -0.000286 -0.000085 0.000000
0.000114 -0.000312 -0.000099 0.000000
0.000094 -0.000286 -0.000081 0.000000
0.000077 -0.000261 -0.000053 0.000000
0.000122 -0.000310 -0.000052 0.000000
0.000357 -0.002240 0.000155 0.000000
0.000121 -0.000312 -0.000062 0.000000
0.000133 -0.000326 -0.000061 0.000000
0.000141 -0.000309 -0.000034 0.000000
0.000115 -0.000289 -0.000027 0.000000
0.000163 -0.000336 -0.000109 0.000000
0.000133 -0.000316 -0.000072 0.000000
0.000779 -0.002887 -0.001028 0.000000
0.000177 -0.000377 -0.000037 0.000000
0.000381 -0.002118 -0.000460 0.000000
0.000157 -0.000359 -0.000076 0.000000
0.000117 -0.002068 -0.000545 0.000000
0.000130 -0.000330 -0.000089 0.000000
0.000112 -0.000309 -0.000058 0.000000
0.000083 -0.002083 -0.000630 0.000000
0.000109 -0.000309 -0.000079 0.000000
0.000128 -0.000315 -0.000101 0.000000
0.000089 -0.000298 -0.000069 0.000000
0.000107 -0.002062 -0.000544 0.000000
0.000056 -0.002167 -0.000713 0.000000
0.000039 -0.002068 -0.000519 0.000000
0.000084 -0.002096 -0.000620 0.000000
0.000060 -0.002112 -0.000441 0.000000
0.000179 -0.002086 -0.000436 0.000000
0.000691 -0.002689 -0.000819 0.000000
0.000373 -0.002360 -0.000547 0.000000
0.000392 -0.002304 -0.001027 0.000000
0.000325 -0.002160 -0.000019 0.000000
0.000237 -0.002241 -0.000675 0.000000
0.000543 -0.002511 -0.000285 0.000000
0.000481 -0.002553 -0.000972 0.000000
0.000523 -0.002287 -0.000760 0.000000
0.000268 -0.002077 -0.000511 0.000000
0.000494 -0.002568 0.000366 0.000000
0.000473 -0.002363 0.000176 0.000000
0.000551 -0.002432 -0.000052 0.000000
0.000551 -0.002174 -0.000186 0.000000
0.000416 -0.002052 0.000067 0.000000
0.000632 -0.002402 -0.000522 0.000000
0.000823 -0.002677 -0.000280 0.000000
0.001100 -0.002922 -0.000547 0.000000
-0.000409 -0.001252 -0.000139 0.000000
-0.000287 -0.001418 -0.000030 0.000000
0.000198 -0.002171 -0.000116 0.000000
-0.000267 -0.001599 -0.000007 0.000000
-0.000358 -0.001328 -0.000163 0.000000
-0.000387 -0.001372 -0.000097 0.000000
0.000102 -0.001665 -0.000311 0.000000
0.000067 -0.001623 -0.001015 0.000000
-0.000338 -0.001096 -0.000335 0.000000
-0.000243 -0.001352 -0.000304 0.000000
-0.000163 -0.001739 -0.000352 0.000000
0.000372 -0.002295 0.000225 0.000000
0.000230 -0.000383 0.000012 0.000000
0.000520 -0.002499 -0.000324 0.000000
0.000453 -0.002156 0.000009 0.000000
0.000530 -0.002188 -0.000057 0.000000
0.000160 -0.000370 0.000046 0.000000
0.000159 -0.000328 -0.000060 0.000000
0.000176 -0.000377 0.000005 0.000000
0.000232 -0.000383 -0.000033 0.000000
0.000158 -0.000415 0.000060 0.000000
-0.000195 -0.001323 -0.000424 0.000000
0.000463 -0.002085 -0.000857 0.000000
0.000065 -0.000287 0.000126 0.000000
0.000234 -0.000387 0.000043 0.000000
0.000082 -0.000274 0.000059 0.000000
-0.000101 -0.001401 -0.001005 0.000000
0.000490 -0.001769 -0.001343 0.000000
-0.000280 -0.001142 -0.000643 0.000000
-0.000165 -0.001261 -0.000494 0.000000
-0.000163 -0.001033 -0.001206 0.000000
0.000080 -0.001331 -0.001246 0.000000
0.000247 -0.001879 -0.001009 0.000000
0.000125 -0.000350 0.000146 0.000000
0.000086 -0.000253 -0.000009 0.000000
0.000022 -0.000195 -0.000001 0.000000
0.000102 -0.000264 -0.000015 0.000000
0.000100 -0.000272 0.000029 0.000000
0.000203 -0.000460 0.000175 0.000000
0.000269 -0.001529 -0.001306 0.000000
0.000202 -0.000350 0.000101 0.000000
0.000142 -0.000358 0.000053 0.000000
0.000168 -0.000328 -0.000015 0.000000
0.000118 -0.000299 -0.000025 0.000000
0.000137 -0.000324 -0.000016 0.000000
0.000175 -0.000332 -0.000037 0.000000
0.000135 -0.000310 -0.000048 0.000000
0.000140 -0.000330 -0.000042 0.000000
0.000123 -0.000313 -0.000061 0.000000
0.000114 -0.000297 -0.000039 0.000000
0.000115 -0.000287 -0.000031 0.000000
0.000109 -0.000276 -0.000023 0.000000
0.000124 -0.000302 -0.000041 0.000000
0.000123 -0.000309 -0.000040 0.000000
0.000119 -0.000306 -0.000014 0.000000
0.000132 -0.000300 0.000013 0.000000
0.000134 -0.000300 -0.000024 0.000000
0.000108 -0.000285 -0.000027 0.000000
0.000118 -0.000285 -0.000024 0.000000
0.000096 -0.000265 -0.000022 0.000000
0.000094 -0.000264 -0.000002 0.000000
0.000099 -0.000266 -0.000024 0.000000
0.000095 -0.000260 -0.000021 0.000000
0.000087 -0.000254 -0.000019 0.000000
0.000102 -0.000268 -0.000066 0.000000
0.000088 -0.000248 -0.000045 0.000000
0.000117 -0.000302 -0.000079 0.000000
0.000101 -0.000285 -0.000073 0.000000
0.000103 -0.000265 -0.000053 0.000000
0.000088 -0.000251 -0.000029 0.000000
0.000091 -0.000264 -0.000045 0.000000
0.000087 -0.000264 -0.000059 0.000000
0.000055 -0.000224 -0.000009 0.000000
0.000080 -0.000244 -0.000012 0.000000
0.000079 -0.000238 -0.000013 0.000000
0.000094 -0.000253 -0.000014 0.000000
0.000089 -0.000256 -0.000029 0.000000
0.000092 -0.000261 -0.000024 0.000000
0.000072 -0.000226 -0.000006 0.000000
0.000047 -0.000203 0.000012 0.000000
0.000085 -0.000244 -0.000009 0.000000
0.000093 -0.000260 0.000012 0.000000
0.000081 -0.000240 -0.000004 0.000000
0.000041 -0.000213 -0.000006 0.000000
0.000102 -0.000281 -0.000018 0.000000
0.000088 -0.000253 -0.000011 0.000000
0.000053 -0.000211 0.000029 0.000000
0.000071 -0.000227 0.000065 0.000000
0.000052 -0.000236 0.000038 0.000000
0.000070 -0.000240 -0.000001 0.000000
-0.000021 -0.000154 0.000017 0.000000
-0.000364 -0.000964 -0.000900 0.000000
0.000020 -0.000201 0.000015 0.000000
0.000048 -0.000225 0.000007 0.000000
0.000077 -0.000233 0.000013 0.000000
0.000067 -0.000219 0.000006 0.000000
-0.000240 -0.001072 -0.001081 0.000000
-0.000237 -0.000928 -0.001135 0.000000
0.000005 -0.000181 0.000006 0.000000
-0.000228 -0.000941 -0.001182 0.000000
-0.000077 -0.001150 -0.001225 0.000000
-0.000280 -0.000951 -0.000985 0.000000
-0.000186 -0.001204 -0.001053 0.000000
0.000015 -0.000183 0.000034 0.000000
-0.000255 -0.001028 -0.001593 0.000000
-0.000295 -0.000972 -0.000937 0.000000
-0.000315 -0.000894 -0.001025 0.000000
-0.000367 -0.000885 -0.000900 0.000000
-0.000110 -0.001124 -0.001558 0.000000
-0.000271 -0.000985 -0.001036 0.000000
-0.000284 -0.000912 -0.001121 0.000000
-0.000314 -0.000967 -0.001034 0.000000
0.000252 -0.000425 -0.000033 0.000000
0.000206 -0.000372 -0.000022 0.000000
0.000236 -0.000425 -0.000018 0.000000
0.000261 -0.000423 -0.000055 0.000000
0.000217 -0.000390 -0.000032 0.000000
0.000203 -0.000378 -0.000025 0.000000
0.000230 -0.000412 -0.000023 0.000000
0.000231 -0.000395 -0.000029 0.000000
0.000230 -0.000413 -0.000048 0.000000
0.000224 -0.000404 -0.000046 0.000000
0.000234 -0.000422 -0.000032 0.000000
0.000230 -0.000415 -0.000030 0.000000
0.000260 -0.000444 -0.000041 0.000000
0.000252 -0.000438 -0.000030 0.000000
0.000312 -0.000476 -0.000121 0.000000
0.000254 -0.000445 -0.000018 0.000000
0.000248 -0.000394 -0.000126 0.000000
0.000250 -0.000441 -0.000108 0.000000
0.000238 -0.000432 -0.000042 0.000000
0.000240 -0.000425 -0.000059 0.000000
0.000263 -0.000449 -0.000059 0.000000
0.000250 -0.000460 -0.000034 0.000000
0.000248 -0.000421 -0.000059 0.000000
0.000232 -0.000409 -0.000050 0.000000
0.000232 -0.000428 -0.000023 0.000000
0.000258 -0.000437 -0.000033 0.000000
0.000258 -0.000453 -0.000086 0.000000
0.000262 -0.000435 -0.000078 0.000000
0.000308 -0.000473 -0.000153 0.000000
0.000224 -0.000423 -0.000055 0.000000
0.000246 -0.000450 -0.000104 0.000000
0.000234 -0.000437 -0.000047 0.000000
0.000242 -0.000439 -0.000054 0.000000
0.000243 -0.000471 0.000011 0.000000
-0.000458 -0.000753 -0.001093 0.000000
0.000323 -0.000499 -0.000082 0.000000
-0.000448 -0.000918 -0.001076 0.000000
-0.000534 -0.000683 -0.000947 0.000000
0.000291 -0.000492 -0.000053 0.000000
0.000264 -0.000485 -0.000006 0.000000
-0.000375 -0.000763 -0.001311 0.000000
-0.000364 -0.000981 -0.001316 0.000000
-0.000297 -0.000976 -0.000898 0.000000
-0.000423 -0.000941 -0.000786 0.000000
-0.000295 -0.000999 -0.000855 0.000000
-0.000379 -0.000943 -0.000735 0.000000
-0.000530 -0.000848 -0.000918 0.000000
-0.000223 -0.001167 -0.000611 0.000000
-0.000312 -0.001041 -0.000755 0.000000
-0.000621 -0.000801 -0.000741 0.000000
-0.000398 -0.000949 -0.000655 0.000000
-0.000230 -0.001245 -0.000505 0.000000
-0.000548 -0.000901 -0.000440 0.000000
-0.000370 -0.000995 -0.000552 0.000000
-0.000464 -0.001042 -0.000258 0.000000
-0.000338 -0.001081 -0.000375 0.000000
-0.000507 -0.000907 -0.000639 0.000000
-0.000437 -0.000821 -0.000797 0.000000
-0.000571 -0.000715 -0.000428 0.000000
-0.000504 -0.000774 -0.000601 0.000000
-0.000036 -0.000228 0.000081 0.000000
-0.000590 -0.001245 0.000634 0.000000
-0.000597 -0.000912 -0.000219 0.000000
-0.000737 -0.000729 -0.000535 0.000000
-0.000605 -0.000728 -0.000190 0.000000
-0.000439 -0.000899 -0.000405 0.000000
-0.000464 -0.001189 -0.000118 0.000000
-0.000368 -0.001181 -0.000190 0.000000
-0.000478 -0.001043 -0.000229 0.000000
-0.000474 -0.000936 -0.000265 0.000000
-0.000450 -0.001107 -0.000138 0.000000
-0.000393 -0.001206 -0.000237 0.000000
-0.000444 -0.001142 0.000360 0.000000
-0.000530 -0.001001 -0.000031 0.000000
-0.000748 -0.000836 0.000386 0.000000
-0.000538 -0.001151 0.000141 0.000000
-0.000193 -0.001233 0.001005 0.000000
0.000164 -0.000374 -0.000034 0.000000
-0.000849 -0.000222 -0.000086 0.000000
-0.000060 -0.000159 0.000042 0.000000
0.000081 -0.000327 0.000006 0.000000
0.000052 -0.000233 -0.000092 0.000000
-0.000004 -0.000242 -0.000018 0.000000
0.000143 -0.000333 0.000004 0.000000
-0.000764 -0.000412 -0.000498 0.000000
0.000026 -0.000231 0.000025 0.000000
0.000261 -0.000489 -0.000209 0.000000
0.000366 -0.000545 -0.000219 0.000000
0.000137 -0.000313 -0.000119 0.000000
0.000223 -0.000391 -0.000187 0.000000
0.000188 -0.000376 -0.000296 0.000000
0.000260 -0.000453 -0.000213 0.000000
0.000108 -0.000292 -0.000184 0.000000
0.000140 -0.000381 -0.000154 0.000000
0.000394 -0.000580 -0.000162 0.000000
0.000289 -0.000493 -0.000268 0.000000
0.000372 -0.000587 -0.000219 0.000000
0.000352 -0.000546 -0.000227 0.000000
0.000362 -0.000557 -0.000059 0.000000
0.000384 -0.000594 -0.000139 0.000000
0.000315 -0.000489 -0.000203 0.000000
0.000350 -0.000528 -0.000192 0.000000
0.000358 -0.000559 -0.000117 0.000000
0.000376 -0.000559 -0.000141 0.000000
0.000212 -0.000403 -0.000121 0.000000
0.000234 -0.000435 -0.000083 0.000000
0.000216 -0.000437 -0.000151 0.000000
0.000317 -0.000499 -0.000164 0.000000
0.000078 -0.000274 -0.000036 0.000000
0.000180 -0.000379 -0.000089 0.000000
0.000229 -0.000429 -0.000075 0.000000
0.000216 -0.000414 -0.000064 0.000000
0.000224 -0.000437 -0.000036 0.000000
0.000212 -0.000423 -0.000051 0.000000
0.000308 -0.000500 -0.000156 0.000000
0.000317 -0.000486 -0.000107 0.000000
0.000284 -0.000450 -0.000117 0.000000
0.000286 -0.000487 -0.000118 0.000000
0.000247 -0.000437 -0.000095 0.000000
0.000263 -0.000440 -0.000143 0.000000
0.000295 -0.000488 -0.000020 0.000000
0.000223 -0.000405 -0.000012 0.000000
0.000306 -0.000488 -0.000042 0.000000
0.000288 -0.000477 -0.000082 0.000000
0.000199 -0.000392 0.000049 0.000000
0.000311 -0.000487 0.000003 0.000000
0.000263 -0.000465 0.000035 0.000000
0.000250 -0.000428 0.000028 0.000000
0.000133 -0.000371 0.000100 0.000000
0.000303 -0.000484 0.000164 0.000000
0.000155 -0.000380 0.000095 0.000000
0.000322 -0.000520 0.000028 0.000000
0.000273 -0.000450 0.000060 0.000000
0.000286 -0.000459 0.000108 0.000000
0.000293 -0.000466 -0.000021 0.000000
0.000287 -0.000463 0.000009 0.000000
0.000368 -0.000579 0.000054 0.000000
0.000365 -0.000566 -0.000013 0.000000
0.000339 -0.000527 -0.000042 0.000000
0.000401 -0.000577 0.000025 0.000000
0.000426 -0.000607 0.000073 0.000000
0.000420 -0.000602 -0.000047 0.000000
0.000393 -0.000598 -0.000042 0.000000
0.000369 -0.000566 -0.000053 0.000000
0.000247 -0.000481 0.000183 0.000000
0.000197 -0.000439 0.000201 0.000000
0.000345 -0.000528 0.000063 0.000000
0.000324 -0.000560 0.000189 0.000000
0.000215 -0.000404 0.000107 0.000000
0.000153 -0.000381 0.000087 0.000000
0.000233 -0.000457 0.000129 0.000000
0.000236 -0.000420 0.000153 0.000000
0.000273 -0.000482 0.000073 0.000000
0.000296 -0.000525 0.000130 0.000000
0.000134 -0.000385 0.000140 0.000000
0.000171 -0.000402 0.000105 0.000000
0.000132 -0.000336 0.000103 0.000000
0.000192 -0.000381 0.000173 0.000000
0.000169 -0.000404 0.000106 0.000000
0.000084 -0.000272 -0.000104 0.000000
0.000096 -0.000348 0.000060 0.000000
0.000132 -0.000340 0.000160 0.000000
0.000148 -0.000404 -0.000094 0.000000
-0.000455 -0.001041 -0.000411 0.000000
0.000145 -0.000375 0.000065 0.000000
-0.000630 -0.000596 -0.000812 0.000000
-0.000497 -0.000971 -0.000142 0.000000
-0.000555 -0.000888 -0.000406 0.000000
-0.000518 -0.000874 -0.000473 0.000000
-0.000616 -0.000938 -0.000893 0.000000
-0.000557 -0.000819 -0.000116 0.000000
-0.000525 -0.000869 -0.000139 0.000000
-0.000671 -0.000765 -0.000619 0.000000
0.000150 -0.000379 0.000095 0.000000
0.000202 -0.000445 0.000044 0.000000
0.000180 -0.000394 0.000016 0.000000
0.000174 -0.000367 0.000125 0.000000
0.000179 -0.000386 0.000082 0.000000
0.000200 -0.000398 0.000135 0.000000
-0.000675 -0.000543 -0.000562 0.000000
0.000174 -0.000384 0.000065 0.000000
0.000199 -0.000403 0.000045 0.000000
-0.000673 -0.000650 -0.000381 0.000000
-0.000668 -0.000589 -0.000121 0.000000
0.000166 -0.000397 0.000134 0.000000
-0.000696 -0.000573 -0.000322 0.000000
0.000160 -0.000367 0.000124 0.000000
-0.000727 -0.000453 -0.000309 0.000000
-0.000693 -0.000544 -0.000086 0.000000
-0.000745 -0.000443 -0.000051 0.000000
-0.000793 -0.000384 -0.000132 0.000000
-0.000769 -0.000374 -0.000052 0.000000
-0.000796 -0.000358 -0.000021 0.000000
0.000028 -0.000248 0.000051 0.000000
-0.000904 -0.000304 0.000041 0.000000
-0.000823 -0.000237 -0.000116 0.000000
0.000135 -0.000335 0.000111 0.000000
0.000084 -0.000287 0.000085 0.000000
0.000206 -0.000398 0.000050 0.000000
0.000048 -0.000233 0.000097 0.000000
-0.000763 -0.000481 -0.000238 0.000000
0.000152 -0.000361 0.000133 0.000000
0.000097 -0.000305 0.000152 0.000000
0.000207 -0.000400 0.000033 0.000000
0.000171 -0.000378 0.000083 0.000000
0.000202 -0.000396 0.000051 0.000000
0.000186 -0.000389 0.000060 0.000000
0.000207 -0.000402 0.000033 0.000000
0.000221 -0.000413 0.000017 0.000000
0.000297 -0.000471 -0.000058 0.000000
0.000270 -0.000453 -0.000069 0.000000
0.000258 -0.000435 -0.000004 0.000000
0.000227 -0.000399 -0.000039 0.000000
0.000242 -0.000429 -0.000028 0.000000
0.000249 -0.000431 -0.000038 0.000000
0.000169 -0.000351 0.000055 0.000000
0.000168 -0.000376 0.000077 0.000000
0.000211 -0.000393 0.000016 0.000000
0.000210 -0.000393 0.000028 0.000000
0.000221 -0.000414 0.000012 0.000000
0.000227 -0.000413 0.000008 0.000000
0.000190 -0.000375 0.000042 0.000000
0.000215 -0.000397 0.000033 0.000000
0.000220 -0.000408 -0.000019 0.000000
0.000227 -0.000415 -0.000033 0.000000
0.000239 -0.000407 -0.000051 0.000000
0.000223 -0.000390 -0.000041 0.000000
0.000239 -0.000420 -0.000052 0.000000
0.000233 -0.000415 -0.000058 0.000000
0.000192 -0.000366 -0.000040 0.000000
0.000207 -0.000357 -0.000004 0.000000
0.000224 -0.000403 -0.000049 0.000000
0.000225 -0.000395 -0.000043 0.000000
0.000183 -0.000350 0.000047 0.000000
0.000197 -0.000366 0.000057 0.000000
0.000187 -0.000353 0.000029 0.000000
0.000192 -0.000374 0.000027 0.000000
0.000197 -0.000363 -0.000005 0.000000
0.000202 -0.000373 0.000018 0.000000
0.000135 -0.000327 0.000032 0.000000
-0.000667 -0.000422 0.000278 0.000000
0.000171 -0.000366 0.000057 0.000000
0.000131 -0.000310 0.000005 0.000000
0.000165 -0.000328 0.000073 0.000000
0.000198 -0.000378 0.000047 0.000000
0.000171 -0.000353 0.000029 0.000000
0.000165 -0.000331 0.000057 0.000000
-0.000809 -0.000238 0.000221 0.000000
-0.000792 -0.000304 0.000021 0.000000
0.000097 -0.000295 0.000040 0.000000
0.000084 -0.000252 0.000069 0.000000
-0.000789 -0.000336 0.000038 0.000000
-0.000711 -0.000340 0.000316 0.000000
-0.000610 -0.000462 0.000083 0.000000
0.000117 -0.000312 -0.000008 0.000000
-0.000770 -0.000350 0.000220 0.000000
-0.000700 -0.000392 0.000065 0.000000
0.000141 -0.000325 0.000014 0.000000
-0.000652 -0.000409 0.000130 0.000000
0.000157 -0.000345 0.000005 0.000000
-0.000587 -0.000490 0.000332 0.000000
0.000147 -0.000326 0.000008 0.000000
0.000159 -0.000349 0.000036 0.000000
0.000149 -0.000329 0.000022 0.000000
0.000238 -0.000432 0.000165 0.000000
0.000157 -0.000330 0.000032 0.000000
0.000131 -0.000308 0.000006 0.000000
-0.000621 -0.000406 0.000361 0.000000
-0.000564 -0.000477 0.000153 0.000000
0.000172 -0.000371 -0.000008 0.000000
0.000211 -0.000407 0.000027 0.000000
0.000236 -0.000431 0.000082 0.000000
-0.000548 -0.000446 0.000424 0.000000
-0.000455 -0.000648 0.000529 0.000000
-0.000447 -0.000614 0.000127 0.000000
-0.000250 -0.001140 0.000487 0.000000
-0.000373 -0.000698 0.000153 0.000000
0.000240 -0.000364 0.000136 0.000000
0.000107 -0.000271 0.000036 0.000000
0.000179 -0.000318 0.000030 0.000000
0.000101 -0.000278 -0.000014 0.000000
-0.000417 -0.000490 0.000689 0.000000
-0.000481 -0.000477 0.000523 0.000000
0.000228 -0.000367 0.000079 0.000000
0.000171 -0.000358 0.000019 0.000000
0.000149 -0.000331 0.000020 0.000000
0.000162 -0.000315 0.000039 0.000000
0.000163 -0.000304 -0.000087 0.000000
0.000118 -0.000260 -0.000061 0.000000
0.000218 -0.000364 -0.000042 0.000000
0.000157 -0.000321 -0.000066 0.000000
0.000183 -0.000323 -0.000088 0.000000
0.000167 -0.000309 -0.000071 0.000000
0.000217 -0.000371 -0.000036 0.000000
0.000185 -0.000341 -0.000089 0.000000
0.000128 -0.000267 0.000016 0.000000
0.000230 -0.000373 -0.000039 0.000000
0.000236 -0.000370 0.000076 0.000000
0.000222 -0.000379 0.000020 0.000000
0.000228 -0.000373 0.000019 0.000000
0.000222 -0.000371 0.000013 0.000000
0.000225 -0.000364 -0.000003 0.000000
0.000177 -0.000332 0.000045 0.000000
0.000203 -0.000359 -0.000022 0.000000
0.000149 -0.000330 -0.000035 0.000000
0.000225 -0.000381 -0.000009 0.000000
0.000187 -0.000357 -0.000006 0.000000
0.000183 -0.000322 -0.000067 0.000000
0.000134 -0.000272 -0.000060 0.000000
0.000188 -0.000333 -0.000021 0.000000
0.000209 -0.000350 -0.000039 0.000000
0.000149 -0.000327 0.000018 0.000000
0.000167 -0.000333 0.000030 0.000000
0.000185 -0.000355 -0.000003 0.000000
0.000161 -0.000334 -0.000013 0.000000
0.000197 -0.000353 -0.000013 0.000000
0.000211 -0.000361 -0.000013 0.000000
0.000207 -0.000372 -0.000025 0.000000
0.000210 -0.000365 -0.000007 0.000000
0.000203 -0.000363 -0.000015 0.000000
0.000207 -0.000380 -0.000042 0.000000
0.000205 -0.000368 -0.000035 0.000000
0.000206 -0.000382 -0.000051 0.000000
0.000180 -0.000357 -0.000044 0.000000
0.000212 -0.000378 -0.000035 0.000000
0.000193 -0.000341 0.000013 0.000000
0.000194 -0.000349 -0.000021 0.000000
0.000207 -0.000375 -0.000030 0.000000
0.000217 -0.000394 -0.000045 0.000000
0.000238 -0.000407 -0.000032 0.000000
0.000225 -0.000373 -0.000017 0.000000
0.000208 -0.000380 -0.000034 0.000000
0.000225 -0.000400 -0.000036 0.000000
0.000224 -0.000404 -0.000035 0.000000
0.000219 -0.000401 -0.000033 0.000000
0.000225 -0.000388 -0.000031 0.000000
0.000231 -0.000406 -0.000034 0.000000
0.000246 -0.000427 -0.000040 0.000000
0.000243 -0.000427 -0.000072 0.000000
-0.000231 -0.000943 -0.001153 0.000000
-0.000278 -0.000962 -0.001016 0.000000
-0.000007 -0.000159 0.000024 0.000000
-0.000020 -0.000135 -0.000020 0.000000
0.000010 -0.000178 -0.000006 0.000000
-0.000020 -0.000144 0.000008 0.000000
-0.000257 -0.000949 -0.001125 0.000000
-0.000021 -0.000139 -0.000015 0.000000
-0.000004 -0.000165 -0.000003 0.000000
0.000010 -0.000167 -0.000007 0.000000
0.000218 -0.000387 -0.000033 0.000000
0.000230 -0.000392 -0.000024 0.000000
-0.000065 -0.001087 -0.001427 0.000000
0.000229 -0.000391 -0.000024 0.000000
-0.000211 -0.000910 -0.001201 0.000000
-0.000192 -0.000942 -0.001359 0.000000
0.000009 -0.000133 -0.000131 0.000000
-0.000076 -0.001084 -0.001427 0.000000
-0.000003 -0.000127 -0.000090 0.000000
-0.000154 -0.001040 -0.001309 0.000000
-0.000009 -0.000150 -0.000016 0.000000
-0.000015 -0.000140 -0.000043 0.000000
-0.000004 -0.000154 -0.000004 0.000000
-0.000007 -0.000142 -0.000012 0.000000
-0.000010 -0.000139 -0.000025 0.000000
-0.000031 -0.000100 -0.000009 0.000000
-0.000008 -0.000138 -0.000023 0.000000
-0.000009 -0.000138 -0.000034 0.000000
0.000005 -0.000156 -0.000100 0.000000
-0.000148 -0.000921 -0.001286 0.000000
-0.000184 -0.000949 -0.001197 0.000000
-0.000216 -0.000938 -0.001169 0.000000
-0.000007 -0.000146 -0.000071 0.000000
-0.000021 -0.000112 -0.000005 0.000000
0.000124 -0.000310 -0.000032 0.000000
0.000208 -0.000368 -0.000026 0.000000
0.000247 -0.000383 -0.000017 0.000000
0.000203 -0.000368 -0.000029 0.000000
0.000204 -0.000366 -0.000015 0.000000
0.000228 -0.000395 -0.000011 0.000000
-0.000068 -0.001100 -0.001474 0.000000
0.000225 -0.000394 0.000011 0.000000
0.000211 -0.000351 0.000024 0.000000
0.000205 -0.000365 0.000005 0.000000
0.000195 -0.000355 -0.000022 0.000000
0.000150 -0.000294 0.000014 0.000000
0.000227 -0.000371 0.000045 0.000000
0.000195 -0.000335 0.000041 0.000000
0.000190 -0.000351 0.000024 0.000000
0.000177 -0.000333 -0.000018 0.000000
0.000199 -0.000357 -0.000023 0.000000
0.000180 -0.000325 0.000062 0.000000
0.000267 -0.000387 0.000096 0.000000
0.000179 -0.000326 0.000060 0.000000
0.000109 -0.000290 -0.000042 0.000000
0.000119 -0.000265 0.000027 0.000000
0.000123 -0.001482 0.000063 0.000000
0.000213 -0.000342 0.000066 0.000000
-0.000115 -0.001019 -0.001227 0.000000
0.000164 -0.000320 -0.000066 0.000000
-0.000022 -0.000100 -0.000211 0.000000
-0.000363 -0.000671 0.000189 0.000000
-0.000127 -0.000948 -0.001306 0.000000
-0.000018 -0.000175 -0.000321 0.000000
-0.000090 -0.000971 -0.001344 0.000000
-0.000148 -0.000909 -0.001207 0.000000
0.000011 -0.000166 -0.000110 0.000000
-0.000140 -0.000971 -0.001243 0.000000
-0.000018 -0.000115 -0.000044 0.000000
0.000021 -0.000140 -0.000155 0.000000
-0.000002 -0.000127 -0.000069 0.000000
-0.000011 -0.000126 -0.000029 0.000000
-0.000010 -0.000132 -0.000014 0.000000
-0.000012 -0.000131 -0.000015 0.000000
-0.000007 -0.000144 -0.000014 0.000000
-0.000010 -0.000134 -0.000014 0.000000
-0.000009 -0.000133 -0.000009 0.000000
-0.000007 -0.000134 -0.000011 0.000000
-0.000017 -0.000116 -0.000005 0.000000
-0.000011 -0.000133 -0.000012 0.000000
-0.000005 -0.000121 -0.000078 0.000000
-0.000004 -0.000105 -0.000177 0.000000
-0.000031 -0.000102 -0.000051 0.000000
-0.000005 -0.000131 -0.000046 0.000000
-0.000016 -0.000112 -0.000020 0.000000
-0.000013 -0.000121 -0.000014 0.000000
-0.000012 -0.000152 -0.000231 0.000000
-0.000086 -0.000855 0.000103 0.000000
0.000007 -0.000147 -0.000104 0.000000
-0.000034 -0.000112 -0.000132 0.000000
-0.000026 -0.000103 -0.000012 0.000000
0.000001 -0.000144 -0.000102 0.000000
-0.000018 -0.000119 -0.000008 0.000000
-0.000017 -0.000120 -0.000005 0.000000
-0.000038 -0.000105 -0.000042 0.000000
-0.000033 -0.000109 -0.000051 0.000000
-0.000024 -0.000106 -0.000006 0.000000
-0.000024 -0.000102 -0.000009 0.000000
-0.000020 -0.000130 -0.000097 0.000000
-0.000187 -0.000744 0.000359 0.000000
0.000022 -0.000126 -0.000134 0.000000
0.000000 -0.000111 -0.000147 0.000000
-0.000170 -0.000771 0.000214 0.000000
0.000036 -0.000851 0.000558 0.000000
-0.000265 -0.000574 0.000528 0.000000
-0.000290 -0.000681 0.000376 0.000000
0.000494 -0.001676 0.000179 0.000000
0.000175 -0.001308 -0.000162 0.000000
-0.000201 -0.000842 -0.000336 0.000000
-0.000174 -0.000854 0.000168 0.000000
0.000122 -0.001319 0.000078 0.000000
0.000428 -0.001687 0.000185 0.000000
-0.000032 -0.001240 0.000131 0.000000
0.000466 -0.001825 -0.000043 0.000000
0.000238 -0.001558 -0.000235 0.000000
0.000235 -0.000361 -0.000089 0.000000
0.000241 -0.001549 -0.000217 0.000000
0.000391 -0.001771 -0.000072 0.000000
0.000445 -0.001563 0.000464 0.000000
-0.000015 -0.001123 -0.000064 0.000000
0.000236 -0.001650 -0.000158 0.000000
0.000305 -0.001626 0.000184 0.000000
0.000248 -0.000393 -0.000037 0.000000
0.000241 -0.001621 -0.000173 0.000000
0.000433 -0.001779 0.000125 0.000000
0.000071 -0.001226 0.000135 0.000000
0.000270 -0.001682 -0.000131 0.000000
0.000265 -0.001631 -0.000175 0.000000
0.000202 -0.000348 -0.000091 0.000000
0.000209 -0.000364 -0.000103 0.000000
0.000334 -0.001812 -0.000253 0.000000
0.000368 -0.001722 -0.000097 0.000000
0.000264 -0.001681 -0.000129 0.000000
0.000389 -0.001776 -0.000163 0.000000
0.000249 -0.001612 -0.000143 0.000000
0.000233 -0.001576 -0.000207 0.000000
0.000212 -0.000360 0.000010 0.000000
0.000245 -0.001679 -0.000067 0.000000
0.000240 -0.001675 -0.000069 0.000000
0.000248 -0.001641 -0.000135 0.000000
0.000212 -0.000365 0.000034 0.000000
0.000232 -0.001687 -0.000090 0.000000
0.000226 -0.000381 0.000037 0.000000
0.000233 -0.000396 0.000056 0.000000
0.000213 -0.000368 -0.000097 0.000000
0.000234 -0.000386 -0.000025 0.000000
0.000228 -0.000383 -0.000017 0.000000
0.000221 -0.000370 0.000009 0.000000
0.000207 -0.000348 -0.000090 0.000000
-0.000092 -0.001014 0.000063 0.000000
0.000346 -0.001728 0.000066 0.000000
0.000204 -0.000356 0.000002 0.000000
0.000215 -0.001684 -0.000152 0.000000
0.000216 -0.000363 0.000004 0.000000
0.000202 -0.000340 -0.000035 0.000000
-0.000221 -0.001026 0.000188 0.000000
0.000160 -0.001536 0.000066 0.000000
0.000351 -0.001645 0.000020 0.000000
0.000240 -0.001391 0.000284 0.000000
-0.000039 -0.001380 0.000268 0.000000
0.000177 -0.001371 0.000085 0.000000
0.000338 -0.001555 0.000077 0.000000
-0.000396 -0.000727 0.000088 0.000000
-0.000349 -0.000752 0.000583 0.000000
0.000097 -0.001150 0.000622 0.000000
-0.000073 -0.001053 0.000253 0.000000
-0.000423 -0.000697 0.000124 0.000000
-0.000367 -0.000731 0.000064 0.000000
-0.000404 -0.000775 0.000148 0.000000
-0.000082 -0.001224 0.000092 0.000000
-0.000179 -0.000991 0.000025 0.000000
-0.000179 -0.000984 -0.000025 0.000000
-0.000297 -0.000768 -0.000002 0.000000
0.000106 -0.001248 0.000163 0.000000
0.000334 -0.001644 0.000015 0.000000
0.000226 -0.001458 0.000204 0.000000
0.000109 -0.001370 0.000072 0.000000
0.000376 -0.001708 -0.000019 0.000000
0.000299 -0.001538 0.000288 0.000000
0.000231 -0.000392 0.000156 0.000000
0.000162 -0.001345 0.000063 0.000000
0.000237 -0.001488 0.000137 0.000000
0.000376 -0.001722 0.000140 0.000000
-0.000348 -0.000740 0.000014 0.000000
-0.000165 -0.000789 -0.000144 0.000000
-0.000269 -0.000741 -0.000051 0.000000
-0.000056 -0.000732 -0.000645 0.000000
-0.000019 -0.001034 -0.000173 0.000000
-0.000307 -0.000729 -0.000024 0.000000
-0.000237 -0.000768 -0.000015 0.000000
-0.000228 -0.000709 -0.000009 0.000000
-0.000249 -0.000711 -0.000041 0.000000
0.000197 -0.000306 0.000059 0.000000
-0.000205 -0.000696 -0.000120 0.000000
-0.000151 -0.000604 -0.000505 0.000000
-0.000201 -0.000734 -0.000160 0.000000
0.000167 -0.001397 0.000198 0.000000
0.000187 -0.000340 0.000179 0.000000
-0.000280 -0.000803 0.000006 0.000000
-0.000229 -0.000836 -0.000033 0.000000
0.000209 -0.001293 0.000011 0.000000
-0.000135 -0.000833 -0.000448 0.000000
0.000246 -0.001411 0.000216 0.000000
0.000130 -0.000244 0.000088 0.000000
0.000258 -0.001509 0.000340 0.000000
0.000142 -0.000272 0.000123 0.000000
0.000234 -0.000373 0.000097 0.000000
0.000256 -0.000364 0.000126 0.000000
0.000267 -0.001677 -0.000094 0.000000
0.000237 -0.000364 -0.000063 0.000000
0.000258 -0.000399 0.000033 0.000000
0.000241 -0.000367 -0.000037 0.000000
0.000261 -0.000379 0.000003 0.000000
0.000247 -0.000381 -0.000002 0.000000
-0.000022 -0.000962 -0.000435 0.000000
0.000023 -0.001313 -0.000111 0.000000
0.000213 -0.000324 0.000123 0.000000
0.000229 -0.000318 0.000118 0.000000
0.000183 -0.000316 0.000125 0.000000
0.000177 -0.000284 0.000086 0.000000
0.000139 -0.000257 0.000044 0.000000
0.000177 -0.000301 0.000084 0.000000
0.000124 -0.000246 0.000067 0.000000
0.000179 -0.000294 0.000098 0.000000
0.000230 -0.000361 0.000057 0.000000
0.000175 -0.000298 0.000055 0.000000
0.000221 -0.000317 0.000032 0.000000
0.000221 -0.000347 0.000023 0.000000
0.000147 -0.000246 0.000012 0.000000
0.000174 -0.000273 0.000051 0.000000
0.000221 -0.000336 -0.000011 0.000000
0.000242 -0.000341 -0.000025 0.000000
0.000150 -0.000260 0.000075 0.000000
0.000157 -0.000266 0.000085 0.000000
0.000143 -0.000259 0.000045 0.000000
0.000138 -0.000248 0.000064 0.000000
0.000185 -0.000278 0.000124 0.000000
-0.000233 -0.000565 -0.000039 0.000000
0.000140 -0.000248 0.000089 0.000000
-0.000247 -0.000530 -0.000025 0.000000
0.000158 -0.000302 0.000111 0.000000
0.000140 -0.000273 0.000107 0.000000
0.000150 -0.000269 0.000075 0.000000
0.000132 -0.000253 0.000065 0.000000
-0.000210 -0.000673 -0.000061 0.000000
-0.000220 -0.000531 -0.000169 0.000000
-0.000200 -0.000619 -0.000206 0.000000
-0.000210 -0.000610 -0.000044 0.000000
-0.000210 -0.000622 -0.000035 0.000000
-0.000268 -0.000554 -0.000236 0.000000
-0.000210 -0.000414 0.000453 0.000000
-0.000216 -0.000481 -0.000387 0.000000
0.000126 -0.000245 0.000092 0.000000
-0.000266 -0.000489 0.000035 0.000000
-0.000282 -0.000315 -0.000257 0.000000
0.000143 -0.000280 -0.000009 0.000000
-0.000410 -0.000461 0.000025 0.000000
0.000146 -0.000230 0.000021 0.000000
0.000094 -0.000223 0.000117 0.000000
0.000149 -0.000259 0.000074 0.000000
0.000149 -0.000257 0.000073 0.000000
0.000158 -0.000256 0.000067 0.000000
0.000171 -0.000274 0.000008 0.000000
0.000167 -0.000269 0.000074 0.000000
0.000146 -0.000260 0.000020 0.000000
-0.000214 -0.000535 0.000091 0.000000
-0.000296 -0.000279 0.000313 0.000000
-0.000260 -0.000498 0.000323 0.000000
0.000092 -0.000220 0.000009 0.000000
-0.000139 -0.000672 0.000450 0.000000
0.000257 -0.000387 -0.000027 0.000000
-0.000198 -0.000529 0.000062 0.000000
-0.000164 -0.000554 0.000118 0.000000
0.000206 -0.000292 0.000052 0.000000
-0.000057 -0.000768 0.000521 0.000000
0.000233 -0.000297 0.000042 0.000000
-0.000004 -0.000646 -0.000041 0.000000
0.000220 -0.001009 0.000033 0.000000
0.000157 -0.000253 0.000100 0.000000
0.000158 -0.000275 0.000056 0.000000
0.000166 -0.000274 0.000080 0.000000
0.000192 -0.000277 0.000082 0.000000
0.000167 -0.000257 0.000044 0.000000
0.000165 -0.000271 0.000023 0.000000
0.000134 -0.000229 0.000049 0.000000
0.000130 -0.000243 0.000084 0.000000
0.000153 -0.000256 0.000004 0.000000
0.000139 -0.000234 0.000055 0.000000
0.000173 -0.000259 0.000033 0.000000
0.000213 -0.000281 0.000058 0.000000
0.000179 -0.000262 0.000044 0.000000
0.000160 -0.000254 0.000024 0.000000
0.000148 -0.000256 -0.000031 0.000000
0.000156 -0.000250 0.000019 0.000000
0.000113 -0.000219 -0.000028 0.000000
0.000093 -0.000203 -0.000018 0.000000
0.000127 -0.000217 0.000012 0.000000
0.000158 -0.000254 0.000005 0.000000
0.000102 -0.000201 0.000007 0.000000
0.000131 -0.000236 -0.000007 0.000000
0.000133 -0.000230 0.000026 0.000000
0.000150 -0.000244 0.000029 0.000000
0.000179 -0.000271 -0.000019 0.000000
0.000162 -0.000252 -0.000000 0.000000
0.000165 -0.000271 -0.000013 0.000000
0.000156 -0.000253 0.000049 0.000000
0.000156 -0.000268 0.000072 0.000000
0.000152 -0.000247 0.000008 0.000000
0.000142 -0.000240 0.000044 0.000000
0.000137 -0.000250 0.000070 0.000000
0.000154 -0.000267 0.000053 0.000000
0.000143 -0.000250 0.000034 0.000000
0.000158 -0.000263 0.000065 0.000000
0.000150 -0.000254 0.000029 0.000000
0.000142 -0.000265 0.000055 0.000000
0.000167 -0.000258 0.000005 0.000000
0.000169 -0.000281 0.000002 0.000000
0.000189 -0.000280 -0.000007 0.000000
0.000230 -0.000324 -0.000054 0.000000
0.000173 -0.000283 -0.000089 0.000000
0.000142 -0.000241 0.000015 0.000000
0.000149 -0.000283 -0.000081 0.000000
0.000139 -0.000242 -0.000014 0.000000
0.000109 -0.000233 -0.000055 0.000000
0.000082 -0.000207 -0.000064 0.000000
-0.000306 -0.000341 -0.000443 0.000000
0.000094 -0.000235 0.000025 0.000000
0.000148 -0.000249 -0.000010 0.000000
0.000090 -0.000202 -0.000018 0.000000
0.000115 -0.000245 -0.000045 0.000000
0.000148 -0.000278 0.000031 0.000000
0.000179 -0.000270 -0.000010 0.000000
0.000180 -0.000284 -0.000021 0.000000
0.000192 -0.000285 -0.000025 0.000000
0.000195 -0.000306 -0.000043 0.000000
0.000145 -0.000234 -0.000017 0.000000
0.000173 -0.000258 0.000064 0.000000
0.000145 -0.000243 -0.000005 0.000000
0.000146 -0.000251 0.000012 0.000000
0.000126 -0.000233 0.000048 0.000000
0.000108 -0.000199 -0.000001 0.000000
0.000173 -0.000287 0.000122 0.000000
0.000131 -0.000227 0.000021 0.000000
0.000284 -0.001007 -0.000593 0.000000
0.000142 -0.000237 0.000026 0.000000
0.000195 -0.000919 -0.000633 0.000000
-0.000117 -0.000803 -0.000627 0.000000
0.000105 -0.000207 -0.000005 0.000000
0.000118 -0.000230 -0.000025 0.000000
0.000137 -0.000250 0.000058 0.000000
0.000113 -0.000222 0.000002 0.000000
-0.000167 -0.000680 -0.000276 0.000000
0.000062 -0.000944 -0.000518 0.000000
-0.000153 -0.000723 -0.000092 0.000000
-0.000180 -0.000649 -0.000130 0.000000
-0.000089 -0.000880 0.000137 0.000000
-0.000162 -0.000701 -0.000127 0.000000
-0.000105 -0.000625 -0.000124 0.000000
-0.000073 -0.000677 -0.000324 0.000000
-0.000174 -0.000632 -0.000151 0.000000
-0.000167 -0.000612 -0.000302 0.000000
0.000165 -0.000279 0.000085 0.000000
-0.000114 -0.000827 -0.000334 0.000000
0.000250 -0.000322 0.000111 0.000000
0.000200 -0.000283 0.000053 0.000000
0.000460 -0.001368 0.000196 0.000000
0.000378 -0.001229 -0.000151 0.000000
0.000280 -0.001280 0.000015 0.000000
0.000468 -0.001373 0.000003 0.000000
-0.000001 -0.000868 -0.000013 0.000000
0.000016 -0.000113 -0.000005 0.000000
0.000245 -0.001135 0.000058 0.000000
0.000259 -0.001162 0.000407 0.000000
-0.000162 -0.000714 0.000089 0.000000
-0.000227 -0.000636 -0.000225 0.000000
-0.000177 -0.000725 -0.000069 0.000000
0.000176 -0.000251 -0.000030 0.000000
-0.000292 -0.000566 -0.000410 0.000000
-0.000210 -0.000620 -0.000166 0.000000
0.000229 -0.001194 0.000462 0.000000
-0.000130 -0.000721 -0.000040 0.000000
0.000002 -0.000990 -0.000008 0.000000
-0.000073 -0.000713 0.000571 0.000000
0.000305 -0.001297 0.000040 0.000000
0.000022 -0.000160 -0.000098 0.000000
0.000464 -0.001328 0.000029 0.000000
0.000107 -0.000185 -0.000019 0.000000
0.000280 -0.001208 0.000031 0.000000
0.000350 -0.001401 0.000149 0.000000
0.000106 -0.001091 0.000151 0.000000
0.000109 -0.001138 -0.000036 0.000000
0.000179 -0.001248 -0.000097 0.000000
-0.000106 -0.000790 0.000057 0.000000
0.000065 -0.000194 -0.000059 0.000000
0.000159 -0.000316 -0.000158 0.000000
0.000078 -0.001065 0.000372 0.000000
-0.000186 -0.000637 -0.000077 0.000000
0.000099 -0.000803 0.000560 0.000000
0.000160 -0.000228 -0.000117 0.000000
-0.000235 -0.000649 -0.000128 0.000000
-0.000104 -0.000728 0.000077 0.000000
0.000251 -0.000967 0.000660 0.000000
-0.000098 -0.000782 0.000076 0.000000
0.000011 -0.000164 0.000030 0.000000
0.000089 -0.000196 -0.000010 0.000000
-0.000240 -0.000526 -0.000270 0.000000
-0.000354 -0.000535 -0.000216 0.000000
0.000218 -0.000348 -0.000108 0.000000
-0.000222 -0.000673 0.000371 0.000000
0.000083 -0.000199 -0.000075 0.000000
0.000079 -0.000228 0.000033 0.000000
0.000244 -0.000351 -0.000060 0.000000
0.000122 -0.000253 -0.000126 0.000000
0.000191 -0.000281 -0.000136 0.000000
0.000228 -0.000363 -0.000142 0.000000
0.000153 -0.000263 -0.000098 0.000000
0.000055 -0.000155 -0.000109 0.000000
0.000074 -0.000181 0.000002 0.000000
0.000152 -0.000246 -0.000177 0.000000
-0.000165 -0.000628 0.000097 0.000000
-0.000234 -0.000507 -0.000090 0.000000
0.000078 -0.000219 -0.000081 0.000000
0.000136 -0.000234 -0.000165 0.000000
0.000149 -0.000306 -0.000206 0.000000
-0.000141 -0.000863 0.000468 0.000000
0.000243 -0.000376 -0.000066 0.000000
0.000236 -0.000371 -0.000081 0.000000
0.000228 -0.000332 -0.000134 0.000000
0.000165 -0.000306 -0.000141 0.000000
0.000249 -0.000362 -0.000029 0.000000
0.000230 -0.000355 -0.000094 0.000000
0.000223 -0.000346 -0.000095 0.000000
0.000236 -0.000358 -0.000081 0.000000
0.000233 -0.000346 -0.000102 0.000000
0.000231 -0.000374 -0.000172 0.000000
0.000235 -0.000328 -0.000229 0.000000
0.000118 -0.001349 0.000154 0.000000
0.000065 -0.000214 -0.000101 0.000000
0.000204 -0.001053 0.000477 0.000000
-0.000198 -0.000700 0.000340 0.000000
-0.000009 -0.001068 0.000360 0.000000
-0.000140 -0.000666 0.000597 0.000000
-0.000205 -0.000632 0.000564 0.000000
-0.000367 -0.000176 -0.000130 0.000000
0.000001 -0.000131 -0.000006 0.000000
-0.000157 -0.000744 0.000469 0.000000
-0.000176 -0.000694 0.000376 0.000000
0.000100 -0.000184 -0.000134 0.000000
-0.000102 -0.000867 0.000332 0.000000
0.000065 -0.000161 -0.000009 0.000000
0.000050 -0.000197 -0.000079 0.000000
0.000052 -0.000148 -0.000134 0.000000
-0.000018 -0.000127 -0.000102 0.000000
-0.000019 -0.000103 -0.000031 0.000000
-0.000021 -0.000114 -0.000043 0.000000
-0.000012 -0.000109 -0.000027 0.000000
0.000051 -0.000148 -0.000059 0.000000
-0.000024 -0.000102 -0.000010 0.000000
-0.000022 -0.000098 -0.000014 0.000000
-0.000024 -0.000099 -0.000011 0.000000
-0.000022 -0.000105 -0.000009 0.000000
-0.000021 -0.000100 -0.000008 0.000000
-0.000020 -0.000112 -0.000013 0.000000
-0.000020 -0.000105 -0.000009 0.000000
-0.000006 -0.000123 -0.000014 0.000000
-0.000021 -0.000100 -0.000009 0.000000
-0.000021 -0.000101 -0.000006 0.000000
-0.000022 -0.000102 -0.000008 0.000000
-0.000018 -0.000117 -0.000017 0.000000
-0.000008 -0.000112 -0.000010 0.000000
-0.000019 -0.000098 -0.000010 0.000000
-0.000022 -0.000100 -0.000012 0.000000
-0.000022 -0.000103 -0.000011 0.000000
-0.000004 -0.000102 -0.000004 0.000000
0.000021 -0.000150 -0.000045 0.000000
-0.000020 -0.000097 -0.000006 0.000000
0.000054 -0.000143 -0.000012 0.000000
0.000017 -0.000114 0.000012 0.000000
0.000110 -0.001101 0.000196 0.000000
-0.000009 -0.000098 0.000008 0.000000
-0.000022 -0.000097 -0.000002 0.000000
-0.000013 -0.001025 0.000170 0.000000
-0.000013 -0.000100 0.000003 0.000000
-0.000022 -0.001010 0.000173 0.000000
-0.000019 -0.000095 0.000003 0.000000
-0.000014 -0.000102 -0.000006 0.000000
-0.000021 -0.000096 -0.000003 0.000000
-0.000017 -0.000094 0.000006 0.000000
-0.000018 -0.000097 -0.000004 0.000000
-0.000025 -0.000090 0.000003 0.000000
-0.000021 -0.000097 -0.000003 0.000000
-0.000023 -0.000098 -0.000003 0.000000
-0.000021 -0.000099 -0.000021 0.000000
-0.000098 -0.000980 -0.000254 0.000000
-0.000022 -0.000102 -0.000004 0.000000
-0.000084 -0.000873 0.000084 0.000000
-0.000025 -0.000092 0.000006 0.000000
-0.000115 -0.000900 -0.000150 0.000000
-0.000029 -0.000092 -0.000003 0.000000
-0.000024 -0.000094 -0.000007 0.000000
-0.000005 -0.000121 -0.000021 0.000000
0.000095 -0.001246 -0.000456 0.000000
0.000091 -0.000205 -0.000118 0.000000
-0.000020 -0.000103 -0.000018 0.000000
-0.000020 -0.000110 -0.000022 0.000000
0.000037 -0.000155 -0.000111 0.000000
0.000132 -0.000242 -0.000062 0.000000
0.000027 -0.000157 -0.000040 0.000000
0.000017 -0.000149 -0.000026 0.000000
0.000059 -0.000184 -0.000083 0.000000
0.000057 -0.000179 -0.000094 0.000000
-0.000023 -0.000104 -0.000008 0.000000
-0.000024 -0.000099 -0.000005 0.000000
-0.000021 -0.000112 -0.000016 0.000000
-0.000020 -0.000106 -0.000009 0.000000
-0.000015 -0.000125 -0.000023 0.000000
-0.000022 -0.000104 -0.000006 0.000000
-0.000014 -0.000114 -0.000008 0.000000
-0.000019 -0.000117 -0.000017 0.000000
-0.000005 -0.000125 -0.000017 0.000000
0.000018 -0.000150 -0.000023 0.000000
0.000026 -0.000158 -0.000050 0.000000
0.000016 -0.000154 -0.000035 0.000000
0.000126 -0.000242 -0.000023 0.000000
0.000048 -0.000184 -0.000031 0.000000
0.000133 -0.000271 -0.000065 0.000000
0.000101 -0.000234 -0.000046 0.000000
0.000169 -0.000280 -0.000024 0.000000
0.000158 -0.000280 0.000040 0.000000
0.000114 -0.000226 -0.000097 0.000000
0.000080 -0.000203 -0.000073 0.000000
0.000147 -0.000272 0.000032 0.000000
0.000158 -0.000285 -0.000061 0.000000
0.000242 -0.001408 -0.000142 0.000000
0.000171 -0.000294 0.000021 0.000000
0.000161 -0.000285 0.000048 0.000000
0.000228 -0.001330 -0.000023 0.000000
0.000174 -0.000293 0.000031 0.000000
0.000147 -0.000280 0.000046 0.000000
0.000115 -0.000221 0.000037 0.000000
0.000149 -0.000264 0.000023 0.000000
0.000120 -0.000255 0.000036 0.000000
0.000060 -0.000200 -0.000001 0.000000
-0.000298 -0.000637 -0.000253 0.000000
-0.000012 -0.000127 -0.000131 0.000000
-0.000537 -0.000421 -0.000380 0.000000
-0.000359 -0.000590 0.000126 0.000000
-0.000433 -0.000558 -0.000031 0.000000
-0.000321 -0.000748 0.000047 0.000000
-0.000255 -0.000784 -0.000168 0.000000
-0.000410 -0.000580 -0.000157 0.000000
-0.000338 -0.000601 -0.000182 0.000000
-0.000015 -0.000092 0.000014 0.000000
0.000143 -0.000263 0.000026 0.000000
0.000020 -0.001173 -0.000070 0.000000
0.000087 -0.001036 -0.000270 0.000000
-0.000312 -0.000553 -0.000072 0.000000
-0.000064 -0.000804 -0.000523 0.000000
-0.000373 -0.000790 -0.000504 0.000000
0.000213 -0.001201 -0.000091 0.000000
0.000221 -0.000320 -0.000003 0.000000
-0.000008 -0.000947 -0.000089 0.000000
-0.000146 -0.000782 -0.000141 0.000000
-0.000151 -0.000929 -0.000029 0.000000
-0.000257 -0.000621 -0.000081 0.000000
-0.000334 -0.000609 -0.000138 0.000000
-0.000295 -0.000624 -0.000099 0.000000
-0.000339 -0.000458 -0.000212 0.000000
-0.000325 -0.000540 -0.000253 0.000000
-0.000019 -0.000112 0.000052 0.000000
-0.000294 -0.000617 -0.000333 0.000000
0.000175 -0.001122 -0.000010 0.000000
-0.000231 -0.000539 0.000116 0.000000
0.000008 -0.000924 0.000108 0.000000
-0.000161 -0.000725 0.000039 0.000000
-0.000156 -0.000917 0.000125 0.000000
-0.000258 -0.000727 -0.000025 0.000000
0.000178 -0.001359 -0.000241 0.000000
0.000177 -0.001236 -0.000166 0.000000
0.000240 -0.001314 -0.000272 0.000000
0.000045 -0.001093 -0.000035 0.000000
0.000292 -0.001400 -0.000073 0.000000
0.000183 -0.001298 -0.000392 0.000000
0.000259 -0.001342 -0.000072 0.000000
0.000177 -0.001240 -0.000154 0.000000
0.000070 -0.001320 -0.000427 0.000000
0.000129 -0.000244 -0.000081 0.000000
0.000161 -0.000279 -0.000000 0.000000
0.000257 -0.001444 -0.000294 0.000000
0.000211 -0.001422 -0.000205 0.000000
0.000124 -0.001411 -0.000213 0.000000
0.000246 -0.001420 -0.000139 0.000000
0.000199 -0.001313 -0.000246 0.000000
0.000202 -0.001333 -0.000294 0.000000
0.000171 -0.001243 -0.000401 0.000000
0.000141 -0.001328 -0.000320 0.000000
0.000114 -0.000239 -0.000145 0.000000
0.000057 -0.000174 -0.000109 0.000000
0.000121 -0.000247 -0.000142 0.000000
0.000147 -0.000254 -0.000150 0.000000
0.000130 -0.000242 -0.000119 0.000000
0.000113 -0.000214 -0.000149 0.000000
0.000121 -0.000226 -0.000157 0.000000
0.000181 -0.001226 -0.000311 0.000000
0.000108 -0.000227 -0.000152 0.000000
0.000133 -0.000228 -0.000157 0.000000
0.000109 -0.000229 -0.000117 0.000000
0.000086 -0.000208 -0.000129 0.000000
0.000126 -0.001206 -0.000348 0.000000
0.000175 -0.001227 -0.000170 0.000000
0.000009 -0.001088 0.000065 0.000000
0.000223 -0.001131 -0.000001 0.000000
-0.000133 -0.000868 0.000374 0.000000
-0.000286 -0.000531 0.000003 0.000000
-0.000197 -0.000428 0.000583 0.000000
-0.000239 -0.000514 0.000131 0.000000
-0.000314 -0.000427 -0.000089 0.000000
-0.000413 -0.000386 -0.000075 0.000000
-0.000409 -0.000205 -0.000346 0.000000
-0.000211 -0.000469 0.000384 0.000000
-0.000415 -0.000089 -0.000053 0.000000
-0.000371 -0.000394 0.000248 0.000000
-0.000027 -0.000098 0.000059 0.000000
0.000108 -0.000220 -0.000091 0.000000
-0.000138 -0.000550 0.000429 0.000000
-0.000328 -0.000441 0.000312 0.000000
0.000266 -0.000411 -0.000106 0.000000
-0.000230 -0.000467 0.000373 0.000000
-0.000199 -0.000587 0.000333 0.000000
-0.000242 -0.000410 0.000420 0.000000
0.000058 -0.000160 -0.000113 0.000000
-0.000239 -0.000415 0.000417 0.000000
-0.000226 -0.000437 0.000409 0.000000
-0.000186 -0.000436 0.000433 0.000000
-0.000230 -0.000432 0.000395 0.000000
-0.000205 -0.000496 0.000511 0.000000
-0.000017 -0.000078 -0.000009 0.000000
-0.000230 -0.000386 0.000415 0.000000
0.000082 -0.000177 -0.000098 0.000000
-0.000213 -0.000416 0.000397 0.000000
0.000122 -0.000205 -0.000096 0.000000
0.000142 -0.000268 -0.000117 0.000000
0.000124 -0.000244 -0.000112 0.000000
0.000133 -0.000216 -0.000074 0.000000
0.000052 -0.000148 -0.000085 0.000000
0.000078 -0.000219 -0.000063 0.000000
0.000086 -0.000198 -0.000114 0.000000
0.000101 -0.000195 -0.000094 0.000000
0.000074 -0.000189 -0.000119 0.000000
0.000111 -0.000226 -0.000045 0.000000
0.000255 -0.000319 -0.000062 0.000000
0.000142 -0.000281 -0.000113 0.000000
0.000200 -0.000338 -0.000128 0.000000
0.000099 -0.000209 -0.000131 0.000000
0.000088 -0.000202 -0.000125 0.000000
0.000085 -0.000184 -0.000126 0.000000
0.000072 -0.000173 -0.000078 0.000000
0.000063 -0.000178 -0.000113 0.000000
0.000051 -0.000149 -0.000076 0.000000
0.000083 -0.000181 -0.000142 0.000000
0.000061 -0.000173 -0.000099 0.000000
0.000049 -0.000159 -0.000096 0.000000
0.000071 -0.000193 -0.000094 0.000000
0.000167 -0.001145 -0.000525 0.000000
0.000099 -0.000205 -0.000101 0.000000
0.000080 -0.000179 -0.000062 0.000000
0.000089 -0.000183 -0.000115 0.000000
-0.000195 -0.000488 0.000087 0.000000
-0.000022 -0.000737 0.000391 0.000000
0.000102 -0.000215 -0.000077 0.000000
-0.000138 -0.000747 -0.000158 0.000000
0.000112 -0.000246 -0.000139 0.000000
-0.000213 -0.000618 -0.000218 0.000000
0.000066 -0.000163 -0.000080 0.000000
-0.000025 -0.001053 -0.000364 0.000000
0.000073 -0.000181 -0.000029 0.000000
0.000212 -0.001280 -0.000569 0.000000
0.000088 -0.000182 -0.000025 0.000000
0.000091 -0.000192 -0.000025 0.000000
0.000078 -0.000191 -0.000042 0.000000
-0.000026 -0.000995 -0.000351 0.000000
0.000117 -0.000236 -0.000046 0.000000
0.000098 -0.000214 -0.000031 0.000000
0.000010 -0.001139 -0.000440 0.000000
0.000098 -0.001164 -0.000560 0.000000
0.000116 -0.000215 -0.000035 0.000000
0.000090 -0.000215 -0.000012 0.000000
-0.000121 -0.000892 0.000030 0.000000
-0.000034 -0.000964 -0.000190 0.000000
-0.000095 -0.000879 -0.000195 0.000000
-0.000040 -0.000993 -0.000286 0.000000
-0.000081 -0.000837 -0.000323 0.000000
-0.000159 -0.000795 -0.000222 0.000000
0.000114 -0.000994 -0.000530 0.000000
-0.000082 -0.000952 -0.000280 0.000000
0.000156 -0.001289 -0.000431 0.000000
0.000079 -0.001157 -0.000379 0.000000
-0.000123 -0.000775 0.000042 0.000000
-0.000071 -0.000944 0.000231 0.000000
-0.000118 -0.000832 -0.000137 0.000000
-0.000157 -0.000767 0.000017 0.000000
-0.000028 -0.000973 0.000119 0.000000
-0.000029 -0.000970 0.000047 0.000000
-0.000085 -0.001021 -0.000077 0.000000
-0.000083 -0.000860 -0.000044 0.000000
0.000052 -0.001106 0.000090 0.000000
0.000268 -0.001228 0.000222 0.000000
0.000014 -0.001083 0.000141 0.000000
0.000066 -0.001095 0.000225 0.000000
0.000095 -0.001122 0.000271 0.000000
-0.000107 -0.000899 0.000143 0.000000
-0.000008 -0.001005 0.000188 0.000000
-0.000007 -0.001020 0.000185 0.000000
-0.000071 -0.000903 0.000158 0.000000
-0.000084 -0.000865 0.000233 0.000000
0.000392 -0.001297 0.000365 0.000000
0.000274 -0.001262 0.000293 0.000000
0.000059 -0.001015 0.000316 0.000000
-0.000072 -0.000875 0.000223 0.000000
-0.000122 -0.000771 0.000217 0.000000
-0.000083 -0.000861 0.000224 0.000000
-0.000181 -0.000599 0.000126 0.000000
-0.000145 -0.000820 0.000137 0.000000
-0.000141 -0.000701 0.000178 0.000000
-0.000137 -0.000651 0.000081 0.000000
-0.000185 -0.000716 0.000052 0.000000
-0.000136 -0.000596 0.000156 0.000000
0.000184 -0.000287 0.000075 0.000000
0.000273 -0.001200 0.000325 0.000000
0.000239 -0.001137 0.000420 0.000000
0.000134 -0.001136 0.000307 0.000000
0.000063 -0.000964 0.000354 0.000000
-0.000001 -0.000872 0.000345 0.000000
0.000227 -0.000298 0.000135 0.000000
0.000271 -0.001174 0.000386 0.000000
0.000260 -0.001086 0.000476 0.000000
0.000021 -0.000975 0.000427 0.000000
-0.000141 -0.000638 0.000218 0.000000
-0.000075 -0.000707 0.000532 0.000000
-0.000124 -0.000748 0.000309 0.000000
-0.000164 -0.000444 0.000195 0.000000
0.000251 -0.000385 0.000115 0.000000
0.000215 -0.000981 0.000546 0.000000
-0.000136 -0.000381 0.000376 0.000000
-0.000123 -0.000565 0.000205 0.000000
0.000134 -0.000217 0.000041 0.000000
0.000121 -0.000214 0.000044 0.000000
0.000191 -0.000300 0.000081 0.000000
0.000246 -0.000313 0.000143 0.000000
0.000137 -0.000211 0.000073 0.000000
0.000132 -0.000218 0.000025 0.000000
0.000181 -0.000217 0.000038 0.000000
0.000240 -0.000298 0.000108 0.000000
0.000142 -0.000220 0.000047 0.000000
0.000144 -0.000234 0.000037 0.000000
0.000099 -0.000201 0.000031 0.000000
0.000192 -0.000321 0.000012 0.000000
-0.000116 -0.000418 0.000205 0.000000
-0.000104 -0.000411 0.000141 0.000000
-0.000104 -0.000454 0.000137 0.000000
-0.000071 -0.000448 0.000128 0.000000
-0.000141 -0.000526 0.000408 0.000000
0.000091 -0.000216 -0.000051 0.000000
-0.000151 -0.000347 0.000332 0.000000
-0.000119 -0.000502 0.000173 0.000000
-0.000144 -0.000470 0.000091 0.000000
-0.000118 -0.000445 0.000148 0.000000
0.000236 -0.000339 -0.000013 0.000000
-0.000133 -0.000477 0.000326 0.000000
0.000163 -0.000271 -0.000058 0.000000
0.000068 -0.000165 -0.000079 0.000000
-0.000135 -0.000357 0.000299 0.000000
0.000206 -0.000285 -0.000051 0.000000
0.000219 -0.000283 0.000002 0.000000
0.000195 -0.000279 -0.000059 0.000000
0.000206 -0.000270 -0.000022 0.000000
0.000080 -0.000186 -0.000039 0.000000
0.000144 -0.000231 -0.000067 0.000000
0.000128 -0.000223 -0.000081 0.000000
0.000161 -0.000228 -0.000035 0.000000
0.000224 -0.000275 -0.000007 0.000000
0.000140 -0.000208 -0.000053 0.000000
0.000089 -0.000188 -0.000100 0.000000
-0.000186 -0.000339 0.000197 0.000000
0.000113 -0.000216 -0.000074 0.000000
0.000112 -0.000189 -0.000056 0.000000
0.000143 -0.000218 -0.000045 0.000000
-0.000156 -0.000452 0.000113 0.000000
0.000208 -0.000324 -0.000063 0.000000
-0.000222 -0.000445 0.000070 0.000000
-0.000286 -0.000246 -0.000113 0.000000
-0.000167 -0.000533 0.000036 0.000000
-0.000268 -0.000478 -0.000057 0.000000
0.000138 -0.000215 -0.000080 0.000000
-0.000253 -0.000300 0.000082 0.000000
0.000113 -0.000202 -0.000051 0.000000
0.000186 -0.000248 -0.000046 0.000000
0.000135 -0.000246 -0.000076 0.000000
0.000094 -0.000201 -0.000064 0.000000
0.000097 -0.000186 -0.000050 0.000000
0.000089 -0.000185 -0.000051 0.000000
0.000080 -0.000165 -0.000066 0.000000
0.000085 -0.000185 -0.000071 0.000000
0.000045 -0.000146 -0.000079 0.000000
0.000081 -0.000177 -0.000079 0.000000
0.000084 -0.000174 -0.000080 0.000000
0.000040 -0.000133 -0.000066 0.000000
0.000057 -0.000154 -0.000074 0.000000
0.000047 -0.000150 -0.000096 0.000000
0.000055 -0.000137 -0.000056 0.000000
0.000067 -0.000150 -0.000071 0.000000
0.000036 -0.000131 -0.000071 0.000000
0.000049 -0.000144 -0.000065 0.000000
0.000061 -0.000153 -0.000078 0.000000
0.000061 -0.000160 -0.000096 0.000000
0.000051 -0.000155 -0.000087 0.000000
0.000067 -0.000164 -0.000087 0.000000
0.000045 -0.000142 -0.000080 0.000000
0.000047 -0.000158 -0.000094 0.000000
0.000057 -0.000171 -0.000103 0.000000
0.000057 -0.000146 -0.000099 0.000000
0.000115 -0.000233 -0.000139 0.000000
-0.000095 -0.000440 0.000636 0.000000
-0.000190 -0.000401 0.000386 0.000000
-0.000190 -0.000445 0.000414 0.000000
-0.000161 -0.000435 0.000385 0.000000
0.000090 -0.000210 -0.000163 0.000000
-0.000181 -0.000402 0.000355 0.000000
-0.000183 -0.000428 0.000369 0.000000
0.000040 -0.000134 -0.000078 0.000000
0.000039 -0.000145 -0.000088 0.000000
0.000046 -0.000157 -0.000103 0.000000
0.000111 -0.000191 -0.000120 0.000000
-0.000208 -0.000356 0.000351 0.000000
0.000040 -0.000145 -0.000094 0.000000
0.000040 -0.000127 -0.000057 0.000000
0.000046 -0.000130 -0.000054 0.000000
-0.000184 -0.000396 0.000363 0.000000
0.000038 -0.000127 -0.000088 0.000000
-0.000202 -0.000359 0.000343 0.000000
-0.000191 -0.000378 0.000332 0.000000
-0.000153 -0.000435 0.000395 0.000000
-0.000165 -0.000438 0.000376 0.000000
-0.000005 -0.000103 -0.000095 0.000000
-0.000193 -0.000358 0.000351 0.000000
-0.000179 -0.000396 0.000333 0.000000
-0.000202 -0.000310 0.000372 0.000000
0.000044 -0.000156 -0.000122 0.000000
0.000035 -0.000126 -0.000072 0.000000
0.000005 -0.000106 -0.000079 0.000000
0.000009 -0.000094 -0.000044 0.000000
0.000063 -0.000137 -0.000046 0.000000
0.000039 -0.000134 -0.000068 0.000000
0.000041 -0.000131 -0.000063 0.000000
0.000058 -0.000134 -0.000047 0.000000
0.000052 -0.000138 -0.000057 0.000000
0.000046 -0.000137 -0.000061 0.000000
0.000034 -0.000126 -0.000061 0.000000
0.000039 -0.000129 -0.000060 0.000000
0.000057 -0.000150 -0.000064 0.000000
0.000094 -0.000188 -0.000086 0.000000
0.000057 -0.000145 -0.000066 0.000000
0.000085 -0.000170 -0.000076 0.000000
0.000112 -0.000185 -0.000066 0.000000
0.000097 -0.000174 -0.000071 0.000000
0.000094 -0.000161 -0.000052 0.000000
0.000081 -0.000157 -0.000051 0.000000
0.000046 -0.000136 -0.000059 0.000000
0.000051 -0.000134 -0.000052 0.000000
0.000121 -0.000186 -0.000062 0.000000
0.000106 -0.000175 -0.000047 0.000000
0.000081 -0.000149 -0.000047 0.000000
0.000093 -0.000169 -0.000063 0.000000
0.000203 -0.000258 -0.000059 0.000000
0.000164 -0.000216 -0.000026 0.000000
0.000081 -0.000157 -0.000051 0.000000
0.000122 -0.000188 -0.000051 0.000000
0.000101 -0.000171 -0.000065 0.000000
0.000097 -0.000165 -0.000056 0.000000
0.000071 -0.000138 -0.000023 0.000000
0.000105 -0.000177 -0.000052 0.000000
0.000067 -0.000148 -0.000054 0.000000
0.000069 -0.000152 -0.000062 0.000000
0.000080 -0.000148 -0.000042 0.000000
0.000112 -0.000174 -0.000042 0.000000
0.000009 -0.000089 -0.000040 0.000000
0.000046 -0.000131 -0.000048 0.000000
0.000025 -0.000108 -0.000084 0.000000
0.000033 -0.000118 -0.000065 0.000000
-0.000006 -0.000077 -0.000053 0.000000
0.000002 -0.000088 -0.000054 0.000000
-0.000011 -0.000089 -0.000076 0.000000
-0.000008 -0.000073 -0.000038 0.000000
-0.000009 -0.000065 -0.000027 0.000000
0.000001 -0.000077 -0.000026 0.000000
-0.000211 -0.000338 0.000320 0.000000
-0.000187 -0.000337 0.000179 0.000000
0.000059 -0.000141 -0.000053 0.000000
0.000052 -0.000116 -0.000023 0.000000
0.000122 -0.000179 -0.000035 0.000000
0.000096 -0.000157 -0.000041 0.000000
0.000002 -0.000075 -0.000020 0.000000
0.000032 -0.000109 -0.000037 0.000000
0.000036 -0.000091 -0.000017 0.000000
0.000049 -0.000109 -0.000028 0.000000
0.000013 -0.000078 -0.000018 0.000000
0.000026 -0.000094 -0.000026 0.000000
-0.000010 -0.000084 -0.000068 0.000000
-0.000212 -0.000280 0.000365 0.000000
0.000004 -0.000076 -0.000030 0.000000
-0.000087 -0.000457 -0.000200 0.000000
0.000080 -0.000130 -0.000038 0.000000
0.000004 -0.000078 -0.000033 0.000000
0.000035 -0.000430 -0.000336 0.000000
0.000028 -0.000085 -0.000019 0.000000
0.000033 -0.000093 -0.000015 0.000000
0.000007 -0.000060 -0.000020 0.000000
0.000042 -0.000105 -0.000040 0.000000
0.000014 -0.000087 -0.000032 0.000000
0.000085 -0.000157 -0.000016 0.000000
0.000062 -0.000119 -0.000040 0.000000
0.000062 -0.000128 -0.000024 0.000000
0.000048 -0.000110 -0.000031 0.000000
0.000249 -0.000304 -0.000040 0.000000
0.000112 -0.000182 -0.000047 0.000000
0.000070 -0.000129 -0.000023 0.000000
0.000103 -0.000148 -0.000000 0.000000
0.000214 -0.000275 -0.000041 0.000000
0.000217 -0.000269 -0.000053 0.000000
0.000240 -0.000293 -0.000057 0.000000
0.000131 -0.000195 -0.000052 0.000000
0.000236 -0.000289 -0.000056 0.000000
0.000219 -0.000275 -0.000050 0.000000
0.000239 -0.000292 -0.000062 0.000000
0.000205 -0.000269 -0.000056 0.000000
0.000223 -0.000287 -0.000027 0.000000
0.000135 -0.000190 -0.000028 0.000000
0.000302 -0.000353 -0.000052 0.000000
-0.000048 -0.000480 0.000210 0.000000
-0.000019 -0.000391 0.000056 0.000000
0.000278 -0.000335 -0.000011 0.000000
-0.000034 -0.000452 0.000145 0.000000
-0.000049 -0.000421 0.000139 0.000000
0.000065 -0.000599 0.000366 0.000000
0.000327 -0.000745 0.000353 0.000000
-0.000061 -0.000414 0.000126 0.000000
-0.000058 -0.000442 0.000111 0.000000
0.000260 -0.000336 -0.000035 0.000000
-0.000034 -0.000466 0.000173 0.000000
0.000016 -0.000564 0.000359 0.000000
0.000279 -0.000330 -0.000006 0.000000
0.000285 -0.000332 -0.000012 0.000000
0.000231 -0.000291 -0.000072 0.000000
0.000270 -0.000342 -0.000037 0.000000
0.000224 -0.000278 -0.000029 0.000000
0.000214 -0.000271 -0.000034 0.000000
0.000179 -0.000249 -0.000080 0.000000
0.000063 -0.000528 0.000446 0.000000
0.000010 -0.000505 0.000432 0.000000
0.000269 -0.000321 -0.000005 0.000000
0.000201 -0.000276 -0.000039 0.000000
-0.000098 -0.000464 0.000170 0.000000
-0.000072 -0.000445 0.000146 0.000000
-0.000097 -0.000438 0.000214 0.000000
0.000228 -0.000315 -0.000029 0.000000
-0.000033 -0.000526 -0.000033 0.000000
-0.000098 -0.000463 0.000226 0.000000
-0.000071 -0.000450 0.000047 0.000000
-0.000072 -0.000463 0.000240 0.000000
-0.000050 -0.000530 0.000354 0.000000
-0.000057 -0.000460 0.000407 0.000000
-0.000066 -0.000468 0.000048 0.000000
-0.000128 -0.000372 0.000067 0.000000
-0.000099 -0.000462 0.000105 0.000000
0.000020 -0.000474 -0.000224 0.000000
0.000017 -0.000100 0.000025 0.000000
0.000020 -0.000088 0.000010 0.000000
-0.000084 -0.000488 0.000003 0.000000
0.000005 -0.000101 -0.000049 0.000000
0.000105 -0.000166 0.000052 0.000000
0.000098 -0.000174 0.000032 0.000000
0.000044 -0.000101 0.000025 0.000000
0.000077 -0.000145 0.000039 0.000000
0.000121 -0.000199 0.000007 0.000000
0.000156 -0.000231 0.000038 0.000000
0.000051 -0.000144 0.000034 0.000000
0.000117 -0.000201 0.000053 0.000000
-0.000026 -0.000590 -0.000075 0.000000
0.000086 -0.000175 0.000052 0.000000
0.000089 -0.000799 0.000018 0.000000
0.000091 -0.000144 0.000027 0.000000
0.000131 -0.000665 -0.000187 0.000000
0.000153 -0.000723 -0.000206 0.000000
0.000133 -0.000735 -0.000161 0.000000
0.000057 -0.000586 -0.000163 0.000000
-0.000035 -0.000475 -0.000008 0.000000
0.000024 -0.000675 -0.000052 0.000000
0.000030 -0.000474 0.000058 0.000000
-0.000003 -0.000538 -0.000103 0.000000
-0.000097 -0.000329 0.000180 0.000000
0.000015 -0.000086 0.000020 0.000000
0.000118 -0.000642 -0.000114 0.000000
0.000003 -0.000063 -0.000030 0.000000
-0.000005 -0.000536 -0.000036 0.000000
0.000036 -0.000617 -0.000137 0.000000
-0.000045 -0.000473 -0.000057 0.000000
-0.000044 -0.000476 0.000045 0.000000
0.000111 -0.000779 0.000008 0.000000
0.000123 -0.000179 -0.000096 0.000000
0.000070 -0.000123 0.000053 0.000000
0.000068 -0.000776 -0.000013 0.000000
0.000033 -0.000091 0.000076 0.000000
0.000135 -0.000760 0.000351 0.000000
0.000134 -0.000740 0.000337 0.000000
0.000161 -0.000240 0.000030 0.000000
0.000056 -0.000628 0.000312 0.000000
-0.000056 -0.000581 0.000107 0.000000
0.000021 -0.000661 0.000243 0.000000
0.000113 -0.000712 0.000362 0.000000
0.000055 -0.000123 0.000056 0.000000
-0.000008 -0.000057 0.000011 0.000000
0.000071 -0.000129 0.000046 0.000000
0.000008 -0.000072 0.000032 0.000000
0.000009 -0.000066 0.000003 0.000000
0.000003 -0.000064 0.000005 0.000000
-0.000005 -0.000054 0.000014 0.000000
-0.000008 -0.000058 0.000010 0.000000
0.000009 -0.000471 -0.000047 0.000000
0.000002 -0.000502 -0.000168 0.000000
0.000055 -0.000513 -0.000215 0.000000
0.000045 -0.000562 -0.000170 0.000000
-0.000062 -0.000391 -0.000086 0.000000
0.000350 -0.000961 0.000462 0.000000
0.000003 -0.000550 -0.000090 0.000000
0.000025 -0.000553 -0.000199 0.000000
0.000024 -0.000557 -0.000142 0.000000
0.000041 -0.000647 -0.000241 0.000000
0.000022 -0.000076 -0.000021 0.000000
0.000041 -0.000596 -0.000171 0.000000
-0.000059 -0.000542 0.000102 0.000000
-0.000005 -0.000604 0.000235 0.000000
0.000031 -0.000600 -0.000194 0.000000
0.000037 -0.000704 -0.000278 0.000000
-0.000007 -0.000581 0.000091 0.000000
0.000042 -0.000712 -0.000078 0.000000
0.000003 -0.000633 0.000009 0.000000
0.000015 -0.000612 -0.000128 0.000000
0.000015 -0.000533 -0.000128 0.000000
0.000039 -0.000702 -0.000164 0.000000
0.000039 -0.000609 -0.000153 0.000000
0.000002 -0.000672 -0.000264 0.000000
0.000010 -0.000589 -0.000227 0.000000
0.000033 -0.000590 -0.000196 0.000000
-0.000071 -0.000590 -0.000060 0.000000
0.000025 -0.000630 -0.000253 0.000000
0.000031 -0.000620 -0.000138 0.000000
-0.000021 -0.000644 -0.000215 0.000000
-0.000033 -0.000606 -0.000097 0.000000
-0.000089 -0.000602 -0.000127 0.000000
-0.000141 -0.000549 0.000249 0.000000
-0.000032 -0.000583 0.000228 0.000000
-0.000075 -0.000544 0.000257 0.000000
-0.000019 -0.000563 0.000162 0.000000
0.000064 -0.000712 0.000336 0.000000
-0.000035 -0.000617 0.000254 0.000000
0.000135 -0.000201 -0.000051 0.000000
0.000085 -0.000762 0.000284 0.000000
0.000126 -0.000217 -0.000092 0.000000
0.000156 -0.000244 -0.000038 0.000000
0.000113 -0.000189 -0.000051 0.000000
-0.000043 -0.000672 0.000324 0.000000
0.000158 -0.000241 0.000004 0.000000
0.000150 -0.000224 -0.000038 0.000000
0.000123 -0.000193 0.000000 0.000000
0.000157 -0.000239 0.000003 0.000000
0.000156 -0.000234 0.000008 0.000000
-0.000165 -0.000510 -0.000044 0.000000
0.000143 -0.000232 0.000045 0.000000
0.000155 -0.000244 0.000025 0.000000
0.000120 -0.000201 -0.000059 0.000000
0.000127 -0.000228 -0.000078 0.000000
-0.000148 -0.000291 0.000297 0.000000
0.000159 -0.000258 0.000023 0.000000
0.000063 -0.000169 -0.000060 0.000000
-0.000099 -0.000571 -0.000184 0.000000
-0.000158 -0.000510 -0.000152 0.000000
0.000526 -0.000620 0.000042 0.000000
0.000198 -0.000267 0.000028 0.000000
0.000194 -0.000295 -0.000042 0.000000
0.000125 -0.000215 0.000054 0.000000
0.000174 -0.000271 0.000015 0.000000
0.000154 -0.000227 0.000060 0.000000
0.000202 -0.000277 -0.000014 0.000000
0.000147 -0.000246 0.000017 0.000000
0.000164 -0.000247 0.000012 0.000000
0.000212 -0.000291 0.000101 0.000000
0.000147 -0.000244 0.000039 0.000000
0.000176 -0.000283 0.000026 0.000000
0.000186 -0.000276 0.000050 0.000000
0.000380 -0.000476 -0.000239 0.000000
0.000131 -0.000246 0.000120 0.000000
0.000544 -0.000637 -0.000074 0.000000
0.000139 -0.000236 -0.000021 0.000000
-0.000101 -0.000605 -0.000148 0.000000
-0.000109 -0.000407 -0.000430 0.000000
-0.000121 -0.000627 -0.000324 0.000000
-0.000134 -0.000604 -0.000202 0.000000
-0.000063 -0.000631 -0.000141 0.000000
0.000198 -0.000255 0.000105 0.000000
-0.000088 -0.000593 -0.000136 0.000000
-0.000046 -0.000683 -0.000222 0.000000
-0.000141 -0.000616 -0.000135 0.000000
-0.000084 -0.000575 -0.000232 0.000000
-0.000076 -0.000731 -0.000276 0.000000
-0.000079 -0.000635 -0.000155 0.000000
-0.000081 -0.000658 -0.000197 0.000000
-0.000138 -0.000655 -0.000187 0.000000
0.000183 -0.000262 0.000065 0.000000
0.000162 -0.001013 0.000096 0.000000
0.000165 -0.000277 0.000111 0.000000
0.000335 -0.001056 -0.000587 0.000000
0.000052 -0.000766 -0.000336 0.000000
0.000159 -0.001018 0.000112 0.000000
0.000326 -0.001144 -0.000509 0.000000
0.000073 -0.000783 -0.000214 0.000000
0.000178 -0.001032 -0.000489 0.000000
-0.000008 -0.000725 -0.000318 0.000000
0.000165 -0.000814 -0.000206 0.000000
0.000433 -0.001090 -0.000187 0.000000
0.000060 -0.000834 -0.000377 0.000000
0.000018 -0.000701 -0.000280 0.000000
-0.000076 -0.000635 -0.000177 0.000000
0.000006 -0.000650 -0.000244 0.000000
-0.000056 -0.000638 -0.000178 0.000000
-0.000073 -0.000539 -0.000032 0.000000
-0.000053 -0.000645 -0.000201 0.000000
-0.000043 -0.000606 -0.000142 0.000000
-0.000033 -0.000583 -0.000095 0.000000
-0.000043 -0.000613 -0.000167 0.000000
0.000040 -0.000591 -0.000072 0.000000
0.000137 -0.000870 0.000240 0.000000
0.000109 -0.000863 -0.000093 0.000000
0.000073 -0.000691 -0.000206 0.000000
0.000022 -0.000649 -0.000270 0.000000
0.000025 -0.000671 -0.000271 0.000000
0.000174 -0.000853 0.000356 0.000000
0.000033 -0.000375 0.000280 0.000000
0.000160 -0.000889 0.000234 0.000000
0.000220 -0.000910 0.000363 0.000000
0.000205 -0.000720 -0.000465 0.000000
-0.000004 -0.000490 -0.000248 0.000000
0.000356 -0.001141 0.000434 0.000000
0.000286 -0.000981 0.000371 0.000000
0.000092 -0.000981 -0.000146 0.000000
0.000302 -0.001124 0.000089 0.000000
0.000184 -0.000958 0.000241 0.000000
0.000097 -0.000189 0.000033 0.000000
0.000123 -0.000877 0.000275 0.000000
0.000170 -0.000916 0.000243 0.000000
0.000205 -0.000956 0.000019 0.000000
0.000149 -0.000956 0.000198 0.000000
0.000122 -0.000912 0.000186 0.000000
0.000150 -0.000233 0.000067 0.000000
0.000146 -0.000946 0.000146 0.000000
0.000091 -0.000184 0.000035 0.000000
0.000122 -0.000959 0.000142 0.000000
0.000122 -0.000952 0.000149 0.000000
0.000149 -0.000242 0.000005 0.000000
0.000101 -0.000956 0.000141 0.000000
0.000303 -0.001032 0.000049 0.000000
0.000158 -0.000959 0.000170 0.000000
0.000132 -0.000955 0.000152 0.000000
0.000128 -0.000220 0.000044 0.000000
0.000538 -0.001165 0.000041 0.000000
0.000228 -0.001001 0.000255 0.000000
0.000231 -0.000948 0.000288 0.000000
0.000166 -0.000966 0.000182 0.000000
0.000120 -0.000903 0.000195 0.000000
0.000163 -0.000956 0.000197 0.000000
0.000010 -0.000729 0.000210 0.000000
0.000086 -0.000779 -0.000063 0.000000
0.000158 -0.000884 0.000057 0.000000
0.000242 -0.001102 0.000021 0.000000
-0.000158 -0.000600 0.000229 0.000000
0.000202 -0.001006 0.000160 0.000000
-0.000020 -0.000816 0.000044 0.000000
0.000015 -0.000975 0.000171 0.000000
-0.000197 -0.000533 0.000062 0.000000
-0.000169 -0.000605 0.000202 0.000000
-0.000151 -0.000610 0.000203 0.000000
-0.000171 -0.000585 0.000147 0.000000
-0.000188 -0.000534 0.000043 0.000000
-0.000192 -0.000549 0.000060 0.000000
-0.000138 -0.000560 0.000055 0.000000
-0.000173 -0.000550 0.000055 0.000000
-0.000088 -0.000609 0.000119 0.000000
-0.000081 -0.000573 0.000051 0.000000
-0.000097 -0.000709 0.000180 0.000000
-0.000048 -0.000578 -0.000027 0.000000
-0.000021 -0.000706 0.000056 0.000000
-0.000003 -0.000758 -0.000048 0.000000
-0.000055 -0.000594 0.000012 0.000000
-0.000077 -0.000525 0.000023 0.000000
-0.000086 -0.000634 0.000106 0.000000
-0.000054 -0.000659 0.000015 0.000000
-0.000118 -0.000546 0.000009 0.000000
-0.000102 -0.000548 0.000032 0.000000
-0.000058 -0.000502 0.000011 0.000000
-0.000089 -0.000533 -0.000001 0.000000
-0.000077 -0.000583 0.000059 0.000000
-0.000068 -0.000551 0.000017 0.000000
-0.000077 -0.000525 0.000013 0.000000
-0.000056 -0.000502 0.000020 0.000000
-0.000085 -0.000549 0.000040 0.000000
-0.000075 -0.000514 0.000006 0.000000
-0.000048 -0.000489 -0.000003 0.000000
-0.000071 -0.000549 0.000013 0.000000
-0.000050 -0.000489 0.000032 0.000000
0.000316 -0.000417 0.000132 0.000000
-0.000065 -0.000489 0.000037 0.000000
0.000279 -0.000368 0.000124 0.000000
0.000304 -0.000363 0.000086 0.000000
0.000071 -0.000598 -0.000297 0.000000
-0.000074 -0.000540 -0.000063 0.000000
-0.000030 -0.000652 -0.000109 0.000000
0.000273 -0.000349 0.000044 0.000000
0.000247 -0.000328 0.000061 0.000000
0.000360 -0.001033 0.000478 0.000000
0.000239 -0.000326 -0.000101 0.000000
0.000342 -0.001050 0.000406 0.000000
0.000155 -0.000762 0.000242 0.000000
-0.000003 -0.000505 -0.000008 0.000000
0.000141 -0.000826 0.000057 0.000000
0.000189 -0.000754 -0.000070 0.000000
0.000195 -0.000236 -0.000061 0.000000
0.000178 -0.000828 0.000197 0.000000
0.000018 -0.000607 0.000126 0.000000
0.000129 -0.000643 0.000039 0.000000
0.000310 -0.000355 0.000084 0.000000
0.000247 -0.000310 0.000057 0.000000
0.000240 -0.000322 0.000090 0.000000
0.000271 -0.000358 -0.000012 0.000000
0.000297 -0.000754 0.000470 0.000000
0.000231 -0.000305 -0.000068 0.000000
0.000269 -0.000346 0.000024 0.000000
0.000254 -0.000330 -0.000027 0.000000
0.000254 -0.000304 -0.000023 0.000000
0.000231 -0.000285 -0.000063 0.000000
0.000205 -0.000289 -0.000001 0.000000
-0.000042 -0.000478 0.000009 0.000000
0.000143 -0.000221 -0.000049 0.000000
0.000191 -0.000549 0.000326 0.000000
0.000138 -0.000190 -0.000007 0.000000
0.000126 -0.000164 -0.000062 0.000000
0.000098 -0.000161 0.000003 0.000000
0.000084 -0.000156 -0.000036 0.000000
0.000269 -0.000321 0.000021 0.000000
0.000314 -0.000376 0.000087 0.000000
0.000306 -0.000360 0.000029 0.000000
0.000306 -0.000369 0.000053 0.000000
0.000211 -0.000248 0.000070 0.000000
0.000191 -0.000222 -0.000032 0.000000
0.000309 -0.000352 0.000067 0.000000
0.000320 -0.000377 0.000071 0.000000
0.000332 -0.000397 0.000117 0.000000
0.000319 -0.000382 0.000067 0.000000
0.000276 -0.000340 0.000061 0.000000
0.000328 -0.000383 0.000112 0.000000
0.000322 -0.000402 0.000069 0.000000
0.000256 -0.000313 0.000094 0.000000
-0.000055 -0.000488 0.000014 0.000000
-0.000049 -0.000428 0.000053 0.000000
-0.000096 -0.000481 -0.000028 0.000000
-0.000091 -0.000402 0.000029 0.000000
-0.000039 -0.000461 0.000031 0.000000
-0.000025 -0.000431 0.000032 0.000000
-0.000053 -0.000459 0.000027 0.000000
-0.000026 -0.000432 -0.000001 0.000000
-0.000077 -0.000429 0.000074 0.000000
0.000315 -0.000387 0.000074 0.000000
-0.000018 -0.000402 -0.000003 0.000000
-0.000041 -0.000439 0.000048 0.000000
0.000005 -0.000419 0.000065 0.000000
-0.000028 -0.000445 0.000020 0.000000
0.000009 -0.000412 0.000035 0.000000
-0.000058 -0.000397 0.000122 0.000000
0.000008 -0.000437 0.000117 0.000000
-0.000034 -0.000425 0.000074 0.000000
-0.000048 -0.000419 0.000115 0.000000
0.000358 -0.000413 0.000121 0.000000
0.000233 -0.000262 0.000087 0.000000
-0.000015 -0.000410 0.000024 0.000000
-0.000019 -0.000390 0.000001 0.000000
-0.000018 -0.000418 0.000013 0.000000
-0.000015 -0.000427 0.000055 0.000000
-0.000020 -0.000363 -0.000011 0.000000
-0.000009 -0.000390 0.000001 0.000000
-0.000015 -0.000345 -0.000028 0.000000
-0.000021 -0.000320 -0.000017 0.000000
0.000010 -0.000391 0.000003 0.000000
-0.000021 -0.000347 -0.000002 0.000000
0.000364 -0.000402 0.000138 0.000000
0.000146 -0.000173 0.000044 0.000000
0.000298 -0.000325 0.000170 0.000000
0.000075 -0.000370 0.000217 0.000000
-0.000012 -0.000392 -0.000005 0.000000
-0.000015 -0.000418 0.000050 0.000000
0.000040 -0.000447 0.000024 0.000000
0.000048 -0.000456 -0.000072 0.000000
0.000043 -0.000427 0.000163 0.000000
0.000319 -0.000365 0.000148 0.000000
0.000200 -0.000263 0.000075 0.000000
0.000276 -0.000321 0.000170 0.000000
0.000152 -0.000203 0.000024 0.000000
0.000180 -0.000231 0.000053 0.000000
0.000171 -0.000204 0.000048 0.000000
0.000240 -0.000282 0.000065 0.000000
0.000119 -0.000170 -0.000054 0.000000
0.000176 -0.000488 -0.000077 0.000000
0.000110 -0.000385 -0.000182 0.000000
0.000002 -0.000260 0.000001 0.000000
-0.000018 -0.000283 -0.000058 0.000000
-0.000003 -0.000249 0.000013 0.000000
-0.000081 -0.000164 -0.000152 0.000000
-0.000079 -0.000223 -0.000157 0.000000
-0.000124 -0.000100 0.000022 0.000000
-0.000108 -0.000113 0.000068 0.000000
0.000181 -0.000206 0.000041 0.000000
0.000120 -0.000165 -0.000059 0.000000
-0.000124 -0.000195 -0.000151 0.000000
-0.000118 -0.000147 -0.000078 0.000000
0.000325 -0.000357 0.000116 0.000000
0.000302 -0.000360 0.000185 0.000000
0.000255 -0.000289 0.000129 0.000000
0.000337 -0.000395 0.000094 0.000000
0.000281 -0.000349 0.000087 0.000000
0.000226 -0.000285 0.000062 0.000000
0.000291 -0.000344 0.000041 0.000000
0.000176 -0.000218 0.000002 0.000000
0.000180 -0.000246 0.000020 0.000000
0.000158 -0.000218 -0.000001 0.000000
-0.000133 -0.000158 -0.000169 0.000000
0.000134 -0.000184 -0.000036 0.000000
-0.000133 -0.000203 -0.000177 0.000000
-0.000160 -0.000097 -0.000076 0.000000
-0.000149 -0.000178 -0.000148 0.000000
0.000037 -0.000097 -0.000027 0.000000
0.000047 -0.000089 -0.000075 0.000000
0.000040 -0.000087 -0.000043 0.000000
-0.000153 -0.000164 -0.000170 0.000000
0.000044 -0.000108 -0.000061 0.000000
-0.000164 -0.000152 -0.000105 0.000000
-0.000176 -0.000104 -0.000124 0.000000
0.000008 -0.000057 0.000011 0.000000
0.000036 -0.000068 -0.000017 0.000000
0.000002 -0.000057 0.000010 0.000000
0.000008 -0.000049 0.000015 0.000000
0.000022 -0.000069 -0.000020 0.000000
0.000019 -0.000083 -0.000012 0.000000
0.000001 -0.000048 0.000011 0.000000
0.000019 -0.000069 -0.000006 0.000000
0.000004 -0.000058 0.000011 0.000000
0.000007 -0.000066 0.000006 0.000000
0.000006 -0.000067 0.000042 0.000000
0.000026 -0.000073 0.000022 0.000000
0.000053 -0.000103 0.000065 0.000000
0.000021 -0.000074 0.000021 0.000000
0.000079 -0.000131 0.000049 0.000000
0.000052 -0.000118 -0.000021 0.000000
0.000069 -0.000117 0.000060 0.000000
0.000030 -0.000088 0.000033 0.000000
0.000091 -0.000146 0.000005 0.000000
0.000135 -0.000197 0.000018 0.000000
-0.000006 -0.000054 0.000009 0.000000
-0.000000 -0.000047 0.000015 0.000000
0.000001 -0.000057 0.000012 0.000000
-0.000005 -0.000056 0.000018 0.000000
0.000001 -0.000055 0.000013 0.000000
0.000029 -0.000082 0.000039 0.000000
0.000000 -0.000057 0.000015 0.000000
0.000028 -0.000074 0.000022 0.000000
0.000048 -0.000094 0.000022 0.000000
0.000022 -0.000073 0.000017 0.000000
0.000053 -0.000100 0.000039 0.000000
0.000054 -0.000104 0.000030 0.000000
0.000115 -0.000170 0.000028 0.000000
0.000059 -0.000097 -0.000032 0.000000
0.000089 -0.000138 0.000016 0.000000
0.000073 -0.000125 0.000013 0.000000
0.000042 -0.000077 0.000004 0.000000
0.000054 -0.000098 0.000004 0.000000
0.000049 -0.000093 0.000020 0.000000
0.000026 -0.000074 0.000018 0.000000
0.000089 -0.000121 0.000008 0.000000
0.000047 -0.000075 0.000005 0.000000
0.000001 -0.000047 0.000008 0.000000
0.000005 -0.000050 0.000019 0.000000
-0.000001 -0.000046 0.000012 0.000000
0.000002 -0.000053 0.000012 0.000000
0.000008 -0.000056 0.000002 0.000000
0.000001 -0.000053 0.000011 0.000000
0.000001 -0.000053 0.000014 0.000000
0.000006 -0.000053 0.000017 0.000000
-0.000119 -0.000191 -0.000054 0.000000
0.000036 -0.000099 -0.000036 0.000000
0.000013 -0.000057 -0.000009 0.000000
0.000001 -0.000048 0.000009 0.000000
0.000029 -0.000064 -0.000031 0.000000
0.000048 -0.000109 -0.000009 0.000000
0.000011 -0.000066 0.000001 0.000000
0.000007 -0.000047 0.000000 0.000000
0.000015 -0.000066 0.000004 0.000000
-0.000000 -0.000043 0.000010 0.000000
0.000014 -0.000063 -0.000003 0.000000
0.000001 -0.000048 0.000005 0.000000
0.000051 -0.000075 0.000021 0.000000
0.000020 -0.000054 0.000015 0.000000
-0.000044 -0.000153 0.000181 0.000000
0.000022 -0.000074 0.000004 0.000000
0.000105 -0.000120 0.000046 0.000000
0.000063 -0.000085 0.000028 0.000000
0.000052 -0.000100 0.000010 0.000000
0.000008 -0.000053 0.000019 0.000000
0.000031 -0.000074 0.000022 0.000000
0.000018 -0.000053 0.000014 0.000000
0.000056 -0.000085 0.000015 0.000000
0.000019 -0.000068 0.000013 0.000000
0.000050 -0.000087 0.000029 0.000000
0.000027 -0.000069 0.000025 0.000000
0.000073 -0.000114 0.000021 0.000000
0.000073 -0.000101 0.000002 0.000000
0.000075 -0.000122 0.000018 0.000000
0.000043 -0.000084 0.000007 0.000000
0.000074 -0.000113 0.000017 0.000000
0.000042 -0.000083 0.000007 0.000000
0.000054 -0.000100 0.000012 0.000000
0.000073 -0.000105 0.000012 0.000000
0.000031 -0.000067 0.000002 0.000000
0.000054 -0.000088 0.000002 0.000000
0.000037 -0.000070 0.000007 0.000000
0.000030 -0.000058 -0.000004 0.000000
0.000061 -0.000093 0.000025 0.000000
0.000029 -0.000061 0.000005 0.000000
0.000063 -0.000100 0.000008 0.000000
0.000056 -0.000086 0.000001 0.000000
0.000039 -0.000069 -0.000002 0.000000
0.000050 -0.000094 0.000014 0.000000
0.000063 -0.000092 0.000021 0.000000
0.000062 -0.000088 -0.000002 0.000000
0.000037 -0.000062 0.000007 0.000000
0.000060 -0.000095 0.000013 0.000000
0.000034 -0.000059 0.000000 0.000000
0.000039 -0.000076 0.000012 0.000000
0.000027 -0.000059 -0.000000 0.000000
0.000035 -0.000073 0.000005 0.000000
0.000028 -0.000053 -0.000001 0.000000
0.000037 -0.000067 0.000011 0.000000
0.000039 -0.000056 0.000001 0.000000
0.000026 -0.000055 0.000003 0.000000
0.000091 -0.000111 0.000024 0.000000
0.000062 -0.000089 0.000021 0.000000
0.000026 -0.000051 -0.000001 0.000000
0.000042 -0.000062 0.000006 0.000000
0.000157 -0.000318 0.000138 0.000000
0.000169 -0.000379 0.000169 0.000000
0.000079 -0.000096 0.000022 0.000000
0.000047 -0.000077 0.000023 0.000000
0.000087 -0.000117 0.000016 0.000000
0.000084 -0.000113 0.000046 0.000000
0.000058 -0.000092 0.000023 0.000000
0.000050 -0.000090 0.000007 0.000000
0.000033 -0.000202 0.000122 0.000000
-0.000012 -0.000210 0.000090 0.000000
0.000076 -0.000232 0.000315 0.000000
-0.000002 -0.000191 0.000245 0.000000
0.000015 -0.000263 0.000227 0.000000
0.000022 -0.000229 0.000032 0.000000
0.000018 -0.000220 0.000057 0.000000
0.000012 -0.000231 0.000097 0.000000
0.000083 -0.000343 0.000284 0.000000
0.000107 -0.000147 0.000048 0.000000
0.000001 -0.000200 0.000070 0.000000
0.000001 -0.000138 0.000068 0.000000
0.000011 -0.000208 0.000076 0.000000
0.000012 -0.000196 0.000055 0.000000
0.000080 -0.000095 -0.000038 0.000000
0.000098 -0.000114 0.000028 0.000000
0.000119 -0.000266 0.000188 0.000000
0.000079 -0.000112 -0.000042 0.000000
0.000209 -0.000567 0.000115 0.000000
0.000125 -0.000141 -0.000024 0.000000
0.000129 -0.000460 0.000090 0.000000
0.000129 -0.000174 -0.000032 0.000000
0.000025 -0.000261 0.000001 0.000000
0.000037 -0.000282 0.000103 0.000000
0.000009 -0.000232 0.000034 0.000000
0.000020 -0.000252 0.000006 0.000000
0.000053 -0.000323 -0.000031 0.000000
-0.000030 -0.000250 0.000027 0.000000
0.000009 -0.000290 -0.000041 0.000000
-0.000018 -0.000326 -0.000050 0.000000
0.000008 -0.000297 -0.000030 0.000000
0.000030 -0.000321 -0.000019 0.000000
-0.000114 -0.000178 0.000016 0.000000
-0.000088 -0.000219 0.000070 0.000000
0.000145 -0.000194 0.000056 0.000000
0.000267 -0.000310 0.000161 0.000000
0.000206 -0.000244 0.000082 0.000000
0.000203 -0.000516 -0.000051 0.000000
0.000092 -0.000127 0.000089 0.000000
0.000206 -0.000573 0.000204 0.000000
0.000186 -0.000195 0.000064 0.000000
0.000150 -0.000199 0.000120 0.000000
0.000256 -0.000587 0.000146 0.000000
0.000241 -0.000594 0.000180 0.000000
-0.000010 -0.000312 -0.000047 0.000000
0.000148 -0.000559 0.000333 0.000000
0.000137 -0.000196 0.000194 0.000000
0.000181 -0.000198 0.000098 0.000000
0.000046 -0.000367 -0.000083 0.000000
0.000106 -0.000495 0.000240 0.000000
0.000160 -0.000186 0.000143 0.000000
0.000263 -0.000557 0.000302 0.000000
-0.000010 -0.000362 -0.000041 0.000000
-0.000020 -0.000296 -0.000002 0.000000
0.000007 -0.000356 -0.000094 0.000000
0.000008 -0.000397 -0.000007 0.000000
-0.000017 -0.000280 -0.000018 0.000000
-0.000014 -0.000265 -0.000003 0.000000
0.000001 -0.000285 -0.000073 0.000000
-0.000015 -0.000311 -0.000045 0.000000
0.000008 -0.000267 -0.000107 0.000000
-0.000001 -0.000215 0.000014 0.000000
0.000082 -0.000118 0.000075 0.000000
-0.000038 -0.000220 -0.000041 0.000000
0.000151 -0.000191 0.000112 0.000000
-0.000002 -0.000200 -0.000094 0.000000
0.000136 -0.000171 0.000072 0.000000
0.000086 -0.000131 0.000119 0.000000
0.000100 -0.000128 0.000047 0.000000
0.000092 -0.000122 0.000094 0.000000
0.000096 -0.000130 0.000040 0.000000
0.000102 -0.000127 0.000085 0.000000
0.000010 -0.000214 -0.000002 0.000000
0.000102 -0.000127 0.000051 0.000000
0.000094 -0.000128 0.000029 0.000000
0.000099 -0.000118 0.000049 0.000000
0.000019 -0.000160 0.000124 0.000000
0.000017 -0.000182 0.000029 0.000000
0.000100 -0.000126 0.000062 0.000000
0.000007 -0.000190 0.000086 0.000000
-0.000012 -0.000131 0.000069 0.000000
0.000026 -0.000192 0.000024 0.000000
0.000036 -0.000197 0.000096 0.000000
0.000103 -0.000124 0.000052 0.000000
0.000094 -0.000111 0.000027 0.000000
0.000116 -0.000144 0.000041 0.000000
0.000038 -0.000063 0.000007 0.000000
0.000037 -0.000159 0.000055 0.000000
0.000113 -0.000132 0.000043 0.000000
0.000087 -0.000118 0.000053 0.000000
0.000081 -0.000112 0.000023 0.000000
0.000069 -0.000096 0.000017 0.000000
0.000040 -0.000070 -0.000030 0.000000
0.000079 -0.000097 0.000022 0.000000
0.000076 -0.000107 -0.000076 0.000000
0.000035 -0.000054 -0.000013 0.000000
0.000019 -0.000180 0.000119 0.000000
0.000022 -0.000165 0.000019 0.000000
0.000022 -0.000207 0.000086 0.000000
0.000031 -0.000188 0.000077 0.000000
0.000013 -0.000183 0.000062 0.000000
0.000025 -0.000138 0.000030 0.000000
0.000077 -0.000201 0.000138 0.000000
0.000030 -0.000170 0.000092 0.000000
0.000039 -0.000063 0.000002 0.000000
0.000059 -0.000172 0.000030 0.000000
0.000053 -0.000068 -0.000016 0.000000
0.000041 -0.000056 -0.000022 0.000000
0.000068 -0.000088 -0.000078 0.000000
0.000023 -0.000168 0.000082 0.000000
0.000038 -0.000055 0.000006 0.000000
0.000048 -0.000200 -0.000005 0.000000
0.000029 -0.000053 0.000006 0.000000
0.000036 -0.000051 -0.000003 0.000000
0.000035 -0.000055 -0.000043 0.000000
0.000019 -0.000144 0.000041 0.000000
0.000030 -0.000171 0.000058 0.000000
0.000025 -0.000140 0.000078 0.000000
0.000038 -0.000190 -0.000003 0.000000
0.000024 -0.000126 0.000034 0.000000
0.000020 -0.000149 0.000043 0.000000
0.000026 -0.000142 0.000080 0.000000
0.000039 -0.000198 -0.000001 0.000000
0.000029 -0.000111 0.000012 0.000000
0.000026 -0.000080 0.000018 0.000000
0.000029 -0.000089 0.000006 0.000000
0.000059 -0.000216 0.000061 0.000000
0.000044 -0.000131 0.000051 0.000000
0.000052 -0.000198 0.000043 0.000000
0.000060 -0.000233 0.000030 0.000000
0.000099 -0.000225 0.000086 0.000000
0.000073 -0.000089 0.000004 0.000000
0.000072 -0.000094 0.000030 0.000000
0.000034 -0.000055 0.000006 0.000000
0.000026 -0.000182 0.000028 0.000000
0.000027 -0.000172 0.000020 0.000000
0.000037 -0.000179 0.000107 0.000000
0.000024 -0.000148 0.000015 0.000000
0.000032 -0.000170 0.000059 0.000000
0.000051 -0.000163 0.000065 0.000000
0.000024 -0.000123 0.000045 0.000000
0.000036 -0.000160 0.000046 0.000000
0.000023 -0.000138 0.000019 0.000000
0.000033 -0.000132 0.000046 0.000000
0.000009 -0.000073 0.000008 0.000000
0.000025 -0.000130 0.000036 0.000000
0.000006 -0.000051 0.000019 0.000000
0.000032 -0.000126 0.000060 0.000000
0.000046 -0.000180 0.000055 0.000000
0.000008 -0.000054 0.000030 0.000000
0.000030 -0.000131 0.000054 0.000000
0.000048 -0.000161 0.000027 0.000000
0.000026 -0.000059 0.000019 0.000000
0.000018 -0.000106 0.000012 0.000000
0.000005 -0.000053 0.000006 0.000000
0.000016 -0.000093 0.000030 0.000000
0.000014 -0.000088 0.000009 0.000000
-0.000004 -0.000036 0.000014 0.000000
-0.000003 -0.000038 0.000003 0.000000
-0.000007 -0.000015 0.000005 0.000000
-0.000006 -0.000010 0.000008 0.000000
-0.000023 -0.000004 0.000001 0.000000
-0.000015 -0.000008 0.000005 0.000000
0.000011 -0.000072 0.000025 0.000000
0.000016 -0.000089 0.000040 0.000000
0.000030 -0.000092 0.000045 0.000000
0.000022 -0.000091 0.000039 0.000000
0.000026 -0.000095 0.000024 0.000000
0.000022 -0.000057 0.000028 0.000000
0.000012 -0.000023 0.000007 0.000000
0.000021 -0.000061 0.000011 0.000000
0.000022 -0.000025 -0.000000 0.000000
0.000016 -0.000024 0.000001 0.000000
0.000015 -0.000023 -0.000000 0.000000
0.000022 -0.000025 0.000000 0.000000
0.000031 -0.000028 0.000011 0.000000
0.000038 -0.000062 0.000036 0.000000
0.000015 -0.000021 0.000002 0.000000
0.000028 -0.000113 0.000020 0.000000
0.000031 -0.000080 0.000036 0.000000
0.000022 -0.000054 0.000006 0.000000
0.000019 -0.000022 0.000007 0.000000
0.000024 -0.000026 0.000005 0.000000
0.000027 -0.000057 0.000009 0.000000
0.000031 -0.000061 0.000005 0.000000
0.000029 -0.000101 0.000036 0.000000
0.000027 -0.000090 0.000008 0.000000
0.000031 -0.000103 0.000008 0.000000
0.000022 -0.000060 0.000003 0.000000
0.000036 -0.000130 0.000002 0.000000
0.000027 -0.000060 0.000001 0.000000
0.000041 -0.000128 0.000024 0.000000
0.000041 -0.000160 -0.000009 0.000000
0.000043 -0.000154 -0.000015 0.000000
0.000035 -0.000157 -0.000001 0.000000
0.000036 -0.000100 -0.000001 0.000000
0.000034 -0.000125 -0.000005 0.000000
0.000028 -0.000111 0.000051 0.000000
0.000052 -0.000126 0.000088 0.000000
0.000035 -0.000108 0.000060 0.000000
0.000036 -0.000121 0.000078 0.000000
0.000093 -0.000127 0.000077 0.000000
0.000093 -0.000184 0.000090 0.000000
0.000127 -0.000122 0.000051 0.000000
0.000124 -0.000208 0.000090 0.000000
0.000137 -0.000195 0.000031 0.000000
0.000152 -0.000216 0.000090 0.000000
0.000112 -0.000186 0.000028 0.000000
0.000176 -0.000168 0.000044 0.000000
0.000064 -0.000109 0.000075 0.000000
0.000088 -0.000089 0.000047 0.000000
0.000152 -0.000150 0.000025 0.000000
0.000075 -0.000048 0.000019 0.000000
0.000048 -0.000094 0.000065 0.000000
0.000040 -0.000060 0.000039 0.000000
0.000053 -0.000101 0.000073 0.000000
0.000051 -0.000038 0.000020 0.000000
0.000059 -0.000073 0.000050 0.000000
0.000073 -0.000047 0.000019 0.000000
0.000064 -0.000077 0.000046 0.000000
0.000070 -0.000078 0.000045 0.000000
0.000040 -0.000032 0.000016 0.000000
0.000057 -0.000040 0.000019 0.000000
0.000064 -0.000043 0.000020 0.000000
0.000093 -0.000061 0.000019 0.000000
0.000242 -0.000194 0.000007 0.000000
0.000127 -0.000170 0.000060 0.000000
0.000075 -0.000082 0.000041 0.000000
0.000092 -0.000100 0.000032 0.000000
0.000152 -0.000113 0.000026 0.000000
0.000129 -0.000090 -0.000003 0.000000
0.000155 -0.000183 0.000066 0.000000
0.000176 -0.000204 0.000047 0.000000
0.000213 -0.000200 0.000021 0.000000
0.000215 -0.000196 0.000002 0.000000
0.000191 -0.000149 -0.000004 0.000000
0.000230 -0.000180 0.000004 0.000000
0.000185 -0.000137 0.000004 0.000000
0.000085 -0.000120 -0.000026 0.000000
0.000104 -0.000100 -0.000011 0.000000
0.000190 -0.000154 -0.000019 0.000000
0.000110 -0.000135 -0.000039 0.000000
0.000140 -0.000094 0.000006 0.000000
0.000155 -0.000151 -0.000025 0.000000
0.000149 -0.000137 -0.000008 0.000000
0.000099 -0.000167 -0.000003 0.000000
0.000131 -0.000158 -0.000035 0.000000
0.000081 -0.000111 -0.000015 0.000000
0.000178 -0.000179 0.000005 0.000000
0.000215 -0.000179 -0.000004 0.000000
0.000137 -0.000174 0.000017 0.000000
0.000170 -0.000171 -0.000016 0.000000
0.000178 -0.000194 0.000013 0.000000
0.000092 -0.000165 0.000006 0.000000
0.000135 -0.000188 -0.000009 0.000000
0.000170 -0.000185 -0.000005 0.000000
0.000076 -0.000180 -0.000001 0.000000
0.000087 -0.000202 -0.000010 0.000000
0.000135 -0.000168 -0.000017 0.000000
0.000107 -0.000175 -0.000021 0.000000
0.000115 -0.000193 -0.000029 0.000000
0.000129 -0.000186 -0.000016 0.000000
0.000086 -0.000220 -0.000020 0.000000
0.000107 -0.000202 -0.000026 0.000000
0.000058 -0.000086 0.000008 0.000000
0.000114 -0.000215 -0.000041 0.000000
0.000051 -0.000198 0.000022 0.000000
0.000048 -0.000061 -0.000001 0.000000
0.000034 -0.000058 0.000003 0.000000
0.000067 -0.000079 -0.000009 0.000000
0.000053 -0.000072 0.000015 0.000000
0.000069 -0.000204 0.000018 0.000000
0.000051 -0.000065 0.000005 0.000000
0.000048 -0.000061 -0.000001 0.000000
0.000069 -0.000182 0.000016 0.000000
0.000048 -0.000195 0.000022 0.000000
0.000069 -0.000174 0.000014 0.000000
0.000076 -0.000215 -0.000004 0.000000
0.000140 -0.000263 0.000116 0.000000
0.000136 -0.000257 0.000113 0.000000
0.000053 -0.000209 0.000021 0.000000
0.000112 -0.000212 0.000045 0.000000
0.000038 -0.000137 0.000090 0.000000
0.000039 -0.000160 0.000113 0.000000
0.000061 -0.000154 0.000106 0.000000
0.000065 -0.000197 0.000123 0.000000
0.000039 -0.000177 0.000112 0.000000
0.000053 -0.000161 0.000106 0.000000
0.000127 -0.000271 0.000174 0.000000
0.000129 -0.000271 0.000141 0.000000
0.000092 -0.000201 0.000138 0.000000
0.000108 -0.000271 0.000139 0.000000
0.000104 -0.000121 -0.000000 0.000000
0.000091 -0.000243 0.000041 0.000000
0.000158 -0.000309 0.000100 0.000000
0.000094 -0.000237 0.000053 0.000000
0.000146 -0.000324 0.000095 0.000000
0.000126 -0.000144 0.000052 0.000000
0.000074 -0.000097 0.000024 0.000000
0.000042 -0.000061 0.000011 0.000000
0.000017 -0.000193 0.000106 0.000000
0.000099 -0.000259 0.000183 0.000000
0.000038 -0.000201 0.000127 0.000000
0.000092 -0.000272 0.000159 0.000000
0.000012 -0.000226 0.000094 0.000000
0.000035 -0.000225 0.000149 0.000000
0.000022 -0.000231 0.000123 0.000000
0.000041 -0.000257 0.000184 0.000000
0.000120 -0.000150 0.000016 0.000000
0.000155 -0.000366 0.000201 0.000000
0.000162 -0.000364 0.000128 0.000000
0.000165 -0.000356 0.000168 0.000000
0.000084 -0.000114 0.000021 0.000000
0.000108 -0.000134 0.000012 0.000000
0.000066 -0.000097 0.000016 0.000000
0.000045 -0.000073 0.000022 0.000000
0.000027 -0.000052 0.000009 0.000000
0.000054 -0.000073 0.000006 0.000000
0.000068 -0.000097 0.000011 0.000000
0.000060 -0.000079 0.000011 0.000000
0.000043 -0.000066 0.000004 0.000000
0.000053 -0.000070 0.000012 0.000000
0.000029 -0.000053 -0.000001 0.000000
0.000035 -0.000056 0.000000 0.000000
0.000026 -0.000049 -0.000000 0.000000
0.000032 -0.000061 0.000012 0.000000
0.000027 -0.000052 -0.000001 0.000000
0.000035 -0.000055 0.000000 0.000000
0.000027 -0.000052 -0.000001 0.000000
0.000033 -0.000051 -0.000004 0.000000
0.000028 -0.000054 0.000004 0.000000
0.000027 -0.000052 -0.000002 0.000000
0.000077 -0.000106 0.000006 0.000000
0.000139 -0.000302 -0.000054 0.000000
0.000092 -0.000106 0.000007 0.000000
0.000080 -0.000113 0.000011 0.000000
0.000079 -0.000090 -0.000011 0.000000
0.000117 -0.000226 -0.000031 0.000000
0.000080 -0.000206 -0.000067 0.000000
0.000120 -0.000225 -0.000078 0.000000
0.000062 -0.000168 -0.000049 0.000000
0.000072 -0.000196 -0.000081 0.000000
0.000033 -0.000049 0.000011 0.000000
0.000015 -0.000173 0.000071 0.000000
0.000041 -0.000198 -0.000053 0.000000
0.000147 -0.000317 -0.000064 0.000000
-0.000031 -0.000046 0.000026 0.000000
0.000014 -0.000089 0.000096 0.000000
0.000004 -0.000033 0.000003 0.000000
0.000031 -0.000051 0.000009 0.000000
0.000024 -0.000052 0.000017 0.000000
0.000086 -0.000100 -0.000002 0.000000
0.000146 -0.000154 -0.000029 0.000000
0.000084 -0.000101 0.000003 0.000000
0.000214 -0.000227 0.000102 0.000000
0.000081 -0.000101 0.000006 0.000000
0.000106 -0.000127 0.000009 0.000000
0.000098 -0.000115 0.000004 0.000000
0.000164 -0.000183 0.000016 0.000000
0.000140 -0.000162 -0.000001 0.000000
0.000017 -0.000046 0.000004 0.000000
0.000093 -0.000238 0.000090 0.000000
0.000081 -0.000101 0.000006 0.000000
0.000031 -0.000056 0.000011 0.000000
0.000083 -0.000101 0.000007 0.000000
0.000102 -0.000113 -0.000009 0.000000
0.000053 -0.000189 0.000112 0.000000
0.000079 -0.000190 0.000075 0.000000
0.000045 -0.000131 0.000146 0.000000
0.000060 -0.000078 0.000014 0.000000
0.000066 -0.000078 0.000014 0.000000
0.000092 -0.000107 0.000050 0.000000
0.000135 -0.000154 -0.000024 0.000000
0.000188 -0.000210 0.000002 0.000000
0.000141 -0.000150 -0.000027 0.000000
0.000102 -0.000115 0.000004 0.000000
0.000122 -0.000139 -0.000037 0.000000
0.000122 -0.000133 -0.000018 0.000000
0.000084 -0.000238 0.000091 0.000000
0.000139 -0.000253 0.000087 0.000000
0.000171 -0.000237 0.000025 0.000000
0.000127 -0.000191 0.000055 0.000000
0.000074 -0.000160 -0.000035 0.000000
0.000073 -0.000141 0.000042 0.000000
0.000052 -0.000137 0.000024 0.000000
0.000072 -0.000165 0.000069 0.000000
0.000056 -0.000137 -0.000012 0.000000
0.000047 -0.000145 0.000006 0.000000
0.000045 -0.000155 -0.000020 0.000000
0.000040 -0.000146 0.000029 0.000000
0.000093 -0.000267 0.000011 0.000000
0.000140 -0.000284 -0.000054 0.000000
0.000063 -0.000207 -0.000059 0.000000
0.000059 -0.000149 -0.000029 0.000000
0.000111 -0.000222 -0.000030 0.000000
0.000086 -0.000147 -0.000032 0.000000
0.000077 -0.000191 -0.000057 0.000000
0.000076 -0.000160 -0.000036 0.000000
0.000067 -0.000152 -0.000030 0.000000
0.000076 -0.000206 -0.000033 0.000000
0.000117 -0.000182 -0.000038 0.000000
0.000118 -0.000191 -0.000042 0.000000
0.000068 -0.000121 -0.000009 0.000000
0.000074 -0.000143 -0.000037 0.000000
0.000056 -0.000123 0.000001 0.000000
0.000084 -0.000139 0.000054 0.000000
0.000064 -0.000119 0.000014 0.000000
0.000052 -0.000128 0.000039 0.000000
0.000074 -0.000129 -0.000022 0.000000
0.000085 -0.000053 -0.000005 0.000000
0.000073 -0.000107 -0.000018 0.000000
0.000067 -0.000128 -0.000020 0.000000
0.000104 -0.000069 -0.000012 0.000000
0.000119 -0.000114 -0.000026 0.000000
0.000085 -0.000079 -0.000008 0.000000
0.000091 -0.000126 -0.000021 0.000000
0.000080 -0.000082 -0.000015 0.000000
0.000107 -0.000065 -0.000003 0.000000
0.000077 -0.000101 -0.000007 0.000000
0.000083 -0.000052 0.000002 0.000000
0.000091 -0.000090 -0.000019 0.000000
0.000093 -0.000055 -0.000006 0.000000
0.000089 -0.000055 -0.000009 0.000000
0.000091 -0.000052 0.000006 0.000000
0.000085 -0.000079 0.000013 0.000000
0.000076 -0.000078 -0.000005 0.000000
0.000068 -0.000101 -0.000000 0.000000
0.000075 -0.000077 0.000010 0.000000
0.000073 -0.000110 0.000035 0.000000
0.000079 -0.000106 0.000024 0.000000
0.000099 -0.000058 0.000007 0.000000
0.000137 -0.000088 -0.000005 0.000000
0.000087 -0.000118 0.000027 0.000000
0.000086 -0.000092 0.000029 0.000000
0.000186 -0.000179 0.000005 0.000000
0.000092 -0.000061 0.000016 0.000000
0.000171 -0.000130 -0.000008 0.000000
0.000170 -0.000133 0.000002 0.000000
0.000186 -0.000138 -0.000001 0.000000
0.000073 -0.000047 -0.000032 0.000000
0.000162 -0.000125 -0.000003 0.000000
0.000143 -0.000182 -0.000054 0.000000
0.000174 -0.000136 -0.000002 0.000000
0.000188 -0.000177 0.000005 0.000000
0.000185 -0.000175 0.000007 0.000000
0.000202 -0.000219 -0.000001 0.000000
0.000137 -0.000154 -0.000032 0.000000
0.000141 -0.000136 -0.000024 0.000000
0.000092 -0.000087 0.000018 0.000000
0.000079 -0.000081 0.000021 0.000000
0.000179 -0.000134 0.000004 0.000000
0.000171 -0.000166 -0.000014 0.000000
0.000120 -0.000134 0.000032 0.000000
0.000123 -0.000115 0.000002 0.000000
0.000171 -0.000264 0.000018 0.000000
0.000162 -0.000199 0.000004 0.000000
0.000149 -0.000224 -0.000076 0.000000
0.000142 -0.000172 -0.000041 0.000000
0.000136 -0.000145 -0.000032 0.000000
0.000129 -0.000199 -0.000063 0.000000
0.000144 -0.000203 -0.000054 0.000000
0.000131 -0.000192 -0.000047 0.000000
0.000168 -0.000186 -0.000040 0.000000
0.000128 -0.000145 -0.000073 0.000000
0.000108 -0.000150 -0.000077 0.000000
0.000075 -0.000075 -0.000031 0.000000
0.000062 -0.000069 0.000042 0.000000
0.000080 -0.000103 -0.000059 0.000000
0.000055 -0.000061 0.000016 0.000000
0.000073 -0.000075 -0.000004 0.000000
0.000074 -0.000093 -0.000035 0.000000
0.000093 -0.000110 -0.000046 0.000000
0.000088 -0.000107 -0.000027 0.000000
0.000075 -0.000079 -0.000054 0.000000
0.000127 -0.000188 -0.000059 0.000000
0.000131 -0.000166 -0.000051 0.000000
0.000095 -0.000135 -0.000061 0.000000
0.000095 -0.000101 -0.000072 0.000000
0.000091 -0.000060 -0.000034 0.000000
0.000131 -0.000090 -0.000031 0.000000
0.000047 -0.000035 -0.000023 0.000000
0.000106 -0.000078 -0.000009 0.000000
0.000073 -0.000051 -0.000024 0.000000
0.000060 -0.000062 -0.000040 0.000000
0.000060 -0.000041 -0.000023 0.000000
0.000055 -0.000038 -0.000009 0.000000
0.000079 -0.000080 -0.000055 0.000000
0.000095 -0.000109 -0.000060 0.000000
0.000055 -0.000060 -0.000013 0.000000
0.000029 -0.000026 -0.000012 0.000000
0.000073 -0.000092 -0.000002 0.000000
0.000055 -0.000039 0.000008 0.000000
0.000084 -0.000085 0.000055 0.000000
0.000025 -0.000024 0.000003 0.000000
0.000084 -0.000094 0.000040 0.000000
0.000033 -0.000028 0.000017 0.000000
0.000062 -0.000042 0.000023 0.000000
0.000052 -0.000039 0.000025 0.000000
0.000075 -0.000049 0.000028 0.000000
0.000084 -0.000053 0.000024 0.000000
0.000194 -0.000197 0.000023 0.000000
0.000074 -0.000051 0.000025 0.000000
0.000075 -0.000086 0.000048 0.000000
0.000091 -0.000059 0.000017 0.000000
0.000088 -0.000134 0.000047 0.000000
0.000083 -0.000122 0.000052 0.000000
0.000099 -0.000099 0.000042 0.000000
0.000099 -0.000151 0.000040 0.000000
0.000128 -0.000175 0.000049 0.000000
0.000074 -0.000095 0.000033 0.000000
0.000074 -0.000077 0.000030 0.000000
0.000090 -0.000110 0.000010 0.000000
0.000102 -0.000122 0.000060 0.000000
0.000183 -0.000240 -0.000013 0.000000
0.000095 -0.000174 0.000061 0.000000
0.000101 -0.000164 0.000028 0.000000
0.000093 -0.000163 0.000042 0.000000
0.000092 -0.000129 0.000058 0.000000
0.000131 -0.000167 0.000063 0.000000
0.000088 -0.000091 0.000048 0.000000
0.000106 -0.000183 0.000047 0.000000
0.000106 -0.000147 0.000052 0.000000
0.000120 -0.000220 0.000062 0.000000
0.000156 -0.000236 -0.000022 0.000000
0.000104 -0.000198 0.000003 0.000000
0.000098 -0.000168 0.000037 0.000000
0.000100 -0.000205 0.000030 0.000000
0.000124 -0.000236 -0.000007 0.000000
0.000090 -0.000138 0.000009 0.000000
0.000098 -0.000206 0.000028 0.000000
0.000093 -0.000235 0.000041 0.000000
0.000090 -0.000134 -0.000018 0.000000
0.000198 -0.000216 0.000017 0.000000
0.000139 -0.000177 0.000018 0.000000
0.000220 -0.000307 -0.000034 0.000000
0.000117 -0.000198 -0.000042 0.000000
0.000115 -0.000187 -0.000003 0.000000
0.000112 -0.000153 -0.000017 0.000000
0.000137 -0.000233 -0.000004 0.000000
0.000152 -0.000218 -0.000085 0.000000
0.000120 -0.000131 -0.000026 0.000000
0.000166 -0.000169 -0.000032 0.000000
0.000112 -0.000152 -0.000060 0.000000
0.000113 -0.000187 -0.000052 0.000000
0.000123 -0.000180 -0.000080 0.000000
0.000134 -0.000151 -0.000017 0.000000
0.000137 -0.000207 -0.000038 0.000000
0.000141 -0.000160 0.000004 0.000000
0.000137 -0.000145 -0.000009 0.000000
0.000113 -0.000123 -0.000026 0.000000
0.000141 -0.000150 -0.000010 0.000000
0.000165 -0.000175 0.000002 0.000000
0.000162 -0.000181 0.000013 0.000000
0.000134 -0.000145 -0.000023 0.000000
0.000145 -0.000152 0.000014 0.000000
0.000213 -0.000225 -0.000023 0.000000
0.000143 -0.000210 -0.000054 0.000000
0.000216 -0.000230 -0.000002 0.000000
0.000246 -0.000555 -0.000003 0.000000
0.000326 -0.000339 0.000017 0.000000
0.000188 -0.000338 -0.000059 0.000000
0.000118 -0.000137 0.000042 0.000000
0.000173 -0.000179 0.000023 0.000000
0.000158 -0.000165 -0.000000 0.000000
0.000208 -0.000219 0.000061 0.000000
0.000057 -0.000081 0.000062 0.000000
0.000175 -0.000202 0.000045 0.000000
0.000146 -0.000159 0.000085 0.000000
0.000203 -0.000222 0.000051 0.000000
0.000345 -0.000353 0.000098 0.000000
0.000343 -0.000368 0.000013 0.000000
0.000216 -0.000357 -0.000073 0.000000
0.000411 -0.000697 0.000097 0.000000
0.000186 -0.000351 -0.000063 0.000000
0.000378 -0.000381 0.000145 0.000000
0.000191 -0.000351 -0.000053 0.000000
0.000197 -0.000362 -0.000005 0.000000
0.000204 -0.000367 -0.000089 0.000000
0.000163 -0.000288 -0.000043 0.000000
0.000164 -0.000318 -0.000054 0.000000
0.000157 -0.000291 -0.000034 0.000000
0.000169 -0.000320 -0.000053 0.000000
0.000130 -0.000262 -0.000002 0.000000
0.000098 -0.000210 0.000121 0.000000
0.000106 -0.000234 0.000040 0.000000
0.000135 -0.000150 -0.000017 0.000000
0.000127 -0.000248 0.000079 0.000000
0.000030 -0.000243 -0.000025 0.000000
0.000098 -0.000279 -0.000009 0.000000
0.000096 -0.000268 -0.000002 0.000000
0.000054 -0.000236 0.000054 0.000000
0.000126 -0.000157 -0.000067 0.000000
0.000042 -0.000194 0.000085 0.000000
0.000071 -0.000270 -0.000088 0.000000
0.000166 -0.000366 -0.000075 0.000000
0.000134 -0.000164 -0.000009 0.000000
0.000038 -0.000198 0.000075 0.000000
0.000251 -0.000445 -0.000114 0.000000
0.000167 -0.000332 -0.000102 0.000000
0.000152 -0.000367 -0.000165 0.000000
0.000086 -0.000333 -0.000069 0.000000
0.000253 -0.000522 -0.000157 0.000000
0.000222 -0.000389 -0.000039 0.000000
0.000012 -0.000290 -0.000113 0.000000
0.000175 -0.000443 -0.000142 0.000000
0.000151 -0.000522 -0.000214 0.000000
-0.000001 -0.000182 -0.000116 0.000000
0.000081 -0.000364 -0.000111 0.000000
-0.000026 -0.000136 -0.000196 0.000000
0.000033 -0.000311 -0.000171 0.000000
0.000062 -0.000105 -0.000045 0.000000
-0.000024 -0.000322 -0.000243 0.000000
0.000045 -0.000098 -0.000076 0.000000
0.000137 -0.000575 -0.000260 0.000000
0.000047 -0.000529 -0.000339 0.000000
-0.000027 -0.000164 -0.000369 0.000000
0.000014 -0.000346 -0.000214 0.000000
0.000197 -0.000575 -0.000052 0.000000
0.000136 -0.000582 -0.000076 0.000000
0.000059 -0.000395 -0.000139 0.000000
0.000213 -0.000476 -0.000123 0.000000
0.000186 -0.000511 -0.000115 0.000000
0.000257 -0.000449 -0.000028 0.000000
0.000140 -0.000402 -0.000202 0.000000
0.000222 -0.000547 -0.000143 0.000000
0.000051 -0.000292 -0.000125 0.000000
0.000167 -0.000475 -0.000185 0.000000
0.000337 -0.000706 0.000082 0.000000
0.000160 -0.000206 0.000047 0.000000
0.000356 -0.000685 0.000053 0.000000
0.000271 -0.000622 -0.000034 0.000000
0.000302 -0.000654 -0.000008 0.000000
0.000358 -0.000702 0.000080 0.000000
0.000336 -0.000640 0.000077 0.000000
0.000293 -0.000644 0.000023 0.000000
0.000141 -0.000450 0.000237 0.000000
0.000263 -0.000274 0.000209 0.000000
0.000238 -0.000614 0.000314 0.000000
0.000334 -0.000694 0.000211 0.000000
0.000222 -0.000530 0.000356 0.000000
0.000387 -0.000426 0.000120 0.000000
0.000274 -0.000621 0.000305 0.000000
0.000400 -0.000641 0.000331 0.000000
0.000098 -0.000119 0.000046 0.000000
0.000279 -0.000284 0.000208 0.000000
0.000327 -0.000362 0.000121 0.000000
0.000272 -0.000320 0.000160 0.000000
0.000285 -0.000570 -0.000082 0.000000
0.000400 -0.000414 0.000081 0.000000
0.000315 -0.000585 0.000050 0.000000
0.000196 -0.000388 -0.000036 0.000000
0.000244 -0.000440 0.000095 0.000000
0.000327 -0.000345 0.000019 0.000000
0.000199 -0.000456 0.000031 0.000000
0.000236 -0.000439 -0.000048 0.000000
0.000326 -0.000351 0.000103 0.000000
0.000191 -0.000227 0.000085 0.000000
0.000401 -0.000438 0.000056 0.000000
0.000391 -0.000399 0.000052 0.000000
0.000322 -0.000343 0.000031 0.000000
0.000361 -0.000405 0.000106 0.000000
0.000025 -0.000053 0.000010 0.000000
0.000017 -0.000040 0.000004 0.000000
0.000028 -0.000057 0.000024 0.000000
0.000081 -0.000104 0.000017 0.000000
0.000083 -0.000109 0.000010 0.000000
0.000023 -0.000054 0.000022 0.000000
0.000120 -0.000148 0.000034 0.000000
0.000104 -0.000141 0.000026 0.000000
0.000004 -0.000037 -0.000012 0.000000
-0.000020 -0.000200 -0.000211 0.000000
0.000014 -0.000045 0.000010 0.000000
0.000016 -0.000042 0.000017 0.000000
0.000012 -0.000033 -0.000000 0.000000
0.000003 -0.000031 0.000003 0.000000
0.000015 -0.000043 0.000014 0.000000
0.000004 -0.000033 0.000002 0.000000
0.000115 -0.000317 -0.000070 0.000000
0.000094 -0.000124 0.000018 0.000000
-0.000017 -0.000161 -0.000003 0.000000
0.000127 -0.000283 -0.000111 0.000000
0.000027 -0.000058 0.000006 0.000000
0.000075 -0.000107 0.000026 0.000000
0.000113 -0.000128 -0.000009 0.000000
0.000082 -0.000102 0.000010 0.000000
0.000051 -0.000084 0.000013 0.000000
0.000045 -0.000069 -0.000008 0.000000
0.000052 -0.000076 0.000006 0.000000
0.000058 -0.000083 0.000009 0.000000
0.000103 -0.000133 0.000013 0.000000
0.000096 -0.000120 -0.000043 0.000000
0.000018 -0.000193 -0.000226 0.000000
0.000076 -0.000283 -0.000104 0.000000
0.000003 -0.000028 -0.000007 0.000000
0.000031 -0.000183 -0.000131 0.000000
0.000111 -0.000136 -0.000037 0.000000
-0.000015 -0.000181 -0.000213 0.000000
0.000074 -0.000123 -0.000019 0.000000
-0.000014 -0.000201 -0.000209 0.000000
0.000041 -0.000076 0.000002 0.000000
0.000036 -0.000065 0.000004 0.000000
0.000072 -0.000100 -0.000009 0.000000
0.000101 -0.000142 -0.000020 0.000000
0.000064 -0.000098 -0.000003 0.000000
0.000039 -0.000072 0.000003 0.000000
0.000046 -0.000085 -0.000004 0.000000
0.000061 -0.000106 0.000008 0.000000
0.000057 -0.000087 0.000001 0.000000
0.000038 -0.000072 -0.000005 0.000000
0.000031 -0.000071 0.000002 0.000000
0.000010 -0.000071 0.000006 0.000000
0.000051 -0.000094 0.000016 0.000000
0.000023 -0.000063 -0.000010 0.000000
-0.000083 -0.000211 -0.000160 0.000000
0.000066 -0.000096 -0.000041 0.000000
0.000058 -0.000439 0.000053 0.000000
0.000024 -0.000060 0.000000 0.000000
-0.000014 -0.000195 -0.000241 0.000000
-0.000036 -0.000199 -0.000217 0.000000
0.000010 -0.000044 0.000003 0.000000
0.000009 -0.000045 0.000007 0.000000
0.000029 -0.000057 0.000030 0.000000
0.000156 -0.000164 0.000090 0.000000
0.000063 -0.000108 0.000041 0.000000
0.000169 -0.000225 0.000062 0.000000
0.000082 -0.000421 0.000163 0.000000
0.000026 -0.000068 0.000012 0.000000
0.000125 -0.000477 0.000197 0.000000
0.000174 -0.000521 0.000254 0.000000
0.000075 -0.000440 0.000136 0.000000
0.000136 -0.000486 0.000198 0.000000
0.000005 -0.000376 0.000048 0.000000
-0.000004 -0.000372 -0.000120 0.000000
0.000092 -0.000479 0.000129 0.000000
0.000061 -0.000411 0.000108 0.000000
0.000044 -0.000447 0.000111 0.000000
0.000359 -0.000768 0.000348 0.000000
0.000175 -0.000566 0.000253 0.000000
0.000366 -0.000762 0.000371 0.000000
-0.000056 -0.000258 0.000010 0.000000
-0.000000 -0.000059 -0.000004 0.000000
-0.000126 -0.000258 0.000016 0.000000
-0.000056 -0.000230 -0.000067 0.000000
0.000033 -0.000089 0.000009 0.000000
0.000045 -0.000078 -0.000027 0.000000
0.000040 -0.000108 0.000004 0.000000
-0.000106 -0.000227 -0.000089 0.000000
0.000024 -0.000064 -0.000013 0.000000
-0.000009 -0.000049 -0.000007 0.000000
0.000032 -0.000081 0.000011 0.000000
0.000006 -0.000058 0.000003 0.000000
0.000065 -0.000115 -0.000008 0.000000
0.000028 -0.000068 -0.000013 0.000000
0.000036 -0.000074 -0.000029 0.000000
0.000022 -0.000073 -0.000023 0.000000
0.000092 -0.000122 -0.000001 0.000000
0.000041 -0.000095 -0.000032 0.000000
0.000083 -0.000129 -0.000040 0.000000
0.000047 -0.000093 -0.000062 0.000000
0.000014 -0.000055 -0.000024 0.000000
0.000039 -0.000074 -0.000041 0.000000
0.000023 -0.000062 -0.000017 0.000000
0.000002 -0.000052 -0.000009 0.000000
0.000000 -0.000050 -0.000011 0.000000
-0.000004 -0.000049 -0.000007 0.000000
0.000065 -0.000127 -0.000077 0.000000
0.000014 -0.000077 -0.000044 0.000000
0.000001 -0.000051 0.000022 0.000000
0.000016 -0.000059 0.000002 0.000000
0.000059 -0.000109 -0.000030 0.000000
0.000127 -0.000175 -0.000047 0.000000
0.000045 -0.000100 -0.000054 0.000000
0.000018 -0.000060 -0.000045 0.000000
0.000043 -0.000113 -0.000088 0.000000
0.000084 -0.000136 -0.000046 0.000000
0.000028 -0.000092 -0.000064 0.000000
0.000065 -0.000115 -0.000081 0.000000
0.000004 -0.000054 -0.000033 0.000000
0.000063 -0.000543 -0.000021 0.000000
-0.000006 -0.000047 -0.000015 0.000000
-0.000028 -0.000474 0.000069 0.000000
-0.000055 -0.000431 0.000161 0.000000
-0.000139 -0.000081 0.000091 0.000000
-0.000058 -0.000421 0.000115 0.000000
0.000133 -0.000668 0.000375 0.000000
-0.000054 -0.000338 0.000017 0.000000
-0.000017 -0.000423 0.000047 0.000000
0.000015 -0.000440 0.000045 0.000000
0.000243 -0.000676 0.000397 0.000000
0.000098 -0.000514 0.000114 0.000000
0.000067 -0.000478 0.000169 0.000000
0.000152 -0.000576 0.000221 0.000000
0.000148 -0.000535 0.000187 0.000000
-0.000010 -0.000479 0.000135 0.000000
-0.000010 -0.000456 0.000148 0.000000
0.000065 -0.000540 0.000144 0.000000
0.000232 -0.000750 0.000299 0.000000
0.000372 -0.000781 0.000366 0.000000
0.000301 -0.000353 -0.000056 0.000000
0.000324 -0.000368 -0.000027 0.000000
0.000320 -0.000372 -0.000038 0.000000
0.000113 -0.000183 -0.000050 0.000000
0.000244 -0.000296 -0.000064 0.000000
0.000107 -0.000157 -0.000029 0.000000
0.000081 -0.000131 -0.000019 0.000000
0.000186 -0.000223 0.000040 0.000000
0.000060 -0.000116 -0.000030 0.000000
0.000205 -0.000242 0.000046 0.000000
0.000256 -0.000302 -0.000032 0.000000
0.000202 -0.000267 0.000019 0.000000
0.000102 -0.000160 -0.000009 0.000000
0.000255 -0.000307 -0.000039 0.000000
0.000325 -0.000374 -0.000023 0.000000
0.000199 -0.000240 0.000033 0.000000
0.000229 -0.000270 0.000013 0.000000
0.000162 -0.000569 0.000203 0.000000
0.000373 -0.000806 0.000364 0.000000
0.000326 -0.000368 -0.000011 0.000000
0.000302 -0.000344 -0.000006 0.000000
0.000175 -0.000549 0.000263 0.000000
0.000350 -0.000734 0.000334 0.000000
0.000256 -0.000570 0.000375 0.000000
0.000338 -0.000726 0.000360 0.000000
0.000204 -0.000252 0.000001 0.000000
0.000231 -0.000598 0.000003 0.000000
0.000173 -0.000211 0.000004 0.000000
0.000163 -0.000212 -0.000016 0.000000
0.000226 -0.000274 -0.000014 0.000000
0.000322 -0.000367 -0.000060 0.000000
0.000299 -0.000344 -0.000025 0.000000
0.000204 -0.000260 0.000036 0.000000
0.000167 -0.000223 -0.000013 0.000000
0.000073 -0.000126 -0.000063 0.000000
0.000203 -0.000599 -0.000015 0.000000
0.000075 -0.000134 -0.000033 0.000000
0.000148 -0.000597 -0.000156 0.000000
0.000098 -0.000144 -0.000019 0.000000
0.000194 -0.000592 -0.000119 0.000000
0.000188 -0.000612 -0.000099 0.000000
0.000121 -0.000611 -0.000115 0.000000
0.000156 -0.000551 -0.000119 0.000000
0.000040 -0.000426 -0.000186 0.000000
0.000126 -0.000437 -0.000251 0.000000
0.000019 -0.000466 -0.000381 0.000000
-0.000011 -0.000373 -0.000369 0.000000
0.000149 -0.000656 -0.000370 0.000000
0.000009 -0.000471 -0.000270 0.000000
0.000122 -0.000586 -0.000475 0.000000
-0.000025 -0.000478 -0.000313 0.000000
0.000062 -0.000479 -0.000394 0.000000
0.000031 -0.000413 -0.000389 0.000000
0.000073 -0.000131 -0.000065 0.000000
0.000156 -0.000580 -0.000459 0.000000
0.000053 -0.000114 -0.000065 0.000000
0.000063 -0.000529 -0.000480 0.000000
0.000101 -0.000149 -0.000046 0.000000
0.000097 -0.000152 -0.000022 0.000000
0.000085 -0.000135 -0.000076 0.000000
0.000078 -0.000128 -0.000023 0.000000
0.000058 -0.000119 -0.000046 0.000000
0.000078 -0.000133 -0.000045 0.000000
0.000058 -0.000115 -0.000033 0.000000
0.000071 -0.000132 -0.000050 0.000000
0.000060 -0.000125 -0.000055 0.000000
0.000038 -0.000107 -0.000046 0.000000
0.000157 -0.000629 -0.000470 0.000000
0.000066 -0.000118 -0.000042 0.000000
0.000031 -0.000092 -0.000069 0.000000
-0.000031 -0.000541 -0.000384 0.000000
-0.000040 -0.000462 -0.000206 0.000000
-0.000121 -0.000379 -0.000069 0.000000
-0.000037 -0.000438 -0.000177 0.000000
-0.000058 -0.000454 -0.000161 0.000000
-0.000037 -0.000468 -0.000125 0.000000
-0.000026 -0.000450 -0.000075 0.000000
-0.000000 -0.000499 -0.000019 0.000000
0.000008 -0.000489 -0.000002 0.000000
0.000008 -0.000462 0.000024 0.000000
-0.000011 -0.000464 -0.000154 0.000000
0.000047 -0.000536 0.000063 0.000000
-0.000014 -0.000445 -0.000046 0.000000
-0.000032 -0.000447 -0.000285 0.000000
0.000060 -0.000588 -0.000454 0.000000
-0.000026 -0.000437 -0.000261 0.000000
0.000027 -0.000479 -0.000396 0.000000
-0.000031 -0.000451 -0.000214 0.000000
0.000009 -0.000405 -0.000306 0.000000
-0.000024 -0.000446 -0.000202 0.000000
0.000003 -0.000441 -0.000288 0.000000
0.000027 -0.000452 -0.000378 0.000000
-0.000027 -0.000438 -0.000262 0.000000
-0.000019 -0.000429 -0.000222 0.000000
-0.000002 -0.000418 -0.000254 0.000000
-0.000022 -0.000421 -0.000224 0.000000
-0.000010 -0.000440 -0.000142 0.000000
-0.000008 -0.000038 -0.000003 0.000000
-0.000007 -0.000041 -0.000006 0.000000
-0.000022 -0.000459 -0.000112 0.000000
-0.000002 -0.000418 -0.000203 0.000000
-0.000014 -0.000444 -0.000044 0.000000
-0.000002 -0.000433 -0.000071 0.000000
0.000057 -0.000485 0.000057 0.000000
0.000045 -0.000553 -0.000005 0.000000
-0.000005 -0.000047 0.000006 0.000000
0.000039 -0.000519 0.000246 0.000000
-0.000002 -0.000399 0.000163 0.000000
0.000025 -0.000520 0.000177 0.000000
-0.000004 -0.000053 -0.000015 0.000000
-0.000009 -0.000265 0.000181 0.000000
-0.000024 -0.000309 0.000126 0.000000
-0.000041 -0.000258 0.000127 0.000000
-0.000032 -0.000314 0.000109 0.000000
-0.000084 -0.000212 0.000154 0.000000
-0.000050 -0.000267 0.000111 0.000000
-0.000052 -0.000249 0.000197 0.000000
-0.000047 -0.000293 0.000086 0.000000
-0.000058 -0.000353 0.000044 0.000000
-0.000078 -0.000275 0.000145 0.000000
0.000147 -0.000205 0.000066 0.000000
-0.000014 -0.000462 0.000076 0.000000
-0.000048 -0.000305 0.000092 0.000000
-0.000037 -0.000416 0.000018 0.000000
-0.000093 -0.000288 0.000067 0.000000
0.000023 -0.000431 0.000193 0.000000
-0.000007 -0.000482 0.000123 0.000000
-0.000030 -0.000415 0.000083 0.000000
-0.000036 -0.000351 0.000099 0.000000
0.000062 -0.000538 0.000091 0.000000
0.000088 -0.000632 0.000054 0.000000
0.000080 -0.000716 -0.000561 0.000000
-0.000045 -0.000332 0.000012 0.000000
-0.000090 -0.000329 0.000004 0.000000
0.000163 -0.000214 0.000112 0.000000
-0.000032 -0.000380 -0.000023 0.000000
-0.000002 -0.000538 -0.000030 0.000000
-0.000076 -0.000257 -0.000099 0.000000
0.000105 -0.000159 0.000130 0.000000
-0.000048 -0.000320 -0.000180 0.000000
-0.000004 -0.000627 0.000057 0.000000
0.000153 -0.000203 0.000079 0.000000
0.000008 -0.000093 -0.000025 0.000000
0.000156 -0.000216 0.000089 0.000000
0.000161 -0.000230 0.000138 0.000000
0.000147 -0.000199 0.000066 0.000000
0.000142 -0.000213 0.000067 0.000000
0.000117 -0.000154 0.000043 0.000000
0.000058 -0.000113 0.000065 0.000000
0.000139 -0.000191 0.000040 0.000000
0.000063 -0.000135 0.000027 0.000000
0.000129 -0.000193 0.000063 0.000000
0.000141 -0.000194 0.000064 0.000000
0.000144 -0.000216 0.000128 0.000000
0.000085 -0.000133 0.000041 0.000000
0.000133 -0.000186 0.000072 0.000000
0.000073 -0.000148 0.000062 0.000000
0.000176 -0.000227 0.000085 0.000000
0.000288 -0.000351 0.000111 0.000000
0.000230 -0.000273 0.000026 0.000000
0.000276 -0.000350 0.000074 0.000000
0.000318 -0.000385 -0.000036 0.000000
0.000322 -0.000389 -0.000025 0.000000
0.000175 -0.000229 0.000082 0.000000
0.000180 -0.000241 0.000086 0.000000
0.000201 -0.000256 0.000020 0.000000
0.000318 -0.000351 -0.000040 0.000000
0.000115 -0.000172 0.000082 0.000000
0.000133 -0.000187 0.000079 0.000000
0.000155 -0.000201 0.000101 0.000000
0.000154 -0.000217 0.000108 0.000000
0.000168 -0.000222 0.000075 0.000000
0.000165 -0.000227 0.000090 0.000000
0.000187 -0.000226 0.000015 0.000000
0.000168 -0.000216 0.000069 0.000000
0.000196 -0.000236 0.000025 0.000000
0.000188 -0.000218 -0.000045 0.000000
0.000231 -0.000287 -0.000048 0.000000
0.000230 -0.000266 -0.000032 0.000000
0.000266 -0.000291 -0.000061 0.000000
0.000266 -0.000332 -0.000057 0.000000
0.000223 -0.000252 -0.000049 0.000000
0.000223 -0.000272 -0.000033 0.000000
0.000048 -0.000084 0.000009 0.000000
0.000188 -0.000239 -0.000039 0.000000
0.000130 -0.000186 0.000015 0.000000
0.000135 -0.000190 0.000061 0.000000
0.000158 -0.000192 0.000018 0.000000
0.000155 -0.000207 0.000042 0.000000
0.000160 -0.000207 0.000053 0.000000
0.000143 -0.000198 0.000018 0.000000
0.000177 -0.000223 0.000037 0.000000
0.000164 -0.000209 0.000025 0.000000
0.000085 -0.000152 0.000037 0.000000
0.000131 -0.000169 0.000033 0.000000
0.000170 -0.000212 0.000018 0.000000
0.000167 -0.000217 0.000029 0.000000
0.000159 -0.000213 0.000073 0.000000
0.000144 -0.000204 0.000126 0.000000
0.000146 -0.000204 0.000075 0.000000
0.000152 -0.000202 0.000087 0.000000
0.000173 -0.000222 0.000075 0.000000
0.000172 -0.000214 0.000075 0.000000
0.000173 -0.000219 0.000030 0.000000
0.000156 -0.000207 0.000067 0.000000
0.000154 -0.000197 0.000041 0.000000
0.000156 -0.000204 0.000029 0.000000
-0.000043 -0.000238 0.000135 0.000000
-0.000042 -0.000272 0.000178 0.000000
0.000196 -0.000233 0.000097 0.000000
0.000216 -0.000248 0.000101 0.000000
-0.000033 -0.000205 0.000067 0.000000
-0.000029 -0.000263 0.000205 0.000000
0.000006 -0.000288 0.000184 0.000000
-0.000027 -0.000269 0.000186 0.000000
0.000176 -0.000206 0.000043 0.000000
0.000170 -0.000217 0.000031 0.000000
0.000177 -0.000216 0.000012 0.000000
0.000175 -0.000207 0.000031 0.000000
0.000200 -0.000246 0.000093 0.000000
0.000183 -0.000227 0.000053 0.000000
0.000181 -0.000221 0.000054 0.000000
0.000182 -0.000227 0.000057 0.000000
0.000181 -0.000209 -0.000031 0.000000
0.000173 -0.000215 0.000015 0.000000
0.000184 -0.000222 -0.000006 0.000000
0.000192 -0.000222 -0.000019 0.000000
0.000190 -0.000232 -0.000023 0.000000
0.000174 -0.000225 -0.000013 0.000000
0.000129 -0.000177 -0.000005 0.000000
0.000014 -0.000049 -0.000006 0.000000
0.000189 -0.000223 -0.000044 0.000000
0.000199 -0.000225 -0.000075 0.000000
0.000132 -0.000399 -0.000082 0.000000
0.000200 -0.000225 -0.000073 0.000000
0.000182 -0.000219 -0.000024 0.000000
0.000177 -0.000207 0.000009 0.000000
0.000190 -0.000229 -0.000064 0.000000
0.000182 -0.000221 -0.000021 0.000000
0.000219 -0.000251 -0.000117 0.000000
0.000200 -0.000237 -0.000056 0.000000
0.000214 -0.000249 -0.000116 0.000000
0.000189 -0.000220 -0.000073 0.000000
0.000129 -0.000151 -0.000013 0.000000
0.000186 -0.000442 -0.000080 0.000000
0.000182 -0.000394 -0.000064 0.000000
0.000136 -0.000167 0.000004 0.000000
0.000089 -0.000124 0.000035 0.000000
0.000086 -0.000345 -0.000043 0.000000
0.000163 -0.000369 -0.000266 0.000000
0.000193 -0.000493 -0.000226 0.000000
0.000134 -0.000332 0.000010 0.000000
0.000113 -0.000353 -0.000035 0.000000
0.000147 -0.000371 -0.000095 0.000000
0.000178 -0.000453 -0.000054 0.000000
0.000128 -0.000384 -0.000217 0.000000
0.000161 -0.000463 -0.000188 0.000000
0.000162 -0.000356 0.000115 0.000000
0.000007 -0.000258 0.000041 0.000000
0.000212 -0.000245 0.000070 0.000000
0.000179 -0.000216 0.000022 0.000000
0.000210 -0.000237 0.000092 0.000000
0.000200 -0.000231 0.000103 0.000000
0.000186 -0.000446 -0.000141 0.000000
0.000179 -0.000218 -0.000014 0.000000
0.000031 -0.000289 0.000159 0.000000
0.000010 -0.000276 0.000156 0.000000
0.000214 -0.000260 0.000095 0.000000
0.000029 -0.000293 0.000170 0.000000
-0.000040 -0.000172 -0.000108 0.000000
-0.000071 -0.000168 -0.000053 0.000000
0.000112 -0.000343 0.000051 0.000000
0.000015 -0.000252 0.000057 0.000000
0.000234 -0.000265 0.000113 0.000000
0.000109 -0.000328 0.000081 0.000000
0.000003 -0.000029 -0.000006 0.000000
-0.000003 -0.000034 -0.000008 0.000000
-0.000042 -0.000101 -0.000155 0.000000
0.000009 -0.000176 -0.000014 0.000000
-0.000001 -0.000031 -0.000008 0.000000
0.000005 -0.000031 -0.000006 0.000000
0.000002 -0.000128 -0.000200 0.000000
0.000001 -0.000030 -0.000007 0.000000
-0.000001 -0.000031 -0.000006 0.000000
0.000001 -0.000028 -0.000009 0.000000
-0.000003 -0.000032 -0.000009 0.000000
-0.000006 -0.000029 -0.000009 0.000000
-0.000002 -0.000034 0.000008 0.000000
0.000001 -0.000030 -0.000000 0.000000
-0.000030 -0.000163 -0.000022 0.000000
-0.000074 -0.000203 0.000078 0.000000
-0.000006 -0.000032 -0.000008 0.000000
-0.000015 -0.000331 0.000139 0.000000
-0.000055 -0.000223 0.000125 0.000000
-0.000048 -0.000246 0.000121 0.000000
-0.000005 -0.000034 -0.000008 0.000000
0.000007 -0.000304 0.000221 0.000000
-0.000031 -0.000213 0.000185 0.000000
-0.000050 -0.000265 0.000111 0.000000
-0.000002 -0.000035 -0.000010 0.000000
-0.000003 -0.000042 -0.000009 0.000000
-0.000002 -0.000032 -0.000009 0.000000
-0.000005 -0.000035 -0.000012 0.000000
-0.000001 -0.000031 -0.000010 0.000000
-0.000006 -0.000035 -0.000006 0.000000
-0.000003 -0.000038 -0.000010 0.000000
-0.000001 -0.000034 -0.000010 0.000000
-0.000003 -0.000034 -0.000011 0.000000
-0.000003 -0.000032 -0.000009 0.000000
0.000028 -0.000061 -0.000083 0.000000
-0.000008 -0.000038 -0.000005 0.000000
-0.000003 -0.000034 -0.000008 0.000000
-0.000006 -0.000038 -0.000008 0.000000
-0.000003 -0.000043 -0.000007 0.000000
-0.000008 -0.000038 -0.000005 0.000000
-0.000006 -0.000037 -0.000003 0.000000
-0.000006 -0.000041 0.000002 0.000000
0.000001 -0.000422 -0.000283 0.000000
-0.000005 -0.000046 -0.000006 0.000000
-0.000006 -0.000039 -0.000005 0.000000
-0.000007 -0.000042 -0.000006 0.000000
-0.000002 -0.000038 -0.000014 0.000000
0.000047 -0.000075 -0.000062 0.000000
-0.000005 -0.000039 -0.000007 0.000000
0.000009 -0.000049 -0.000031 0.000000
-0.000001 -0.000037 -0.000009 0.000000
-0.000002 -0.000041 -0.000019 0.000000
0.000011 -0.000044 -0.000011 0.000000
0.000013 -0.000053 -0.000009 0.000000
-0.000003 -0.000036 -0.000009 0.000000
0.000004 -0.000032 -0.000009 0.000000
-0.000006 -0.000036 -0.000005 0.000000
-0.000000 -0.000033 -0.000011 0.000000
-0.000004 -0.000036 -0.000008 0.000000
-0.000003 -0.000038 -0.000008 0.000000
-0.000003 -0.000032 -0.000007 0.000000
-0.000000 -0.000032 -0.000009 0.000000
0.000020 -0.000039 -0.000014 0.000000
0.000001 -0.000032 -0.000009 0.000000
0.000013 -0.000044 -0.000010 0.000000
0.000126 -0.000161 -0.000037 0.000000
0.000039 -0.000063 -0.000018 0.000000
0.000038 -0.000068 -0.000006 0.000000
0.000012 -0.000041 -0.000008 0.000000
-0.000001 -0.000034 -0.000008 0.000000
0.000036 -0.000062 -0.000010 0.000000
0.000114 -0.000134 -0.000024 0.000000
0.000108 -0.000139 -0.000055 0.000000
0.000084 -0.000094 -0.000034 0.000000
0.000038 -0.000066 -0.000024 0.000000
0.000141 -0.000148 0.000003 0.000000
0.000111 -0.000131 -0.000020 0.000000
0.000041 -0.000065 -0.000017 0.000000
0.000011 -0.000041 -0.000008 0.000000
0.000019 -0.000048 -0.000020 0.000000
0.000002 -0.000029 -0.000007 0.000000
0.000025 -0.000042 -0.000017 0.000000
0.000011 -0.000035 -0.000006 0.000000
0.000003 -0.000032 -0.000012 0.000000
0.000004 -0.000029 -0.000006 0.000000
0.000004 -0.000027 -0.000006 0.000000
-0.000000 -0.000030 -0.000008 0.000000
0.000037 -0.000167 -0.000059 0.000000
0.000002 -0.000030 -0.000003 0.000000
0.000001 -0.000033 0.000003 0.000000
0.000005 -0.000192 -0.000137 0.000000
-0.000026 -0.000199 0.000001 0.000000
-0.000014 -0.000155 -0.000058 0.000000
-0.000006 -0.000193 0.000037 0.000000
0.000009 -0.000154 -0.000062 0.000000
-0.000010 -0.000173 -0.000021 0.000000
0.000022 -0.000185 0.000013 0.000000
0.000111 -0.000281 0.000053 0.000000
0.000006 -0.000027 -0.000011 0.000000
0.000003 -0.000029 -0.000001 0.000000
0.000083 -0.000210 -0.000157 0.000000
0.000007 -0.000030 -0.000002 0.000000
0.000053 -0.000193 -0.000159 0.000000
0.000003 -0.000030 -0.000004 0.000000
0.000009 -0.000031 -0.000006 0.000000
0.000008 -0.000031 -0.000002 0.000000
0.000082 -0.000230 -0.000148 0.000000
0.000048 -0.000216 -0.000125 0.000000
0.000013 -0.000159 -0.000039 0.000000
0.000010 -0.000159 0.000009 0.000000
0.000020 -0.000127 -0.000028 0.000000
0.000028 -0.000154 -0.000014 0.000000
0.000035 -0.000141 -0.000055 0.000000
0.000025 -0.000127 -0.000025 0.000000
0.000035 -0.000104 -0.000001 0.000000
0.000041 -0.000136 -0.000032 0.000000
0.000060 -0.000172 -0.000091 0.000000
0.000063 -0.000070 -0.000054 0.000000
0.000045 -0.000169 -0.000096 0.000000
0.000041 -0.000166 -0.000084 0.000000
0.000074 -0.000094 -0.000033 0.000000
0.000140 -0.000234 0.000018 0.000000
0.000018 -0.000042 -0.000017 0.000000
0.000105 -0.000225 -0.000168 0.000000
0.000021 -0.000041 -0.000009 0.000000
0.000024 -0.000046 -0.000030 0.000000
0.000010 -0.000030 -0.000008 0.000000
0.000021 -0.000040 -0.000013 0.000000
0.000146 -0.000266 0.000045 0.000000
0.000111 -0.000135 -0.000014 0.000000
0.000073 -0.000100 -0.000053 0.000000
0.000088 -0.000107 -0.000043 0.000000
0.000141 -0.000165 0.000006 0.000000
0.000138 -0.000145 0.000009 0.000000
0.000148 -0.000238 0.000064 0.000000
0.000133 -0.000217 0.000067 0.000000
0.000092 -0.000101 -0.000029 0.000000
0.000103 -0.000181 -0.000040 0.000000
0.000164 -0.000229 -0.000016 0.000000
0.000166 -0.000202 0.000038 0.000000
0.000145 -0.000189 -0.000062 0.000000
0.000198 -0.000221 -0.000006 0.000000
0.000130 -0.000216 -0.000022 0.000000
0.000138 -0.000206 -0.000148 0.000000
0.000143 -0.000226 -0.000135 0.000000
0.000078 -0.000166 -0.000131 0.000000
0.000115 -0.000176 0.000011 0.000000
0.000197 -0.000162 -0.000035 0.000000
0.000169 -0.000187 -0.000014 0.000000
0.000148 -0.000183 -0.000104 0.000000
0.000169 -0.000207 0.000020 0.000000
0.000151 -0.000114 0.000030 0.000000
0.000194 -0.000219 0.000020 0.000000
0.000272 -0.000222 -0.000000 0.000000
0.000095 -0.000063 0.000022 0.000000
0.000095 -0.000106 0.000026 0.000000
0.000205 -0.000169 0.000025 0.000000
0.000152 -0.000152 0.000022 0.000000
0.000129 -0.000089 -0.000006 0.000000
0.000194 -0.000148 -0.000007 0.000000
0.000233 -0.000200 0.000018 0.000000
0.000262 -0.000210 0.000008 0.000000
0.000205 -0.000195 0.000012 0.000000
0.000233 -0.000217 0.000011 0.000000
0.000199 -0.000207 0.000013 0.000000
0.000187 -0.000196 -0.000062 0.000000
0.000248 -0.000213 -0.000006 0.000000
0.000248 -0.000231 0.000002 0.000000
0.000140 -0.000132 -0.000075 0.000000
0.000047 -0.000131 -0.000077 0.000000
0.000080 -0.000094 -0.000058 0.000000
0.000037 -0.000108 -0.000032 0.000000
0.000172 -0.000118 0.000019 0.000000
0.000106 -0.000068 -0.000018 0.000000
0.000077 -0.000050 -0.000029 0.000000
0.000051 -0.000034 -0.000026 0.000000
0.000055 -0.000057 0.000013 0.000000
0.000050 -0.000037 -0.000020 0.000000
0.000031 -0.000023 -0.000012 0.000000
0.000030 -0.000037 -0.000011 0.000000
0.000057 -0.000070 -0.000050 0.000000
0.000077 -0.000090 -0.000053 0.000000
0.000054 -0.000089 -0.000034 0.000000
0.000054 -0.000063 -0.000020 0.000000
0.000053 -0.000100 -0.000070 0.000000
0.000141 -0.000185 -0.000090 0.000000
0.000055 -0.000135 -0.000069 0.000000
0.000064 -0.000079 -0.000066 0.000000
0.000111 -0.000178 -0.000114 0.000000
0.000080 -0.000133 -0.000071 0.000000
0.000107 -0.000204 -0.000142 0.000000
0.000064 -0.000103 -0.000069 0.000000
0.000058 -0.000118 -0.000093 0.000000
0.000057 -0.000083 -0.000047 0.000000
0.000049 -0.000110 -0.000051 0.000000
0.000036 -0.000093 0.000004 0.000000
0.000043 -0.000112 -0.000042 0.000000
0.000045 -0.000063 0.000032 0.000000
0.000053 -0.000068 -0.000012 0.000000
0.000055 -0.000058 0.000036 0.000000
0.000052 -0.000077 0.000014 0.000000
0.000008 -0.000010 -0.000010 0.000000
0.000036 -0.000043 -0.000005 0.000000
0.000011 -0.000011 -0.000012 0.000000
0.000032 -0.000050 -0.000007 0.000000
0.000038 -0.000075 -0.000039 0.000000
0.000019 -0.000042 -0.000034 0.000000
0.000007 -0.000009 -0.000004 0.000000
0.000044 -0.000040 0.000030 0.000000
0.000034 -0.000066 -0.000030 0.000000
0.000026 -0.000065 -0.000038 0.000000
0.000013 -0.000016 0.000003 0.000000
0.000045 -0.000034 -0.000001 0.000000
0.000008 -0.000012 -0.000005 0.000000
0.000046 -0.000040 0.000037 0.000000
0.000013 -0.000018 -0.000009 0.000000
0.000016 -0.000035 -0.000002 0.000000
0.000015 -0.000015 -0.000002 0.000000
0.000024 -0.000019 -0.000012 0.000000
0.000029 -0.000019 0.000014 0.000000
0.000035 -0.000044 -0.000021 0.000000
0.000049 -0.000032 -0.000009 0.000000
0.000026 -0.000057 -0.000019 0.000000
0.000037 -0.000030 -0.000014 0.000000
0.000015 -0.000014 -0.000010 0.000000
0.000024 -0.000040 -0.000016 0.000000
0.000046 -0.000027 0.000007 0.000000
0.000016 -0.000034 -0.000010 0.000000
0.000026 -0.000018 -0.000016 0.000000
0.000025 -0.000047 -0.000037 0.000000
-0.000008 -0.000007 -0.000021 0.000000
0.000011 -0.000024 -0.000024 0.000000
0.000017 -0.000024 -0.000027 0.000000
0.000014 -0.000021 -0.000027 0.000000
-0.000012 -0.000007 -0.000000 0.000000
0.000009 -0.000025 0.000009 0.000000
0.000041 -0.000116 -0.000030 0.000000
0.000009 -0.000022 0.000000 0.000000
0.000023 -0.000026 0.000005 0.000000
0.000042 -0.000063 -0.000015 0.000000
0.000008 -0.000048 -0.000010 0.000000
0.000025 -0.000067 0.000001 0.000000
0.000019 -0.000025 0.000013 0.000000
0.000026 -0.000089 -0.000042 0.000000
0.000019 -0.000058 -0.000022 0.000000
0.000012 -0.000038 -0.000003 0.000000
0.000081 -0.000172 -0.000007 0.000000
-0.000006 -0.000013 0.000012 0.000000
0.000016 -0.000021 0.000008 0.000000
0.000073 -0.000133 -0.000016 0.000000
0.000036 -0.000059 0.000002 0.000000
0.000067 -0.000101 0.000020 0.000000
0.000039 -0.000060 0.000019 0.000000
0.000066 -0.000126 -0.000007 0.000000
0.000040 -0.000092 0.000012 0.000000
0.000070 -0.000133 0.000007 0.000000
0.000057 -0.000110 -0.000002 0.000000
0.000045 -0.000130 -0.000083 0.000000
0.000030 -0.000105 -0.000068 0.000000
0.000091 -0.000106 -0.000051 0.000000
0.000061 -0.000133 -0.000005 0.000000
0.000079 -0.000089 -0.000003 0.000000
0.000095 -0.000106 -0.000019 0.000000
0.000104 -0.000121 -0.000019 0.000000
0.000082 -0.000143 0.000026 0.000000
0.000122 -0.000139 -0.000047 0.000000
0.000126 -0.000147 -0.000058 0.000000
0.000121 -0.000263 0.000032 0.000000
0.000106 -0.000319 -0.000176 0.000000
0.000079 -0.000153 -0.000052 0.000000
0.000012 -0.000018 -0.000017 0.000000
0.000080 -0.000125 -0.000036 0.000000
0.000065 -0.000090 0.000019 0.000000
0.000069 -0.000156 -0.000019 0.000000
0.000077 -0.000146 0.000003 0.000000
0.000015 -0.000023 0.000002 0.000000
0.000037 -0.000046 -0.000011 0.000000
0.000030 -0.000033 -0.000016 0.000000
0.000020 -0.000020 -0.000008 0.000000
0.000049 -0.000057 -0.000012 0.000000
0.000031 -0.000043 -0.000004 0.000000
0.000030 -0.000032 -0.000014 0.000000
0.000030 -0.000037 -0.000003 0.000000
0.000031 -0.000166 -0.000039 0.000000
0.000050 -0.000053 -0.000001 0.000000
0.000066 -0.000092 0.000013 0.000000
0.000163 -0.000229 0.000146 0.000000
0.000041 -0.000050 -0.000012 0.000000
0.000064 -0.000077 -0.000008 0.000000
0.000017 -0.000023 -0.000010 0.000000
0.000025 -0.000043 0.000006 0.000000
0.000121 -0.000147 0.000057 0.000000
0.000079 -0.000091 0.000024 0.000000
0.000039 -0.000061 0.000019 0.000000
0.000109 -0.000395 0.000099 0.000000
0.000122 -0.000240 0.000007 0.000000
0.000128 -0.000326 -0.000002 0.000000
0.000017 -0.000102 -0.000044 0.000000
0.000072 -0.000078 0.000024 0.000000
0.000054 -0.000253 0.000019 0.000000
0.000054 -0.000259 0.000032 0.000000
0.000072 -0.000274 0.000043 0.000000
0.000063 -0.000253 0.000025 0.000000
0.000238 -0.000472 0.000167 0.000000
0.000215 -0.000467 0.000099 0.000000
0.000222 -0.000430 0.000133 0.000000
0.000190 -0.000397 0.000079 0.000000
0.000222 -0.000487 0.000131 0.000000
0.000149 -0.000403 0.000048 0.000000
0.000203 -0.000430 0.000127 0.000000
0.000146 -0.000308 0.000053 0.000000
0.000130 -0.000305 -0.000244 0.000000
0.000134 -0.000386 -0.000157 0.000000
0.000170 -0.000196 -0.000074 0.000000
0.000128 -0.000152 -0.000063 0.000000
0.000048 -0.000179 -0.000084 0.000000
0.000093 -0.000267 -0.000041 0.000000
0.000163 -0.000181 -0.000063 0.000000
0.000044 -0.000167 -0.000080 0.000000
0.000122 -0.000135 -0.000060 0.000000
0.000126 -0.000151 -0.000068 0.000000
0.000135 -0.000155 -0.000061 0.000000
0.000086 -0.000100 -0.000052 0.000000
0.000151 -0.000171 -0.000071 0.000000
0.000156 -0.000177 -0.000082 0.000000
0.000164 -0.000193 -0.000089 0.000000
0.000120 -0.000394 -0.000060 0.000000
0.000068 -0.000315 -0.000040 0.000000
0.000034 -0.000180 -0.000024 0.000000
0.000054 -0.000248 -0.000075 0.000000
0.000023 -0.000165 0.000056 0.000000
0.000023 -0.000136 -0.000103 0.000000
0.000010 -0.000189 -0.000307 0.000000
0.000019 -0.000119 -0.000092 0.000000
0.000015 -0.000181 -0.000053 0.000000
0.000028 -0.000162 -0.000059 0.000000
0.000015 -0.000091 -0.000044 0.000000
0.000044 -0.000198 -0.000095 0.000000
0.000003 -0.000034 -0.000000 0.000000
0.000033 -0.000147 0.000021 0.000000
-0.000003 -0.000159 -0.000016 0.000000
0.000029 -0.000146 -0.000067 0.000000
0.000044 -0.000227 -0.000085 0.000000
0.000002 -0.000084 0.000054 0.000000
0.000046 -0.000086 -0.000031 0.000000
0.000002 -0.000027 -0.000004 0.000000
0.000031 -0.000065 -0.000038 0.000000
0.000009 -0.000179 -0.000032 0.000000
0.000023 -0.000033 -0.000019 0.000000
0.000015 -0.000035 -0.000025 0.000000
0.000001 -0.000031 -0.000006 0.000000
-0.000030 -0.000163 -0.000095 0.000000
0.000018 -0.000172 -0.000091 0.000000
-0.000001 -0.000018 -0.000003 0.000000
0.000024 -0.000222 0.000047 0.000000
0.000007 -0.000020 -0.000010 0.000000
0.000005 -0.000023 -0.000001 0.000000
0.000002 -0.000024 -0.000002 0.000000
0.000026 -0.000060 -0.000027 0.000000
0.000009 -0.000027 -0.000008 0.000000
0.000022 -0.000180 -0.000005 0.000000
0.000001 -0.000025 -0.000004 0.000000
0.000009 -0.000172 -0.000090 0.000000
0.000014 -0.000153 -0.000129 0.000000
0.000001 -0.000011 0.000017 0.000000
-0.000001 -0.000015 -0.000005 0.000000
0.000001 -0.000017 -0.000009 0.000000
-0.000000 -0.000013 -0.000005 0.000000
-0.000001 -0.000017 -0.000008 0.000000
-0.000000 -0.000015 -0.000007 0.000000
0.000059 -0.000201 0.000068 0.000000
-0.000000 -0.000012 -0.000005 0.000000
-0.000001 -0.000013 -0.000006 0.000000
-0.000002 -0.000010 -0.000008 0.000000
-0.000002 -0.000013 -0.000006 0.000000
0.000004 -0.000015 -0.000000 0.000000
0.000000 -0.000016 -0.000008 0.000000
0.000004 -0.000009 -0.000004 0.000000
0.000003 -0.000022 -0.000005 0.000000
0.000024 -0.000117 0.000017 0.000000
0.000001 -0.000047 0.000001 0.000000
0.000026 -0.000150 -0.000012 0.000000
0.000016 -0.000188 -0.000030 0.000000
0.000006 -0.000193 -0.000063 0.000000
0.000020 -0.000151 -0.000005 0.000000
0.000013 -0.000157 -0.000036 0.000000
0.000008 -0.000143 -0.000045 0.000000
0.000024 -0.000147 -0.000068 0.000000
0.000007 -0.000130 -0.000021 0.000000
0.000015 -0.000130 -0.000051 0.000000
0.000013 -0.000139 0.000047 0.000000
0.000010 -0.000092 -0.000015 0.000000
0.000023 -0.000107 -0.000061 0.000000
0.000012 -0.000116 -0.000052 0.000000
0.000010 -0.000112 0.000003 0.000000
0.000008 -0.000066 -0.000019 0.000000
0.000011 -0.000112 0.000015 0.000000
0.000018 -0.000102 -0.000034 0.000000
0.000010 -0.000076 0.000002 0.000000
0.000018 -0.000117 0.000015 0.000000
0.000021 -0.000101 0.000019 0.000000
0.000028 -0.000117 0.000007 0.000000
-0.000013 -0.000004 0.000007 0.000000
0.000026 -0.000102 0.000000 0.000000
0.000025 -0.000116 -0.000016 0.000000
0.000010 -0.000049 0.000002 0.000000
0.000015 -0.000084 0.000009 0.000000
0.000015 -0.000071 -0.000005 0.000000
0.000013 -0.000064 -0.000012 0.000000
0.000028 -0.000086 -0.000048 0.000000
0.000014 -0.000072 -0.000037 0.000000
-0.000000 -0.000042 -0.000006 0.000000
0.000011 -0.000078 -0.000002 0.000000
0.000002 -0.000041 -0.000018 0.000000
0.000010 -0.000019 -0.000010 0.000000
-0.000012 -0.000010 -0.000001 0.000000
0.000002 -0.000016 -0.000006 0.000000
0.000004 -0.000018 -0.000008 0.000000
-0.000006 -0.000012 -0.000009 0.000000
-0.000010 -0.000012 0.000001 0.000000
-0.000010 -0.000011 0.000001 0.000000
-0.000000 -0.000015 -0.000001 0.000000
0.000003 -0.000016 0.000002 0.000000
0.000003 -0.000051 0.000002 0.000000
-0.000001 -0.000040 0.000000 0.000000
-0.000001 -0.000014 -0.000000 0.000000
-0.000018 -0.000021 -0.000016 0.000000
0.000009 -0.000041 -0.000003 0.000000
0.000006 -0.000018 0.000019 0.000000
0.000003 -0.000037 -0.000003 0.000000
0.000006 -0.000036 0.000000 0.000000
0.000007 -0.000020 -0.000010 0.000000
-0.000002 -0.000009 -0.000006 0.000000
-0.000011 -0.000022 -0.000031 0.000000
-0.000065 0.000011 -0.000043 0.000000
0.000009 -0.000015 -0.000004 0.000000
0.000002 -0.000018 0.000005 0.000000
0.000001 -0.000020 -0.000018 0.000000
-0.000001 -0.000011 -0.000007 0.000000
0.000004 -0.000033 -0.000011 0.000000
0.000006 -0.000049 0.000028 0.000000
-0.000010 -0.000022 -0.000032 0.000000
-0.000002 -0.000006 -0.000007 0.000000
-0.000004 -0.000028 0.000014 0.000000
0.000010 -0.000071 -0.000003 0.000000
0.000002 -0.000036 0.000034 0.000000
-0.000009 -0.000018 0.000041 0.000000
0.000002 -0.000011 -0.000001 0.000000
-0.000013 -0.000064 -0.000005 0.000000
-0.000002 -0.000009 -0.000006 0.000000
0.000003 -0.000008 0.000006 0.000000
0.000000 -0.000007 -0.000006 0.000000
-0.000000 -0.000006 -0.000004 0.000000
-0.000001 -0.000006 -0.000005 0.000000
-0.000001 -0.000009 -0.000006 0.000000
-0.000001 -0.000011 -0.000010 0.000000
-0.000002 -0.000007 -0.000007 0.000000
0.000001 -0.000010 -0.000016 0.000000
-0.000000 -0.000011 -0.000010 0.000000
-0.000052 -0.000031 -0.000087 0.000000
-0.000033 -0.000060 -0.000065 0.000000
-0.000022 -0.000052 -0.000053 0.000000
0.000032 -0.000128 -0.000031 0.000000
-0.000014 -0.000061 -0.000022 0.000000
0.000021 -0.000095 -0.000033 0.000000
-0.000052 -0.000021 -0.000075 0.000000
-0.000040 -0.000043 -0.000078 0.000000
-0.000053 -0.000020 -0.000024 0.000000
-0.000053 -0.000038 -0.000053 0.000000
-0.000030 -0.000057 -0.000110 0.000000
-0.000002 -0.000007 -0.000011 0.000000
-0.000061 -0.000014 -0.000081 0.000000
-0.000018 -0.000039 -0.000060 0.000000
-0.000038 0.000000 -0.000044 0.000000
-0.000034 -0.000023 -0.000061 0.000000
-0.000089 0.000001 -0.000036 0.000000
-0.000028 -0.000005 -0.000034 0.000000
-0.000060 0.000009 -0.000042 0.000000
-0.000098 0.000030 -0.000038 0.000000
-0.000125 0.000042 -0.000025 0.000000
-0.000054 -0.000041 -0.000031 0.000000
-0.000080 0.000002 -0.000061 0.000000
-0.000081 0.000020 -0.000029 0.000000
-0.000053 -0.000019 -0.000043 0.000000
-0.000138 0.000046 -0.000012 0.000000
-0.000089 0.000024 -0.000015 0.000000
-0.000052 -0.000044 -0.000004 0.000000
-0.000093 0.000026 -0.000007 0.000000
-0.000093 0.000026 0.000002 0.000000
-0.000014 -0.000085 0.000032 0.000000
-0.000052 -0.000020 -0.000003 0.000000
-0.000143 0.000047 -0.000003 0.000000
-0.000139 0.000044 0.000007 0.000000
-0.000088 0.000024 0.000012 0.000000
-0.000128 0.000039 0.000016 0.000000
0.000027 -0.000108 -0.000015 0.000000
-0.000065 0.000014 0.000028 0.000000
-0.000040 -0.000029 0.000058 0.000000
-0.000111 0.000032 0.000024 0.000000
-0.000029 -0.000034 0.000072 0.000000
-0.000089 0.000022 0.000032 0.000000
-0.000040 -0.000052 0.000075 0.000000
-0.000079 -0.000009 0.000047 0.000000
-0.000029 -0.000061 0.000095 0.000000
-0.000065 -0.000017 0.000062 0.000000
-0.000088 -0.000004 0.000028 0.000000
-0.000092 -0.000002 0.000007 0.000000
-0.000047 -0.000025 0.000039 0.000000
-0.000014 -0.000065 0.000007 0.000000
0.000016 -0.000104 0.000050 0.000000
-0.000050 -0.000046 0.000022 0.000000
-0.000014 -0.000086 0.000065 0.000000
-0.000014 -0.000066 0.000035 0.000000
0.000011 -0.000106 0.000082 0.000000
-0.000010 -0.000071 0.000089 0.000000
-0.000010 -0.000090 0.000095 0.000000
0.000001 -0.000076 0.000101 0.000000
0.000009 -0.000083 0.000104 0.000000
-0.000018 -0.000038 0.000080 0.000000
0.000011 -0.000118 0.000073 0.000000
0.000026 -0.000146 0.000111 0.000000
0.000001 -0.000108 0.000117 0.000000
0.000032 -0.000140 0.000085 0.000000
0.000020 -0.000107 0.000014 0.000000
0.000226 -0.000424 -0.000012 0.000000
0.000017 -0.000123 0.000034 0.000000
0.000050 -0.000173 0.000054 0.000000
0.000115 -0.000232 -0.000070 0.000000
0.000026 -0.000129 -0.000028 0.000000
0.000077 -0.000202 -0.000047 0.000000
0.000020 -0.000122 0.000000 0.000000
-0.000013 -0.000085 -0.000018 0.000000
0.000062 -0.000143 -0.000035 0.000000
0.000060 -0.000147 -0.000015 0.000000
-0.000014 -0.000086 0.000005 0.000000
0.000008 -0.000035 0.000011 0.000000
0.000000 -0.000016 -0.000026 0.000000
0.000019 -0.000097 -0.000048 0.000000
-0.000020 -0.000081 -0.000036 0.000000
0.000001 -0.000024 -0.000019 0.000000
0.000000 -0.000014 -0.000010 0.000000
0.000038 -0.000079 0.000087 0.000000
0.000008 -0.000034 0.000013 0.000000
0.000000 -0.000016 -0.000009 0.000000
0.000001 -0.000017 -0.000005 0.000000
0.000008 -0.000022 0.000004 0.000000
0.000016 -0.000129 -0.000006 0.000000
0.000041 -0.000083 0.000095 0.000000
0.000066 -0.000203 -0.000030 0.000000
0.000071 -0.000188 -0.000055 0.000000
0.000025 -0.000124 -0.000053 0.000000
0.000101 -0.000204 -0.000039 0.000000
0.000053 -0.000144 -0.000065 0.000000
0.000154 -0.000284 -0.000026 0.000000
0.000086 -0.000188 -0.000049 0.000000
0.000127 -0.000225 -0.000076 0.000000
0.000195 -0.000345 -0.000062 0.000000
0.000006 -0.000030 -0.000005 0.000000
0.000065 -0.000280 0.000078 0.000000
0.000038 -0.000219 0.000029 0.000000
0.000075 -0.000248 0.000041 0.000000
0.000069 -0.000226 0.000054 0.000000
0.000056 -0.000223 0.000053 0.000000
0.000076 -0.000317 0.000050 0.000000
0.000065 -0.000257 0.000076 0.000000
0.000109 -0.000377 0.000062 0.000000
0.000224 -0.000444 0.000013 0.000000
0.000101 -0.000271 -0.000032 0.000000
0.000161 -0.000412 0.000041 0.000000
0.000138 -0.000286 -0.000038 0.000000
0.000163 -0.000347 0.000009 0.000000
0.000137 -0.000245 -0.000069 0.000000
0.000166 -0.000312 -0.000038 0.000000
0.000094 -0.000240 -0.000013 0.000000
0.000168 -0.000338 -0.000023 0.000000
0.000059 -0.000171 -0.000034 0.000000
0.000109 -0.000205 -0.000056 0.000000
0.000126 -0.000241 -0.000056 0.000000
0.000045 -0.000154 0.000030 0.000000
0.000034 -0.000138 0.000062 0.000000
0.000049 -0.000163 -0.000003 0.000000
0.000012 -0.000125 0.000110 0.000000
0.000031 -0.000154 0.000077 0.000000
0.000073 -0.000190 0.000000 0.000000
0.000053 -0.000175 0.000030 0.000000
0.000196 -0.000347 -0.000053 0.000000
0.000228 -0.000443 -0.000016 0.000000
0.000057 -0.000192 0.000052 0.000000
0.000070 -0.000215 0.000034 0.000000
0.000063 -0.000216 0.000045 0.000000
0.000115 -0.000239 -0.000040 0.000000
0.000059 -0.000215 0.000053 0.000000
0.000086 -0.000258 0.000023 0.000000
0.000259 -0.000448 -0.000034 0.000000
0.000163 -0.000341 -0.000015 0.000000
0.000067 -0.000254 0.000020 0.000000
0.000084 -0.000244 0.000026 0.000000
0.000234 -0.000428 -0.000035 0.000000
0.000237 -0.000473 0.000028 0.000000
0.000328 -0.000596 0.000068 0.000000
0.000151 -0.000341 -0.000011 0.000000
0.000276 -0.000438 -0.000075 0.000000
0.000217 -0.000337 -0.000144 0.000000
0.000060 -0.000256 0.000043 0.000000
0.000181 -0.000330 -0.000051 0.000000
0.000313 -0.000558 0.000046 0.000000
0.000078 -0.000336 -0.000001 0.000000
0.000290 -0.000590 -0.000055 0.000000
0.000328 -0.000671 -0.000149 0.000000
0.000338 -0.000619 0.000077 0.000000
0.000291 -0.000329 0.000098 0.000000
0.000080 -0.000295 -0.000021 0.000000
0.000322 -0.000515 -0.000177 0.000000
0.000270 -0.000300 0.000083 0.000000
0.000232 -0.000256 0.000111 0.000000
0.000335 -0.000628 0.000036 0.000000
0.000265 -0.000299 0.000090 0.000000
0.000227 -0.000496 0.000075 0.000000
0.000266 -0.000546 0.000077 0.000000
0.000315 -0.000592 0.000083 0.000000
0.000295 -0.000552 0.000062 0.000000
0.000326 -0.000571 0.000032 0.000000
0.000323 -0.000564 0.000027 0.000000
0.000232 -0.000263 0.000103 0.000000
0.000160 -0.000445 0.000102 0.000000
0.000251 -0.000506 0.000053 0.000000
0.000231 -0.000262 0.000107 0.000000
0.000119 -0.000159 0.000017 0.000000
0.000099 -0.000151 0.000038 0.000000
0.000163 -0.000203 0.000039 0.000000
0.000137 -0.000428 0.000084 0.000000
0.000096 -0.000128 0.000044 0.000000
0.000090 -0.000124 0.000027 0.000000
0.000095 -0.000134 0.000015 0.000000
0.000087 -0.000122 0.000017 0.000000
0.000111 -0.000142 0.000035 0.000000
0.000111 -0.000381 0.000078 0.000000
0.000140 -0.000165 0.000043 0.000000
0.000111 -0.000417 0.000062 0.000000
0.000089 -0.000401 0.000053 0.000000
0.000095 -0.000406 0.000065 0.000000
0.000136 -0.000178 0.000025 0.000000
0.000117 -0.000422 0.000073 0.000000
0.000222 -0.000243 0.000108 0.000000
0.000134 -0.000430 0.000080 0.000000
0.000202 -0.000238 0.000113 0.000000
0.000208 -0.000480 0.000076 0.000000
0.000109 -0.000342 0.000018 0.000000
0.000110 -0.000320 0.000047 0.000000
0.000153 -0.000352 -0.000008 0.000000
0.000203 -0.000430 0.000038 0.000000
0.000098 -0.000378 0.000073 0.000000
0.000105 -0.000340 0.000088 0.000000
0.000084 -0.000324 0.000088 0.000000
0.000082 -0.000270 0.000079 0.000000
0.000102 -0.000406 0.000061 0.000000
0.000108 -0.000378 0.000071 0.000000
0.000062 -0.000281 0.000074 0.000000
0.000054 -0.000256 0.000086 0.000000
0.000096 -0.000326 0.000104 0.000000
0.000095 -0.000340 0.000090 0.000000
0.000056 -0.000282 0.000117 0.000000
0.000008 -0.000042 0.000005 0.000000
0.000070 -0.000318 0.000068 0.000000
0.000050 -0.000242 -0.000017 0.000000
0.000009 -0.000039 -0.000007 0.000000
0.000001 -0.000032 -0.000008 0.000000
0.000026 -0.000075 -0.000033 0.000000
-0.000038 -0.000076 -0.000103 0.000000
-0.000016 -0.000146 0.000182 0.000000
0.000011 -0.000034 -0.000009 0.000000
0.000005 -0.000039 -0.000010 0.000000
-0.000001 -0.000208 0.000072 0.000000
-0.000014 -0.000071 -0.000006 0.000000
0.000040 -0.000215 -0.000069 0.000000
0.000023 -0.000056 -0.000033 0.000000
0.000030 -0.000047 -0.000039 0.000000
0.000050 -0.000235 -0.000010 0.000000
0.000022 -0.000055 0.000006 0.000000
0.000004 -0.000176 -0.000115 0.000000
0.000035 -0.000262 -0.000047 0.000000
0.000045 -0.000286 -0.000077 0.000000
0.000077 -0.000103 -0.000002 0.000000
0.000047 -0.000238 -0.000141 0.000000
0.000035 -0.000076 -0.000044 0.000000
0.000047 -0.000342 -0.000104 0.000000
0.000122 -0.000423 -0.000269 0.000000
0.000018 -0.000052 -0.000027 0.000000
0.000062 -0.000072 -0.000064 0.000000
0.000002 -0.000033 -0.000002 0.000000
0.000001 -0.000032 -0.000007 0.000000
0.000040 -0.000268 -0.000224 0.000000
0.000045 -0.000322 -0.000055 0.000000
0.000071 -0.000116 -0.000056 0.000000
0.000038 -0.000294 -0.000281 0.000000
0.000077 -0.000119 0.000014 0.000000
0.000068 -0.000337 -0.000037 0.000000
0.000012 -0.000297 -0.000048 0.000000
0.000036 -0.000309 -0.000041 0.000000
0.000128 -0.000149 -0.000026 0.000000
0.000144 -0.000169 -0.000028 0.000000
0.000081 -0.000131 -0.000019 0.000000
0.000042 -0.000068 -0.000016 0.000000
0.000044 -0.000090 -0.000006 0.000000
0.000081 -0.000101 -0.000017 0.000000
0.000075 -0.000109 -0.000028 0.000000
0.000109 -0.000148 -0.000050 0.000000
0.000037 -0.000313 -0.000198 0.000000
0.000058 -0.000084 -0.000021 0.000000
0.000102 -0.000136 -0.000051 0.000000
0.000035 -0.000377 0.000064 0.000000
0.000035 -0.000349 -0.000067 0.000000
0.000027 -0.000310 0.000164 0.000000
0.000020 -0.000264 0.000155 0.000000
0.000030 -0.000349 -0.000135 0.000000
0.000032 -0.000333 -0.000087 0.000000
0.000015 -0.000042 0.000002 0.000000
0.000011 -0.000267 0.000140 0.000000
0.000016 -0.000268 0.000180 0.000000
0.000092 -0.000412 0.000106 0.000000
0.000106 -0.000406 0.000061 0.000000
-0.000004 -0.000204 0.000203 0.000000
0.000036 -0.000067 -0.000012 0.000000
0.000037 -0.000315 0.000098 0.000000
0.000112 -0.000169 -0.000020 0.000000
0.000114 -0.000160 -0.000010 0.000000
0.000094 -0.000399 0.000058 0.000000
0.000042 -0.000311 0.000262 0.000000
0.000063 -0.000307 0.000255 0.000000
0.000075 -0.000121 0.000034 0.000000
0.000078 -0.000117 0.000018 0.000000
0.000135 -0.000183 0.000044 0.000000
0.000020 -0.000355 0.000173 0.000000
0.000118 -0.000163 0.000017 0.000000
0.000107 -0.000148 0.000012 0.000000
0.000009 -0.000250 0.000174 0.000000
0.000117 -0.000159 0.000011 0.000000
0.000126 -0.000181 -0.000011 0.000000
0.000119 -0.000169 -0.000014 0.000000
0.000121 -0.000423 -0.000276 0.000000
0.000084 -0.000357 -0.000267 0.000000
0.000019 -0.000354 -0.000041 0.000000
0.000011 -0.000347 0.000177 0.000000
0.000090 -0.000122 -0.000048 0.000000
0.000121 -0.000165 -0.000039 0.000000
0.000070 -0.000432 -0.000201 0.000000
0.000099 -0.000139 -0.000041 0.000000
0.000102 -0.000137 -0.000003 0.000000
0.000106 -0.000145 -0.000068 0.000000
0.000118 -0.000161 -0.000067 0.000000
0.000096 -0.000136 -0.000053 0.000000
0.000211 -0.000233 -0.000063 0.000000
0.000299 -0.000355 -0.000052 0.000000
0.000193 -0.000237 -0.000051 0.000000
0.000201 -0.000230 -0.000036 0.000000
0.000194 -0.000238 -0.000044 0.000000
0.000133 -0.000173 -0.000052 0.000000
0.000157 -0.000200 -0.000056 0.000000
0.000126 -0.000165 -0.000044 0.000000
-0.000034 -0.000287 -0.000018 0.000000
0.000100 -0.000136 -0.000059 0.000000
0.000198 -0.000248 -0.000057 0.000000
0.000149 -0.000189 -0.000054 0.000000
0.000202 -0.000246 -0.000068 0.000000
0.000198 -0.000253 -0.000054 0.000000
0.000201 -0.000262 -0.000030 0.000000
0.000266 -0.000328 -0.000048 0.000000
0.000237 -0.000281 -0.000064 0.000000
0.000240 -0.000293 -0.000076 0.000000
0.000300 -0.000349 -0.000070 0.000000
0.000357 -0.000423 -0.000039 0.000000
0.000243 -0.000292 -0.000079 0.000000
0.000295 -0.000335 -0.000042 0.000000
0.000195 -0.000247 -0.000048 0.000000
0.000235 -0.000294 -0.000070 0.000000
0.000195 -0.000251 -0.000046 0.000000
0.000085 -0.000139 -0.000008 0.000000
0.000199 -0.000251 -0.000019 0.000000
-0.000043 -0.000395 0.000145 0.000000
0.000134 -0.000187 -0.000061 0.000000
-0.000129 -0.000166 0.000100 0.000000
0.000153 -0.000202 -0.000047 0.000000
0.000159 -0.000207 -0.000043 0.000000
-0.000070 -0.000184 0.000147 0.000000
-0.000124 -0.000222 0.000039 0.000000
0.000117 -0.000170 0.000001 0.000000
0.000126 -0.000167 -0.000009 0.000000
0.000126 -0.000176 0.000004 0.000000
0.000132 -0.000170 0.000034 0.000000
0.000116 -0.000164 -0.000003 0.000000
0.000130 -0.000173 0.000020 0.000000
0.000194 -0.000237 0.000058 0.000000
0.000146 -0.000210 -0.000009 0.000000
0.000141 -0.000186 0.000041 0.000000
0.000118 -0.000165 0.000019 0.000000
0.000229 -0.000255 0.000089 0.000000
0.000180 -0.000235 0.000049 0.000000
0.000293 -0.000358 0.000048 0.000000
0.000218 -0.000276 0.000051 0.000000
0.000256 -0.000317 0.000065 0.000000
0.000274 -0.000307 0.000115 0.000000
0.000253 -0.000300 0.000096 0.000000
0.000275 -0.000323 0.000075 0.000000
0.000199 -0.000257 0.000047 0.000000
0.000192 -0.000249 0.000059 0.000000
0.000237 -0.000268 0.000075 0.000000
0.000276 -0.000332 0.000086 0.000000
0.000185 -0.000212 0.000077 0.000000
0.000178 -0.000207 0.000083 0.000000
0.000191 -0.000257 0.000059 0.000000
0.000245 -0.000295 0.000059 0.000000
0.000168 -0.000230 0.000042 0.000000
0.000119 -0.000149 0.000048 0.000000
0.000215 -0.000243 0.000076 0.000000
0.000190 -0.000217 0.000075 0.000000
0.000133 -0.000158 0.000068 0.000000
0.000146 -0.000171 0.000053 0.000000
0.000123 -0.000177 0.000037 0.000000
0.000162 -0.000188 0.000066 0.000000
0.000236 -0.000262 0.000117 0.000000
0.000175 -0.000224 0.000039 0.000000
0.000232 -0.000275 0.000096 0.000000
0.000241 -0.000269 0.000122 0.000000
0.000246 -0.000272 0.000123 0.000000
0.000293 -0.000335 0.000114 0.000000
0.000245 -0.000298 0.000097 0.000000
0.000271 -0.000313 0.000097 0.000000
0.000266 -0.000306 0.000114 0.000000
0.000264 -0.000299 0.000112 0.000000
0.000280 -0.000325 0.000107 0.000000
0.000270 -0.000319 0.000088 0.000000
0.000284 -0.000325 0.000103 0.000000
0.000286 -0.000331 0.000105 0.000000
0.000272 -0.000303 0.000105 0.000000
0.000265 -0.000304 0.000097 0.000000
0.000295 -0.000335 0.000109 0.000000
0.000298 -0.000331 0.000095 0.000000
0.000289 -0.000319 0.000073 0.000000
0.000290 -0.000325 0.000095 0.000000
0.000345 -0.000630 0.000027 0.000000
0.000259 -0.000295 0.000064 0.000000
0.000300 -0.000331 0.000030 0.000000
0.000292 -0.000328 0.000076 0.000000
0.000243 -0.000293 0.000063 0.000000
0.000281 -0.000317 0.000116 0.000000
0.000258 -0.000297 0.000066 0.000000
0.000261 -0.000289 0.000085 0.000000
0.000266 -0.000316 0.000087 0.000000
0.000246 -0.000292 0.000073 0.000000
0.000263 -0.000305 0.000067 0.000000
0.000267 -0.000314 0.000056 0.000000
0.000261 -0.000318 0.000074 0.000000
0.000288 -0.000331 0.000104 0.000000
0.000270 -0.000316 0.000095 0.000000
0.000276 -0.000320 0.000109 0.000000
0.000266 -0.000315 0.000089 0.000000
0.000223 -0.000275 0.000047 0.000000
0.000249 -0.000298 0.000075 0.000000
0.000223 -0.000280 0.000050 0.000000
0.000235 -0.000285 0.000058 0.000000
0.000234 -0.000287 0.000043 0.000000
0.000225 -0.000279 0.000018 0.000000
0.000229 -0.000276 0.000039 0.000000
0.000228 -0.000281 0.000032 0.000000
0.000211 -0.000273 0.000062 0.000000
0.000215 -0.000267 0.000046 0.000000
0.000171 -0.000246 0.000027 0.000000
0.000230 -0.000282 0.000040 0.000000
0.000233 -0.000285 0.000052 0.000000
0.000213 -0.000274 0.000033 0.000000
0.000229 -0.000285 0.000049 0.000000
0.000209 -0.000265 0.000059 0.000000
0.000222 -0.000270 0.000045 0.000000
0.000252 -0.000305 0.000048 0.000000
0.000242 -0.000299 0.000072 0.000000
0.000215 -0.000273 0.000063 0.000000
0.000197 -0.000249 0.000029 0.000000
0.000283 -0.000321 0.000047 0.000000
0.000230 -0.000297 0.000040 0.000000
0.000221 -0.000269 0.000046 0.000000
0.000196 -0.000265 0.000034 0.000000
0.000287 -0.000326 0.000024 0.000000
0.000274 -0.000331 0.000066 0.000000
0.000285 -0.000349 0.000043 0.000000
0.000254 -0.000297 0.000055 0.000000
0.000322 -0.000371 0.000073 0.000000
0.000300 -0.000356 0.000079 0.000000
0.000334 -0.000387 0.000087 0.000000
0.000300 -0.000363 0.000041 0.000000
0.000295 -0.000360 0.000045 0.000000
0.000324 -0.000389 0.000081 0.000000
0.000327 -0.000388 0.000078 0.000000
0.000311 -0.000373 0.000053 0.000000
0.000338 -0.000393 0.000089 0.000000
0.000334 -0.000389 0.000078 0.000000
0.000304 -0.000349 0.000040 0.000000
0.000330 -0.000379 0.000050 0.000000
0.000258 -0.000326 0.000043 0.000000
0.000306 -0.000376 0.000059 0.000000
0.000308 -0.000374 0.000054 0.000000
0.000230 -0.000284 0.000023 0.000000
0.000301 -0.000353 0.000031 0.000000
0.000284 -0.000349 0.000020 0.000000
0.000285 -0.000349 0.000027 0.000000
0.000290 -0.000343 0.000037 0.000000
0.000324 -0.000386 0.000088 0.000000
0.000297 -0.000364 0.000062 0.000000
0.000272 -0.000352 -0.000010 0.000000
0.000305 -0.000365 0.000049 0.000000
0.000287 -0.000348 0.000025 0.000000
0.000205 -0.000280 0.000028 0.000000
0.000253 -0.000322 0.000038 0.000000
0.000282 -0.000345 0.000056 0.000000
0.000277 -0.000344 0.000049 0.000000
0.000261 -0.000337 0.000024 0.000000
0.000293 -0.000358 0.000021 0.000000
0.000209 -0.000277 0.000006 0.000000
0.000270 -0.000342 0.000006 0.000000
0.000142 -0.000217 0.000009 0.000000
0.000286 -0.000347 0.000005 0.000000
0.000208 -0.000269 0.000010 0.000000
0.000195 -0.000265 0.000002 0.000000
0.000271 -0.000354 0.000048 0.000000
0.000195 -0.000250 0.000040 0.000000
0.000172 -0.000232 0.000016 0.000000
0.000161 -0.000233 0.000025 0.000000
0.000197 -0.000270 0.000068 0.000000
0.000151 -0.000211 0.000025 0.000000
0.000181 -0.000243 0.000038 0.000000
0.000162 -0.000228 0.000049 0.000000
0.000160 -0.000235 0.000060 0.000000
0.000157 -0.000227 0.000043 0.000000
0.000198 -0.000255 0.000072 0.000000
0.000193 -0.000262 0.000007 0.000000
0.000270 -0.000355 0.000019 0.000000
0.000149 -0.000208 0.000067 0.000000
-0.000006 -0.000843 0.000012 0.000000
0.000277 -0.000344 0.000007 0.000000
0.000190 -0.000269 0.000013 0.000000
0.000194 -0.000262 0.000009 0.000000
0.000268 -0.000333 -0.000013 0.000000
0.000191 -0.000263 0.000019 0.000000
0.000275 -0.000338 0.000024 0.000000
0.000274 -0.000338 -0.000004 0.000000
0.000111 -0.000173 -0.000008 0.000000
0.000120 -0.000178 0.000025 0.000000
0.000111 -0.000198 -0.000004 0.000000
0.000087 -0.000146 0.000033 0.000000
0.000117 -0.000210 -0.000037 0.000000
-0.000077 -0.000668 0.000158 0.000000
0.000077 -0.000140 -0.000010 0.000000
0.000115 -0.000196 0.000119 0.000000
0.000045 -0.000141 0.000003 0.000000
0.000118 -0.000858 -0.000135 0.000000
0.000143 -0.000844 -0.000036 0.000000
-0.000097 -0.000743 0.000043 0.000000
0.000045 -0.000781 0.000131 0.000000
0.000160 -0.000239 0.000038 0.000000
0.000288 -0.000379 0.000100 0.000000
0.000292 -0.001036 -0.000114 0.000000
0.000220 -0.001054 0.000157 0.000000
0.000162 -0.000246 0.000025 0.000000
0.000179 -0.000259 0.000102 0.000000
0.000150 -0.000214 -0.000036 0.000000
0.000299 -0.000363 0.000039 0.000000
0.000251 -0.000330 -0.000052 0.000000
0.000178 -0.000252 0.000001 0.000000
0.000119 -0.000205 0.000028 0.000000
0.000271 -0.000355 0.000069 0.000000
0.000072 -0.000168 0.000024 0.000000
0.000171 -0.000252 0.000078 0.000000
0.000296 -0.001198 0.000003 0.000000
0.000168 -0.000253 0.000074 0.000000
0.000112 -0.000921 0.000060 0.000000
0.000254 -0.001048 0.000244 0.000000
0.000542 -0.001325 -0.000332 0.000000
0.000415 -0.001180 -0.000339 0.000000
0.000255 -0.001031 -0.000299 0.000000
0.000291 -0.001031 -0.000313 0.000000
0.000336 -0.001053 -0.000348 0.000000
0.000139 -0.000225 0.000016 0.000000
0.000307 -0.001054 -0.000326 0.000000
0.000097 -0.000176 0.000060 0.000000
0.000341 -0.001048 -0.000370 0.000000
0.000321 -0.000363 -0.000086 0.000000
0.000160 -0.000221 -0.000035 0.000000
0.000172 -0.000261 -0.000030 0.000000
0.000221 -0.000295 0.000060 0.000000
0.000198 -0.000272 0.000066 0.000000
0.000193 -0.000270 0.000038 0.000000
0.000173 -0.000255 0.000075 0.000000
0.000231 -0.000310 0.000036 0.000000
0.000223 -0.000298 0.000049 0.000000
0.000266 -0.000347 0.000060 0.000000
0.000175 -0.000245 0.000036 0.000000
0.000229 -0.000324 -0.000070 0.000000
0.000281 -0.000347 0.000032 0.000000
0.000257 -0.000315 -0.000009 0.000000
0.000238 -0.000314 0.000002 0.000000
0.000262 -0.000322 0.000039 0.000000
0.000212 -0.000280 0.000021 0.000000
0.000601 -0.001227 -0.000189 0.000000
0.000388 -0.000478 -0.000075 0.000000
0.000591 -0.001227 -0.000179 0.000000
0.000435 -0.000460 -0.000144 0.000000
0.000622 -0.001298 -0.000171 0.000000
0.000603 -0.001169 -0.000225 0.000000
0.000624 -0.001268 -0.000000 0.000000
0.000544 -0.001281 -0.000221 0.000000
0.000608 -0.001263 -0.000034 0.000000
0.000629 -0.001372 -0.000354 0.000000
0.000727 -0.001379 -0.000204 0.000000
0.000404 -0.001158 -0.000286 0.000000
0.000636 -0.001347 -0.000303 0.000000
0.000577 -0.001369 -0.000393 0.000000
0.000392 -0.000420 -0.000220 0.000000
0.000400 -0.001076 -0.000328 0.000000
0.000714 -0.001427 -0.000260 0.000000
0.000539 -0.001247 -0.000371 0.000000
0.000521 -0.001156 -0.000351 0.000000
0.000558 -0.001337 -0.000368 0.000000
0.000757 -0.001603 0.000089 0.000000
0.000821 -0.001640 0.000715 0.000000
0.000534 -0.001315 -0.000313 0.000000
0.000447 -0.001182 -0.000316 0.000000
0.000863 -0.001546 -0.000076 0.000000
0.000730 -0.001799 0.000956 0.000000
0.000747 -0.001565 -0.000217 0.000000
0.000577 -0.001428 -0.000261 0.000000
0.000476 -0.001254 0.000392 0.000000
0.000694 -0.001442 0.000476 0.000000
0.000713 -0.001436 -0.000252 0.000000
0.000687 -0.001395 -0.000067 0.000000
0.000669 -0.001439 -0.000408 0.000000
0.000677 -0.001386 -0.000241 0.000000
0.000291 -0.001073 0.000808 0.000000
0.000628 -0.001364 0.000637 0.000000
0.000540 -0.001326 0.000719 0.000000
0.000540 -0.001391 0.000819 0.000000
0.000411 -0.001170 0.000792 0.000000
0.000530 -0.001455 0.000800 0.000000
0.000426 -0.001317 0.000832 0.000000
0.000601 -0.001435 0.000737 0.000000
0.000202 -0.001035 0.000487 0.000000
0.000125 -0.000894 0.000572 0.000000
0.000234 -0.001018 0.000721 0.000000
0.000461 -0.001320 0.000823 0.000000
0.000109 -0.000188 0.000093 0.000000
0.000118 -0.000922 0.000538 0.000000
0.000201 -0.001046 0.000657 0.000000
0.000292 -0.001012 0.000705 0.000000
0.000084 -0.000183 0.000117 0.000000
0.000088 -0.000182 0.000068 0.000000
0.000096 -0.000188 0.000081 0.000000
0.000133 -0.000194 0.000220 0.000000
0.000168 -0.000256 0.000149 0.000000
0.000182 -0.000995 0.000607 0.000000
0.000325 -0.000364 0.000281 0.000000
0.000289 -0.001089 0.000635 0.000000
0.000414 -0.001193 0.000589 0.000000
0.000287 -0.000668 0.000909 0.000000
0.000559 -0.001151 0.000376 0.000000
0.000447 -0.000474 0.000157 0.000000
0.000215 -0.000317 0.000248 0.000000
0.000136 -0.000203 0.000156 0.000000
0.000291 -0.000334 0.000339 0.000000
0.000400 -0.000433 0.000335 0.000000
0.000325 -0.000426 0.000306 0.000000
0.000440 -0.000540 0.000297 0.000000
0.000176 -0.000260 0.000014 0.000000
0.000271 -0.000341 0.000070 0.000000
0.000199 -0.000273 0.000055 0.000000
0.000143 -0.000216 0.000056 0.000000
0.000168 -0.000245 0.000076 0.000000
0.000218 -0.000307 0.000108 0.000000
0.000254 -0.000349 0.000207 0.000000
0.000295 -0.000356 -0.000091 0.000000
0.000309 -0.000404 0.000136 0.000000
0.000370 -0.000465 0.000132 0.000000
0.000195 -0.000242 0.000018 0.000000
0.000281 -0.000346 -0.000061 0.000000
0.000269 -0.000317 0.000156 0.000000
0.000368 -0.000465 0.000250 0.000000
0.000329 -0.000974 0.000473 0.000000
0.000496 -0.000900 -0.000125 0.000000
0.000240 -0.000913 0.000187 0.000000
0.000426 -0.000490 -0.000082 0.000000
0.000503 -0.000532 -0.000200 0.000000
0.000461 -0.000490 -0.000185 0.000000
0.000332 -0.000418 -0.000057 0.000000
0.000419 -0.000448 -0.000075 0.000000
0.000291 -0.000366 0.000003 0.000000
0.000359 -0.000394 -0.000110 0.000000
0.000385 -0.000419 -0.000058 0.000000
0.000329 -0.000373 -0.000050 0.000000
0.000295 -0.000347 0.000020 0.000000
0.000288 -0.000336 -0.000006 0.000000
0.000109 -0.000524 0.000320 0.000000
-0.000014 -0.000426 0.000095 0.000000
-0.000122 -0.000220 0.000081 0.000000
0.000241 -0.000292 0.000010 0.000000
0.000363 -0.000419 -0.000010 0.000000
0.000353 -0.000412 -0.000120 0.000000
-0.000085 -0.000326 0.000089 0.000000
0.000314 -0.000359 0.000058 0.000000
-0.000089 -0.000313 0.000086 0.000000
0.000201 -0.000261 -0.000020 0.000000
0.000305 -0.000358 -0.000073 0.000000
0.000109 -0.000168 -0.000014 0.000000
0.000267 -0.000319 -0.000012 0.000000
0.000315 -0.000372 -0.000002 0.000000
0.000212 -0.000278 0.000009 0.000000
0.000132 -0.000170 0.000018 0.000000
0.000258 -0.000296 0.000072 0.000000
0.000240 -0.000273 0.000094 0.000000
0.000162 -0.000213 -0.000012 0.000000
0.000106 -0.000155 -0.000005 0.000000
0.000177 -0.000233 -0.000042 0.000000
0.000177 -0.000216 0.000033 0.000000
0.000158 -0.000222 0.000001 0.000000
0.000106 -0.000168 -0.000001 0.000000
0.000292 -0.000341 -0.000087 0.000000
0.000381 -0.000420 0.000082 0.000000
0.000282 -0.000339 0.000000 0.000000
0.000229 -0.000288 -0.000036 0.000000
0.000278 -0.000347 0.000014 0.000000
0.000273 -0.000329 -0.000045 0.000000
0.000244 -0.000312 0.000008 0.000000
0.000226 -0.000284 -0.000030 0.000000
0.000272 -0.000325 0.000095 0.000000
0.000274 -0.000347 0.000092 0.000000
0.000289 -0.000372 0.000052 0.000000
0.000329 -0.000377 0.000075 0.000000
0.000310 -0.000381 -0.000004 0.000000
0.000340 -0.000407 -0.000002 0.000000
0.000331 -0.000393 -0.000061 0.000000
0.000317 -0.000378 -0.000022 0.000000
0.000358 -0.000410 -0.000083 0.000000
0.000348 -0.000408 -0.000074 0.000000
0.000166 -0.000216 0.000100 0.000000
0.000118 -0.000207 0.000171 0.000000
0.000196 -0.000275 0.000086 0.000000
0.000298 -0.000370 0.000081 0.000000
0.000146 -0.000197 0.000151 0.000000
0.000115 -0.000176 0.000091 0.000000
0.000168 -0.000234 0.000102 0.000000
0.000145 -0.000194 0.000122 0.000000
0.000148 -0.000231 0.000142 0.000000
0.000107 -0.000178 0.000111 0.000000
0.000153 -0.000203 0.000178 0.000000
0.000164 -0.000215 0.000116 0.000000
0.000243 -0.000296 0.000112 0.000000
0.000233 -0.000277 0.000105 0.000000
0.000246 -0.000323 0.000109 0.000000
0.000284 -0.000351 0.000072 0.000000
0.000228 -0.000297 0.000109 0.000000
0.000199 -0.000250 0.000107 0.000000
0.000278 -0.000351 0.000096 0.000000
0.000224 -0.000297 0.000097 0.000000
0.000317 -0.000384 0.000132 0.000000
0.000177 -0.000260 0.000125 0.000000
0.000235 -0.000320 -0.000002 0.000000
0.000266 -0.000340 0.000095 0.000000
0.000309 -0.001102 0.000028 0.000000
0.000107 -0.000189 0.000127 0.000000
0.000241 -0.000302 0.000212 0.000000
0.000222 -0.000285 0.000142 0.000000
0.000138 -0.000188 0.000210 0.000000
0.000208 -0.000292 0.000134 0.000000
0.000156 -0.000245 0.000178 0.000000
0.000175 -0.000230 0.000131 0.000000
0.000184 -0.000241 0.000154 0.000000
0.000219 -0.000293 0.000129 0.000000
0.000038 -0.000605 -0.000423 0.000000
0.000164 -0.000237 0.000117 0.000000
0.000181 -0.000285 0.000230 0.000000
0.000120 -0.000178 0.000151 0.000000
0.000001 -0.000096 0.000056 0.000000
0.000009 -0.000097 0.000036 0.000000
0.000044 -0.000569 -0.000283 0.000000
0.000231 -0.000781 -0.000333 0.000000
0.000025 -0.000091 0.000014 0.000000
-0.000012 -0.000082 -0.000017 0.000000
0.000017 -0.000532 -0.000608 0.000000
-0.000010 -0.000063 -0.000019 0.000000
0.000027 -0.000118 0.000026 0.000000
-0.000019 -0.000616 0.000053 0.000000
0.000018 -0.000621 -0.000611 0.000000
-0.000029 -0.000480 -0.000001 0.000000
-0.000021 -0.000574 0.000041 0.000000
0.000023 -0.000628 -0.000042 0.000000
0.000032 -0.000096 0.000010 0.000000
-0.000006 -0.000594 -0.000253 0.000000
0.000069 -0.000155 0.000127 0.000000
0.000049 -0.000123 0.000028 0.000000
0.000073 -0.000146 0.000082 0.000000
0.000071 -0.000141 0.000086 0.000000
0.000035 -0.000120 -0.000010 0.000000
0.000049 -0.000107 0.000020 0.000000
0.000107 -0.000166 0.000099 0.000000
0.000066 -0.000121 0.000046 0.000000
0.000035 -0.000543 -0.000151 0.000000
-0.000045 -0.000466 -0.000145 0.000000
0.000040 -0.000700 -0.000099 0.000000
0.000152 -0.000213 0.000061 0.000000
-0.000008 -0.000371 -0.000310 0.000000
0.000066 -0.000431 -0.000557 0.000000
-0.000016 -0.000437 -0.000063 0.000000
-0.000017 -0.000492 0.000093 0.000000
-0.000004 -0.000565 -0.000008 0.000000
-0.000020 -0.000509 0.000029 0.000000
-0.000017 -0.000533 0.000072 0.000000
-0.000041 -0.000525 0.000097 0.000000
-0.000009 -0.000633 -0.000013 0.000000
-0.000014 -0.000559 -0.000011 0.000000
-0.000012 -0.000665 0.000161 0.000000
-0.000025 -0.000576 0.000108 0.000000
-0.000023 -0.000516 0.000086 0.000000
-0.000014 -0.000506 0.000105 0.000000
-0.000005 -0.000509 0.000097 0.000000
-0.000068 -0.000550 0.000163 0.000000
-0.000012 -0.000466 0.000033 0.000000
-0.000018 -0.000494 0.000090 0.000000
0.000061 -0.000533 0.000088 0.000000
0.000046 -0.000540 0.000060 0.000000
-0.000015 -0.000543 0.000058 0.000000
0.000017 -0.000549 0.000112 0.000000
-0.000031 -0.000409 -0.000423 0.000000
-0.000007 -0.000061 -0.000048 0.000000
0.000099 -0.000642 0.000048 0.000000
-0.000029 -0.000494 -0.000032 0.000000
-0.000005 -0.000083 -0.000067 0.000000
-0.000012 -0.000061 -0.000047 0.000000
0.000088 -0.000617 0.000100 0.000000
-0.000013 -0.000496 0.000048 0.000000
0.000016 -0.000542 0.000046 0.000000
0.000212 -0.000799 0.000038 0.000000
0.000014 -0.000587 0.000008 0.000000
0.000042 -0.000590 0.000037 0.000000
-0.000032 -0.000524 0.000068 0.000000
-0.000014 -0.000571 -0.000063 0.000000
-0.000040 -0.000486 0.000066 0.000000
0.000189 -0.000713 0.000304 0.000000
0.000183 -0.000830 0.000193 0.000000
-0.000059 -0.000501 0.000298 0.000000
-0.000210 -0.000242 0.000317 0.000000
0.000001 -0.000587 0.000187 0.000000
-0.000125 -0.000459 0.000229 0.000000
-0.000062 -0.000683 0.000368 0.000000
-0.000174 -0.000374 0.000344 0.000000
-0.000210 -0.000325 0.000283 0.000000
-0.000130 -0.000470 0.000359 0.000000
0.000093 -0.000815 0.000074 0.000000
0.000214 -0.000743 0.000475 0.000000
0.000001 -0.000629 0.000197 0.000000
0.000201 -0.000905 0.000292 0.000000
0.000047 -0.000119 0.000026 0.000000
0.000166 -0.000803 -0.000038 0.000000
0.000141 -0.000812 0.000102 0.000000
0.000140 -0.000804 -0.000058 0.000000
0.000164 -0.000881 -0.000005 0.000000
-0.000102 -0.000439 0.000041 0.000000
0.000142 -0.000711 -0.000083 0.000000
0.000195 -0.000791 0.000034 0.000000
0.000204 -0.000862 0.000087 0.000000
-0.000015 -0.000651 -0.000083 0.000000
0.000021 -0.000604 -0.000031 0.000000
-0.000118 -0.000532 -0.000198 0.000000
-0.000052 -0.000544 0.000002 0.000000
-0.000010 -0.000065 0.000011 0.000000
-0.000000 -0.000612 0.000021 0.000000
-0.000177 -0.000481 0.000153 0.000000
-0.000095 -0.000459 0.000145 0.000000
-0.000078 -0.000366 0.000414 0.000000
-0.000186 -0.000424 -0.000217 0.000000
-0.000016 -0.000060 0.000000 0.000000
-0.000011 -0.000064 -0.000007 0.000000
-0.000009 -0.000072 -0.000003 0.000000
-0.000183 -0.000451 -0.000089 0.000000
-0.000007 -0.000075 0.000003 0.000000
-0.000016 -0.000072 -0.000002 0.000000
0.000015 -0.000090 0.000008 0.000000
-0.000139 -0.000460 -0.000384 0.000000
0.000023 -0.000722 0.000458 0.000000
-0.000009 -0.000081 0.000006 0.000000
0.000076 -0.000219 0.000161 0.000000
0.000075 -0.000155 0.000023 0.000000
0.000195 -0.000267 -0.000009 0.000000
0.000126 -0.000176 0.000067 0.000000
-0.000171 -0.000266 -0.000434 0.000000
-0.000101 -0.000500 -0.000072 0.000000
-0.000011 -0.000079 0.000010 0.000000
-0.000165 -0.000242 0.000298 0.000000
0.000226 -0.001023 0.000428 0.000000
-0.000109 -0.000462 0.000401 0.000000
0.000071 -0.000817 0.000142 0.000000
0.000047 -0.000158 0.000041 0.000000
-0.000176 -0.000397 0.000297 0.000000
-0.000178 -0.000372 0.000352 0.000000
0.000082 -0.000845 0.000694 0.000000
-0.000153 -0.000447 0.000392 0.000000
-0.000012 -0.000532 0.000741 0.000000
-0.000129 -0.000457 0.000368 0.000000
0.000015 -0.000121 0.000006 0.000000
0.000092 -0.000634 0.000850 0.000000
0.000060 -0.000129 0.000021 0.000000
0.000069 -0.000141 0.000085 0.000000
0.000080 -0.000205 0.000039 0.000000
0.000091 -0.000156 0.000020 0.000000
0.000175 -0.000211 0.000015 0.000000
0.000200 -0.000323 0.000078 0.000000
0.000011 -0.000105 0.000015 0.000000
0.000016 -0.000108 0.000026 0.000000
0.000010 -0.000107 0.000011 0.000000
0.000032 -0.000159 0.000080 0.000000
-0.000006 -0.000101 -0.000010 0.000000
0.000010 -0.000101 0.000002 0.000000
0.000015 -0.000099 0.000004 0.000000
0.000010 -0.000107 0.000026 0.000000
-0.000015 -0.000079 0.000003 0.000000
-0.000013 -0.000089 0.000001 0.000000
0.000010 -0.000105 0.000003 0.000000
0.000019 -0.000110 0.000019 0.000000
0.000013 -0.000110 0.000016 0.000000
0.000008 -0.000108 0.000017 0.000000
0.000018 -0.000106 0.000054 0.000000
0.000021 -0.000124 0.000038 0.000000
-0.000109 -0.000616 -0.000470 0.000000
0.000133 -0.000260 0.000106 0.000000
-0.000089 -0.000589 -0.000464 0.000000
-0.000099 -0.000609 -0.000564 0.000000
-0.000145 -0.000396 -0.000439 0.000000
-0.000082 -0.000430 -0.000469 0.000000
-0.000023 -0.000622 -0.000395 0.000000
-0.000170 -0.000459 -0.000394 0.000000
0.000017 -0.000115 -0.000010 0.000000
-0.000100 -0.000370 -0.000562 0.000000
-0.000008 -0.000074 0.000012 0.000000
0.000007 -0.000676 0.000610 0.000000
-0.000111 -0.000485 -0.000356 0.000000
-0.000090 -0.000621 -0.000453 0.000000
-0.000005 -0.000697 -0.000251 0.000000
-0.000022 -0.000768 -0.000388 0.000000
0.000149 -0.000898 -0.000272 0.000000
-0.000048 -0.000745 -0.000208 0.000000
-0.000143 -0.000661 0.000223 0.000000
-0.000005 -0.000746 -0.000176 0.000000
-0.000085 -0.000872 0.000500 0.000000
0.000115 -0.000840 0.000339 0.000000
0.000106 -0.000845 0.000645 0.000000
0.000436 -0.001317 0.000027 0.000000
0.000456 -0.001321 0.000052 0.000000
0.000258 -0.000360 -0.000071 0.000000
-0.000070 -0.000735 0.000356 0.000000
-0.000070 -0.000843 0.000286 0.000000
0.000351 -0.000912 -0.000274 0.000000
0.000082 -0.001058 0.000156 0.000000
-0.000097 -0.000662 0.000211 0.000000
0.000007 -0.000095 0.000010 0.000000
-0.000096 -0.000665 0.000331 0.000000
-0.000009 -0.000830 0.000248 0.000000
0.000000 -0.000088 0.000009 0.000000
-0.000001 -0.000098 -0.000003 0.000000
-0.000046 -0.000608 0.000509 0.000000
-0.000000 -0.000086 0.000017 0.000000
0.000001 -0.000085 0.000012 0.000000
0.000002 -0.000089 0.000022 0.000000
-0.000003 -0.000075 0.000036 0.000000
0.000009 -0.000083 0.000028 0.000000
0.000077 -0.000789 -0.000101 0.000000
-0.000086 -0.000573 -0.000341 0.000000
0.000213 -0.000246 0.000305 0.000000
0.000229 -0.000858 -0.000297 0.000000
-0.000030 -0.000479 -0.000076 0.000000
-0.000094 -0.000408 -0.000480 0.000000
-0.000071 -0.000712 0.000228 0.000000
-0.000041 -0.000622 0.000496 0.000000
-0.000085 -0.000687 0.000140 0.000000
0.000005 -0.000698 0.000101 0.000000
0.000232 -0.000336 0.000293 0.000000
0.000576 -0.001472 -0.000042 0.000000
0.000315 -0.000411 0.000117 0.000000
0.000489 -0.001316 0.000245 0.000000
0.000230 -0.000310 0.000170 0.000000
0.000248 -0.000327 0.000216 0.000000
0.000451 -0.001459 -0.000009 0.000000
0.000279 -0.000360 0.000081 0.000000
0.000302 -0.000361 0.000074 0.000000
0.000144 -0.000241 0.000032 0.000000
0.000265 -0.000366 0.000037 0.000000
0.000162 -0.000236 0.000057 0.000000
0.000195 -0.000265 0.000049 0.000000
0.000358 -0.000410 0.000058 0.000000
0.000289 -0.000412 0.000015 0.000000
0.000169 -0.000240 0.000043 0.000000
0.000404 -0.001227 -0.000211 0.000000
0.000100 -0.000901 0.000017 0.000000
0.000247 -0.001154 -0.000196 0.000000
0.000223 -0.001125 -0.000152 0.000000
0.000036 -0.000145 0.000072 0.000000
0.000101 -0.000183 -0.000000 0.000000
0.000469 -0.001316 0.000238 0.000000
0.000362 -0.001062 0.000008 0.000000
0.000595 -0.001382 0.000231 0.000000
0.000274 -0.001286 -0.000206 0.000000
0.000265 -0.001313 0.000442 0.000000
-0.000003 -0.000125 -0.000023 0.000000
0.000458 -0.001320 0.000032 0.000000
0.000268 -0.000361 -0.000067 0.000000
0.000489 -0.000627 0.000035 0.000000
0.000406 -0.001362 -0.000207 0.000000
0.000291 -0.000406 0.000021 0.000000
0.000020 -0.000845 0.000139 0.000000
0.000054 -0.000958 0.000128 0.000000
-0.000116 -0.000880 -0.000246 0.000000
0.000334 -0.000489 0.000009 0.000000
-0.000151 -0.000492 -0.000135 0.000000
-0.000080 -0.000824 -0.000105 0.000000
-0.000086 -0.000783 0.000127 0.000000
0.000297 -0.000376 0.000048 0.000000
0.000286 -0.000381 0.000006 0.000000
0.000441 -0.000612 0.000213 0.000000
0.000328 -0.000407 -0.000006 0.000000
0.000032 -0.000157 0.000005 0.000000
0.000014 -0.000127 -0.000021 0.000000
0.000084 -0.000226 0.000000 0.000000
0.000252 -0.000375 -0.000027 0.000000
0.000151 -0.000237 -0.000099 0.000000
0.000074 -0.000155 -0.000019 0.000000
0.000248 -0.000315 0.000029 0.000000
-0.000149 -0.000723 -0.000078 0.000000
0.000379 -0.000535 0.000360 0.000000
-0.000168 -0.000618 -0.000007 0.000000
-0.000219 -0.000758 0.000141 0.000000
-0.000036 -0.000919 0.000312 0.000000
0.000320 -0.000481 0.000457 0.000000
0.000034 -0.000948 0.000506 0.000000
0.000261 -0.001266 0.000650 0.000000
0.000033 -0.001013 0.000581 0.000000
-0.000176 -0.000928 -0.000164 0.000000
-0.000099 -0.001119 -0.000029 0.000000
-0.000362 -0.000440 -0.000719 0.000000
0.000123 -0.000227 0.000138 0.000000
-0.000015 -0.000111 -0.000010 0.000000
-0.000020 -0.000103 -0.000033 0.000000
0.000154 -0.000264 -0.000021 0.000000
0.000406 -0.000446 0.000238 0.000000
0.000279 -0.000407 0.000095 0.000000
0.000301 -0.000457 0.000110 0.000000
-0.000243 -0.000615 -0.000710 0.000000
-0.000012 -0.000110 0.000008 0.000000
0.000001 -0.000110 -0.000003 0.000000
0.000005 -0.000139 0.000005 0.000000
-0.000024 -0.000096 -0.000014 0.000000
-0.000112 -0.000934 -0.000186 0.000000
-0.000015 -0.000096 -0.000004 0.000000
-0.000024 -0.000098 -0.000012 0.000000
0.000049 -0.000160 -0.000015 0.000000
-0.000337 -0.000373 -0.000269 0.000000
-0.000271 -0.000349 -0.000752 0.000000
-0.000022 -0.000095 -0.000009 0.000000
-0.000067 -0.000661 -0.000631 0.000000
-0.000018 -0.000742 -0.000189 0.000000
-0.000213 -0.000324 0.000441 0.000000
-0.000094 -0.000668 -0.000016 0.000000
-0.000073 -0.000831 -0.000437 0.000000
-0.000106 -0.000831 0.000078 0.000000
-0.000162 -0.000574 -0.000123 0.000000
-0.000076 -0.000535 0.000676 0.000000
0.000096 -0.000194 -0.000043 0.000000
-0.000086 -0.000699 0.000300 0.000000
0.000024 -0.000130 -0.000022 0.000000
-0.000003 -0.000105 -0.000026 0.000000
-0.000153 -0.000702 0.000272 0.000000
-0.000146 -0.000699 0.000067 0.000000
0.000288 -0.001028 0.000626 0.000000
0.000067 -0.001057 0.000455 0.000000
-0.000164 -0.000689 -0.000187 0.000000
0.000122 -0.000824 -0.000027 0.000000
-0.000066 -0.000762 -0.000147 0.000000
-0.000164 -0.000624 0.000229 0.000000
-0.000146 -0.000564 0.000042 0.000000
-0.000222 -0.000686 0.000285 0.000000
-0.000085 -0.000576 -0.000483 0.000000
0.000057 -0.000886 -0.000160 0.000000
0.000224 -0.000904 -0.000170 0.000000
-0.000074 -0.000704 -0.000225 0.000000
0.000074 -0.000981 0.000232 0.000000
-0.000032 -0.000081 0.000014 0.000000
-0.000089 -0.000559 -0.000208 0.000000
0.000090 -0.000928 0.000319 0.000000
-0.000005 -0.000087 0.000031 0.000000
0.000021 -0.000107 0.000038 0.000000
-0.000070 -0.000754 0.000133 0.000000
-0.000080 -0.000901 0.000042 0.000000
0.000004 -0.000104 0.000016 0.000000
-0.000019 -0.000104 0.000083 0.000000
-0.000017 -0.000084 0.000029 0.000000
-0.000026 -0.000090 0.000048 0.000000
0.000000 -0.000094 -0.000006 0.000000
0.000006 -0.000102 0.000007 0.000000
0.000008 -0.000109 0.000018 0.000000
0.000008 -0.000100 0.000016 0.000000
-0.000014 -0.000084 -0.000009 0.000000
-0.000002 -0.000098 0.000004 0.000000
-0.000022 -0.000081 -0.000001 0.000000
-0.000003 -0.000102 0.000007 0.000000
-0.000017 -0.000090 0.000001 0.000000
-0.000282 -0.000414 -0.000527 0.000000
-0.000016 -0.000094 0.000012 0.000000
-0.000009 -0.000091 -0.000001 0.000000
0.000004 -0.000109 0.000014 0.000000
-0.000011 -0.000099 0.000008 0.000000
0.000015 -0.000111 0.000023 0.000000
-0.000010 -0.000100 0.000007 0.000000
0.000003 -0.000105 0.000026 0.000000
-0.000003 -0.000104 0.000007 0.000000
-0.000003 -0.000106 0.000008 0.000000
0.000000 -0.000099 0.000006 0.000000
0.000008 -0.000109 0.000014 0.000000
-0.000002 -0.000107 0.000015 0.000000
-0.000021 -0.000089 0.000008 0.000000
-0.000020 -0.000083 0.000035 0.000000
-0.000020 -0.000091 0.000011 0.000000
-0.000016 -0.000089 0.000006 0.000000
-0.000011 -0.000120 0.000046 0.000000
-0.000017 -0.000101 0.000024 0.000000
-0.000006 -0.000098 0.000013 0.000000
-0.000019 -0.000087 0.000006 0.000000
-0.000000 -0.000114 0.000061 0.000000
-0.000020 -0.000099 -0.000005 0.000000
-0.000009 -0.000102 0.000004 0.000000
-0.000011 -0.000095 0.000009 0.000000
-0.000011 -0.000101 0.000010 0.000000
-0.000006 -0.000104 0.000013 0.000000
-0.000010 -0.000102 -0.000001 0.000000
0.000106 -0.000965 0.000998 0.000000
0.000016 -0.000113 0.000043 0.000000
0.000119 -0.001091 0.000818 0.000000
-0.000002 -0.000097 0.000020 0.000000
0.000008 -0.000107 0.000018 0.000000
0.000098 -0.001025 0.000909 0.000000
0.000119 -0.000925 0.000800 0.000000
0.000019 -0.000129 0.000041 0.000000
0.000029 -0.000152 -0.000023 0.000000
0.000065 -0.000183 0.000053 0.000000
0.000074 -0.000987 -0.000556 0.000000
0.000029 -0.000123 0.000071 0.000000
0.000038 -0.000972 0.000502 0.000000
0.000045 -0.000171 0.000076 0.000000
0.000029 -0.000133 -0.000017 0.000000
0.000065 -0.000177 0.000023 0.000000
0.000060 -0.000189 -0.000006 0.000000
0.000111 -0.000230 0.000007 0.000000
0.000072 -0.000207 -0.000037 0.000000
0.000115 -0.000241 -0.000052 0.000000
0.000077 -0.000202 -0.000023 0.000000
0.000055 -0.000178 0.000014 0.000000
0.000073 -0.000199 -0.000005 0.000000
-0.000234 -0.000614 -0.000416 0.000000
-0.000384 -0.000668 -0.000012 0.000000
0.000131 -0.000233 0.000064 0.000000
0.000064 -0.000164 0.000014 0.000000
0.000068 -0.000197 0.000029 0.000000
0.000113 -0.000248 0.000009 0.000000
0.000067 -0.000185 0.000070 0.000000
0.000072 -0.000196 0.000060 0.000000
0.000072 -0.000174 0.000063 0.000000
0.000097 -0.000196 0.000041 0.000000
-0.000015 -0.000102 -0.000012 0.000000
-0.000006 -0.000111 0.000012 0.000000
-0.000020 -0.000099 0.000003 0.000000
0.000087 -0.000263 0.000286 0.000000
0.000052 -0.000870 -0.000384 0.000000
-0.000005 -0.000104 0.000023 0.000000
0.000009 -0.000152 0.000074 0.000000
0.000049 -0.000150 0.000051 0.000000
-0.000009 -0.000145 0.000123 0.000000
-0.000025 -0.000116 0.000078 0.000000
0.000029 -0.000144 0.000102 0.000000
0.000048 -0.000227 0.000070 0.000000
-0.000011 -0.000116 -0.000007 0.000000
-0.000003 -0.000116 0.000021 0.000000
0.000045 -0.000959 0.001095 0.000000
-0.000163 -0.000988 0.000727 0.000000
0.000096 -0.000222 0.000074 0.000000
0.000060 -0.000165 0.000112 0.000000
0.000005 -0.001075 0.000497 0.000000
0.000068 -0.000151 -0.000043 0.000000
0.000022 -0.000985 0.000580 0.000000
-0.000320 -0.000810 0.000308 0.000000
-0.000201 -0.000884 -0.000261 0.000000
-0.000218 -0.000988 0.000124 0.000000
0.000278 -0.001163 -0.000251 0.000000
0.000111 -0.000189 0.000168 0.000000
-0.000054 -0.000989 0.000105 0.000000
-0.000021 -0.001204 0.000007 0.000000
0.000617 -0.001857 0.001039 0.000000
0.000093 -0.000243 0.000109 0.000000
0.000075 -0.001308 -0.000022 0.000000
0.000582 -0.002077 0.001224 0.000000
0.000094 -0.000229 0.000071 0.000000
-0.000322 -0.000858 0.000334 0.000000
0.000205 -0.000390 0.000250 0.000000
0.000079 -0.000198 0.000113 0.000000
0.000192 -0.000290 0.000259 0.000000
0.000229 -0.000411 0.000116 0.000000
-0.000030 -0.000656 0.001184 0.000000
-0.000203 -0.000498 0.000877 0.000000
0.000100 -0.000219 0.000090 0.000000
0.000086 -0.000208 0.000160 0.000000
0.000138 -0.000278 0.000080 0.000000
0.000174 -0.000331 0.000023 0.000000
0.000098 -0.000238 0.000037 0.000000
0.000131 -0.000245 0.000025 0.000000
0.000142 -0.000321 -0.000042 0.000000
0.000091 -0.000220 -0.000020 0.000000
0.000339 -0.000429 -0.000088 0.000000
0.000090 -0.000237 -0.000030 0.000000
0.000089 -0.000226 -0.000041 0.000000
0.000085 -0.000258 -0.000086 0.000000
-0.000142 -0.000845 -0.000287 0.000000
0.000081 -0.000222 -0.000044 0.000000
-0.000010 -0.000101 -0.000017 0.000000
-0.000177 -0.000907 -0.000175 0.000000
0.000050 -0.000846 0.001163 0.000000
0.000001 -0.000153 0.000020 0.000000
0.000137 -0.000308 0.000229 0.000000
-0.000087 -0.000999 -0.000130 0.000000
-0.000044 -0.001098 -0.000090 0.000000
-0.000224 -0.000838 -0.000260 0.000000
0.000127 -0.000222 0.000174 0.000000
-0.000018 -0.000103 0.000005 0.000000
0.000077 -0.000211 -0.000039 0.000000
-0.000408 -0.000414 -0.000205 0.000000
-0.000047 -0.000870 -0.000415 0.000000
-0.000479 -0.000400 -0.000463 0.000000
-0.000234 -0.000889 -0.000550 0.000000
-0.000506 -0.000240 -0.000418 0.000000
-0.000113 -0.001003 -0.000221 0.000000
-0.000013 -0.000122 -0.000034 0.000000
-0.000418 -0.000364 -0.000626 0.000000
-0.000417 -0.000287 -0.000729 0.000000
-0.000006 -0.000110 -0.000054 0.000000
0.000053 -0.000145 0.000061 0.000000
-0.000021 -0.000093 -0.000003 0.000000
-0.000015 -0.000105 -0.000001 0.000000
0.000000 -0.000107 0.000035 0.000000
0.000163 -0.000281 0.000133 0.000000
0.000019 -0.001009 -0.000240 0.000000
0.000033 -0.000132 0.000072 0.000000
-0.000018 -0.000115 -0.000002 0.000000
0.000020 -0.000148 0.000011 0.000000
0.000037 -0.000185 0.000059 0.000000
0.000150 -0.001104 -0.000353 0.000000
0.000070 -0.000227 0.000101 0.000000
0.000075 -0.000943 0.001236 0.000000
0.000190 -0.000321 0.000274 0.000000
0.000184 -0.000316 0.000135 0.000000
0.000088 -0.000228 0.000091 0.000000
0.000085 -0.000177 0.000110 0.000000
0.000217 -0.000328 0.000168 0.000000
0.000161 -0.000298 0.000118 0.000000
0.000376 -0.000440 0.000357 0.000000
0.000188 -0.000307 0.000268 0.000000
-0.000054 -0.000847 0.000630 0.000000
0.000286 -0.000379 0.000307 0.000000
0.000239 -0.000375 0.000300 0.000000
0.000272 -0.000368 0.000270 0.000000
0.000053 -0.001087 0.000989 0.000000
0.000103 -0.001040 0.000906 0.000000
0.000118 -0.001210 0.000898 0.000000
0.000541 -0.001519 0.000899 0.000000
0.000218 -0.000333 0.000225 0.000000
0.000512 -0.001571 0.001803 0.000000
0.000135 -0.001114 0.001009 0.000000
0.000114 -0.001124 0.001114 0.000000
0.000079 -0.001313 -0.000106 0.000000
0.000225 -0.001560 0.000065 0.000000
0.000179 -0.000311 0.000130 0.000000
0.000082 -0.001225 0.000998 0.000000
0.000257 -0.001585 0.000844 0.000000
0.000178 -0.000293 0.000275 0.000000
0.000108 -0.001285 0.000849 0.000000
0.000139 -0.001271 0.000964 0.000000
0.000106 -0.001189 0.001277 0.000000
0.000070 -0.001165 0.001171 0.000000
0.000059 -0.001127 0.001155 0.000000
0.000093 -0.001163 0.001261 0.000000
0.000129 -0.001196 0.001059 0.000000
0.000095 -0.001208 0.001233 0.000000
0.000350 -0.000487 0.000144 0.000000
0.000390 -0.000517 0.000212 0.000000
0.000362 -0.000475 0.000171 0.000000
0.000385 -0.000515 0.000212 0.000000
0.000313 -0.000449 0.000174 0.000000
0.000352 -0.000466 0.000164 0.000000
0.000340 -0.000467 0.000176 0.000000
0.000390 -0.000492 0.000082 0.000000
0.000409 -0.000542 0.000165 0.000000
0.000484 -0.000598 0.000170 0.000000
0.000504 -0.000632 0.000114 0.000000
0.000441 -0.000541 0.000148 0.000000
0.000549 -0.000655 0.000188 0.000000
0.000478 -0.000609 0.000145 0.000000
0.000468 -0.000562 0.000105 0.000000
0.000510 -0.000610 0.000139 0.000000
0.000630 -0.000752 0.000114 0.000000
0.000649 -0.000775 0.000151 0.000000
0.000642 -0.000756 0.000175 0.000000
0.000642 -0.000752 0.000141 0.000000
0.000584 -0.000718 0.000149 0.000000
0.000622 -0.000731 0.000187 0.000000
0.000479 -0.000570 0.000139 0.000000
0.000386 -0.000534 0.000136 0.000000
0.000540 -0.000637 0.000170 0.000000
0.000617 -0.000722 0.000175 0.000000
0.000478 -0.000605 0.000238 0.000000
0.000485 -0.000616 0.000134 0.000000
0.000488 -0.000583 0.000076 0.000000
0.000567 -0.000693 0.000116 0.000000
0.000587 -0.000693 0.000124 0.000000
0.000616 -0.000736 0.000184 0.000000
0.000626 -0.000735 0.000174 0.000000
0.000450 -0.000587 0.000193 0.000000
0.000562 -0.000657 0.000123 0.000000
0.000572 -0.000677 0.000209 0.000000
0.000474 -0.000594 0.000307 0.000000
0.000570 -0.000671 0.000186 0.000000
0.000559 -0.000678 0.000217 0.000000
0.000540 -0.000670 0.000185 0.000000
0.000492 -0.000589 0.000201 0.000000
0.000697 -0.001629 -0.000339 0.000000
0.000405 -0.000527 0.000277 0.000000
0.000701 -0.001636 -0.000348 0.000000
0.000395 -0.000519 0.000249 0.000000
0.000401 -0.000494 0.000224 0.000000
0.000563 -0.000670 0.000241 0.000000
0.000497 -0.000614 0.000266 0.000000
0.000424 -0.000519 0.000241 0.000000
0.000431 -0.000530 0.000280 0.000000
0.000390 -0.000500 0.000082 0.000000
0.000430 -0.000562 0.000117 0.000000
0.000528 -0.000646 0.000074 0.000000
0.000510 -0.000612 0.000132 0.000000
0.000526 -0.000645 0.000082 0.000000
0.000460 -0.000583 0.000075 0.000000
0.000540 -0.000643 0.000097 0.000000
0.000580 -0.000691 0.000097 0.000000
0.000394 -0.001259 0.001339 0.000000
0.000353 -0.000467 0.000232 0.000000
0.000677 -0.001826 0.000849 0.000000
0.000370 -0.000478 0.000190 0.000000
0.000159 -0.001095 0.000707 0.000000
0.000373 -0.001464 0.001206 0.000000
0.000668 -0.001743 0.000744 0.000000
0.000378 -0.000483 0.000128 0.000000
0.000655 -0.001685 0.000644 0.000000
0.000374 -0.000485 0.000116 0.000000
0.000455 -0.001413 0.000786 0.000000
0.000508 -0.001527 0.000821 0.000000
0.000615 -0.001590 0.000786 0.000000
0.000591 -0.001531 0.000750 0.000000
0.000630 -0.001560 0.000796 0.000000
0.000699 -0.001683 0.000717 0.000000
0.000385 -0.000492 0.000046 0.000000
0.000505 -0.000599 0.000086 0.000000
0.000665 -0.001624 0.000695 0.000000
0.000390 -0.001189 0.000832 0.000000
0.000497 -0.001429 0.000626 0.000000
0.000584 -0.001567 0.000739 0.000000
0.000431 -0.001293 0.000830 0.000000
0.000194 -0.001035 0.000573 0.000000
0.000525 -0.001414 0.000804 0.000000
0.000621 -0.001591 0.000761 0.000000
0.000114 -0.000896 0.000436 0.000000
0.000203 -0.001125 0.000589 0.000000
0.000452 -0.001333 0.000765 0.000000
0.000377 -0.001219 0.000836 0.000000
0.000253 -0.001063 0.000688 0.000000
0.000143 -0.000983 0.000456 0.000000
0.000341 -0.001161 0.000847 0.000000
0.000519 -0.001402 0.000840 0.000000
0.000322 -0.001204 0.000753 0.000000
0.000533 -0.001507 0.000725 0.000000
0.000617 -0.001628 0.000828 0.000000
0.000427 -0.001332 0.000759 0.000000
0.000391 -0.001310 0.000831 0.000000
0.000482 -0.001405 0.000817 0.000000
0.000447 -0.001332 0.000771 0.000000
0.000585 -0.001501 0.000768 0.000000
0.000567 -0.001567 0.000615 0.000000
0.000504 -0.001423 0.000691 0.000000
0.000806 -0.001723 0.000644 0.000000
0.000551 -0.001500 0.000595 0.000000
0.000831 -0.001684 -0.000167 0.000000
0.000844 -0.001746 -0.000248 0.000000
0.000717 -0.001536 0.000570 0.000000
0.000619 -0.001516 0.000734 0.000000
0.000946 -0.001955 -0.000251 0.000000
0.000916 -0.001852 -0.000089 0.000000
0.000653 -0.001486 -0.000388 0.000000
0.000739 -0.001609 -0.000196 0.000000
0.000592 -0.001400 -0.000289 0.000000
0.000525 -0.001339 -0.000292 0.000000
0.000676 -0.001549 -0.000281 0.000000
0.000626 -0.001474 -0.000344 0.000000
0.000664 -0.001487 -0.000221 0.000000
0.000592 -0.001395 -0.000311 0.000000
0.000850 -0.001750 -0.000223 0.000000
0.000611 -0.001473 -0.000278 0.000000
0.000812 -0.001681 -0.000197 0.000000
0.000374 -0.000487 0.000011 0.000000
0.000673 -0.001560 -0.000230 0.000000
0.000663 -0.001541 -0.000367 0.000000
0.000375 -0.000484 0.000036 0.000000
0.000563 -0.001507 0.000546 0.000000
0.000407 -0.000490 0.000288 0.000000
0.000378 -0.000504 0.000370 0.000000
0.000398 -0.000481 0.000064 0.000000
0.000485 -0.000602 0.000030 0.000000
0.000425 -0.000521 0.000269 0.000000
0.000508 -0.000610 0.000243 0.000000
0.000414 -0.000533 0.000337 0.000000
0.000699 -0.001597 -0.000333 0.000000
0.000876 -0.001802 -0.000269 0.000000
0.000873 -0.001810 -0.000336 0.000000
0.000849 -0.001798 -0.000298 0.000000
0.000865 -0.001815 -0.000373 0.000000
0.000701 -0.001643 -0.000322 0.000000
0.000594 -0.001620 -0.000382 0.000000
0.000588 -0.001470 -0.000370 0.000000
0.000647 -0.001625 -0.000348 0.000000
0.000524 -0.001392 -0.000454 0.000000
0.000174 -0.000909 -0.000117 0.000000
0.000400 -0.001348 -0.000377 0.000000
-0.000096 -0.000676 -0.000197 0.000000
0.000417 -0.001204 -0.000489 0.000000
0.000482 -0.001303 -0.000329 0.000000
0.000270 -0.000346 0.000028 0.000000
0.000540 -0.000595 -0.000084 0.000000
0.000575 -0.001453 -0.000392 0.000000
0.000657 -0.001575 -0.000340 0.000000
0.000529 -0.001388 -0.000396 0.000000
0.000566 -0.001385 -0.000441 0.000000
0.000541 -0.001383 -0.000340 0.000000
0.000638 -0.001545 -0.000343 0.000000
0.000534 -0.001385 -0.000438 0.000000
0.000316 -0.001127 -0.000347 0.000000
0.000540 -0.001388 -0.000310 0.000000
0.000474 -0.001293 -0.000379 0.000000
0.000499 -0.001293 -0.000333 0.000000
0.000380 -0.001170 -0.000340 0.000000
0.000362 -0.001176 -0.000400 0.000000
-0.000033 -0.000672 0.000101 0.000000
0.000181 -0.001043 0.000224 0.000000
0.000005 -0.000971 0.000069 0.000000
0.000540 -0.001390 -0.000384 0.000000
0.000210 -0.001141 -0.000145 0.000000
0.000390 -0.001211 -0.000391 0.000000
0.000370 -0.001122 -0.000396 0.000000
0.000528 -0.000667 -0.000022 0.000000
0.000337 -0.000459 0.000014 0.000000
0.000410 -0.000455 -0.000027 0.000000
0.000217 -0.000315 0.000004 0.000000
0.000148 -0.000274 0.000032 0.000000
0.000423 -0.001419 -0.000078 0.000000
0.000185 -0.000298 0.000089 0.000000
0.000230 -0.001077 0.000125 0.000000
0.000204 -0.000288 0.000018 0.000000
0.000387 -0.001080 -0.000315 0.000000
-0.000097 -0.000634 0.000053 0.000000
-0.000006 -0.000792 0.000051 0.000000
0.000191 -0.000832 -0.000346 0.000000
0.000130 -0.000818 0.000754 0.000000
-0.000014 -0.000113 0.000030 0.000000
0.000174 -0.000242 0.000091 0.000000
0.000042 -0.000113 0.000067 0.000000
-0.000050 -0.000860 -0.000170 0.000000
0.000060 -0.000168 0.000046 0.000000
-0.000012 -0.000084 0.000013 0.000000
-0.000028 -0.000536 -0.000338 0.000000
0.000031 -0.000855 0.000595 0.000000
0.000291 -0.000412 0.000037 0.000000
0.000203 -0.000304 -0.000018 0.000000
0.000320 -0.000471 0.000030 0.000000
-0.000001 -0.000092 -0.000004 0.000000
0.000203 -0.000308 0.000003 0.000000
0.000193 -0.000310 -0.000132 0.000000
0.000189 -0.000296 0.000028 0.000000
0.000002 -0.000112 0.000005 0.000000
0.000057 -0.000142 0.000042 0.000000
0.000012 -0.000120 -0.000001 0.000000
0.000018 -0.000143 0.000049 0.000000
-0.000076 -0.000777 0.001050 0.000000
-0.000153 -0.000407 0.000691 0.000000
-0.000091 -0.000548 0.000866 0.000000
0.000189 -0.000274 -0.000063 0.000000
0.000200 -0.000291 0.000013 0.000000
0.000038 -0.000180 0.000268 0.000000
0.000043 -0.000685 0.000691 0.000000
0.000338 -0.000447 -0.000207 0.000000
0.000185 -0.000300 -0.000043 0.000000
0.000086 -0.001226 0.000539 0.000000
0.000141 -0.000817 0.000933 0.000000
0.000453 -0.001615 -0.000964 0.000000
0.000213 -0.000885 -0.000825 0.000000
0.000295 -0.001419 -0.000807 0.000000
0.000318 -0.000414 -0.000309 0.000000
0.000810 -0.000929 0.000088 0.000000
0.000441 -0.000504 -0.000203 0.000000
0.000564 -0.000612 -0.000271 0.000000
0.000855 -0.000976 -0.000113 0.000000
0.000500 -0.001441 -0.000384 0.000000
0.000635 -0.001591 -0.000327 0.000000
0.000587 -0.001541 -0.000386 0.000000
-0.000056 -0.001075 -0.000364 0.000000
0.000856 -0.001806 -0.000341 0.000000
0.000797 -0.001812 -0.000373 0.000000
0.000623 -0.001554 -0.000339 0.000000
0.000642 -0.001564 -0.000303 0.000000
0.000610 -0.001620 -0.000254 0.000000
0.000351 -0.000444 0.000173 0.000000
0.000617 -0.001593 -0.000302 0.000000
0.000624 -0.001596 -0.000298 0.000000
0.000540 -0.001583 -0.000497 0.000000
0.000544 -0.001511 -0.000336 0.000000
0.000371 -0.001368 -0.000638 0.000000
0.000437 -0.001384 -0.000472 0.000000
0.000333 -0.001379 -0.000502 0.000000
0.000421 -0.001362 -0.000604 0.000000
0.000523 -0.001591 -0.000454 0.000000
0.000547 -0.001585 -0.000343 0.000000
0.000512 -0.001597 -0.000590 0.000000
0.000443 -0.001482 -0.000601 0.000000
0.000685 -0.001747 -0.000411 0.000000
0.000811 -0.001747 -0.000436 0.000000
0.000271 -0.000390 -0.000039 0.000000
0.000705 -0.001627 -0.000511 0.000000
0.000561 -0.001633 -0.000235 0.000000
0.000238 -0.000354 0.000003 0.000000
0.000520 -0.001626 -0.000336 0.000000
0.000215 -0.000347 -0.000065 0.000000
0.000537 -0.001656 -0.000607 0.000000
0.000523 -0.001616 -0.000600 0.000000
0.000446 -0.001391 -0.000662 0.000000
0.000638 -0.001866 -0.000864 0.000000
0.000583 -0.001594 -0.000832 0.000000
0.000623 -0.001647 -0.000421 0.000000
0.000565 -0.001478 0.000010 0.000000
0.000744 -0.001688 -0.000496 0.000000
0.000416 -0.001496 0.000162 0.000000
0.000374 -0.001391 -0.000008 0.000000
0.000435 -0.001272 -0.001104 0.000000
0.000780 -0.001846 -0.000636 0.000000
0.000431 -0.001395 -0.000152 0.000000
0.000297 -0.001140 -0.000015 0.000000
-0.000064 -0.000672 0.000301 0.000000
0.000158 -0.000228 0.000280 0.000000
0.000084 -0.000219 0.000285 0.000000
0.000038 -0.000154 0.000131 0.000000
0.000379 -0.001267 0.000248 0.000000
0.000289 -0.000998 -0.000321 0.000000
0.000041 -0.001050 0.000351 0.000000
-0.000026 -0.000996 0.000322 0.000000
-0.000032 -0.000799 0.000126 0.000000
0.000130 -0.000964 0.000178 0.000000
0.000502 -0.000591 -0.000203 0.000000
0.000308 -0.000554 0.000004 0.000000
-0.000380 -0.000827 -0.000476 0.000000
-0.000459 -0.000764 -0.000149 0.000000
0.000394 -0.000506 -0.000147 0.000000
0.000339 -0.000593 -0.000148 0.000000
-0.000207 -0.000798 -0.000611 0.000000
-0.000541 -0.000383 0.001093 0.000000
-0.000327 -0.000894 -0.000141 0.000000
-0.000456 -0.000841 -0.000156 0.000000
-0.000030 -0.000137 0.000030 0.000000
0.000220 -0.000339 -0.000235 0.000000
-0.000420 -0.000854 -0.000396 0.000000
0.000377 -0.000627 0.000067 0.000000
-0.000377 -0.001013 0.000013 0.000000
-0.000524 -0.000850 0.000048 0.000000
-0.000274 -0.001013 0.000045 0.000000
0.000179 -0.001749 0.001354 0.000000
-0.000009 -0.001098 -0.000473 0.000000
0.000318 -0.001475 -0.000243 0.000000
0.000237 -0.000376 0.000388 0.000000
-0.000330 -0.001193 0.000328 0.000000
0.000161 -0.001598 0.002105 0.000000
0.000179 -0.001811 0.002043 0.000000
0.000216 -0.000425 0.000463 0.000000
0.000340 -0.000579 0.000455 0.000000
-0.000009 -0.001577 0.001719 0.000000
0.000105 -0.001904 0.001840 0.000000
0.000012 -0.000154 0.000138 0.000000
0.000128 -0.000237 0.000312 0.000000
0.000129 -0.000343 0.000233 0.000000
0.000113 -0.000259 0.000222 0.000000
0.000072 -0.000291 0.000141 0.000000
0.000025 -0.000256 0.000163 0.000000
-0.000007 -0.000147 0.000070 0.000000
-0.000028 -0.000143 0.000053 0.000000
-0.000022 -0.000172 0.000031 0.000000
-0.000008 -0.000191 0.000090 0.000000
0.000265 -0.000358 0.000421 0.000000
0.000055 -0.000207 0.000148 0.000000
0.000417 -0.000516 0.000710 0.000000
0.000181 -0.000385 0.000114 0.000000
0.000043 -0.000198 0.000135 0.000000
0.000660 -0.000739 0.000732 0.000000
0.000514 -0.000573 0.000676 0.000000
-0.000173 -0.000800 0.000299 0.000000
-0.000034 -0.000140 0.000050 0.000000
-0.000032 -0.000142 0.000049 0.000000
0.000167 -0.000376 0.000326 0.000000
0.000318 -0.000400 0.000417 0.000000
-0.000596 -0.000819 0.000597 0.000000
-0.000544 -0.000810 0.001219 0.000000
-0.000662 -0.000232 0.000866 0.000000
-0.000024 -0.000140 0.000051 0.000000
-0.000352 -0.000947 0.000958 0.000000
-0.000228 -0.000892 0.000157 0.000000
-0.000614 -0.000266 0.000561 0.000000
-0.000028 -0.000170 0.000004 0.000000
0.000537 -0.000737 -0.000241 0.000000
0.000566 -0.000823 -0.000123 0.000000
-0.000315 -0.000862 0.000653 0.000000
0.000736 -0.000952 -0.000153 0.000000
0.000448 -0.000518 -0.000238 0.000000
0.000640 -0.000791 -0.000284 0.000000
-0.000093 -0.001378 -0.000759 0.000000
0.000614 -0.001950 -0.000832 0.000000
0.000050 -0.000281 -0.000156 0.000000
0.000195 -0.001904 -0.000641 0.000000
0.000111 -0.000281 -0.000065 0.000000
-0.000199 -0.001074 0.000048 0.000000
0.000051 -0.000208 -0.000133 0.000000
0.000222 -0.000367 -0.000156 0.000000
-0.000028 -0.000161 -0.000004 0.000000
0.000233 -0.000458 0.000032 0.000000
-0.000002 -0.000211 0.000034 0.000000
-0.000396 -0.000804 0.001055 0.000000
0.000101 -0.000309 0.000018 0.000000
0.000062 -0.000243 -0.000039 0.000000
0.000064 -0.000272 -0.000045 0.000000
-0.000542 -0.000279 0.000230 0.000000
0.000067 -0.000208 0.000081 0.000000
0.000156 -0.000338 0.000125 0.000000
0.000189 -0.000305 0.000080 0.000000
0.000111 -0.000340 -0.000057 0.000000
0.000264 -0.001571 0.000231 0.000000
0.000578 -0.000741 0.000290 0.000000
0.000191 -0.001474 0.000260 0.000000
0.000071 -0.000236 0.000028 0.000000
0.000259 -0.001662 0.001172 0.000000
0.000190 -0.001675 0.001301 0.000000
0.000441 -0.001563 0.000083 0.000000
0.000141 -0.001063 0.001196 0.000000
0.000379 -0.001536 -0.000159 0.000000
-0.000373 -0.000688 -0.000002 0.000000
0.000534 -0.001793 0.000132 0.000000
0.000224 -0.001524 -0.000066 0.000000
0.000083 -0.000209 -0.000119 0.000000
0.000249 -0.000367 -0.000156 0.000000
0.000250 -0.001636 -0.000006 0.000000
0.000208 -0.000351 -0.000179 0.000000
0.000228 -0.001378 -0.000116 0.000000
0.000484 -0.000682 -0.000247 0.000000
-0.000131 -0.001272 0.000253 0.000000
-0.000375 -0.000455 -0.000048 0.000000
-0.000628 -0.000810 0.000672 0.000000
0.000338 -0.001513 0.000754 0.000000
-0.000089 -0.001345 -0.000176 0.000000
-0.000120 -0.001047 0.000360 0.000000
0.001101 -0.002143 0.000588 0.000000
0.000424 -0.000494 0.000199 0.000000
0.000787 -0.001867 0.000446 0.000000
0.000465 -0.001468 -0.000080 0.000000
0.000800 -0.002029 0.000396 0.000000
0.001435 -0.002788 0.000435 0.000000
0.001062 -0.002560 0.000846 0.000000
0.000412 -0.000585 -0.000023 0.000000
0.001154 -0.002310 0.000388 0.000000
0.000394 -0.001861 0.000845 0.000000
-0.000172 -0.001257 0.000736 0.000000
0.000081 -0.000243 0.000052 0.000000
0.000116 -0.000251 -0.000010 0.000000
0.000423 -0.000612 0.000089 0.000000
-0.000146 -0.001067 0.000902 0.000000
-0.000301 -0.000866 0.000482 0.000000
-0.000038 -0.000113 0.000026 0.000000
0.000085 -0.001282 0.000808 0.000000
-0.000047 -0.000117 0.000071 0.000000
-0.000677 -0.000933 0.001379 0.000000
-0.000043 -0.000132 0.000045 0.000000
0.000379 -0.000487 -0.000097 0.000000
0.000106 -0.000304 0.000037 0.000000
0.000170 -0.000305 0.000113 0.000000
0.000509 -0.000718 0.000470 0.000000
0.000829 -0.002063 0.000877 0.000000
0.000501 -0.000626 0.000465 0.000000
-0.000162 -0.000886 0.000973 0.000000
0.000903 -0.002025 0.000239 0.000000
0.000498 -0.000636 0.000402 0.000000
0.000378 -0.001816 0.000836 0.000000
0.000556 -0.000681 0.000657 0.000000
0.000619 -0.001822 0.001349 0.000000
0.000719 -0.002122 0.001412 0.000000
0.001015 -0.002252 0.001539 0.000000
0.000331 -0.001609 0.000803 0.000000
0.000434 -0.001837 0.001213 0.000000
0.000818 -0.002163 0.001477 0.000000
0.000317 -0.001608 0.000886 0.000000
0.000760 -0.001894 0.001189 0.000000
0.000629 -0.002050 0.000547 0.000000
0.000375 -0.001610 0.000666 0.000000
0.000486 -0.001681 0.000882 0.000000
0.000617 -0.002049 0.001271 0.000000
0.000813 -0.002158 0.000957 0.000000
0.000925 -0.002201 0.000112 0.000000
0.000792 -0.002365 0.001176 0.000000
0.001163 -0.002619 0.000458 0.000000
0.000314 -0.000487 0.000227 0.000000
0.000275 -0.000438 0.000238 0.000000
0.000304 -0.001624 0.000734 0.000000
0.000269 -0.000413 0.000153 0.000000
0.000167 -0.000313 0.000171 0.000000
0.000294 -0.001424 0.000659 0.000000
0.000237 -0.000323 0.000159 0.000000
0.000222 -0.001469 0.000731 0.000000
0.000349 -0.001734 0.000978 0.000000
0.000590 -0.001749 0.000549 0.000000
0.000260 -0.001540 0.000742 0.000000
0.000211 -0.000358 0.000163 0.000000
0.000353 -0.001526 0.000661 0.000000
0.000357 -0.001668 0.000928 0.000000
0.000138 -0.000284 0.000168 0.000000
0.000199 -0.001419 0.000699 0.000000
0.000128 -0.000234 0.000143 0.000000
0.000203 -0.001404 0.000670 0.000000
0.000140 -0.000240 0.000121 0.000000
0.000216 -0.000308 0.000186 0.000000
0.000060 -0.000175 0.000121 0.000000
0.000128 -0.000272 0.000164 0.000000
0.000139 -0.000264 0.000207 0.000000
0.000141 -0.000281 0.000190 0.000000
0.000165 -0.000304 0.000204 0.000000
0.000186 -0.000294 0.000195 0.000000
0.000175 -0.001400 0.000627 0.000000
0.000183 -0.001389 0.000601 0.000000
0.000354 -0.001541 0.000568 0.000000
-0.000324 -0.000759 0.000322 0.000000
0.000186 -0.001473 0.000553 0.000000
0.000349 -0.001699 0.000642 0.000000
0.000131 -0.001304 0.000534 0.000000
0.000601 -0.001831 0.000719 0.000000
0.000327 -0.001470 0.000672 0.000000
0.000530 -0.001883 0.001075 0.000000
0.000887 -0.002302 0.001344 0.000000
0.000517 -0.001627 0.000738 0.000000
0.001018 -0.002462 0.001540 0.000000
0.000584 -0.001886 0.000920 0.000000
0.001092 -0.002438 0.001333 0.000000
0.001197 -0.002472 0.000990 0.000000
0.000516 -0.001889 0.000866 0.000000
0.000990 -0.002357 0.001234 0.000000
0.000852 -0.002057 0.000841 0.000000
0.001043 -0.002483 0.001106 0.000000
0.000618 -0.001802 0.000650 0.000000
0.000599 -0.002013 0.000832 0.000000
0.000844 -0.002307 0.001097 0.000000
0.001140 -0.002507 0.001437 0.000000
0.000125 -0.001455 0.000612 0.000000
0.000660 -0.001936 0.000689 0.000000
0.000321 -0.000488 0.000320 0.000000
0.000609 -0.002184 0.001368 0.000000
0.000959 -0.002313 0.001170 0.000000
0.000830 -0.002050 0.000932 0.000000
0.000867 -0.002376 0.001099 0.000000
0.000309 -0.000438 0.000223 0.000000
0.001048 -0.002452 0.001413 0.000000
0.000412 -0.001822 0.000903 0.000000
0.000784 -0.002160 0.001204 0.000000
0.001037 -0.002409 0.001415 0.000000
0.000638 -0.001866 0.001158 0.000000
0.001086 -0.002337 0.001128 0.000000
0.001003 -0.002388 0.001498 0.000000
-0.000182 -0.001391 0.000672 0.000000
0.001027 -0.002395 0.001613 0.000000
-0.000152 -0.000761 0.001538 0.000000
0.000601 -0.000799 0.000602 0.000000
0.000675 -0.000887 0.000756 0.000000
0.000395 -0.001911 0.001201 0.000000
0.000295 -0.001371 0.000927 0.000000
0.000271 -0.001997 0.001808 0.000000
-0.000082 -0.001619 0.001178 0.000000
0.000223 -0.001709 0.001238 0.000000
0.000409 -0.001893 0.000835 0.000000
0.000733 -0.002195 0.001075 0.000000
0.000709 -0.001971 0.000977 0.000000
0.000460 -0.001999 0.001273 0.000000
0.000188 -0.000376 0.000348 0.000000
0.001131 -0.002423 0.001324 0.000000
0.000716 -0.002144 0.001210 0.000000
0.000198 -0.000378 0.000237 0.000000
0.000513 -0.001969 0.001163 0.000000
0.000460 -0.002014 0.001317 0.000000
0.000306 -0.001816 0.001225 0.000000
0.000329 -0.000421 0.000603 0.000000
0.000389 -0.001937 0.001989 0.000000
0.000376 -0.002006 0.001903 0.000000
0.000103 -0.001839 0.001511 0.000000
0.000408 -0.002265 0.001823 0.000000
0.000224 -0.002027 0.002347 0.000000
0.000377 -0.002078 0.002114 0.000000
0.000317 -0.000523 0.000444 0.000000
0.000560 -0.002215 0.002118 0.000000
0.000512 -0.000704 0.000416 0.000000
0.000365 -0.000512 0.000505 0.000000
0.000280 -0.002033 0.001622 0.000000
0.000313 -0.000473 0.000406 0.000000
0.000280 -0.000471 0.000406 0.000000
0.000191 -0.000353 0.000276 0.000000
0.000260 -0.000420 0.000304 0.000000
0.000205 -0.000369 0.000269 0.000000
0.000409 -0.001832 0.000829 0.000000
0.000212 -0.000386 0.000243 0.000000
0.000338 -0.000455 0.000301 0.000000
0.000206 -0.000364 0.000250 0.000000
0.000277 -0.000446 0.000266 0.000000
0.000263 -0.001825 0.000947 0.000000
0.000257 -0.001820 0.000757 0.000000
0.000234 -0.000400 0.000307 0.000000
0.000380 -0.000504 0.000325 0.000000
0.000230 -0.000367 0.000269 0.000000
0.000261 -0.000413 0.000289 0.000000
0.000279 -0.000425 0.000371 0.000000
0.000287 -0.000442 0.000484 0.000000
0.000329 -0.000477 0.000452 0.000000
0.000267 -0.000421 0.000498 0.000000
0.000243 -0.000422 0.000384 0.000000
0.000330 -0.000495 0.000459 0.000000
0.000281 -0.000415 0.000408 0.000000
0.000253 -0.000405 0.000404 0.000000
0.000754 -0.001993 0.000587 0.000000
0.000448 -0.001641 0.000584 0.000000
0.000493 -0.001972 0.000683 0.000000
0.000240 -0.000375 0.000349 0.000000
0.000649 -0.002096 0.000803 0.000000
0.000097 -0.001442 0.000644 0.000000
-0.000034 -0.001170 0.000293 0.000000
0.000323 -0.001513 0.000444 0.000000
0.000311 -0.000476 0.000482 0.000000
0.000276 -0.000432 0.000432 0.000000
0.000293 -0.000430 0.000467 0.000000
0.000354 -0.001770 0.000806 0.000000
0.000317 -0.000446 0.000468 0.000000
0.000974 -0.002282 0.001166 0.000000
0.000934 -0.002311 0.001254 0.000000
0.000917 -0.002202 0.001045 0.000000
0.000136 -0.001290 0.000429 0.000000
0.000101 -0.001271 0.000469 0.000000
0.000440 -0.001626 0.000570 0.000000
0.000849 -0.002275 0.001190 0.000000
-0.000255 -0.000879 0.000152 0.000000
-0.000205 -0.000873 0.000284 0.000000
-0.000041 -0.001210 0.000328 0.000000
-0.000176 -0.001044 0.000331 0.000000
0.000505 -0.001904 0.000966 0.000000
0.000161 -0.001306 0.000455 0.000000
0.000606 -0.001785 0.000741 0.000000
0.000253 -0.001636 0.000630 0.000000
0.000775 -0.002204 0.001008 0.000000
0.000864 -0.002099 0.000810 0.000000
-0.000097 -0.001117 0.000249 0.000000
-0.000188 -0.000970 0.000145 0.000000
-0.000009 -0.000112 0.000060 0.000000
-0.000100 -0.001167 0.000295 0.000000
-0.000154 -0.001073 0.000314 0.000000
-0.000149 -0.000815 -0.000064 0.000000
-0.000118 -0.001023 0.000191 0.000000
-0.000103 -0.000917 -0.000027 0.000000
0.000332 -0.001413 0.000134 0.000000
0.000289 -0.001009 -0.000723 0.000000
-0.000033 -0.000105 0.000110 0.000000
-0.000034 -0.000107 0.000079 0.000000
0.000410 -0.001424 0.000357 0.000000
0.000226 -0.001426 0.000317 0.000000
0.000247 -0.001273 0.000596 0.000000
-0.000027 -0.000105 0.000095 0.000000
-0.000116 -0.001134 0.000176 0.000000
-0.000080 -0.000993 -0.000015 0.000000
-0.000066 -0.001150 0.000199 0.000000
0.000166 -0.001214 0.000408 0.000000
0.000009 -0.001407 0.000332 0.000000
-0.000092 -0.001114 0.000127 0.000000
-0.000104 -0.001097 0.000128 0.000000
-0.000120 -0.001046 0.000156 0.000000
0.000206 -0.000348 0.000274 0.000000
0.000138 -0.000274 0.000193 0.000000
-0.000146 -0.001143 0.000520 0.000000
0.000132 -0.001185 0.000163 0.000000
-0.000120 -0.001105 0.000350 0.000000
0.000001 -0.001105 0.000361 0.000000
-0.000089 -0.001113 0.000425 0.000000
-0.000042 -0.001182 0.000477 0.000000
0.000009 -0.001223 0.000328 0.000000
0.000097 -0.001287 0.000620 0.000000
0.000332 -0.001506 0.000768 0.000000
-0.000001 -0.000138 0.000203 0.000000
0.000263 -0.001561 0.001344 0.000000
0.000206 -0.001283 0.000662 0.000000
0.000615 -0.001581 0.000797 0.000000
0.000007 -0.000144 0.000226 0.000000
0.000320 -0.001395 0.000626 0.000000
0.000328 -0.001485 0.000593 0.000000
0.000007 -0.000134 0.000254 0.000000
0.000377 -0.001552 0.001227 0.000000
0.000292 -0.001528 0.000813 0.000000
0.000152 -0.001441 0.000806 0.000000
0.000382 -0.001564 0.000688 0.000000
0.000249 -0.001541 0.000521 0.000000
0.000272 -0.001480 0.000772 0.000000
0.000095 -0.001413 0.000585 0.000000
-0.000161 -0.001466 0.001879 0.000000
0.000035 -0.001359 0.000828 0.000000
0.000128 -0.001565 0.001437 0.000000
0.000035 -0.001367 0.000839 0.000000
-0.000216 -0.001270 0.001961 0.000000
-0.000248 -0.001299 0.001891 0.000000
0.000408 -0.001667 0.001568 0.000000
0.000125 -0.001394 0.001343 0.000000
-0.000021 -0.000155 0.000297 0.000000
0.000048 -0.001297 0.001451 0.000000
-0.000195 -0.001472 0.002620 0.000000
0.000305 -0.001523 0.001252 0.000000
0.000191 -0.001498 0.001304 0.000000
-0.000016 -0.000149 0.000252 0.000000
-0.000128 -0.001187 0.001746 0.000000
0.000089 -0.000208 0.000230 0.000000
-0.000407 -0.001196 0.001573 0.000000
0.000050 -0.000185 0.000197 0.000000
0.000039 -0.000181 0.000280 0.000000
0.000021 -0.000153 0.000254 0.000000
0.000024 -0.000176 0.000300 0.000000
0.000022 -0.000167 0.000229 0.000000
0.000064 -0.000215 0.000287 0.000000
0.000029 -0.000132 0.000109 0.000000
0.000384 -0.002060 0.002103 0.000000
0.000001 -0.001225 0.000772 0.000000
0.000063 -0.000209 0.000209 0.000000
-0.000047 -0.001283 0.000966 0.000000
0.000032 -0.000142 0.000087 0.000000
0.000049 -0.000165 0.000125 0.000000
0.000053 -0.000201 0.000257 0.000000
0.000073 -0.000188 0.000180 0.000000
0.000082 -0.000194 0.000226 0.000000
0.000070 -0.000219 0.000276 0.000000
0.000061 -0.000185 0.000168 0.000000
0.000049 -0.000189 0.000191 0.000000
-0.000018 -0.000106 0.000207 0.000000
0.000009 -0.000147 0.000269 0.000000
0.000046 -0.000166 0.000254 0.000000
0.000006 -0.000140 0.000250 0.000000
0.000002 -0.000144 0.000224 0.000000
-0.000011 -0.000127 0.000210 0.000000
0.000021 -0.000151 0.000261 0.000000
0.000000 -0.000140 0.000220 0.000000
0.000294 -0.001472 0.000559 0.000000
0.000115 -0.001281 0.000527 0.000000
0.000024 -0.000151 0.000192 0.000000
-0.000002 -0.000127 0.000215 0.000000
-0.000012 -0.000105 0.000195 0.000000
0.000508 -0.001471 0.000590 0.000000
-0.000027 -0.000113 0.000145 0.000000
0.000408 -0.001575 0.000801 0.000000
-0.000007 -0.000135 0.000216 0.000000
0.000005 -0.000143 0.000221 0.000000
0.000000 -0.000116 0.000188 0.000000
-0.000039 -0.000097 0.000106 0.000000
-0.000002 -0.000103 0.000143 0.000000
-0.000040 -0.000091 0.000080 0.000000
-0.000028 -0.000106 0.000124 0.000000
-0.000033 -0.000092 0.000094 0.000000
-0.000006 -0.000129 0.000168 0.000000
-0.000033 -0.000091 0.000076 0.000000
0.000004 -0.000130 0.000151 0.000000
0.000004 -0.000107 0.000133 0.000000
0.000026 -0.000128 0.000132 0.000000
0.000020 -0.000126 0.000191 0.000000
0.000025 -0.000148 0.000244 0.000000
0.000051 -0.000160 0.000132 0.000000
0.000019 -0.000152 0.000212 0.000000
0.000022 -0.000162 0.000264 0.000000
0.000037 -0.000155 0.000203 0.000000
0.000057 -0.000171 0.000205 0.000000
0.000054 -0.000171 0.000142 0.000000
0.000056 -0.000185 0.000153 0.000000
0.000043 -0.000165 0.000095 0.000000
0.000060 -0.000175 0.000139 0.000000
0.000044 -0.000159 0.000090 0.000000
0.000040 -0.000148 0.000114 0.000000
0.000049 -0.000164 0.000136 0.000000
0.000050 -0.000163 0.000122 0.000000
0.000010 -0.000116 0.000073 0.000000
0.000012 -0.000110 0.000092 0.000000
0.000025 -0.000132 0.000148 0.000000
0.000050 -0.000161 0.000153 0.000000
0.000041 -0.000142 0.000125 0.000000
0.000040 -0.000160 0.000152 0.000000
0.000047 -0.000164 0.000148 0.000000
0.000041 -0.000149 0.000126 0.000000
0.000040 -0.000143 0.000125 0.000000
0.000022 -0.000133 0.000119 0.000000
0.000031 -0.000135 0.000115 0.000000
0.000039 -0.000152 0.000136 0.000000
0.000049 -0.000153 0.000140 0.000000
0.000040 -0.000148 0.000130 0.000000
0.000042 -0.000147 0.000122 0.000000
0.000040 -0.000148 0.000113 0.000000
0.000018 -0.000118 0.000107 0.000000
0.000019 -0.000118 0.000115 0.000000
0.000022 -0.000119 0.000114 0.000000
0.000010 -0.000105 0.000130 0.000000
0.000028 -0.000132 0.000104 0.000000
0.000033 -0.000131 0.000115 0.000000
0.000023 -0.000121 0.000112 0.000000
0.000028 -0.000127 0.000106 0.000000
-0.000003 -0.000101 0.000062 0.000000
0.000013 -0.000112 0.000080 0.000000
0.000009 -0.000106 0.000083 0.000000
0.000019 -0.000119 0.000096 0.000000
-0.000019 -0.000099 0.000080 0.000000
0.000018 -0.000123 0.000098 0.000000
0.000018 -0.000122 0.000107 0.000000
-0.000002 -0.000102 0.000084 0.000000
-0.000018 -0.000088 0.000090 0.000000
-0.000018 -0.000100 0.000058 0.000000
-0.000015 -0.000110 0.000107 0.000000
0.000012 -0.000117 0.000111 0.000000
-0.000032 -0.000084 0.000067 0.000000
-0.000029 -0.000093 0.000039 0.000000
-0.000015 -0.000101 0.000043 0.000000
-0.000010 -0.000099 0.000024 0.000000
-0.000034 -0.000091 0.000055 0.000000
-0.000018 -0.000090 0.000066 0.000000
-0.000024 -0.000092 0.000039 0.000000
-0.000026 -0.000087 0.000032 0.000000
-0.000030 -0.000092 0.000036 0.000000
-0.000012 -0.000096 0.000035 0.000000
-0.000033 -0.000080 0.000079 0.000000
-0.000261 -0.000669 0.000851 0.000000
-0.000040 -0.000091 0.000053 0.000000
-0.000028 -0.000081 0.000055 0.000000
-0.000063 -0.000093 0.000091 0.000000
-0.000429 -0.000556 0.001052 0.000000
-0.000039 -0.000094 0.000053 0.000000
-0.000031 -0.000092 0.000041 0.000000
-0.000037 -0.000091 0.000042 0.000000
-0.000030 -0.000092 0.000034 0.000000
-0.000037 -0.000093 0.000055 0.000000
-0.000035 -0.000091 0.000042 0.000000
-0.000043 -0.000091 0.000086 0.000000
-0.000036 -0.000102 0.000083 0.000000
-0.000034 -0.000091 0.000075 0.000000
-0.000034 -0.000094 0.000055 0.000000
0.000002 -0.000134 0.000140 0.000000
-0.000037 -0.000105 0.000102 0.000000
0.000001 -0.000157 0.000146 0.000000
-0.000037 -0.000102 0.000108 0.000000
-0.000218 -0.000887 -0.000207 0.000000
-0.000052 -0.000131 0.000151 0.000000
-0.000029 -0.000140 0.000166 0.000000
-0.000154 -0.000581 -0.000507 0.000000
-0.000487 -0.000237 -0.000243 0.000000
-0.000330 -0.000742 -0.000143 0.000000
-0.000048 -0.000107 0.000100 0.000000
-0.000041 -0.000093 0.000070 0.000000
-0.000057 -0.000098 0.000091 0.000000
-0.000043 -0.000096 0.000065 0.000000
-0.000251 -0.001003 0.000582 0.000000
-0.000581 -0.000481 0.000386 0.000000
-0.000344 -0.000777 0.000453 0.000000
-0.000072 -0.000116 0.000236 0.000000
-0.000325 -0.000807 0.000274 0.000000
-0.000217 -0.000870 0.000374 0.000000
-0.000501 -0.000589 0.000013 0.000000
-0.000305 -0.000631 0.000110 0.000000
0.000128 -0.001422 0.000654 0.000000
0.000367 -0.001571 0.000552 0.000000
-0.000223 -0.000953 0.000379 0.000000
-0.000211 -0.000988 0.000511 0.000000
0.000414 -0.001696 0.000847 0.000000
-0.000110 -0.001056 0.000461 0.000000
-0.000336 -0.000778 0.000440 0.000000
-0.000059 -0.001190 0.000616 0.000000
-0.000089 -0.001192 0.000571 0.000000
-0.000090 -0.001072 0.000405 0.000000
0.000366 -0.001715 0.001158 0.000000
-0.000062 -0.001201 0.000667 0.000000
-0.000406 -0.000670 0.000793 0.000000
-0.000308 -0.000890 0.000787 0.000000
-0.000419 -0.000648 0.000723 0.000000
-0.000379 -0.000850 0.000557 0.000000
-0.000075 -0.000053 0.000169 0.000000
-0.000606 -0.000619 0.000835 0.000000
-0.000365 -0.000652 0.000855 0.000000
-0.000292 -0.000747 0.000808 0.000000
-0.000433 -0.000693 0.000961 0.000000
-0.000315 -0.000690 0.001020 0.000000
0.000166 -0.000268 0.000126 0.000000
0.000002 -0.001284 0.001531 0.000000
-0.000329 -0.000839 0.000759 0.000000
-0.000134 -0.000909 0.001402 0.000000
-0.000384 -0.000683 0.000612 0.000000
-0.000332 -0.000719 0.000777 0.000000
0.000132 -0.000287 0.000074 0.000000
-0.000097 -0.001142 0.001350 0.000000
-0.000324 -0.000702 0.000818 0.000000
-0.000319 -0.000694 0.000829 0.000000
-0.000315 -0.000692 0.000839 0.000000
-0.000315 -0.000654 0.000838 0.000000
-0.000195 -0.000567 0.001123 0.000000
-0.000271 -0.000692 0.000883 0.000000
0.000129 -0.000230 0.000165 0.000000
-0.000142 -0.000804 0.001403 0.000000
-0.000161 -0.000873 0.001279 0.000000
-0.000204 -0.000594 0.000652 0.000000
0.000130 -0.000249 0.000190 0.000000
0.000133 -0.000230 0.000095 0.000000
0.000095 -0.000198 0.000094 0.000000
0.000147 -0.000278 0.000178 0.000000
0.000074 -0.000167 0.000125 0.000000
0.000060 -0.000168 0.000103 0.000000
0.000128 -0.000247 0.000172 0.000000
0.000089 -0.000202 0.000142 0.000000
0.000108 -0.000213 0.000160 0.000000
0.000119 -0.000231 0.000172 0.000000
0.000055 -0.000162 0.000100 0.000000
0.000115 -0.000215 0.000161 0.000000
0.000052 -0.000150 0.000123 0.000000
-0.000259 -0.000609 0.000779 0.000000
-0.000233 -0.000544 0.000619 0.000000
-0.000310 -0.000393 0.000704 0.000000
0.000074 -0.000178 0.000097 0.000000
-0.000195 -0.000757 0.001117 0.000000
-0.000235 -0.000642 0.000988 0.000000
-0.000264 -0.000657 0.000871 0.000000
-0.000263 -0.000569 0.000845 0.000000
-0.000228 -0.000663 0.000814 0.000000
-0.000255 -0.000523 0.000717 0.000000
-0.000259 -0.000598 0.000762 0.000000
-0.000201 -0.000553 0.000568 0.000000
-0.000248 -0.000592 0.000674 0.000000
-0.000229 -0.000448 0.000442 0.000000
-0.000267 -0.000553 0.000675 0.000000
-0.000199 -0.000569 0.000562 0.000000
-0.000181 -0.000614 0.000647 0.000000
-0.000157 -0.000719 0.000790 0.000000
-0.000122 -0.000735 0.000928 0.000000
-0.000049 -0.000760 0.001011 0.000000
-0.000165 -0.000598 0.000680 0.000000
-0.000180 -0.000653 0.000707 0.000000
-0.000024 -0.000090 0.000032 0.000000
-0.000193 -0.000735 0.000846 0.000000
-0.000047 -0.000677 0.001076 0.000000
-0.000201 -0.000657 0.000773 0.000000
-0.000239 -0.000651 0.000773 0.000000
-0.000146 -0.000735 0.000865 0.000000
-0.000215 -0.000722 0.000931 0.000000
-0.000281 -0.000623 0.000828 0.000000
-0.000280 -0.000664 0.000837 0.000000
-0.000226 -0.000615 0.000723 0.000000
-0.000253 -0.000642 0.000799 0.000000
-0.000303 -0.000668 0.000886 0.000000
-0.000257 -0.000714 0.000975 0.000000
-0.000029 -0.000089 0.000037 0.000000
-0.000227 -0.000728 0.000885 0.000000
-0.000028 -0.000089 0.000036 0.000000
-0.000182 -0.000728 0.000899 0.000000
-0.000027 -0.000091 0.000033 0.000000
-0.000026 -0.000084 0.000032 0.000000
-0.000026 -0.000089 0.000035 0.000000
-0.000001 -0.000102 0.000036 0.000000
-0.000023 -0.000091 0.000033 0.000000
-0.000024 -0.000093 0.000037 0.000000
0.000008 -0.000114 0.000073 0.000000
0.000012 -0.000108 0.000085 0.000000
-0.000012 -0.000100 0.000034 0.000000
-0.000024 -0.000087 0.000022 0.000000
-0.000001 -0.000099 0.000027 0.000000
-0.000010 -0.000095 0.000025 0.000000
0.000005 -0.000104 0.000049 0.000000
0.000005 -0.000105 0.000062 0.000000
0.000009 -0.000106 0.000050 0.000000
0.000010 -0.000106 0.000065 0.000000
0.000005 -0.000109 0.000056 0.000000
0.000023 -0.000123 0.000090 0.000000
0.000009 -0.000109 0.000061 0.000000
0.000019 -0.000119 0.000093 0.000000
0.000014 -0.000114 0.000074 0.000000
0.000014 -0.000112 0.000081 0.000000
0.000016 -0.000115 0.000135 0.000000
0.000018 -0.000113 0.000122 0.000000
0.000014 -0.000110 0.000131 0.000000
0.000013 -0.000112 0.000131 0.000000
0.000018 -0.000111 0.000163 0.000000
0.000010 -0.000105 0.000149 0.000000
0.000024 -0.000109 0.000173 0.000000
0.000018 -0.000109 0.000140 0.000000
0.000015 -0.000105 0.000151 0.000000
0.000022 -0.000109 0.000162 0.000000
0.000012 -0.000110 0.000086 0.000000
0.000010 -0.000105 0.000069 0.000000
0.000028 -0.000119 0.000172 0.000000
0.000021 -0.000111 0.000144 0.000000
0.000020 -0.000110 0.000155 0.000000
0.000024 -0.000109 0.000156 0.000000
0.000023 -0.000113 0.000160 0.000000
0.000018 -0.000107 0.000094 0.000000
0.000062 -0.000131 0.000198 0.000000
0.000031 -0.000112 0.000156 0.000000
0.000058 -0.000137 0.000233 0.000000
0.000075 -0.000141 0.000227 0.000000
0.000048 -0.000124 0.000209 0.000000
0.000050 -0.000127 0.000215 0.000000
0.000062 -0.000140 0.000202 0.000000
0.000039 -0.000126 0.000155 0.000000
0.000043 -0.000120 0.000210 0.000000
0.000067 -0.000139 0.000259 0.000000
0.000017 -0.000108 0.000070 0.000000
0.000018 -0.000111 0.000092 0.000000
0.000039 -0.000115 0.000153 0.000000
0.000036 -0.000117 0.000106 0.000000
0.000013 -0.000103 0.000054 0.000000
0.000025 -0.000108 0.000054 0.000000
0.000017 -0.000106 0.000059 0.000000
0.000010 -0.000103 0.000060 0.000000
0.000008 -0.000109 0.000020 0.000000
0.000005 -0.000107 0.000046 0.000000
0.000010 -0.000104 0.000059 0.000000
0.000009 -0.000108 0.000067 0.000000
-0.000006 -0.000094 0.000014 0.000000
-0.000001 -0.000104 0.000033 0.000000
0.000006 -0.000103 0.000038 0.000000
0.000015 -0.000105 0.000030 0.000000
-0.000117 -0.000620 0.001012 0.000000
-0.000001 -0.000104 0.000020 0.000000
0.000027 -0.000114 0.000020 0.000000
0.000011 -0.000119 0.000002 0.000000
0.000008 -0.000103 0.000027 0.000000
0.000010 -0.000103 0.000043 0.000000
0.000041 -0.000138 0.000022 0.000000
-0.000072 -0.000607 0.000811 0.000000
0.000054 -0.000131 0.000040 0.000000
0.000041 -0.000125 0.000019 0.000000
0.000055 -0.000158 0.000039 0.000000
0.000062 -0.000763 0.001119 0.000000
0.000062 -0.000155 0.000076 0.000000
0.000180 -0.000982 0.000809 0.000000
0.000083 -0.000154 0.000066 0.000000
0.000058 -0.000128 0.000080 0.000000
0.000072 -0.000705 0.000612 0.000000
0.000084 -0.000153 0.000088 0.000000
0.000038 -0.000118 0.000075 0.000000
0.000017 -0.000109 0.000042 0.000000
0.000029 -0.000131 0.000049 0.000000
0.000018 -0.000108 0.000058 0.000000
0.000036 -0.000120 0.000085 0.000000
0.000099 -0.000168 0.000233 0.000000
0.000074 -0.000145 0.000130 0.000000
0.000073 -0.000139 0.000186 0.000000
0.000082 -0.000150 0.000255 0.000000
0.000072 -0.000155 0.000194 0.000000
0.000067 -0.000126 0.000244 0.000000
0.000104 -0.000180 0.000220 0.000000
0.000097 -0.000156 0.000234 0.000000
0.000081 -0.000148 0.000250 0.000000
0.000040 -0.000087 0.000204 0.000000
0.000065 -0.000119 0.000237 0.000000
0.000076 -0.000156 0.000104 0.000000
0.000075 -0.000147 0.000103 0.000000
0.000093 -0.000162 0.000145 0.000000
0.000102 -0.000163 0.000219 0.000000
0.000089 -0.000150 0.000249 0.000000
0.000090 -0.000157 0.000241 0.000000
0.000100 -0.000172 0.000145 0.000000
0.000068 -0.000138 0.000135 0.000000
0.000081 -0.000138 0.000220 0.000000
0.000062 -0.000115 0.000237 0.000000
0.000061 -0.000118 0.000228 0.000000
0.000030 -0.000105 0.000240 0.000000
0.000014 -0.000095 0.000260 0.000000
0.000001 -0.000065 0.000121 0.000000
0.000147 -0.000216 0.000181 0.000000
0.000007 -0.000641 0.000686 0.000000
0.000011 -0.000048 0.000206 0.000000
0.000014 -0.000060 0.000153 0.000000
0.000142 -0.000215 0.000236 0.000000
0.000222 -0.000262 0.000294 0.000000
-0.000024 -0.000678 0.000602 0.000000
0.000129 -0.000771 0.000539 0.000000
0.000179 -0.000830 0.000514 0.000000
0.000228 -0.000344 0.000296 0.000000
0.000206 -0.000283 0.000253 0.000000
0.000074 -0.000823 0.000429 0.000000
0.000098 -0.000881 0.000380 0.000000
0.000086 -0.000169 0.000089 0.000000
0.000033 -0.000747 0.000506 0.000000
0.000113 -0.000174 0.000103 0.000000
-0.000059 -0.000528 0.000789 0.000000
-0.000040 -0.000595 0.000880 0.000000
0.000067 -0.000836 0.000324 0.000000
0.000118 -0.000175 0.000100 0.000000
0.000198 -0.000739 0.001039 0.000000
0.000075 -0.000659 0.001089 0.000000
0.000058 -0.000874 0.000421 0.000000
0.000021 -0.000516 0.000739 0.000000
0.000317 -0.000435 0.000369 0.000000
0.000127 -0.000882 0.000356 0.000000
-0.000099 -0.000568 0.000666 0.000000
-0.000070 -0.000482 0.000629 0.000000
0.000110 -0.000601 0.000998 0.000000
-0.000087 -0.000518 0.000619 0.000000
-0.000152 -0.000446 0.000437 0.000000
-0.000146 -0.000403 0.000388 0.000000
-0.000098 -0.000482 0.000615 0.000000
-0.000145 -0.000440 0.000465 0.000000
-0.000222 -0.000356 0.000442 0.000000
-0.000165 -0.000412 0.000412 0.000000
-0.000211 -0.000434 0.000441 0.000000
-0.000129 -0.000477 0.000524 0.000000
-0.000142 -0.000518 0.000535 0.000000
-0.000072 -0.000625 0.000813 0.000000
-0.000142 -0.000515 0.000505 0.000000
-0.000062 -0.000563 0.000818 0.000000
-0.000124 -0.000517 0.000554 0.000000
-0.000137 -0.000574 0.000606 0.000000
-0.000080 -0.000529 0.000748 0.000000
-0.000099 -0.000553 0.000665 0.000000
-0.000137 -0.000562 0.000603 0.000000
-0.000164 -0.000567 0.000577 0.000000
0.000021 -0.000754 0.001090 0.000000
-0.000114 -0.000586 0.000769 0.000000
-0.000258 -0.000470 0.000619 0.000000
-0.000286 -0.000496 0.000564 0.000000
-0.000185 -0.000526 0.000513 0.000000
-0.000222 -0.000492 0.000511 0.000000
-0.000199 -0.000476 0.000505 0.000000
-0.000208 -0.000525 0.000508 0.000000
-0.000187 -0.000483 0.000449 0.000000
-0.000161 -0.000547 0.000514 0.000000
-0.000156 -0.000505 0.000473 0.000000
-0.000138 -0.000540 0.000525 0.000000
0.000039 -0.000141 0.000063 0.000000
0.000079 -0.000164 0.000143 0.000000
0.000118 -0.000201 0.000182 0.000000
-0.000331 -0.000353 0.000444 0.000000
0.000096 -0.000195 0.000159 0.000000
0.000062 -0.000147 0.000107 0.000000
0.000090 -0.000186 0.000165 0.000000
0.000055 -0.000171 0.000207 0.000000
0.000027 -0.000126 0.000038 0.000000
0.000120 -0.000216 0.000160 0.000000
0.000104 -0.000200 0.000122 0.000000
0.000083 -0.000174 0.000111 0.000000
0.000051 -0.000131 0.000085 0.000000
0.000078 -0.000167 0.000150 0.000000
0.000047 -0.000152 0.000076 0.000000
0.000065 -0.000169 0.000090 0.000000
0.000057 -0.000157 0.000089 0.000000
0.000073 -0.000176 0.000121 0.000000
0.000063 -0.000142 0.000049 0.000000
0.000073 -0.000169 0.000075 0.000000
0.000064 -0.000174 0.000101 0.000000
0.000027 -0.000120 0.000052 0.000000
0.000134 -0.000191 0.000100 0.000000
0.000114 -0.000218 0.000145 0.000000
0.000152 -0.000216 0.000201 0.000000
-0.000281 -0.000224 0.000269 0.000000
-0.000148 -0.000306 0.000081 0.000000
0.000151 -0.000252 0.000121 0.000000
-0.000233 -0.000285 0.000208 0.000000
-0.000192 -0.000418 0.000376 0.000000
0.000094 -0.000158 0.000059 0.000000
0.000066 -0.000140 0.000073 0.000000
0.000084 -0.000189 0.000099 0.000000
0.000110 -0.000172 0.000127 0.000000
0.000209 -0.000255 0.000125 0.000000
0.000134 -0.000241 0.000142 0.000000
0.000059 -0.000157 0.000061 0.000000
0.000052 -0.000152 0.000071 0.000000
0.000058 -0.000143 0.000058 0.000000
0.000033 -0.000123 0.000041 0.000000
0.000023 -0.000123 0.000050 0.000000
0.000043 -0.000141 0.000048 0.000000
0.000040 -0.000134 0.000069 0.000000
0.000045 -0.000126 0.000044 0.000000
0.000050 -0.000156 0.000056 0.000000
0.000030 -0.000122 0.000043 0.000000
0.000032 -0.000126 0.000039 0.000000
0.000052 -0.000142 0.000064 0.000000
0.000057 -0.000147 0.000054 0.000000
0.000062 -0.000156 0.000063 0.000000
0.000062 -0.000154 0.000060 0.000000
0.000043 -0.000132 0.000048 0.000000
0.000065 -0.000150 0.000051 0.000000
0.000061 -0.000151 0.000057 0.000000
0.000061 -0.000152 0.000056 0.000000
0.000059 -0.000148 0.000050 0.000000
0.000085 -0.000189 0.000107 0.000000
0.000076 -0.000175 0.000103 0.000000
0.000093 -0.000198 0.000105 0.000000
0.000074 -0.000157 0.000093 0.000000
0.000092 -0.000182 0.000093 0.000000
0.000092 -0.000192 0.000087 0.000000
0.000065 -0.000154 0.000064 0.000000
0.000077 -0.000180 0.000092 0.000000
0.000064 -0.000162 0.000067 0.000000
0.000079 -0.000170 0.000078 0.000000
0.000062 -0.000150 0.000057 0.000000
0.000068 -0.000169 0.000079 0.000000
0.000062 -0.000175 0.000062 0.000000
0.000048 -0.000140 0.000052 0.000000
0.000082 -0.000188 0.000090 0.000000
0.000087 -0.000194 0.000084 0.000000
0.000066 -0.000170 0.000071 0.000000
0.000084 -0.000182 0.000083 0.000000
0.000093 -0.000198 0.000098 0.000000
0.000081 -0.000177 0.000081 0.000000
0.000101 -0.000207 0.000087 0.000000
0.000077 -0.000196 0.000066 0.000000
0.000125 -0.000233 0.000114 0.000000
0.000107 -0.000207 0.000092 0.000000
0.000118 -0.000228 0.000090 0.000000
0.000100 -0.000205 0.000089 0.000000
0.000092 -0.000194 0.000088 0.000000
0.000095 -0.000198 0.000080 0.000000
0.000077 -0.000182 0.000083 0.000000
0.000094 -0.000205 0.000085 0.000000
0.000074 -0.000173 0.000076 0.000000
0.000029 -0.000128 0.000046 0.000000
0.000078 -0.000190 0.000061 0.000000
0.000066 -0.000170 0.000103 0.000000
0.000050 -0.000152 0.000057 0.000000
0.000041 -0.000152 0.000053 0.000000
0.000039 -0.000137 0.000045 0.000000
0.000051 -0.000143 0.000090 0.000000
0.000029 -0.000132 0.000052 0.000000
0.000029 -0.000125 0.000040 0.000000
0.000029 -0.000131 0.000051 0.000000
0.000023 -0.000116 0.000041 0.000000
0.000031 -0.000136 0.000042 0.000000
0.000028 -0.000146 0.000056 0.000000
0.000034 -0.000133 0.000050 0.000000
0.000025 -0.000123 0.000045 0.000000
0.000036 -0.000123 0.000070 0.000000
0.000031 -0.000129 0.000060 0.000000
0.000053 -0.000149 0.000067 0.000000
0.000082 -0.000189 0.000120 0.000000
0.000040 -0.000143 0.000063 0.000000
0.000042 -0.000156 0.000054 0.000000
0.000035 -0.000140 0.000066 0.000000
0.000032 -0.000140 0.000061 0.000000
0.000060 -0.000159 0.000088 0.000000
0.000040 -0.000150 0.000080 0.000000
0.000033 -0.000147 0.000050 0.000000
0.000052 -0.000172 0.000053 0.000000
0.000060 -0.000173 0.000126 0.000000
0.000030 -0.000141 0.000065 0.000000
0.000040 -0.000151 0.000080 0.000000
0.000082 -0.000193 0.000111 0.000000
0.000091 -0.000190 0.000126 0.000000
0.000065 -0.000178 0.000118 0.000000
0.000123 -0.000243 0.000221 0.000000
0.000096 -0.000212 0.000160 0.000000
0.000131 -0.000232 0.000177 0.000000
0.000097 -0.000202 0.000147 0.000000
0.000084 -0.000203 0.000169 0.000000
0.000139 -0.000246 0.000201 0.000000
0.000138 -0.000264 0.000257 0.000000
0.000165 -0.000270 0.000204 0.000000
0.000081 -0.000215 0.000131 0.000000
0.000140 -0.000255 0.000211 0.000000
0.000088 -0.000214 0.000156 0.000000
0.000122 -0.000244 0.000235 0.000000
0.000088 -0.000206 0.000156 0.000000
0.000034 -0.000153 0.000053 0.000000
0.000027 -0.000142 0.000068 0.000000
0.000060 -0.000177 0.000119 0.000000
0.000060 -0.000180 0.000123 0.000000
0.000084 -0.000198 0.000168 0.000000
0.000033 -0.000152 0.000067 0.000000
0.000131 -0.000267 0.000096 0.000000
0.000051 -0.000166 0.000082 0.000000
0.000053 -0.000173 0.000032 0.000000
0.000056 -0.000170 0.000049 0.000000
0.000200 -0.000356 0.000150 0.000000
0.000089 -0.000227 0.000123 0.000000
0.000091 -0.000223 0.000073 0.000000
0.000275 -0.000379 0.000068 0.000000
0.000371 -0.000541 0.000365 0.000000
0.000215 -0.000311 0.000087 0.000000
0.000322 -0.000400 0.000141 0.000000
0.000094 -0.000213 0.000014 0.000000
0.000203 -0.000297 0.000074 0.000000
0.000053 -0.000175 0.000058 0.000000
0.000092 -0.000198 0.000067 0.000000
0.000168 -0.000312 0.000115 0.000000
0.000113 -0.000255 0.000117 0.000000
0.000204 -0.000337 0.000174 0.000000
0.000193 -0.000283 0.000097 0.000000
0.000133 -0.000238 0.000059 0.000000
0.000117 -0.000219 0.000087 0.000000
0.000093 -0.000219 0.000072 0.000000
0.000100 -0.000218 0.000074 0.000000
0.000038 -0.000156 0.000092 0.000000
0.000038 -0.000154 0.000085 0.000000
0.000037 -0.000152 0.000061 0.000000
0.000076 -0.000188 0.000077 0.000000
0.000039 -0.000161 0.000045 0.000000
0.000044 -0.000151 0.000061 0.000000
0.000143 -0.000254 0.000128 0.000000
0.000141 -0.000245 0.000087 0.000000
0.000136 -0.000245 0.000095 0.000000
0.000109 -0.000219 0.000090 0.000000
0.000066 -0.000169 0.000073 0.000000
0.000087 -0.000188 0.000081 0.000000
0.000195 -0.000321 0.000201 0.000000
0.000180 -0.000309 0.000273 0.000000
0.000206 -0.000315 0.000161 0.000000
0.000110 -0.000216 0.000107 0.000000
0.000352 -0.000470 0.000378 0.000000
0.000187 -0.000290 0.000198 0.000000
0.000354 -0.000473 0.000393 0.000000
0.000212 -0.000336 0.000253 0.000000
0.000357 -0.000457 0.000315 0.000000
0.000322 -0.000446 0.000370 0.000000
0.000288 -0.000420 0.000361 0.000000
0.000344 -0.000450 0.000394 0.000000
0.001028 -0.002159 -0.000042 0.000000
0.000335 -0.000439 0.000320 0.000000
0.000220 -0.000311 0.000109 0.000000
0.000219 -0.000350 0.000244 0.000000
0.001127 -0.002332 0.000424 0.000000
0.000233 -0.000356 0.000219 0.000000
0.000240 -0.000347 0.000203 0.000000
0.000352 -0.000468 0.000373 0.000000
0.000352 -0.000491 0.000430 0.000000
0.001404 -0.002351 0.000412 0.000000
0.000417 -0.000489 0.000463 0.000000
0.000410 -0.000560 0.000527 0.000000
0.001002 -0.002284 0.000220 0.000000
0.000255 -0.001486 0.000086 0.000000
0.001181 -0.002273 0.000111 0.000000
0.000338 -0.000474 0.000380 0.000000
0.000989 -0.002187 0.000073 0.000000
0.000886 -0.002068 -0.000092 0.000000
0.001052 -0.002183 0.000009 0.000000
0.000352 -0.000473 0.000400 0.000000
0.000339 -0.000467 0.000426 0.000000
0.000356 -0.000467 0.000410 0.000000
0.000267 -0.001433 0.000175 0.000000
0.000345 -0.001345 0.000108 0.000000
0.000265 -0.001481 0.000068 0.000000
0.001017 -0.002078 -0.000017 0.000000
0.000261 -0.001448 0.000041 0.000000
0.001011 -0.002169 0.000032 0.000000
0.000091 -0.001417 -0.000024 0.000000
0.000586 -0.001758 -0.000070 0.000000
0.000544 -0.000675 0.000295 0.000000
0.000344 -0.000437 -0.000117 0.000000
0.000417 -0.001586 -0.000151 0.000000
0.000359 -0.001536 0.000061 0.000000
0.000352 -0.001399 0.000036 0.000000
0.000562 -0.000694 0.000270 0.000000
0.000279 -0.001419 0.000144 0.000000
0.000599 -0.000709 0.000504 0.000000
0.000574 -0.001751 -0.000106 0.000000
0.000476 -0.001434 -0.000214 0.000000
0.000239 -0.001243 0.000002 0.000000
0.000395 -0.001547 0.000046 0.000000
0.000358 -0.001501 0.000039 0.000000
0.000318 -0.001484 0.000229 0.000000
0.000453 -0.001690 0.000022 0.000000
0.000578 -0.001691 -0.000001 0.000000
0.000521 -0.001571 -0.000179 0.000000
0.000279 -0.000350 0.000323 0.000000
0.000956 -0.001752 -0.000476 0.000000
0.000264 -0.000405 0.000400 0.000000
0.000223 -0.001209 -0.000089 0.000000
0.000462 -0.001596 0.000061 0.000000
0.000185 -0.001250 0.000045 0.000000
0.000575 -0.001380 -0.000437 0.000000
0.000745 -0.001531 -0.000414 0.000000
0.000227 -0.001341 0.000145 0.000000
0.000437 -0.001183 -0.000378 0.000000
0.000212 -0.001131 0.000062 0.000000
0.000241 -0.001267 -0.000061 0.000000
0.000199 -0.000339 0.000401 0.000000
0.000127 -0.000760 -0.000307 0.000000
0.000079 -0.001081 -0.000016 0.000000
0.000196 -0.000273 0.000254 0.000000
0.000210 -0.000278 0.000321 0.000000
0.000258 -0.000335 0.000367 0.000000
0.000150 -0.000239 0.000208 0.000000
0.000234 -0.000309 0.000291 0.000000
0.000186 -0.000283 0.000238 0.000000
0.000299 -0.000377 0.000404 0.000000
0.000186 -0.000317 0.000329 0.000000
0.000288 -0.000427 0.000479 0.000000
0.000340 -0.000423 0.000449 0.000000
0.000206 -0.000326 0.000274 0.000000
0.000183 -0.000268 0.000234 0.000000
0.000204 -0.000309 0.000270 0.000000
0.000200 -0.000303 0.000183 0.000000
0.000182 -0.000305 0.000214 0.000000
0.000145 -0.000254 0.000123 0.000000
0.000142 -0.000256 0.000144 0.000000
0.000126 -0.000230 0.000110 0.000000
0.000141 -0.000241 0.000146 0.000000
0.000143 -0.000248 0.000137 0.000000
0.000118 -0.000225 0.000117 0.000000
0.000126 -0.000232 0.000125 0.000000
0.000159 -0.000278 0.000230 0.000000
0.000155 -0.000251 0.000163 0.000000
0.000145 -0.000265 0.000199 0.000000
0.000125 -0.000230 0.000133 0.000000
0.000173 -0.000287 0.000226 0.000000
0.000139 -0.000249 0.000154 0.000000
0.000121 -0.000208 0.000143 0.000000
0.000128 -0.000227 0.000135 0.000000
0.000124 -0.000227 0.000132 0.000000
0.000105 -0.000210 0.000115 0.000000
0.000104 -0.000193 0.000106 0.000000
0.000107 -0.000209 0.000132 0.000000
0.000118 -0.000214 0.000114 0.000000
0.000121 -0.000219 0.000106 0.000000
0.000078 -0.000173 0.000150 0.000000
0.000115 -0.000203 0.000118 0.000000
0.000127 -0.000220 0.000138 0.000000
0.000122 -0.000217 0.000126 0.000000
0.000140 -0.000230 0.000147 0.000000
0.000134 -0.000246 0.000187 0.000000
0.000127 -0.000224 0.000139 0.000000
0.000127 -0.000223 0.000128 0.000000
0.000121 -0.000215 0.000147 0.000000
0.000131 -0.000225 0.000144 0.000000
0.000136 -0.000224 0.000147 0.000000
0.000124 -0.000226 0.000149 0.000000
0.000131 -0.000218 0.000129 0.000000
0.000130 -0.000227 0.000151 0.000000
0.000149 -0.000245 0.000180 0.000000
0.000131 -0.000234 0.000140 0.000000
0.000132 -0.000226 0.000134 0.000000
0.000128 -0.000230 0.000156 0.000000
0.000102 -0.000194 0.000121 0.000000
0.000066 -0.000155 0.000117 0.000000
0.000125 -0.000213 0.000170 0.000000
0.000153 -0.000229 0.000199 0.000000
0.000026 -0.000130 0.000125 0.000000
0.000084 -0.000161 0.000089 0.000000
0.000096 -0.000194 0.000122 0.000000
0.000098 -0.000167 0.000212 0.000000
0.000136 -0.000230 0.000138 0.000000
0.000119 -0.000202 0.000106 0.000000
0.000031 -0.000124 0.000062 0.000000
-0.000139 -0.000683 0.000689 0.000000
0.000055 -0.000161 0.000082 0.000000
0.000061 -0.000138 0.000048 0.000000
0.000113 -0.000938 0.000660 0.000000
0.000063 -0.000166 0.000045 0.000000
0.000126 -0.000205 0.000113 0.000000
0.000114 -0.000188 0.000086 0.000000
0.000240 -0.000973 0.000827 0.000000
0.000079 -0.000154 0.000121 0.000000
0.000099 -0.000200 0.000038 0.000000
0.000124 -0.000215 0.000100 0.000000
-0.000075 -0.000645 0.000270 0.000000
-0.000128 -0.000562 0.000276 0.000000
0.000188 -0.000901 0.000781 0.000000
0.000088 -0.000193 0.000034 0.000000
-0.000022 -0.000663 0.000444 0.000000
0.000326 -0.001090 0.000737 0.000000
0.000170 -0.001036 0.000662 0.000000
0.000229 -0.001031 0.000989 0.000000
-0.000061 -0.000777 0.000132 0.000000
0.000224 -0.000992 0.000874 0.000000
-0.000052 -0.000721 0.000329 0.000000
0.000237 -0.001031 0.000794 0.000000
0.000259 -0.000938 0.000825 0.000000
-0.000022 -0.000729 0.000354 0.000000
0.000173 -0.000239 0.000081 0.000000
0.000178 -0.000856 0.000818 0.000000
0.000086 -0.000925 0.000607 0.000000
0.000091 -0.000753 0.000667 0.000000
0.000402 -0.001037 0.000865 0.000000
0.000238 -0.001039 0.000918 0.000000
0.000405 -0.001235 0.000843 0.000000
0.000104 -0.000177 0.000089 0.000000
0.000060 -0.000147 0.000120 0.000000
0.000117 -0.000199 0.000131 0.000000
0.000075 -0.000147 0.000109 0.000000
0.000116 -0.000201 0.000113 0.000000
0.000085 -0.000745 0.000370 0.000000
0.000082 -0.000825 0.000474 0.000000
0.000090 -0.000758 0.000411 0.000000
0.000079 -0.000792 0.000390 0.000000
0.000088 -0.000780 0.000415 0.000000
0.000083 -0.000757 0.000418 0.000000
0.000070 -0.000757 0.000401 0.000000
0.000076 -0.000809 0.000452 0.000000
0.000067 -0.000140 0.000104 0.000000
0.000074 -0.000800 0.000464 0.000000
0.000092 -0.000793 0.000445 0.000000
0.000090 -0.000798 0.000460 0.000000
0.000096 -0.000171 0.000146 0.000000
0.000055 -0.000137 0.000104 0.000000
0.000065 -0.000143 0.000093 0.000000
0.000059 -0.000136 0.000101 0.000000
0.000096 -0.000189 0.000168 0.000000
0.000068 -0.000160 0.000145 0.000000
0.000106 -0.000200 0.000165 0.000000
0.000079 -0.000155 0.000129 0.000000
0.000138 -0.000228 0.000132 0.000000
0.000137 -0.000218 0.000127 0.000000
0.000131 -0.000213 0.000141 0.000000
0.000136 -0.000223 0.000150 0.000000
0.000105 -0.000185 0.000142 0.000000
0.000136 -0.000220 0.000153 0.000000
0.000107 -0.000183 0.000151 0.000000
0.000105 -0.000198 0.000141 0.000000
0.000103 -0.000189 0.000118 0.000000
0.000079 -0.000177 0.000136 0.000000
0.000067 -0.000162 0.000106 0.000000
0.000086 -0.000183 0.000121 0.000000
0.000075 -0.000163 0.000076 0.000000
0.000058 -0.000139 0.000074 0.000000
0.000054 -0.000136 0.000074 0.000000
0.000060 -0.000154 0.000111 0.000000
0.000051 -0.000143 0.000085 0.000000
0.000084 -0.000780 0.000395 0.000000
0.000084 -0.000155 0.000043 0.000000
0.000050 -0.000130 0.000069 0.000000
0.000054 -0.000142 0.000066 0.000000
0.000100 -0.000794 0.000374 0.000000
0.000069 -0.000168 0.000088 0.000000
0.000054 -0.000135 0.000060 0.000000
0.000065 -0.000151 0.000063 0.000000
0.000068 -0.000153 0.000077 0.000000
0.000079 -0.000162 0.000055 0.000000
0.000060 -0.000153 0.000071 0.000000
0.000063 -0.000156 0.000059 0.000000
0.000064 -0.000152 0.000061 0.000000
0.000084 -0.000167 0.000061 0.000000
0.000070 -0.000157 0.000058 0.000000
0.000086 -0.000161 0.000049 0.000000
0.000081 -0.000158 0.000053 0.000000
0.000183 -0.000799 0.000174 0.000000
0.000067 -0.000143 0.000049 0.000000
0.000220 -0.000873 0.000253 0.000000
0.000092 -0.000165 0.000051 0.000000
0.000059 -0.000142 0.000063 0.000000
0.000064 -0.000149 0.000058 0.000000
0.000086 -0.000166 0.000058 0.000000
0.000067 -0.000147 0.000059 0.000000
0.000064 -0.000147 0.000055 0.000000
0.000077 -0.000156 0.000049 0.000000
0.000095 -0.000174 0.000065 0.000000
0.000172 -0.000815 0.000269 0.000000
0.000099 -0.000169 0.000056 0.000000
0.000121 -0.000599 0.000016 0.000000
0.000119 -0.000183 0.000045 0.000000
0.000206 -0.000871 0.000283 0.000000
0.000197 -0.000793 0.000152 0.000000
0.000207 -0.000876 0.000268 0.000000
0.000100 -0.000655 0.000232 0.000000
0.000117 -0.000830 0.000382 0.000000
0.000152 -0.000722 0.000120 0.000000
0.000170 -0.000806 0.000227 0.000000
0.000140 -0.000739 0.000247 0.000000
0.000104 -0.000745 0.000354 0.000000
0.000135 -0.000778 0.000332 0.000000
0.000205 -0.000884 0.000298 0.000000
0.000103 -0.000749 0.000359 0.000000
0.000141 -0.000734 0.000351 0.000000
0.000104 -0.000795 0.000372 0.000000
0.000133 -0.000720 0.000292 0.000000
0.000056 -0.000135 0.000061 0.000000
0.000076 -0.000145 0.000050 0.000000
0.000137 -0.000814 0.000346 0.000000
0.000137 -0.000773 0.000325 0.000000
0.000054 -0.000134 0.000084 0.000000
0.000066 -0.000141 0.000087 0.000000
0.000054 -0.000131 0.000068 0.000000
0.000052 -0.000135 0.000087 0.000000
0.000098 -0.000757 0.000397 0.000000
0.000230 -0.000849 0.000350 0.000000
0.000068 -0.000139 0.000060 0.000000
0.000092 -0.000782 0.000393 0.000000
0.000102 -0.000694 0.000337 0.000000
0.000108 -0.000722 0.000366 0.000000
0.000125 -0.000720 0.000349 0.000000
0.000113 -0.000690 0.000317 0.000000
0.000177 -0.000666 0.000205 0.000000
0.000142 -0.000688 0.000290 0.000000
0.000230 -0.000722 0.000224 0.000000
0.000129 -0.000672 0.000244 0.000000
0.000160 -0.000616 0.000226 0.000000
0.000187 -0.000677 0.000240 0.000000
0.000095 -0.000599 0.000197 0.000000
0.000168 -0.000659 0.000242 0.000000
-0.000021 -0.000428 0.000314 0.000000
0.000125 -0.000605 0.000258 0.000000
0.000164 -0.000702 0.000298 0.000000
0.000172 -0.000675 0.000264 0.000000
0.000163 -0.000721 0.000206 0.000000
0.000118 -0.000649 0.000256 0.000000
0.000152 -0.000712 0.000154 0.000000
0.000083 -0.000650 0.000178 0.000000
0.000122 -0.000720 0.000189 0.000000
0.000020 -0.000428 -0.000041 0.000000
0.000115 -0.000651 0.000056 0.000000
0.000121 -0.000628 0.000121 0.000000
0.000148 -0.000672 0.000034 0.000000
0.000065 -0.000611 0.000095 0.000000
0.000122 -0.000625 -0.000003 0.000000
-0.000102 -0.000151 -0.000089 0.000000
0.000160 -0.000548 -0.000119 0.000000
0.000044 -0.000104 0.000035 0.000000
0.000124 -0.000647 0.000201 0.000000
0.000053 -0.000541 0.000111 0.000000
-0.000061 -0.000297 0.000081 0.000000
0.000020 -0.000472 0.000126 0.000000
0.000076 -0.000545 0.000043 0.000000
-0.000010 -0.000419 0.000134 0.000000
-0.000113 -0.000296 0.000014 0.000000
0.000015 -0.000494 0.000461 0.000000
-0.000059 -0.000359 0.000118 0.000000
-0.000018 -0.000344 0.000249 0.000000
-0.000148 -0.000135 0.000070 0.000000
-0.000086 -0.000286 0.000166 0.000000
-0.000149 -0.000115 0.000165 0.000000
-0.000107 -0.000194 0.000182 0.000000
0.000001 -0.000042 0.000021 0.000000
0.000055 -0.000117 0.000079 0.000000
0.000048 -0.000077 0.000041 0.000000
0.000047 -0.000073 0.000071 0.000000
-0.000093 -0.000230 0.000131 0.000000
0.000053 -0.000121 0.000056 0.000000
-0.000117 -0.000182 0.000253 0.000000
-0.000135 -0.000192 0.000197 0.000000
0.000215 -0.000641 0.000208 0.000000
-0.000059 -0.000344 0.000236 0.000000
0.000118 -0.000540 0.000204 0.000000
-0.000072 -0.000284 0.000192 0.000000
0.000185 -0.000658 0.000242 0.000000
0.000049 -0.000525 0.000216 0.000000
0.000102 -0.000526 0.000215 0.000000
-0.000032 -0.000362 0.000175 0.000000
0.000181 -0.000240 0.000060 0.000000
0.000257 -0.000816 0.000432 0.000000
0.000172 -0.000596 0.000192 0.000000
0.000125 -0.000580 0.000239 0.000000
0.000160 -0.000524 0.000222 0.000000
0.000094 -0.000495 0.000198 0.000000
0.000049 -0.000110 0.000015 0.000000
0.000094 -0.000488 0.000221 0.000000
0.000223 -0.000696 0.000252 0.000000
0.000166 -0.000613 0.000177 0.000000
0.000115 -0.000174 -0.000040 0.000000
0.000178 -0.000226 0.000067 0.000000
0.000146 -0.000548 0.000260 0.000000
0.000124 -0.000500 0.000185 0.000000
0.000116 -0.000143 -0.000077 0.000000
0.000221 -0.000271 -0.000022 0.000000
0.000209 -0.000255 -0.000032 0.000000
0.000262 -0.000654 -0.000077 0.000000
0.000192 -0.000248 0.000029 0.000000
0.000251 -0.000720 0.000201 0.000000
0.000198 -0.000252 0.000066 0.000000
0.000227 -0.000727 0.000372 0.000000
0.000192 -0.000642 0.000051 0.000000
0.000255 -0.000639 -0.000068 0.000000
0.000267 -0.000681 0.000272 0.000000
0.000163 -0.000211 0.000058 0.000000
0.000254 -0.000666 0.000463 0.000000
0.000184 -0.000237 0.000095 0.000000
0.000181 -0.000231 0.000106 0.000000
0.000317 -0.000900 0.000573 0.000000
0.000105 -0.000717 0.000352 0.000000
0.000112 -0.000677 0.000325 0.000000
0.000093 -0.000732 0.000359 0.000000
0.000124 -0.000722 0.000341 0.000000
0.000289 -0.000919 0.000632 0.000000
0.000326 -0.000967 0.000667 0.000000
0.000315 -0.000893 0.000515 0.000000
0.000315 -0.001030 0.000544 0.000000
0.000198 -0.000255 0.000065 0.000000
0.000282 -0.000944 0.000440 0.000000
0.000311 -0.000798 0.000531 0.000000
0.000179 -0.000236 0.000074 0.000000
0.000322 -0.000883 0.000590 0.000000
0.000324 -0.000934 0.000606 0.000000
0.000137 -0.000205 0.000068 0.000000
0.000121 -0.000178 0.000060 0.000000
0.000177 -0.000249 0.000078 0.000000
0.000151 -0.000224 0.000093 0.000000
0.000214 -0.000920 0.000694 0.000000
0.000088 -0.000179 0.000079 0.000000
0.000296 -0.000937 0.000661 0.000000
0.000168 -0.000229 0.000075 0.000000
0.000134 -0.000217 0.000098 0.000000
0.000050 -0.000148 0.000052 0.000000
0.000021 -0.000117 0.000044 0.000000
-0.000022 -0.000760 0.000361 0.000000
0.000088 -0.000154 0.000076 0.000000
0.000163 -0.000217 0.000075 0.000000
0.000164 -0.000237 0.000084 0.000000
0.000196 -0.000252 0.000064 0.000000
0.000085 -0.000160 0.000102 0.000000
0.000131 -0.000186 0.000090 0.000000
0.000201 -0.000264 0.000050 0.000000
0.000187 -0.000255 0.000071 0.000000
0.000215 -0.000277 0.000037 0.000000
0.000196 -0.000262 0.000058 0.000000
0.000211 -0.000267 0.000045 0.000000
0.000201 -0.000255 -0.000031 0.000000
0.000194 -0.000250 0.000027 0.000000
0.000207 -0.000266 0.000035 0.000000
0.000347 -0.000818 -0.000175 0.000000
0.000370 -0.000770 -0.000228 0.000000
0.000196 -0.000250 0.000027 0.000000
0.000186 -0.000231 0.000023 0.000000
0.000230 -0.000284 0.000053 0.000000
0.000220 -0.000281 0.000033 0.000000
0.000214 -0.000271 0.000002 0.000000
0.000228 -0.000283 0.000021 0.000000
0.000214 -0.000270 -0.000006 0.000000
0.000220 -0.000270 -0.000009 0.000000
0.000181 -0.000236 -0.000028 0.000000
0.000325 -0.000679 -0.000342 0.000000
0.000351 -0.000762 -0.000327 0.000000
0.000363 -0.000792 -0.000223 0.000000
0.000220 -0.000272 -0.000047 0.000000
0.000111 -0.000313 -0.000302 0.000000
0.000206 -0.000250 -0.000058 0.000000
0.000072 -0.000094 -0.000004 0.000000
0.000203 -0.000235 -0.000063 0.000000
0.000164 -0.000212 -0.000034 0.000000
0.000190 -0.000212 -0.000056 0.000000
0.000096 -0.000145 -0.000025 0.000000
0.000308 -0.000768 -0.000176 0.000000
0.000202 -0.000250 -0.000025 0.000000
0.000329 -0.000785 -0.000173 0.000000
0.000167 -0.000215 -0.000032 0.000000
0.000126 -0.000152 -0.000069 0.000000
0.000404 -0.000827 -0.000191 0.000000
0.000069 -0.000083 -0.000065 0.000000
0.000165 -0.000188 -0.000049 0.000000
0.000112 -0.000146 -0.000079 0.000000
0.000166 -0.000224 -0.000053 0.000000
0.000149 -0.000566 0.000077 0.000000
0.000168 -0.000187 -0.000087 0.000000
0.000056 -0.000118 -0.000022 0.000000
0.000138 -0.000189 -0.000034 0.000000
0.000003 -0.000043 0.000011 0.000000
0.000122 -0.000145 -0.000031 0.000000
0.000137 -0.000162 -0.000046 0.000000
0.000189 -0.000236 -0.000052 0.000000
0.000029 -0.000052 0.000020 0.000000
0.000107 -0.000150 -0.000011 0.000000
0.000045 -0.000071 -0.000033 0.000000
0.000050 -0.000086 -0.000013 0.000000
0.000070 -0.000102 0.000013 0.000000
0.000076 -0.000113 0.000035 0.000000
0.000049 -0.000092 -0.000003 0.000000
0.000002 -0.000034 0.000017 0.000000
0.000017 -0.000042 0.000003 0.000000
0.000002 -0.000035 0.000010 0.000000
0.000001 -0.000035 0.000012 0.000000
-0.000001 -0.000025 0.000011 0.000000
0.000000 -0.000027 0.000012 0.000000
0.000018 -0.000082 0.000046 0.000000
-0.000002 -0.000028 0.000010 0.000000
0.000001 -0.000027 0.000011 0.000000
0.000031 -0.000077 0.000031 0.000000
0.000013 -0.000046 0.000026 0.000000
0.000002 -0.000032 0.000011 0.000000
0.000001 -0.000019 0.000006 0.000000
0.000082 -0.000093 0.000009 0.000000
0.000108 -0.000114 -0.000031 0.000000
0.000130 -0.000143 -0.000031 0.000000
0.000071 -0.000083 0.000002 0.000000
0.000130 -0.000172 -0.000011 0.000000
0.000233 -0.000242 -0.000086 0.000000
0.000116 -0.000166 -0.000008 0.000000
0.000077 -0.000116 0.000030 0.000000
0.000051 -0.000399 -0.000025 0.000000
0.000165 -0.000179 -0.000061 0.000000
0.000192 -0.000199 -0.000069 0.000000
0.000145 -0.000191 -0.000012 0.000000
0.000025 -0.000293 -0.000020 0.000000
0.000187 -0.000236 -0.000040 0.000000
0.000040 -0.000250 0.000018 0.000000
0.000169 -0.000210 -0.000053 0.000000
0.000099 -0.000131 0.000003 0.000000
0.000135 -0.000143 -0.000052 0.000000
0.000046 -0.000215 0.000058 0.000000
0.000124 -0.000163 -0.000020 0.000000
0.000037 -0.000150 0.000107 0.000000
0.000051 -0.000088 0.000054 0.000000
0.000079 -0.000087 0.000022 0.000000
0.000055 -0.000213 0.000114 0.000000
0.000055 -0.000067 0.000035 0.000000
0.000068 -0.000091 0.000011 0.000000
0.000036 -0.000050 0.000039 0.000000
0.000001 -0.000024 0.000010 0.000000
0.000027 -0.000048 0.000040 0.000000
0.000017 -0.000075 0.000064 0.000000
0.000055 -0.000230 0.000163 0.000000
0.000020 -0.000147 0.000147 0.000000
0.000042 -0.000155 0.000103 0.000000
0.000036 -0.000160 0.000132 0.000000
0.000010 -0.000116 0.000124 0.000000
0.000056 -0.000164 0.000147 0.000000
-0.000017 -0.000069 0.000105 0.000000
0.000027 -0.000120 0.000101 0.000000
-0.000050 0.000006 0.000036 0.000000
-0.000050 -0.000026 0.000072 0.000000
-0.000060 0.000012 0.000043 0.000000
-0.000043 0.000003 0.000069 0.000000
-0.000036 -0.000010 0.000069 0.000000
0.000007 -0.000081 0.000109 0.000000
0.000013 -0.000105 0.000112 0.000000
0.000024 -0.000105 0.000098 0.000000
-0.000011 -0.000055 0.000084 0.000000
0.000032 -0.000127 0.000090 0.000000
-0.000024 -0.000018 0.000069 0.000000
0.000051 -0.000192 0.000091 0.000000
0.000015 -0.000084 0.000073 0.000000
0.000031 -0.000119 0.000088 0.000000
0.000037 -0.000123 0.000066 0.000000
0.000012 -0.000076 0.000078 0.000000
-0.000015 -0.000023 0.000061 0.000000
0.000009 -0.000069 0.000080 0.000000
-0.000021 -0.000018 0.000072 0.000000
-0.000009 -0.000023 0.000053 0.000000
-0.000003 -0.000027 0.000038 0.000000
0.000049 -0.000201 0.000102 0.000000
0.000037 -0.000181 0.000056 0.000000
0.000005 -0.000026 0.000015 0.000000
0.000029 -0.000137 0.000061 0.000000
-0.000001 -0.000023 0.000023 0.000000
0.000043 -0.000194 0.000082 0.000000
0.000036 -0.000066 0.000056 0.000000
0.000034 -0.000154 0.000087 0.000000
0.000022 -0.000041 0.000014 0.000000
0.000053 -0.000201 0.000103 0.000000
0.000026 -0.000045 0.000037 0.000000
0.000037 -0.000137 0.000063 0.000000
0.000043 -0.000158 0.000083 0.000000
0.000036 -0.000070 0.000045 0.000000
0.000023 -0.000054 0.000041 0.000000
0.000013 -0.000032 0.000027 0.000000
0.000035 -0.000054 0.000046 0.000000
0.000006 -0.000035 0.000015 0.000000
0.000019 -0.000038 0.000027 0.000000
0.000007 -0.000024 0.000004 0.000000
0.000044 -0.000179 0.000066 0.000000
0.000002 -0.000025 0.000009 0.000000
0.000004 -0.000022 0.000011 0.000000
0.000001 -0.000022 0.000007 0.000000
-0.000000 -0.000025 0.000009 0.000000
0.000018 -0.000121 -0.000005 0.000000
-0.000001 -0.000016 0.000006 0.000000
-0.000000 -0.000090 0.000016 0.000000
-0.000023 -0.000076 -0.000014 0.000000
-0.000002 -0.000015 0.000007 0.000000
-0.000002 -0.000030 0.000010 0.000000
0.000032 -0.000141 0.000018 0.000000
0.000002 -0.000017 0.000003 0.000000
0.000012 -0.000130 0.000010 0.000000
-0.000038 -0.000004 0.000050 0.000000
0.000003 -0.000019 0.000004 0.000000
0.000020 -0.000141 0.000021 0.000000
-0.000000 -0.000017 0.000006 0.000000
0.000007 -0.000090 0.000016 0.000000
0.000015 -0.000102 0.000024 0.000000
0.000028 -0.000120 0.000047 0.000000
-0.000002 -0.000053 0.000019 0.000000
0.000029 -0.000161 0.000036 0.000000
0.000019 -0.000123 0.000034 0.000000
-0.000007 -0.000017 0.000017 0.000000
0.000008 -0.000102 0.000022 0.000000
0.000008 -0.000065 0.000028 0.000000
0.000004 -0.000066 0.000019 0.000000
-0.000006 -0.000053 0.000016 0.000000
-0.000003 -0.000018 0.000008 0.000000
-0.000016 -0.000045 0.000018 0.000000
-0.000014 -0.000013 0.000017 0.000000
-0.000016 -0.000040 0.000015 0.000000
-0.000009 -0.000046 0.000016 0.000000
-0.000021 -0.000009 0.000025 0.000000
-0.000009 -0.000081 0.000012 0.000000
0.000003 -0.000120 -0.000001 0.000000
-0.000029 -0.000006 0.000035 0.000000
-0.000019 -0.000070 0.000016 0.000000
0.000001 -0.000020 0.000006 0.000000
-0.000040 -0.000004 0.000053 0.000000
-0.000024 -0.000034 0.000020 0.000000
-0.000035 -0.000031 0.000043 0.000000
-0.000045 -0.000005 0.000068 0.000000
-0.000052 -0.000001 0.000078 0.000000
-0.000032 -0.000032 0.000040 0.000000
-0.000003 -0.000062 0.000120 0.000000
-0.000054 -0.000003 0.000101 0.000000
-0.000019 -0.000055 0.000086 0.000000
-0.000036 -0.000030 0.000071 0.000000
-0.000034 -0.000040 0.000074 0.000000
-0.000031 -0.000023 0.000095 0.000000
-0.000005 -0.000073 0.000001 0.000000
0.000002 -0.000017 -0.000001 0.000000
-0.000027 -0.000057 0.000040 0.000000
0.000010 -0.000107 -0.000020 0.000000
-0.000048 -0.000020 0.000038 0.000000
-0.000011 -0.000101 0.000001 0.000000
-0.000046 -0.000077 0.000041 0.000000
-0.000032 -0.000056 0.000047 0.000000
-0.000015 -0.000081 0.000083 0.000000
-0.000023 -0.000039 0.000104 0.000000
-0.000015 -0.000067 0.000085 0.000000
-0.000000 -0.000079 0.000123 0.000000
-0.000020 -0.000070 0.000095 0.000000
-0.000020 -0.000061 0.000110 0.000000
-0.000025 -0.000131 0.000178 0.000000
0.000022 -0.000181 0.000192 0.000000
0.000010 -0.000130 0.000186 0.000000
0.000017 -0.000104 0.000147 0.000000
-0.000078 -0.000092 0.000178 0.000000
0.000010 -0.000185 0.000204 0.000000
0.000005 -0.000142 0.000171 0.000000
0.000016 -0.000231 0.000223 0.000000
-0.000064 -0.000013 0.000103 0.000000
-0.000001 -0.000025 0.000021 0.000000
-0.000014 -0.000155 0.000235 0.000000
-0.000067 -0.000175 0.000285 0.000000
-0.000061 -0.000082 0.000105 0.000000
0.000000 -0.000021 0.000004 0.000000
-0.000018 -0.000080 0.000131 0.000000
-0.000018 -0.000106 0.000123 0.000000
-0.000001 -0.000019 0.000006 0.000000
0.000000 -0.000020 0.000007 0.000000
-0.000003 -0.000020 0.000009 0.000000
-0.000002 -0.000021 0.000010 0.000000
0.000000 -0.000031 0.000012 0.000000
-0.000002 -0.000022 0.000010 0.000000
-0.000002 -0.000028 0.000011 0.000000
-0.000002 -0.000018 0.000009 0.000000
-0.000003 -0.000025 0.000011 0.000000
-0.000002 -0.000023 0.000009 0.000000
-0.000003 -0.000025 0.000011 0.000000
-0.000003 -0.000024 0.000015 0.000000
-0.000004 -0.000021 0.000011 0.000000
-0.000004 -0.000024 0.000012 0.000000
-0.000003 -0.000029 0.000012 0.000000
-0.000003 -0.000027 0.000017 0.000000
-0.000004 -0.000025 0.000018 0.000000
0.000001 -0.000029 0.000022 0.000000
-0.000004 -0.000026 0.000012 0.000000
-0.000001 -0.000034 0.000010 0.000000
0.000001 -0.000040 0.000016 0.000000
0.000020 -0.000066 0.000030 0.000000
0.000018 -0.000066 0.000023 0.000000
-0.000001 -0.000036 0.000014 0.000000
0.000002 -0.000031 0.000018 0.000000
-0.000003 -0.000029 0.000017 0.000000
0.000006 -0.000047 0.000023 0.000000
0.000033 -0.000090 0.000044 0.000000
0.000014 -0.000049 0.000017 0.000000
0.000024 -0.000074 0.000048 0.000000
0.000006 -0.000046 0.000034 0.000000
0.000020 -0.000066 0.000047 0.000000
0.000048 -0.000071 0.000030 0.000000
0.000020 -0.000057 0.000046 0.000000
0.000017 -0.000040 0.000026 0.000000
0.000001 -0.000036 0.000022 0.000000
-0.000080 -0.000182 0.000235 0.000000
-0.000034 -0.000202 0.000334 0.000000
-0.000075 -0.000207 0.000239 0.000000
-0.000058 -0.000161 0.000313 0.000000
-0.000083 -0.000006 0.000184 0.000000
-0.000002 -0.000031 0.000029 0.000000
-0.000070 -0.000143 0.000354 0.000000
-0.000092 -0.000121 0.000294 0.000000
-0.000093 -0.000158 0.000319 0.000000
-0.000012 -0.000137 0.000249 0.000000
0.000057 -0.000101 0.000144 0.000000
-0.000035 -0.000241 0.000352 0.000000
-0.000105 -0.000113 0.000313 0.000000
-0.000068 -0.000165 0.000274 0.000000
0.000055 -0.000078 0.000101 0.000000
-0.000082 -0.000103 0.000370 0.000000
0.000057 -0.000111 0.000113 0.000000
0.000057 -0.000076 0.000133 0.000000
0.000030 -0.000074 0.000024 0.000000
0.000029 -0.000092 0.000036 0.000000
0.000024 -0.000072 0.000032 0.000000
-0.000005 -0.000036 0.000020 0.000000
0.000061 -0.000093 0.000010 0.000000
0.000014 -0.000056 0.000023 0.000000
0.000002 -0.000051 0.000027 0.000000
0.000018 -0.000074 0.000036 0.000000
-0.000005 -0.000042 0.000026 0.000000
-0.000007 -0.000038 0.000027 0.000000
-0.000006 -0.000040 0.000024 0.000000
-0.000006 -0.000044 0.000031 0.000000
0.000002 -0.000051 0.000032 0.000000
0.000021 -0.000075 0.000041 0.000000
0.000003 -0.000056 0.000029 0.000000
-0.000007 -0.000042 0.000031 0.000000
-0.000006 -0.000039 0.000022 0.000000
-0.000005 -0.000049 0.000031 0.000000
-0.000009 -0.000041 0.000031 0.000000
-0.000006 -0.000046 0.000023 0.000000
-0.000006 -0.000038 0.000022 0.000000
-0.000008 -0.000033 0.000021 0.000000
-0.000007 -0.000049 0.000030 0.000000
-0.000008 -0.000038 0.000022 0.000000
-0.000009 -0.000024 0.000013 0.000000
-0.000008 -0.000035 0.000024 0.000000
-0.000009 -0.000023 0.000013 0.000000
-0.000008 -0.000025 0.000014 0.000000
-0.000005 -0.000038 0.000023 0.000000
-0.000005 -0.000041 0.000027 0.000000
-0.000006 -0.000036 0.000022 0.000000
-0.000007 -0.000039 0.000028 0.000000
-0.000006 -0.000034 0.000019 0.000000
-0.000006 -0.000040 0.000028 0.000000
-0.000007 -0.000032 0.000022 0.000000
-0.000008 -0.000034 0.000024 0.000000
-0.000008 -0.000029 0.000018 0.000000
-0.000009 -0.000018 0.000011 0.000000
-0.000007 -0.000031 0.000019 0.000000
-0.000009 -0.000019 0.000007 0.000000
-0.000008 -0.000019 0.000006 0.000000
-0.000007 -0.000020 0.000009 0.000000
-0.000007 -0.000024 0.000010 0.000000
-0.000010 -0.000011 0.000004 0.000000
-0.000009 -0.000013 0.000010 0.000000
-0.000043 -0.000050 -0.000023 0.000000
-0.000007 -0.000027 0.000018 0.000000
-0.000007 -0.000028 0.000019 0.000000
-0.000006 -0.000025 0.000012 0.000000
-0.000007 -0.000025 0.000013 0.000000
-0.000003 -0.000040 0.000021 0.000000
-0.000020 -0.000069 -0.000071 0.000000
-0.000002 -0.000029 0.000011 0.000000
-0.000005 -0.000022 0.000010 0.000000
-0.000004 -0.000034 0.000023 0.000000
-0.000006 -0.000030 0.000015 0.000000
-0.000004 -0.000027 0.000011 0.000000
-0.000005 -0.000032 0.000018 0.000000
-0.000000 -0.000051 0.000022 0.000000
-0.000007 -0.000032 0.000018 0.000000
-0.000004 -0.000043 0.000021 0.000000
-0.000007 -0.000036 0.000023 0.000000
0.000022 -0.000050 0.000065 0.000000
0.000023 -0.000074 0.000051 0.000000
0.000000 -0.000048 0.000021 0.000000
-0.000005 -0.000028 0.000015 0.000000
-0.000001 -0.000038 0.000022 0.000000
-0.000005 -0.000040 0.000022 0.000000
0.000024 -0.000071 0.000071 0.000000
-0.000001 -0.000031 0.000011 0.000000
0.000032 -0.000048 0.000077 0.000000
0.000024 -0.000226 0.000238 0.000000
0.000024 -0.000054 0.000060 0.000000
0.000002 -0.000027 0.000018 0.000000
0.000011 -0.000026 0.000029 0.000000
-0.000003 -0.000025 0.000011 0.000000
0.000012 -0.000096 0.000132 0.000000
0.000001 -0.000026 0.000006 0.000000
-0.000032 -0.000056 -0.000017 0.000000
0.000002 -0.000024 0.000012 0.000000
0.000025 -0.000177 0.000150 0.000000
0.000022 -0.000182 0.000191 0.000000
0.000021 -0.000195 0.000167 0.000000
0.000005 -0.000033 0.000014 0.000000
0.000024 -0.000142 0.000171 0.000000
0.000003 -0.000033 0.000064 0.000000
0.000028 -0.000097 0.000096 0.000000
0.000015 -0.000081 0.000118 0.000000
-0.000021 -0.000023 0.000094 0.000000
0.000029 -0.000131 0.000140 0.000000
0.000030 -0.000148 0.000117 0.000000
-0.000002 -0.000039 0.000076 0.000000
0.000008 -0.000077 -0.000049 0.000000
0.000025 -0.000041 0.000027 0.000000
0.000023 -0.000150 0.000163 0.000000
0.000018 -0.000160 0.000147 0.000000
0.000017 -0.000102 0.000118 0.000000
0.000011 -0.000027 0.000023 0.000000
0.000040 -0.000162 0.000089 0.000000
0.000013 -0.000156 0.000088 0.000000
0.000021 -0.000044 0.000060 0.000000
0.000020 -0.000118 -0.000009 0.000000
-0.000008 -0.000055 -0.000047 0.000000
0.000005 -0.000041 0.000051 0.000000
0.000016 -0.000109 0.000082 0.000000
0.000004 -0.000024 -0.000008 0.000000
0.000032 -0.000043 -0.000021 0.000000
0.000013 -0.000025 -0.000039 0.000000
-0.000024 -0.000005 -0.000009 0.000000
-0.000020 -0.000033 -0.000015 0.000000
-0.000016 -0.000005 -0.000008 0.000000
-0.000041 -0.000002 0.000037 0.000000
-0.000031 -0.000002 0.000012 0.000000
-0.000008 -0.000075 -0.000055 0.000000
-0.000017 -0.000049 -0.000009 0.000000
-0.000015 -0.000075 -0.000050 0.000000
-0.000030 -0.000034 -0.000004 0.000000
0.000010 -0.000030 0.000025 0.000000
-0.000005 -0.000084 -0.000020 0.000000
0.000002 -0.000023 0.000010 0.000000
-0.000010 -0.000076 -0.000041 0.000000
0.000002 -0.000023 0.000010 0.000000
-0.000005 -0.000023 0.000013 0.000000
-0.000007 -0.000016 0.000009 0.000000
-0.000001 -0.000021 0.000013 0.000000
0.000008 -0.000029 0.000029 0.000000
-0.000015 -0.000096 -0.000046 0.000000
-0.000004 -0.000021 0.000014 0.000000
-0.000005 -0.000016 0.000016 0.000000
-0.000029 -0.000095 -0.000049 0.000000
-0.000030 -0.000032 -0.000005 0.000000
-0.000011 -0.000012 -0.000002 0.000000
-0.000009 -0.000013 0.000004 0.000000
-0.000008 -0.000019 0.000008 0.000000
-0.000005 -0.000019 0.000004 0.000000
-0.000102 -0.000029 0.000042 0.000000
-0.000036 -0.000072 -0.000083 0.000000
-0.000118 -0.000051 0.000035 0.000000
-0.000093 -0.000089 0.000123 0.000000
-0.000102 -0.000054 0.000072 0.000000
-0.000093 0.000010 0.000120 0.000000
-0.000083 -0.000072 0.000115 0.000000
-0.000102 -0.000016 0.000125 0.000000
-0.000009 -0.000014 -0.000003 0.000000
-0.000049 -0.000087 -0.000054 0.000000
-0.000111 -0.000013 0.000001 0.000000
-0.000082 -0.000065 -0.000049 0.000000
-0.000023 -0.000061 -0.000021 0.000000
-0.000053 -0.000000 0.000062 0.000000
-0.000023 -0.000089 -0.000061 0.000000
-0.000046 -0.000057 -0.000012 0.000000
-0.000035 -0.000002 0.000029 0.000000
-0.000041 -0.000027 0.000014 0.000000
-0.000062 -0.000023 0.000036 0.000000
-0.000054 -0.000000 0.000063 0.000000
-0.000069 -0.000045 0.000002 0.000000
-0.000072 0.000004 0.000090 0.000000
-0.000060 -0.000020 0.000031 0.000000
-0.000066 -0.000040 -0.000005 0.000000
-0.000080 -0.000015 0.000057 0.000000
-0.000090 0.000009 0.000117 0.000000
-0.000100 -0.000024 0.000084 0.000000
-0.000100 -0.000009 0.000090 0.000000
-0.000096 -0.000038 0.000093 0.000000
-0.000111 -0.000005 0.000129 0.000000
-0.000088 -0.000050 0.000157 0.000000
-0.000076 -0.000065 0.000154 0.000000
-0.000131 0.000018 0.000188 0.000000
-0.000119 0.000010 0.000192 0.000000
-0.000114 -0.000012 0.000162 0.000000
-0.000141 0.000017 0.000217 0.000000
-0.000147 0.000015 0.000243 0.000000
-0.000151 0.000015 0.000279 0.000000
-0.000127 0.000006 0.000292 0.000000
-0.000110 0.000000 0.000229 0.000000
-0.000051 -0.000057 0.000314 0.000000
-0.000071 -0.000024 0.000204 0.000000
-0.000096 -0.000034 0.000126 0.000000
-0.000088 -0.000052 0.000102 0.000000
-0.000062 -0.000079 0.000185 0.000000
-0.000107 -0.000029 0.000215 0.000000
-0.000048 -0.000082 0.000226 0.000000
-0.000049 -0.000142 0.000251 0.000000
-0.000035 -0.000072 0.000324 0.000000
-0.000080 -0.000041 0.000188 0.000000
-0.000025 -0.000098 0.000236 0.000000
-0.000050 -0.000028 0.000157 0.000000
-0.000036 -0.000032 0.000137 0.000000
-0.000016 -0.000033 0.000084 0.000000
-0.000004 -0.000023 0.000030 0.000000
-0.000039 -0.000012 0.000074 0.000000
-0.000043 -0.000023 0.000115 0.000000
-0.000050 -0.000105 0.000154 0.000000
-0.000008 -0.000018 0.000028 0.000000
-0.000040 -0.000056 0.000121 0.000000
0.000115 -0.000291 0.000482 0.000000
-0.000030 -0.000098 0.000217 0.000000
-0.000011 -0.000098 0.000138 0.000000
-0.000016 -0.000082 0.000115 0.000000
0.000001 -0.000151 0.000211 0.000000
-0.000012 -0.000099 0.000179 0.000000
-0.000008 -0.000027 0.000052 0.000000
-0.000041 -0.000100 0.000227 0.000000
-0.000054 -0.000108 0.000181 0.000000
-0.000041 -0.000092 0.000320 0.000000
0.000000 -0.000163 0.000410 0.000000
-0.000085 -0.000078 0.000143 0.000000
-0.000093 -0.000048 0.000090 0.000000
-0.000076 -0.000088 0.000133 0.000000
-0.000097 -0.000127 0.000192 0.000000
-0.000007 -0.000027 0.000014 0.000000
-0.000008 -0.000027 0.000015 0.000000
-0.000007 -0.000031 0.000016 0.000000
-0.000008 -0.000025 0.000017 0.000000
-0.000043 -0.000156 0.000344 0.000000
-0.000010 -0.000138 0.000300 0.000000
0.000025 -0.000231 0.000318 0.000000
0.000074 -0.000208 0.000533 0.000000
-0.000005 -0.000167 0.000295 0.000000
0.000037 -0.000188 0.000453 0.000000
-0.000106 -0.000157 0.000263 0.000000
-0.000088 -0.000150 0.000237 0.000000
-0.000062 -0.000150 0.000245 0.000000
-0.000117 -0.000158 0.000270 0.000000
-0.000006 -0.000031 0.000015 0.000000
-0.000009 -0.000026 0.000017 0.000000
-0.000009 -0.000026 0.000016 0.000000
-0.000147 -0.000117 0.000243 0.000000
-0.000010 -0.000023 0.000019 0.000000
-0.000008 -0.000032 0.000021 0.000000
-0.000133 -0.000220 0.000369 0.000000
-0.000115 -0.000155 0.000275 0.000000
-0.000125 -0.000167 0.000306 0.000000
-0.000091 -0.000242 0.000540 0.000000
-0.000079 -0.000164 0.000260 0.000000
-0.000159 -0.000279 0.000421 0.000000
-0.000075 -0.000166 0.000296 0.000000
-0.000127 -0.000204 0.000343 0.000000
0.000076 -0.000375 0.000815 0.000000
-0.000019 -0.000174 0.000469 0.000000
0.000104 -0.000312 0.000718 0.000000
0.000133 -0.000168 0.000406 0.000000
-0.000028 -0.000191 0.000494 0.000000
-0.000026 -0.000162 0.000365 0.000000
0.000048 -0.000270 0.000808 0.000000
0.000084 -0.000344 0.000667 0.000000
-0.000004 -0.000237 0.000269 0.000000
-0.000006 -0.000204 0.000266 0.000000
-0.000022 -0.000063 0.000080 0.000000
-0.000026 -0.000120 0.000152 0.000000
0.000050 -0.000232 0.000301 0.000000
0.000032 -0.000307 0.000399 0.000000
0.000007 -0.000192 0.000215 0.000000
-0.000030 -0.000115 0.000164 0.000000
-0.000045 -0.000086 0.000105 0.000000
-0.000079 -0.000089 0.000180 0.000000
0.000053 -0.000349 0.000331 0.000000
-0.000018 -0.000164 0.000174 0.000000
-0.000114 -0.000093 0.000203 0.000000
-0.000060 -0.000043 0.000112 0.000000
0.000114 -0.000143 0.000358 0.000000
0.000105 -0.000145 0.000349 0.000000
0.000137 -0.000343 0.000377 0.000000
0.000069 -0.000120 0.000176 0.000000
0.000118 -0.000135 0.000326 0.000000
0.000126 -0.000153 0.000310 0.000000
0.000007 -0.000301 0.000185 0.000000
0.000102 -0.000127 0.000231 0.000000
-0.000013 -0.000204 0.000068 0.000000
-0.000101 -0.000171 -0.000027 0.000000
-0.000119 -0.000103 0.000116 0.000000
-0.000042 -0.000075 0.000140 0.000000
-0.000099 -0.000076 -0.000063 0.000000
-0.000176 -0.000063 0.000096 0.000000
-0.000137 -0.000096 0.000065 0.000000
-0.000016 -0.000018 0.000026 0.000000
0.000099 -0.000174 0.000230 0.000000
0.000062 -0.000119 0.000147 0.000000
-0.000002 -0.000049 0.000035 0.000000
0.000106 -0.000176 0.000233 0.000000
-0.000116 -0.000272 0.000704 0.000000
0.000183 -0.000252 0.000498 0.000000
0.000143 -0.000162 0.000282 0.000000
0.000083 -0.000123 0.000231 0.000000
-0.000058 -0.000279 0.000874 0.000000
0.000135 -0.000185 0.000457 0.000000
0.000162 -0.000183 0.000418 0.000000
0.000203 -0.000223 0.000561 0.000000
0.000132 -0.000201 0.000330 0.000000
0.000097 -0.000124 0.000242 0.000000
-0.000133 -0.000218 0.000334 0.000000
-0.000127 -0.000308 0.000472 0.000000
0.000180 -0.000219 0.000585 0.000000
0.000211 -0.000251 0.000681 0.000000
-0.000139 -0.000291 0.000458 0.000000
-0.000124 -0.000281 0.000626 0.000000
-0.000105 -0.000276 0.000574 0.000000
-0.000114 -0.000339 0.000854 0.000000
-0.000147 -0.000274 0.000428 0.000000
-0.000130 -0.000342 0.000448 0.000000
-0.000147 -0.000250 0.000427 0.000000
-0.000141 -0.000300 0.000452 0.000000
-0.000140 -0.000225 0.000368 0.000000
-0.000137 -0.000214 0.000323 0.000000
-0.000155 -0.000250 0.000396 0.000000
-0.000145 -0.000269 0.000443 0.000000
-0.000126 -0.000226 0.000405 0.000000
-0.000110 -0.000187 0.000309 0.000000
-0.000114 -0.000195 0.000360 0.000000
-0.000133 -0.000219 0.000382 0.000000
-0.000093 -0.000213 0.000546 0.000000
-0.000107 -0.000259 0.000590 0.000000
-0.000055 -0.000282 0.000870 0.000000
0.000154 -0.000193 0.000583 0.000000
-0.000097 -0.000217 0.000558 0.000000
-0.000098 -0.000184 0.000432 0.000000
0.000032 -0.000316 0.000752 0.000000
0.000024 -0.000368 0.000906 0.000000
-0.000125 -0.000204 0.000340 0.000000
-0.000121 -0.000197 0.000310 0.000000
-0.000112 -0.000205 0.000394 0.000000
-0.000118 -0.000185 0.000304 0.000000
-0.000098 -0.000202 0.000437 0.000000
-0.000110 -0.000185 0.000339 0.000000
-0.000008 -0.000034 0.000022 0.000000
-0.000129 -0.000190 0.000295 0.000000
-0.000142 -0.000287 0.000448 0.000000
-0.000159 -0.000251 0.000369 0.000000
-0.000154 -0.000269 0.000364 0.000000
-0.000129 -0.000144 0.000333 0.000000
-0.000154 -0.000234 0.000339 0.000000
-0.000133 -0.000193 0.000307 0.000000
-0.000011 -0.000040 0.000030 0.000000
-0.000002 -0.000059 0.000024 0.000000
-0.000138 -0.000184 0.000405 0.000000
-0.000008 -0.000041 0.000035 0.000000
-0.000005 -0.000046 0.000029 0.000000
-0.000009 -0.000042 0.000027 0.000000
-0.000009 -0.000034 0.000022 0.000000
-0.000006 -0.000040 0.000025 0.000000
0.000019 -0.000073 0.000040 0.000000
0.000032 -0.000082 0.000033 0.000000
0.000001 -0.000049 0.000029 0.000000
0.000023 -0.000083 0.000042 0.000000
0.000191 -0.000619 -0.000053 0.000000
0.000031 -0.000090 0.000039 0.000000
0.000040 -0.000098 0.000037 0.000000
0.000206 -0.000660 -0.000032 0.000000
0.000168 -0.000657 0.000007 0.000000
0.000164 -0.000655 -0.000001 0.000000
0.000045 -0.000089 0.000023 0.000000
0.000190 -0.000688 0.000013 0.000000
0.000192 -0.000703 0.000031 0.000000
0.000211 -0.000796 0.000109 0.000000
0.000005 -0.000063 0.000038 0.000000
0.000013 -0.000063 0.000033 0.000000
-0.000002 -0.000048 0.000019 0.000000
0.000022 -0.000080 0.000042 0.000000
0.000192 -0.000706 0.000038 0.000000
0.000023 -0.000080 0.000043 0.000000
-0.000071 -0.000475 0.000320 0.000000
0.000017 -0.000083 0.000057 0.000000
0.000189 -0.000728 0.000058 0.000000
0.000179 -0.000674 0.000005 0.000000
0.000203 -0.000701 0.000020 0.000000
0.000165 -0.000716 0.000056 0.000000
0.000194 -0.000801 0.000130 0.000000
0.000170 -0.000734 0.000080 0.000000
0.000210 -0.000799 0.000080 0.000000
0.000187 -0.000710 0.000018 0.000000
0.000199 -0.000740 0.000031 0.000000
0.000179 -0.000727 0.000042 0.000000
0.000199 -0.000706 0.000035 0.000000
0.000191 -0.000730 0.000025 0.000000
0.000262 -0.000807 0.000050 0.000000
0.000008 -0.000616 0.000235 0.000000
0.000164 -0.000805 0.000329 0.000000
0.000172 -0.000770 0.000171 0.000000
-0.000109 -0.000416 0.000339 0.000000
0.000009 -0.000534 0.000270 0.000000
-0.000004 -0.000049 0.000028 0.000000
0.000018 -0.000081 0.000034 0.000000
-0.000081 -0.000474 0.000307 0.000000
-0.000108 -0.000400 0.000355 0.000000
-0.000138 -0.000238 0.000343 0.000000
-0.000146 -0.000317 0.000407 0.000000
-0.000153 -0.000222 0.000317 0.000000
-0.000151 -0.000265 0.000383 0.000000
-0.000095 -0.000410 0.000402 0.000000
-0.000068 -0.000403 0.000332 0.000000
-0.000149 -0.000269 0.000424 0.000000
-0.000141 -0.000309 0.000404 0.000000
-0.000152 -0.000275 0.000410 0.000000
-0.000142 -0.000249 0.000382 0.000000
-0.000128 -0.000351 0.000413 0.000000
-0.000128 -0.000365 0.000429 0.000000
-0.000129 -0.000339 0.000467 0.000000
-0.000145 -0.000304 0.000442 0.000000
-0.000068 -0.000460 0.000303 0.000000
-0.000100 -0.000393 0.000253 0.000000
-0.000107 -0.000414 0.000410 0.000000
-0.000083 -0.000447 0.000341 0.000000
0.000247 -0.000812 0.000054 0.000000
-0.000066 -0.000492 0.000305 0.000000
0.000264 -0.000840 0.000123 0.000000
-0.000076 -0.000319 -0.000041 0.000000
0.000007 -0.000671 0.000365 0.000000
0.000180 -0.000675 0.000229 0.000000
-0.000071 -0.000523 0.000362 0.000000
-0.000003 -0.000534 0.000177 0.000000
0.000143 -0.000202 0.000037 0.000000
0.000286 -0.000915 0.000143 0.000000
0.000198 -0.000788 0.000066 0.000000
0.000253 -0.000890 0.000154 0.000000
0.000219 -0.000883 0.000227 0.000000
0.000103 -0.000172 0.000048 0.000000
0.000235 -0.000883 0.000214 0.000000
0.000211 -0.000819 0.000089 0.000000
0.000124 -0.000210 0.000066 0.000000
0.000109 -0.000193 0.000065 0.000000
0.000242 -0.000883 0.000164 0.000000
0.000233 -0.000892 0.000185 0.000000
0.000178 -0.000231 0.000021 0.000000
0.000259 -0.000884 0.000151 0.000000
0.000217 -0.000272 0.000046 0.000000
0.000259 -0.000890 0.000157 0.000000
0.000203 -0.000258 0.000043 0.000000
0.000288 -0.000908 0.000174 0.000000
0.000179 -0.000265 0.000064 0.000000
0.000159 -0.000216 0.000017 0.000000
0.000162 -0.000224 0.000058 0.000000
0.000155 -0.000216 0.000053 0.000000
0.000073 -0.000154 0.000048 0.000000
0.000115 -0.000180 0.000042 0.000000
0.000102 -0.000189 0.000064 0.000000
0.000148 -0.000226 0.000038 0.000000
0.000077 -0.000167 0.000064 0.000000
0.000077 -0.000155 0.000051 0.000000
0.000084 -0.000162 0.000091 0.000000
0.000147 -0.000224 0.000028 0.000000
0.000141 -0.000221 0.000105 0.000000
0.000065 -0.000154 0.000072 0.000000
0.000123 -0.000205 0.000087 0.000000
0.000105 -0.000204 0.000085 0.000000
0.000197 -0.000250 0.000023 0.000000
0.000217 -0.000261 0.000066 0.000000
0.000012 -0.000659 0.000191 0.000000
-0.000125 -0.000424 0.000109 0.000000
0.000218 -0.000311 0.000058 0.000000
0.000186 -0.000827 0.000169 0.000000
-0.000020 -0.000506 0.000081 0.000000
0.000228 -0.000718 0.000019 0.000000
-0.000098 -0.000440 0.000454 0.000000
-0.000070 -0.000450 0.000331 0.000000
-0.000108 -0.000389 0.000453 0.000000
-0.000088 -0.000428 0.000431 0.000000
-0.000129 -0.000437 0.000425 0.000000
-0.000124 -0.000425 0.000309 0.000000
-0.000128 -0.000460 0.000505 0.000000
-0.000076 -0.000429 0.000509 0.000000
-0.000113 -0.000487 0.000582 0.000000
-0.000062 -0.000445 0.000585 0.000000
-0.000104 -0.000454 0.000540 0.000000
-0.000099 -0.000427 0.000532 0.000000
-0.000030 -0.000539 0.000705 0.000000
0.000025 -0.000608 0.000903 0.000000
0.000033 -0.000526 0.000827 0.000000
-0.000022 -0.000517 0.000789 0.000000
-0.000092 -0.000554 0.000429 0.000000
0.000336 -0.000347 0.000465 0.000000
-0.000046 -0.000457 0.000807 0.000000
-0.000026 -0.000513 0.000830 0.000000
-0.000083 -0.000484 0.000553 0.000000
0.000318 -0.000416 0.000544 0.000000
-0.000077 -0.000430 0.000622 0.000000
-0.000073 -0.000422 0.000641 0.000000
-0.000056 -0.000460 0.000673 0.000000
-0.000046 -0.000435 0.000804 0.000000
-0.000089 -0.000398 0.000490 0.000000
-0.000111 -0.000346 0.000465 0.000000
-0.000076 -0.000390 0.000709 0.000000
0.000260 -0.000343 0.000689 0.000000
-0.000125 -0.000339 0.000480 0.000000
-0.000131 -0.000311 0.000452 0.000000
-0.000127 -0.000335 0.000483 0.000000
-0.000092 -0.000345 0.000691 0.000000
0.000248 -0.000312 0.000800 0.000000
-0.000110 -0.000307 0.000766 0.000000
0.000218 -0.000294 0.000671 0.000000
0.000158 -0.000199 0.000269 0.000000
-0.000059 -0.000378 0.000719 0.000000
-0.000045 -0.000422 0.000812 0.000000
-0.000094 -0.000318 0.000564 0.000000
0.000263 -0.000280 0.000721 0.000000
0.000298 -0.000315 0.000614 0.000000
0.000310 -0.000396 0.000645 0.000000
0.000247 -0.000268 0.000604 0.000000
0.000245 -0.000323 0.000573 0.000000
0.000070 -0.000119 0.000089 0.000000
0.000130 -0.000201 0.000213 0.000000
0.000162 -0.000241 0.000352 0.000000
0.000215 -0.000303 0.000521 0.000000
0.000151 -0.000169 0.000271 0.000000
0.000164 -0.000241 0.000376 0.000000
0.000134 -0.000182 0.000134 0.000000
0.000008 -0.000067 0.000074 0.000000
-0.000198 -0.000070 0.000134 0.000000
0.000018 -0.000065 0.000045 0.000000
-0.000179 -0.000109 0.000255 0.000000
0.000022 -0.000071 0.000037 0.000000
-0.000170 -0.000156 0.000270 0.000000
0.000059 -0.000115 0.000118 0.000000
-0.000142 -0.000200 0.000201 0.000000
-0.000197 -0.000127 0.000190 0.000000
0.000157 -0.000204 0.000275 0.000000
0.000185 -0.000215 0.000360 0.000000
0.000132 -0.000207 0.000150 0.000000
0.000083 -0.000134 0.000099 0.000000
0.000188 -0.000264 0.000403 0.000000
0.000203 -0.000246 0.000445 0.000000
0.000153 -0.000229 0.000254 0.000000
0.000186 -0.000288 0.000309 0.000000
0.000153 -0.000199 0.000316 0.000000
0.000180 -0.000227 0.000304 0.000000
0.000009 -0.000406 0.000643 0.000000
0.000138 -0.000177 0.000243 0.000000
-0.000070 -0.000420 0.000575 0.000000
0.000152 -0.000192 0.000113 0.000000
-0.000078 -0.000442 0.000629 0.000000
-0.000126 -0.000310 0.000403 0.000000
-0.000076 -0.000325 0.000375 0.000000
-0.000015 -0.000059 0.000172 0.000000
0.000022 -0.000135 0.000068 0.000000
0.000021 -0.000125 0.000089 0.000000
0.000034 -0.000159 0.000077 0.000000
-0.000033 -0.000079 0.000073 0.000000
-0.000003 -0.000109 0.000057 0.000000
-0.000040 -0.000079 0.000055 0.000000
-0.000015 -0.000109 0.000057 0.000000
-0.000234 -0.000908 0.000582 0.000000
-0.000023 -0.000087 0.000057 0.000000
-0.000040 -0.000079 0.000136 0.000000
-0.000033 -0.000072 0.000082 0.000000
-0.000032 -0.000087 0.000058 0.000000
0.000020 -0.000142 0.000075 0.000000
-0.000006 -0.000116 0.000067 0.000000
0.000009 -0.000125 0.000080 0.000000
-0.000026 -0.000091 0.000066 0.000000
-0.000001 -0.000110 0.000087 0.000000
-0.000023 -0.000082 0.000119 0.000000
-0.000007 -0.000088 0.000084 0.000000
-0.000014 -0.000091 0.000067 0.000000
-0.000000 -0.000100 0.000129 0.000000
-0.000015 -0.000100 0.000074 0.000000
-0.000011 -0.000091 0.000131 0.000000
-0.000009 -0.000091 0.000103 0.000000
-0.000015 -0.000081 0.000098 0.000000
-0.000017 -0.000074 0.000102 0.000000
0.000012 -0.000109 0.000172 0.000000
-0.000007 -0.000085 0.000118 0.000000
-0.000025 -0.000081 0.000092 0.000000
-0.000021 -0.000089 0.000082 0.000000
-0.000043 -0.000072 0.000068 0.000000
-0.000022 -0.000079 0.000075 0.000000
-0.000032 -0.000072 0.000069 0.000000
-0.000032 -0.000075 0.000081 0.000000
-0.000017 -0.000077 0.000092 0.000000
-0.000029 -0.000073 0.000078 0.000000
-0.000012 -0.000082 0.000100 0.000000
-0.000321 -0.000282 0.001174 0.000000
0.000013 -0.000088 0.000155 0.000000
-0.000014 -0.000077 0.000096 0.000000
-0.000010 -0.000082 0.000115 0.000000
-0.000269 -0.000404 0.001260 0.000000
-0.000532 -0.000115 0.000949 0.000000
-0.000014 -0.000071 0.000185 0.000000
-0.000371 -0.000361 0.001152 0.000000
-0.000539 -0.000240 0.001155 0.000000
-0.000540 -0.000220 0.001017 0.000000
-0.000007 -0.000111 0.000087 0.000000
-0.000398 -0.000371 0.001180 0.000000
-0.000541 -0.000214 0.001162 0.000000
-0.000624 -0.000210 0.001144 0.000000
-0.000666 -0.000190 0.001318 0.000000
-0.000001 -0.000093 0.000197 0.000000
-0.000566 -0.000302 0.001343 0.000000
-0.000646 -0.000121 0.001105 0.000000
-0.000585 -0.000112 0.001018 0.000000
-0.000678 -0.000221 0.001219 0.000000
-0.000692 -0.000130 0.001198 0.000000
-0.000039 -0.000069 0.000059 0.000000
-0.000028 -0.000091 0.000051 0.000000
-0.000010 -0.000088 0.000126 0.000000
-0.000036 -0.000088 0.000078 0.000000
-0.000744 -0.000213 0.001330 0.000000
-0.000663 -0.000239 0.001479 0.000000
-0.000607 -0.000479 0.001279 0.000000
-0.000132 -0.000793 0.001355 0.000000
-0.000062 -0.000039 0.000158 0.000000
-0.000110 -0.000694 0.000935 0.000000
-0.000020 -0.000079 0.000331 0.000000
-0.000048 -0.000052 0.000139 0.000000
-0.000021 -0.000065 0.000574 0.000000
-0.000022 -0.000080 0.000333 0.000000
-0.000037 -0.000071 0.000152 0.000000
-0.000047 -0.000048 0.000166 0.000000
-0.000003 -0.000119 0.000358 0.000000
-0.000038 -0.000074 0.000292 0.000000
0.000001 -0.000099 0.000592 0.000000
0.000020 -0.000114 0.000537 0.000000
0.000014 -0.000110 0.000541 0.000000
-0.000323 -0.000397 0.000750 0.000000
-0.000014 -0.000083 0.000523 0.000000
-0.000003 -0.000100 0.000507 0.000000
0.000030 -0.000135 0.000371 0.000000
0.000044 -0.000147 0.000369 0.000000
0.000053 -0.000146 0.000377 0.000000
0.000010 -0.000111 0.000499 0.000000
-0.000078 0.000001 0.000263 0.000000
-0.000348 -0.000689 0.001392 0.000000
-0.000042 -0.000063 0.000260 0.000000
-0.000311 -0.000451 0.000859 0.000000
-0.000037 -0.000050 0.000135 0.000000
-0.000029 -0.000057 0.000101 0.000000
-0.000030 -0.000050 0.000090 0.000000
0.000079 -0.000154 0.000346 0.000000
-0.000420 -0.000254 0.001109 0.000000
-0.000048 -0.000044 0.000109 0.000000
0.000039 -0.000156 0.000371 0.000000
0.000067 -0.000203 0.000397 0.000000
-0.000358 -0.000434 0.000872 0.000000
-0.000354 -0.000229 0.000868 0.000000
-0.000445 -0.000365 0.001214 0.000000
-0.000312 -0.000427 0.000787 0.000000
0.000034 -0.000104 0.000271 0.000000
0.000074 -0.000186 0.000321 0.000000
0.000084 -0.000150 0.000283 0.000000
-0.000399 -0.000383 0.001037 0.000000
-0.000374 -0.000353 0.000773 0.000000
-0.000377 -0.000418 0.000828 0.000000
-0.000167 -0.000457 0.000680 0.000000
-0.000295 -0.000413 0.000789 0.000000
-0.000287 -0.000197 0.000579 0.000000
-0.000257 -0.000377 0.000648 0.000000
-0.000126 -0.000418 0.000503 0.000000
-0.000158 -0.000409 0.000523 0.000000
0.000070 -0.000136 0.000304 0.000000
-0.000169 -0.000384 0.000520 0.000000
0.000032 -0.000093 0.000112 0.000000
0.000064 -0.000165 0.000242 0.000000
0.000008 -0.000092 0.000294 0.000000
0.000054 -0.000146 0.000526 0.000000
0.000030 -0.000121 0.000253 0.000000
0.000048 -0.000141 0.000368 0.000000
0.000037 -0.000133 0.000546 0.000000
0.000011 -0.000103 0.000530 0.000000
0.000034 -0.000149 0.000289 0.000000
0.000036 -0.000094 0.000434 0.000000
0.000019 -0.000125 0.000304 0.000000
-0.000009 -0.000095 0.000183 0.000000
0.000022 -0.000087 0.000248 0.000000
0.000004 -0.000096 0.000303 0.000000
-0.000339 -0.000433 0.001287 0.000000
-0.000387 -0.000440 0.001290 0.000000
0.000008 -0.000079 0.000476 0.000000
-0.000005 -0.000099 0.000209 0.000000
0.000013 -0.000089 0.000494 0.000000
0.000022 -0.000120 0.000293 0.000000
-0.000104 -0.000621 0.000649 0.000000
-0.000069 -0.000575 0.000768 0.000000
0.000151 -0.000687 0.000803 0.000000
-0.000013 -0.000086 0.000508 0.000000
-0.000016 -0.000664 0.000820 0.000000
-0.000161 -0.000422 0.000466 0.000000
-0.000121 -0.000461 0.000550 0.000000
-0.000152 -0.000407 0.000479 0.000000
-0.000119 -0.000484 0.000566 0.000000
-0.000090 -0.000532 0.000618 0.000000
-0.000118 -0.000429 0.000507 0.000000
-0.000137 -0.000437 0.000464 0.000000
-0.000098 -0.000477 0.000608 0.000000
0.000094 -0.000647 0.000692 0.000000
-0.000067 -0.000619 0.000722 0.000000
-0.000084 -0.000519 0.000648 0.000000
0.000068 -0.000149 0.000105 0.000000
-0.000128 -0.000354 0.000699 0.000000
-0.000016 -0.000552 0.000547 0.000000
-0.000155 -0.000423 0.000632 0.000000
-0.000137 -0.000432 0.000648 0.000000
-0.000152 -0.000378 0.000506 0.000000
-0.000113 -0.000476 0.000483 0.000000
-0.000164 -0.000368 0.000530 0.000000
-0.000166 -0.000378 0.000507 0.000000
-0.000164 -0.000297 0.000934 0.000000
-0.000118 -0.000389 0.000578 0.000000
-0.000202 -0.000347 0.000620 0.000000
-0.000123 -0.000420 0.000495 0.000000
-0.000073 -0.000457 0.000516 0.000000
-0.000105 -0.000381 0.000573 0.000000
-0.000125 -0.000463 0.000530 0.000000
-0.000146 -0.000440 0.000469 0.000000
-0.000155 -0.000414 0.000512 0.000000
-0.000072 -0.000408 0.000572 0.000000
-0.000119 -0.000248 0.000800 0.000000
-0.000108 -0.000411 0.000593 0.000000
-0.000137 -0.000344 0.000570 0.000000
-0.000133 -0.000381 0.000573 0.000000
0.000133 -0.000186 0.000568 0.000000
-0.000114 -0.000315 0.000646 0.000000
-0.000161 -0.000209 0.000780 0.000000
-0.000096 -0.000367 0.001001 0.000000
-0.000072 -0.000355 0.000684 0.000000
-0.000037 -0.000233 0.000770 0.000000
-0.000191 -0.000132 0.000882 0.000000
0.000021 -0.000062 0.000347 0.000000
-0.000073 -0.000297 0.000902 0.000000
-0.000073 -0.000388 0.000841 0.000000
-0.000098 -0.000394 0.000781 0.000000
-0.000070 -0.000452 0.000584 0.000000
-0.000029 -0.000389 0.000827 0.000000
-0.000056 -0.000406 0.000464 0.000000
-0.000047 -0.000381 0.000728 0.000000
-0.000092 -0.000414 0.000652 0.000000
0.000010 -0.000430 0.000679 0.000000
-0.000120 -0.000417 0.000519 0.000000
-0.000133 -0.000419 0.000495 0.000000
-0.000124 -0.000397 0.000416 0.000000
-0.000103 -0.000418 0.000419 0.000000
-0.000134 -0.000421 0.000408 0.000000
-0.000123 -0.000420 0.000491 0.000000
0.000047 -0.000444 0.000514 0.000000
-0.000126 -0.000404 0.000434 0.000000
-0.000132 -0.000408 0.000444 0.000000
-0.000037 -0.000404 0.000606 0.000000
-0.000110 -0.000423 0.000525 0.000000
-0.000057 -0.000444 0.000741 0.000000
-0.000010 -0.000043 0.000060 0.000000
-0.000030 -0.000038 0.000177 0.000000
-0.000087 -0.000367 0.000299 0.000000
-0.000167 -0.000387 0.000449 0.000000
0.000022 -0.000089 0.000153 0.000000
0.000057 -0.000130 0.000220 0.000000
0.000025 -0.000095 0.000153 0.000000
0.000029 -0.000095 0.000206 0.000000
0.000031 -0.000102 0.000191 0.000000
-0.000216 -0.000222 0.000850 0.000000
0.000052 -0.000118 0.000206 0.000000
0.000034 -0.000117 0.000214 0.000000
0.000001 -0.000064 0.000162 0.000000
0.000019 -0.000083 0.000167 0.000000
-0.000027 -0.000017 0.000155 0.000000
-0.000011 -0.000036 0.000190 0.000000
-0.000156 -0.000445 0.001049 0.000000
-0.000112 -0.000417 0.000511 0.000000
-0.000079 -0.000456 0.001402 0.000000
-0.000097 -0.000481 0.000464 0.000000
-0.000225 -0.000456 0.001397 0.000000
-0.000331 -0.000388 0.001221 0.000000
-0.000197 -0.000633 0.001692 0.000000
-0.000008 -0.000119 0.000375 0.000000
-0.000138 -0.000354 0.001081 0.000000
-0.000003 -0.000087 0.000166 0.000000
-0.000426 -0.000322 0.001023 0.000000
-0.000394 -0.000325 0.001153 0.000000
0.000020 -0.000079 0.000198 0.000000
0.000045 -0.000111 0.000232 0.000000
-0.000303 -0.000327 0.001094 0.000000
0.000013 -0.000066 0.000204 0.000000
-0.000223 -0.000325 0.000902 0.000000
-0.000189 -0.000287 0.000975 0.000000
0.000033 -0.000111 0.000177 0.000000
0.000032 -0.000122 0.000212 0.000000
0.000046 -0.000129 0.000209 0.000000
0.000048 -0.000120 0.000200 0.000000
0.000017 -0.000098 0.000155 0.000000
0.000015 -0.000106 0.000162 0.000000
0.000006 -0.000102 0.000176 0.000000
0.000003 -0.000085 0.000146 0.000000
0.000018 -0.000106 0.000165 0.000000
0.000006 -0.000099 0.000135 0.000000
0.000002 -0.000101 0.000158 0.000000
0.000005 -0.000102 0.000151 0.000000
0.000040 -0.000124 0.000206 0.000000
0.000059 -0.000131 0.000227 0.000000
0.000055 -0.000130 0.000220 0.000000
0.000016 -0.000102 0.000160 0.000000
0.000043 -0.000119 0.000196 0.000000
0.000029 -0.000119 0.000190 0.000000
0.000060 -0.000134 0.000226 0.000000
0.000055 -0.000131 0.000210 0.000000
0.000057 -0.000127 0.000222 0.000000
0.000035 -0.000091 0.000153 0.000000
0.000047 -0.000122 0.000196 0.000000
0.000036 -0.000113 0.000182 0.000000
0.000056 -0.000126 0.000233 0.000000
0.000061 -0.000128 0.000201 0.000000
0.000041 -0.000095 0.000181 0.000000
0.000050 -0.000103 0.000215 0.000000
0.000037 -0.000097 0.000171 0.000000
0.000053 -0.000111 0.000171 0.000000
0.000066 -0.000130 0.000243 0.000000
0.000042 -0.000118 0.000244 0.000000
0.000066 -0.000137 0.000237 0.000000
0.000057 -0.000131 0.000226 0.000000
0.000051 -0.000128 0.000240 0.000000
0.000057 -0.000118 0.000221 0.000000
0.000028 -0.000068 0.000212 0.000000
0.000016 -0.000070 0.000123 0.000000
0.000005 -0.000077 0.000142 0.000000
0.000015 -0.000089 0.000188 0.000000
-0.000001 -0.000402 0.000517 0.000000
-0.000001 -0.000075 0.000184 0.000000
-0.000004 -0.000064 0.000135 0.000000
-0.000000 -0.000041 0.000131 0.000000
-0.000061 -0.000351 0.000231 0.000000
-0.000069 -0.000409 0.000471 0.000000
0.000009 -0.000072 0.000114 0.000000
-0.000008 -0.000041 0.000089 0.000000
0.000026 -0.000074 0.000158 0.000000
0.000029 -0.000104 0.000203 0.000000
-0.000001 -0.000062 0.000087 0.000000
0.000002 -0.000049 0.000112 0.000000
0.000011 -0.000069 0.000154 0.000000
-0.000006 -0.000056 0.000087 0.000000
0.000013 -0.000074 0.000113 0.000000
0.000012 -0.000075 0.000150 0.000000
-0.000067 -0.000194 -0.000060 0.000000
0.000006 -0.000062 0.000102 0.000000
-0.000145 -0.000184 0.000159 0.000000
0.000010 -0.000059 0.000168 0.000000
-0.000090 -0.000217 0.000215 0.000000
0.000006 -0.000060 0.000104 0.000000
0.000021 -0.000231 -0.000088 0.000000
-0.000165 -0.000137 0.000069 0.000000
-0.000018 -0.000370 0.000229 0.000000
0.000001 -0.000052 0.000066 0.000000
-0.000006 -0.000336 0.000090 0.000000
0.000009 -0.000052 0.000052 0.000000
-0.000066 -0.000257 0.000026 0.000000
0.000010 -0.000070 0.000091 0.000000
-0.000090 -0.000206 0.000175 0.000000
-0.000049 -0.000274 0.000276 0.000000
-0.000169 -0.000117 0.000434 0.000000
-0.000016 -0.000020 0.000025 0.000000
-0.000130 -0.000176 0.000298 0.000000
-0.000091 -0.000252 0.000191 0.000000
-0.000081 -0.000182 0.000136 0.000000
-0.000074 -0.000176 0.000198 0.000000
-0.000101 -0.000183 0.000229 0.000000
-0.000014 -0.000016 0.000032 0.000000
-0.000138 -0.000170 0.000294 0.000000
-0.000033 0.000007 0.000261 0.000000
-0.000019 -0.000016 0.000029 0.000000
-0.000108 -0.000218 0.000262 0.000000
-0.000066 -0.000219 0.000288 0.000000
-0.000189 -0.000102 0.000401 0.000000
-0.000082 -0.000301 0.000263 0.000000
-0.000015 -0.000332 0.000199 0.000000
-0.000064 -0.000258 0.000228 0.000000
-0.000064 -0.000260 0.000232 0.000000
-0.000023 -0.000401 0.000295 0.000000
-0.000010 -0.000363 0.000226 0.000000
-0.000011 -0.000338 0.000231 0.000000
0.000016 -0.000383 0.000238 0.000000
-0.000023 -0.000406 0.000332 0.000000
-0.000091 -0.000251 0.000064 0.000000
0.000011 -0.000408 0.000309 0.000000
-0.000015 -0.000350 0.000217 0.000000
-0.000100 -0.000233 0.000272 0.000000
-0.000075 -0.000292 0.000279 0.000000
-0.000058 -0.000138 -0.000094 0.000000
-0.000141 -0.000175 0.000038 0.000000
-0.000029 -0.000337 0.000146 0.000000
-0.000063 -0.000218 0.000126 0.000000
-0.000012 -0.000019 0.000025 0.000000
-0.000021 -0.000023 0.000041 0.000000
-0.000015 -0.000023 0.000032 0.000000
-0.000021 -0.000030 0.000051 0.000000
-0.000011 -0.000010 0.000017 0.000000
-0.000015 -0.000018 0.000027 0.000000
-0.000014 -0.000025 0.000034 0.000000
-0.000007 -0.000031 0.000028 0.000000
-0.000074 -0.000156 0.000275 0.000000
-0.000063 -0.000096 0.000170 0.000000
-0.000047 -0.000127 0.000171 0.000000
-0.000181 -0.000039 0.000204 0.000000
-0.000009 -0.000023 0.000029 0.000000
-0.000171 -0.000071 0.000198 0.000000
-0.000013 -0.000014 0.000032 0.000000
-0.000154 -0.000088 0.000246 0.000000
-0.000074 -0.000070 0.000150 0.000000
-0.000045 -0.000010 0.000074 0.000000
-0.000065 -0.000105 0.000207 0.000000
-0.000063 -0.000090 0.000183 0.000000
-0.000016 -0.000013 0.000035 0.000000
-0.000055 -0.000042 0.000120 0.000000
-0.000006 -0.000013 0.000019 0.000000
-0.000017 -0.000014 0.000038 0.000000
-0.000044 -0.000008 0.000075 0.000000
-0.000022 -0.000013 0.000039 0.000000
-0.000039 -0.000088 0.000113 0.000000
-0.000038 -0.000048 0.000072 0.000000
-0.000055 -0.000044 0.000114 0.000000
-0.000046 -0.000053 0.000065 0.000000
-0.000049 -0.000006 0.000076 0.000000
-0.000009 -0.000012 0.000016 0.000000
-0.000054 0.000003 0.000061 0.000000
-0.000009 -0.000014 0.000022 0.000000
-0.000188 -0.000036 0.000206 0.000000
-0.000036 -0.000009 0.000043 0.000000
-0.000053 -0.000029 0.000035 0.000000
-0.000070 0.000004 0.000076 0.000000
-0.000063 0.000003 0.000060 0.000000
-0.000089 0.000016 0.000115 0.000000
-0.000046 -0.000023 -0.000027 0.000000
-0.000089 -0.000029 0.000009 0.000000
-0.000013 -0.000012 0.000019 0.000000
-0.000110 -0.000023 0.000150 0.000000
-0.000095 -0.000015 0.000127 0.000000
-0.000079 0.000004 0.000118 0.000000
-0.000082 -0.000002 -0.000025 0.000000
-0.000017 -0.000015 0.000022 0.000000
-0.000088 -0.000016 0.000099 0.000000
-0.000154 0.000015 0.000122 0.000000
-0.000019 -0.000014 0.000030 0.000000
-0.000016 -0.000016 0.000028 0.000000
-0.000022 -0.000015 0.000033 0.000000
-0.000014 -0.000014 0.000026 0.000000
-0.000022 -0.000011 0.000034 0.000000
-0.000019 -0.000019 0.000022 0.000000
-0.000086 -0.000177 0.000324 0.000000
-0.000099 -0.000051 0.000189 0.000000
-0.000111 -0.000019 0.000149 0.000000
-0.000017 -0.000012 0.000024 0.000000
-0.000259 -0.000034 0.000316 0.000000
-0.000012 -0.000020 0.000035 0.000000
-0.000015 -0.000025 0.000064 0.000000
-0.000125 -0.000183 0.000356 0.000000
-0.000169 -0.000049 0.000298 0.000000
-0.000220 -0.000098 0.000493 0.000000
-0.000185 -0.000074 0.000434 0.000000
-0.000185 -0.000072 0.000433 0.000000
-0.000209 -0.000058 0.000482 0.000000
-0.000006 -0.000026 0.000145 0.000000
-0.000012 -0.000018 0.000158 0.000000
-0.000019 -0.000005 0.000247 0.000000
-0.000160 -0.000096 0.000309 0.000000
-0.000030 -0.000004 0.000107 0.000000
-0.000112 -0.000088 0.000252 0.000000
-0.000016 -0.000017 0.000144 0.000000
-0.000207 0.000020 0.000189 0.000000
-0.000213 0.000016 0.000218 0.000000
-0.000108 -0.000085 0.000248 0.000000
-0.000233 -0.000096 0.000413 0.000000
-0.000171 -0.000075 0.000284 0.000000
-0.000146 -0.000021 0.000121 0.000000
-0.000133 -0.000049 0.000201 0.000000
-0.000098 -0.000029 0.000183 0.000000
-0.000096 0.000009 0.000146 0.000000
-0.000097 -0.000021 0.000162 0.000000
-0.000090 0.000002 0.000145 0.000000
-0.000102 0.000003 0.000165 0.000000
-0.000099 0.000004 0.000161 0.000000
-0.000133 -0.000037 0.000207 0.000000
-0.000120 -0.000068 0.000227 0.000000
-0.000106 -0.000029 0.000178 0.000000
-0.000103 0.000003 0.000172 0.000000
-0.000104 0.000004 0.000179 0.000000
-0.000111 0.000006 0.000179 0.000000
-0.000098 -0.000026 0.000176 0.000000
-0.000045 -0.000095 0.000132 0.000000
-0.000103 -0.000039 0.000190 0.000000
-0.000107 0.000004 0.000175 0.000000
-0.000115 0.000006 0.000182 0.000000
-0.000114 0.000006 0.000181 0.000000
-0.000111 0.000004 0.000183 0.000000
-0.000129 0.000006 0.000215 0.000000
-0.000115 0.000003 0.000201 0.000000
-0.000098 -0.000042 0.000181 0.000000
-0.000083 -0.000043 0.000160 0.000000
-0.000106 -0.000031 0.000208 0.000000
-0.000083 -0.000067 0.000180 0.000000
-0.000096 -0.000036 0.000200 0.000000
-0.000089 -0.000062 0.000233 0.000000
-0.000109 -0.000006 0.000218 0.000000
-0.000115 0.000000 0.000213 0.000000
-0.000023 -0.000008 0.000221 0.000000
-0.000048 -0.000100 0.000173 0.000000
-0.000019 -0.000008 0.000210 0.000000
-0.000060 -0.000080 0.000122 0.000000
0.000004 -0.000031 0.000214 0.000000
-0.000010 -0.000017 0.000216 0.000000
-0.000012 -0.000023 0.000222 0.000000
-0.000018 -0.000013 0.000228 0.000000
-0.000091 -0.000058 0.000179 0.000000
-0.000018 -0.000013 0.000246 0.000000
-0.000090 -0.000065 0.000196 0.000000
-0.000081 -0.000085 0.000173 0.000000
-0.000088 -0.000045 0.000235 0.000000
-0.000108 -0.000069 0.000235 0.000000
-0.000141 -0.000096 0.000307 0.000000
-0.000084 -0.000059 0.000128 0.000000
-0.000093 -0.000081 0.000253 0.000000
-0.000143 -0.000033 0.000332 0.000000
0.000008 -0.000047 0.000288 0.000000
-0.000012 -0.000020 0.000208 0.000000
-0.000126 -0.000108 0.000361 0.000000
-0.000075 -0.000096 0.000267 0.000000
0.000029 -0.000058 0.000258 0.000000
0.000011 -0.000040 0.000304 0.000000
-0.000005 -0.000027 0.000244 0.000000
-0.000069 -0.000081 0.000129 0.000000
-0.000005 -0.000025 0.000230 0.000000
-0.000018 -0.000005 0.000243 0.000000
-0.000016 -0.000015 0.000302 0.000000
-0.000073 -0.000096 0.000165 0.000000
0.000023 -0.000050 0.000284 0.000000
0.000022 -0.000057 0.000254 0.000000
0.000022 -0.000053 0.000251 0.000000
-0.000006 -0.000026 0.000233 0.000000
-0.000151 -0.000143 0.000419 0.000000
0.000028 -0.000057 0.000297 0.000000
0.000013 -0.000048 0.000209 0.000000
0.000023 -0.000060 0.000288 0.000000
-0.000008 -0.000016 0.000146 0.000000
-0.000165 -0.000075 0.000406 0.000000
-0.000025 -0.000015 0.000137 0.000000
-0.000008 -0.000033 0.000149 0.000000
-0.000036 -0.000014 0.000107 0.000000
0.000013 -0.000050 0.000211 0.000000
0.000006 -0.000045 0.000207 0.000000
0.000035 -0.000084 0.000297 0.000000
0.000030 -0.000047 0.000344 0.000000
0.000036 -0.000075 0.000304 0.000000
-0.000008 -0.000059 0.000240 0.000000
0.000010 -0.000023 0.000336 0.000000
0.000034 -0.000069 0.000275 0.000000
0.000026 -0.000080 0.000369 0.000000
-0.000132 -0.000108 0.000316 0.000000
-0.000109 -0.000195 0.000002 0.000000
0.000001 -0.000037 0.000223 0.000000
-0.000116 -0.000139 0.000045 0.000000
-0.000105 -0.000189 0.000113 0.000000
-0.000006 -0.000042 0.000176 0.000000
-0.000053 -0.000147 0.000007 0.000000
-0.000108 -0.000133 -0.000014 0.000000
-0.000110 -0.000196 0.000254 0.000000
0.000069 -0.000134 0.000466 0.000000
0.000062 -0.000092 0.000352 0.000000
0.000103 -0.000131 0.000440 0.000000
0.000049 -0.000118 0.000437 0.000000
0.000101 -0.000168 0.000375 0.000000
0.000013 -0.000055 0.000374 0.000000
0.000038 -0.000078 0.000353 0.000000
0.000043 -0.000069 0.000470 0.000000
0.000041 -0.000073 0.000276 0.000000
0.000041 -0.000075 0.000304 0.000000
0.000038 -0.000066 0.000264 0.000000
0.000017 -0.000064 0.000371 0.000000
0.000029 -0.000081 0.000436 0.000000
0.000059 -0.000077 0.000382 0.000000
0.000013 -0.000053 0.000306 0.000000
-0.000112 -0.000195 0.000549 0.000000
-0.000158 -0.000120 0.000406 0.000000
0.000018 -0.000072 0.000505 0.000000
-0.000009 -0.000040 0.000436 0.000000
0.000060 -0.000081 0.000457 0.000000
-0.000126 -0.000068 0.000490 0.000000
-0.000141 -0.000077 0.000664 0.000000
0.000061 -0.000109 0.000469 0.000000
-0.000148 -0.000534 0.000550 0.000000
0.000085 -0.000153 0.000689 0.000000
-0.000072 -0.000535 0.000553 0.000000
-0.000022 -0.000571 0.000596 0.000000
0.000115 -0.000155 0.000601 0.000000
0.000095 -0.000131 0.000454 0.000000
0.000041 -0.000458 0.000323 0.000000
0.000118 -0.000191 0.000614 0.000000
0.000138 -0.000182 0.000470 0.000000
0.000091 -0.000154 0.000420 0.000000
0.000025 -0.000578 0.000896 0.000000
-0.000014 -0.000520 0.000971 0.000000
0.000058 -0.000138 0.000275 0.000000
-0.000001 -0.000591 0.000965 0.000000
0.000041 -0.000119 0.000255 0.000000
0.000090 -0.000128 0.000329 0.000000
0.000042 -0.000086 0.000256 0.000000
-0.000179 -0.000243 0.000450 0.000000
0.000052 -0.000101 0.000304 0.000000
-0.000041 -0.000369 0.000519 0.000000
-0.000114 -0.000233 0.000118 0.000000
0.000057 -0.000107 0.000312 0.000000
0.000050 -0.000109 0.000321 0.000000
0.000034 -0.000100 0.000309 0.000000
-0.000131 -0.000266 0.000336 0.000000
0.000058 -0.000115 0.000310 0.000000
-0.000158 -0.000160 0.000209 0.000000
-0.000140 -0.000175 0.000096 0.000000
0.000132 -0.000166 0.000498 0.000000
-0.000066 -0.000458 0.000854 0.000000
-0.000119 -0.000251 0.000309 0.000000
-0.000096 -0.000457 0.000845 0.000000
0.000056 -0.000096 0.000372 0.000000
0.000032 -0.000096 0.000235 0.000000
-0.000124 -0.000182 0.000240 0.000000
0.000025 -0.000089 0.000251 0.000000
-0.000134 -0.000158 0.000238 0.000000
-0.000174 -0.000185 0.000323 0.000000
-0.000110 -0.000300 0.000264 0.000000
-0.000160 -0.000096 0.000218 0.000000
-0.000135 -0.000182 0.000213 0.000000
-0.000158 -0.000155 0.000163 0.000000
-0.000150 -0.000076 0.000202 0.000000
-0.000129 -0.000162 0.000208 0.000000
-0.000119 -0.000133 0.000197 0.000000
-0.000141 -0.000112 0.000195 0.000000
-0.000019 -0.000189 0.000149 0.000000
0.000044 -0.000104 0.000252 0.000000
-0.000117 -0.000092 0.000199 0.000000
-0.000126 -0.000147 0.000218 0.000000
0.000051 -0.000118 0.000409 0.000000
0.000114 -0.000161 0.000577 0.000000
0.000023 -0.000057 0.000249 0.000000
0.000063 -0.000091 0.000330 0.000000
0.000111 -0.000187 0.000450 0.000000
0.000081 -0.000103 0.000294 0.000000
0.000072 -0.000143 0.000332 0.000000
-0.000138 -0.000192 0.000546 0.000000
0.000090 -0.000143 0.000454 0.000000
-0.000175 -0.000294 0.000990 0.000000
0.000064 -0.000124 0.000482 0.000000
0.000098 -0.000136 0.000376 0.000000
0.000105 -0.000159 0.000566 0.000000
0.000053 -0.000108 0.000566 0.000000
0.000008 -0.000301 0.000814 0.000000
-0.000206 -0.000171 0.001060 0.000000
0.000106 -0.000147 0.000559 0.000000
0.000098 -0.000157 0.000454 0.000000
-0.000060 -0.000188 0.000485 0.000000
-0.000070 -0.000175 0.000632 0.000000
-0.000066 -0.000345 0.000700 0.000000
-0.000099 -0.000226 0.000417 0.000000
-0.000100 -0.000279 0.000657 0.000000
-0.000022 -0.000260 0.000519 0.000000
-0.000099 -0.000137 0.000222 0.000000
-0.000095 -0.000125 0.000200 0.000000
-0.000067 -0.000011 0.000131 0.000000
-0.000086 -0.000065 0.000242 0.000000
-0.000091 -0.000185 0.000244 0.000000
-0.000108 -0.000036 0.000194 0.000000
-0.000113 -0.000146 0.000516 0.000000
-0.000104 -0.000152 0.000353 0.000000
-0.000104 -0.000075 0.000213 0.000000
-0.000069 -0.000067 0.000197 0.000000
-0.000112 -0.000135 0.000348 0.000000
-0.000094 -0.000112 0.000305 0.000000
-0.000081 -0.000081 0.000250 0.000000
-0.000097 -0.000096 0.000285 0.000000
-0.000119 0.000002 0.000226 0.000000
-0.000102 -0.000006 0.000212 0.000000
-0.000094 -0.000013 0.000200 0.000000
-0.000078 -0.000057 0.000234 0.000000
-0.000087 -0.000093 0.000192 0.000000
-0.000085 -0.000113 0.000274 0.000000
-0.000085 -0.000055 0.000210 0.000000
-0.000076 -0.000057 0.000167 0.000000
-0.000089 -0.000010 0.000180 0.000000
-0.000097 -0.000039 0.000190 0.000000
-0.000069 -0.000006 0.000118 0.000000
-0.000099 -0.000071 0.000177 0.000000
-0.000106 -0.000100 0.000221 0.000000
-0.000089 0.000004 0.000135 0.000000
-0.000087 -0.000041 0.000153 0.000000
-0.000096 -0.000000 0.000161 0.000000
-0.000119 -0.000025 0.000182 0.000000
-0.000078 -0.000001 0.000123 0.000000
-0.000107 -0.000028 0.000165 0.000000
-0.000124 -0.000053 0.000202 0.000000
-0.000105 0.000004 0.000164 0.000000
-0.000098 -0.000035 0.000158 0.000000
-0.000100 0.000006 0.000150 0.000000
-0.000111 0.000007 0.000170 0.000000
-0.000132 -0.000016 0.000195 0.000000
-0.000125 -0.000019 0.000188 0.000000
-0.000129 0.000013 0.000193 0.000000
-0.000120 0.000011 0.000181 0.000000
-0.000107 -0.000103 0.000209 0.000000
-0.000112 -0.000069 0.000197 0.000000
-0.000105 -0.000138 0.000219 0.000000
-0.000137 -0.000117 0.000221 0.000000
-0.000123 -0.000093 0.000223 0.000000
-0.000110 -0.000177 0.000180 0.000000
-0.000104 -0.000130 0.000215 0.000000
-0.000144 -0.000147 0.000218 0.000000
-0.000126 -0.000089 0.000189 0.000000
-0.000118 -0.000056 0.000185 0.000000
-0.000130 -0.000118 0.000204 0.000000
-0.000124 -0.000087 0.000211 0.000000
-0.000138 -0.000080 0.000195 0.000000
-0.000128 -0.000051 0.000185 0.000000
-0.000162 -0.000120 0.000212 0.000000
-0.000169 -0.000118 0.000209 0.000000
-0.000175 -0.000084 0.000228 0.000000
-0.000159 -0.000155 0.000199 0.000000
-0.000178 -0.000060 0.000284 0.000000
-0.000179 -0.000114 0.000248 0.000000
-0.000173 -0.000056 0.000340 0.000000
-0.000174 -0.000110 0.000384 0.000000
-0.000159 -0.000034 0.000247 0.000000
-0.000187 0.000023 0.000344 0.000000
-0.000178 -0.000031 0.000334 0.000000
-0.000172 -0.000036 0.000269 0.000000
-0.000166 -0.000035 0.000236 0.000000
-0.000172 -0.000076 0.000289 0.000000
-0.000176 -0.000056 0.000248 0.000000
-0.000170 -0.000082 0.000249 0.000000
-0.000148 -0.000076 0.000214 0.000000
-0.000150 -0.000039 0.000216 0.000000
-0.000139 -0.000045 0.000197 0.000000
-0.000179 0.000002 0.000345 0.000000
-0.000142 -0.000013 0.000207 0.000000
-0.000151 -0.000011 0.000238 0.000000
-0.000135 -0.000014 0.000202 0.000000
-0.000145 0.000022 0.000242 0.000000
-0.000140 0.000019 0.000209 0.000000
-0.000152 -0.000012 0.000227 0.000000
-0.000159 0.000042 0.000250 0.000000
-0.000163 -0.000006 0.000253 0.000000
-0.000188 0.000051 0.000369 0.000000
-0.000192 0.000081 0.000358 0.000000
-0.000182 -0.000028 0.000339 0.000000
-0.000218 0.000091 0.000484 0.000000
-0.000250 0.000119 0.000603 0.000000
-0.000170 -0.000110 0.000659 0.000000
-0.000242 0.000115 0.000560 0.000000
-0.000219 0.000037 0.000557 0.000000
-0.000257 0.000119 0.000613 0.000000
-0.000255 0.000121 0.000634 0.000000
-0.000244 0.000098 0.000633 0.000000
-0.000215 0.000035 0.000595 0.000000
-0.000173 -0.000011 0.000491 0.000000
-0.000219 0.000037 0.000650 0.000000
-0.000197 -0.000033 0.000561 0.000000
-0.000196 0.000069 0.000422 0.000000
-0.000207 0.000008 0.000654 0.000000
-0.000186 0.000003 0.000497 0.000000
-0.000186 -0.000035 0.000671 0.000000
-0.000158 0.000026 0.000292 0.000000
-0.000152 0.000028 0.000305 0.000000
-0.000203 -0.000014 0.000559 0.000000
-0.000186 -0.000042 0.000585 0.000000
-0.000181 -0.000064 0.000357 0.000000
-0.000213 -0.000115 0.000308 0.000000
-0.000173 -0.000069 0.000578 0.000000
-0.000182 -0.000078 0.000309 0.000000
-0.000157 -0.000010 0.000430 0.000000
-0.000185 -0.000051 0.000681 0.000000
-0.000140 -0.000117 0.000543 0.000000
-0.000169 -0.000095 0.000731 0.000000
-0.000157 0.000025 0.000265 0.000000
-0.000018 -0.000015 0.000181 0.000000
-0.000140 0.000005 0.000243 0.000000
-0.000142 0.000005 0.000243 0.000000
-0.000026 -0.000065 0.000267 0.000000
-0.000137 0.000006 0.000236 0.000000
-0.000133 0.000002 0.000247 0.000000
-0.000143 0.000009 0.000202 0.000000
-0.000146 0.000006 0.000280 0.000000
-0.000131 -0.000037 0.000280 0.000000
-0.000137 0.000002 0.000269 0.000000
-0.000032 -0.000014 0.000489 0.000000
-0.000154 -0.000083 0.000530 0.000000
-0.000068 -0.000101 0.000619 0.000000
-0.000112 -0.000069 0.000480 0.000000
-0.000132 -0.000109 0.000755 0.000000
-0.000142 -0.000133 0.000720 0.000000
-0.000136 -0.000080 0.000352 0.000000
-0.000047 -0.000091 0.000445 0.000000
-0.000169 -0.000083 0.000361 0.000000
-0.000178 -0.000099 0.000294 0.000000
-0.000146 -0.000140 0.000685 0.000000
-0.000150 -0.000099 0.000614 0.000000
-0.000177 -0.000111 0.000239 0.000000
-0.000176 -0.000134 0.000197 0.000000
-0.000178 -0.000094 0.000283 0.000000
-0.000177 -0.000149 0.000210 0.000000
-0.000158 -0.000146 0.000194 0.000000
-0.000142 -0.000204 0.000119 0.000000
-0.000197 -0.000118 0.000293 0.000000
-0.000180 -0.000110 0.000266 0.000000
-0.000203 -0.000116 0.000451 0.000000
-0.000158 -0.000110 0.000630 0.000000
-0.000156 -0.000153 0.000823 0.000000
-0.000185 -0.000140 0.000696 0.000000
-0.000173 -0.000144 0.000744 0.000000
-0.000172 -0.000112 0.000834 0.000000
-0.000025 -0.000016 0.000327 0.000000
-0.000037 -0.000007 0.000316 0.000000
-0.000018 -0.000020 0.000285 0.000000
-0.000011 -0.000001 0.000217 0.000000
-0.000281 -0.000103 0.000718 0.000000
-0.000170 -0.000118 0.000735 0.000000
-0.000036 -0.000012 0.000488 0.000000
-0.000023 0.000007 0.000345 0.000000
-0.000215 -0.000107 0.000284 0.000000
-0.000196 -0.000143 0.000224 0.000000
-0.000224 -0.000111 0.000309 0.000000
-0.000242 -0.000094 0.000390 0.000000
-0.000157 -0.000172 0.000748 0.000000
-0.000231 -0.000085 0.000365 0.000000
-0.000041 -0.000010 0.000576 0.000000
-0.000012 -0.000007 0.000435 0.000000
0.000028 -0.000057 0.000328 0.000000
-0.000004 -0.000019 0.000179 0.000000
0.000004 -0.000020 0.000294 0.000000
-0.000146 -0.000054 0.000304 0.000000
0.000042 -0.000070 0.000435 0.000000
-0.000144 -0.000083 0.000335 0.000000
-0.000007 -0.000020 0.000254 0.000000
-0.000165 0.000001 0.000293 0.000000
-0.000168 -0.000024 0.000262 0.000000
-0.000165 -0.000038 0.000325 0.000000
-0.000140 -0.000057 0.000304 0.000000
-0.000125 0.000002 0.000239 0.000000
-0.000146 0.000009 0.000258 0.000000
-0.000150 -0.000058 0.000338 0.000000
-0.000120 0.000004 0.000225 0.000000
-0.000153 -0.000027 0.000294 0.000000
-0.000114 0.000004 0.000218 0.000000
-0.000159 -0.000029 0.000315 0.000000
-0.000125 -0.000031 0.000266 0.000000
-0.000143 0.000003 0.000265 0.000000
-0.000177 -0.000119 0.000618 0.000000
-0.000102 -0.000006 0.000200 0.000000
-0.000143 0.000008 0.000232 0.000000
-0.000143 -0.000041 0.000289 0.000000
-0.000128 -0.000032 0.000273 0.000000
-0.000140 0.000003 0.000245 0.000000
-0.000111 -0.000000 0.000212 0.000000
-0.000147 -0.000106 0.000466 0.000000
-0.000139 -0.000069 0.000341 0.000000
-0.000153 -0.000152 0.000780 0.000000
-0.000141 -0.000063 0.000333 0.000000
-0.000118 -0.000047 0.000280 0.000000
-0.000149 -0.000086 0.000424 0.000000
-0.000104 0.000000 0.000189 0.000000
-0.000156 -0.000040 0.000318 0.000000
-0.000133 0.000017 0.000196 0.000000
-0.000147 0.000018 0.000220 0.000000
-0.000144 0.000038 0.000203 0.000000
-0.000133 0.000016 0.000197 0.000000
-0.000178 0.000032 0.000319 0.000000
-0.000191 0.000019 0.000286 0.000000
-0.000108 -0.000044 0.000267 0.000000
-0.000078 -0.000098 0.000520 0.000000
-0.000120 -0.000053 0.000190 0.000000
-0.000064 0.000028 0.000274 0.000000
-0.000090 -0.000124 0.000692 0.000000
-0.000144 -0.000093 0.000416 0.000000
-0.000158 -0.000030 0.000281 0.000000
-0.000108 -0.000077 0.000354 0.000000
-0.000160 -0.000043 0.000333 0.000000
-0.000142 0.000018 0.000202 0.000000
0.000025 -0.000080 0.000547 0.000000
-0.000183 -0.000096 0.000456 0.000000
-0.000120 -0.000161 0.000569 0.000000
-0.000441 0.000014 0.001201 0.000000
-0.000185 -0.000168 0.000886 0.000000
-0.000043 0.000010 0.000795 0.000000
-0.000105 -0.000143 0.000825 0.000000
-0.000130 -0.000107 0.000475 0.000000
0.000056 -0.000098 0.000598 0.000000
-0.000010 -0.000019 0.000500 0.000000
-0.000204 -0.000099 0.000687 0.000000
0.000048 -0.000077 0.000423 0.000000
-0.000026 -0.000018 0.000497 0.000000
-0.000004 -0.000030 0.000423 0.000000
0.000029 -0.000054 0.000571 0.000000
0.000048 -0.000070 0.000586 0.000000
0.000040 -0.000077 0.000556 0.000000
-0.000162 -0.000026 0.000336 0.000000
-0.000174 -0.000034 0.000596 0.000000
0.000058 -0.000074 0.000514 0.000000
-0.000172 -0.000129 0.000523 0.000000
-0.000162 -0.000122 0.000533 0.000000
-0.000142 -0.000129 0.000525 0.000000
-0.000162 -0.000123 0.000532 0.000000
-0.000171 -0.000058 0.000356 0.000000
-0.000156 -0.000032 0.000314 0.000000
-0.000138 -0.000060 0.000332 0.000000
-0.000170 -0.000063 0.000379 0.000000
-0.000013 -0.000008 0.000306 0.000000
-0.000005 -0.000006 0.000441 0.000000
0.000025 -0.000055 0.000522 0.000000
-0.000011 -0.000032 0.000431 0.000000
0.000008 -0.000047 0.000446 0.000000
-0.000237 -0.000068 0.000451 0.000000
-0.000012 -0.000009 0.000528 0.000000
-0.000018 -0.000017 0.000453 0.000000
-0.000035 -0.000015 0.000402 0.000000
-0.000014 -0.000010 0.000535 0.000000
-0.000011 -0.000031 0.000664 0.000000
-0.000270 -0.000081 0.000687 0.000000
-0.000032 -0.000013 0.000505 0.000000
-0.000023 -0.000011 0.000637 0.000000
0.000038 -0.000084 0.000274 0.000000
-0.000236 -0.000137 0.000260 0.000000
-0.000209 -0.000100 0.000066 0.000000
-0.000253 -0.000133 0.000162 0.000000
-0.000225 -0.000127 0.000329 0.000000
-0.000336 -0.000103 0.000591 0.000000
-0.000227 -0.000146 0.000355 0.000000
0.000024 -0.000063 0.000486 0.000000
0.000073 -0.000118 0.000237 0.000000
0.000055 -0.000130 0.000350 0.000000
0.000051 -0.000098 0.000226 0.000000
0.000050 -0.000109 0.000261 0.000000
-0.000014 -0.000061 0.000063 0.000000
-0.000025 -0.000578 0.000801 0.000000
0.000035 -0.000108 0.000216 0.000000
-0.000022 -0.000057 0.000089 0.000000
-0.000201 -0.000483 0.000601 0.000000
-0.000026 -0.000055 0.000082 0.000000
0.000037 -0.000101 0.000116 0.000000
-0.000001 -0.000072 0.000144 0.000000
0.000037 -0.000094 0.000205 0.000000
0.000032 -0.000099 0.000196 0.000000
-0.000004 -0.000080 0.000138 0.000000
0.000042 -0.000118 0.000277 0.000000
0.000049 -0.000095 0.000230 0.000000
0.000001 -0.000074 0.000242 0.000000
-0.000005 -0.000075 0.000136 0.000000
0.000021 -0.000095 0.000245 0.000000
-0.000015 -0.000064 0.000101 0.000000
-0.000023 -0.000057 0.000085 0.000000
-0.000016 -0.000065 0.000071 0.000000
-0.000024 -0.000053 0.000072 0.000000
0.000011 -0.000089 0.000137 0.000000
-0.000022 -0.000057 0.000081 0.000000
-0.000026 -0.000049 0.000057 0.000000
-0.000030 -0.000052 0.000066 0.000000
-0.000030 -0.000052 0.000068 0.000000
-0.000031 -0.000050 0.000068 0.000000
-0.000008 -0.000066 0.000153 0.000000
-0.000030 -0.000057 0.000075 0.000000
0.000013 -0.000074 0.000127 0.000000
-0.000018 -0.000060 0.000076 0.000000
0.000023 -0.000077 0.000117 0.000000
-0.000012 -0.000059 0.000086 0.000000
0.000029 -0.000077 0.000165 0.000000
-0.000023 -0.000058 0.000086 0.000000
0.000001 -0.000081 0.000186 0.000000
-0.000018 -0.000063 0.000107 0.000000
-0.000260 -0.000118 0.000330 0.000000
-0.000227 -0.000109 0.000212 0.000000
-0.000272 -0.000096 0.000676 0.000000
-0.000248 -0.000122 0.000315 0.000000
-0.000014 -0.000029 0.000584 0.000000
-0.000028 -0.000009 0.000609 0.000000
-0.000020 -0.000031 0.000577 0.000000
0.000005 -0.000049 0.000567 0.000000
-0.000025 -0.000020 0.000631 0.000000
0.000020 -0.000070 0.000475 0.000000
-0.000029 -0.000014 0.000628 0.000000
-0.000340 -0.000034 0.000552 0.000000
-0.000022 -0.000036 0.000556 0.000000
-0.000017 -0.000025 0.000537 0.000000
-0.000052 0.000031 0.000337 0.000000
-0.000051 0.000016 0.000269 0.000000
-0.000127 -0.000104 0.000478 0.000000
-0.000057 0.000014 0.000372 0.000000
-0.000210 -0.000162 0.001001 0.000000
-0.000046 0.000015 0.000542 0.000000
-0.000126 -0.000159 0.000931 0.000000
-0.000072 0.000054 0.000529 0.000000
-0.000024 -0.000027 0.000478 0.000000
-0.000218 -0.000220 0.001263 0.000000
-0.000151 -0.000171 0.001003 0.000000
-0.000242 -0.000191 0.001217 0.000000
-0.000371 -0.000023 0.000426 0.000000
0.000007 -0.000064 0.000457 0.000000
-0.000026 -0.000034 0.000488 0.000000
-0.000009 -0.000041 0.000500 0.000000
-0.000009 -0.000049 0.000151 0.000000
0.000005 -0.000060 0.000126 0.000000
-0.000325 -0.000038 0.000116 0.000000
-0.000247 -0.000058 0.000067 0.000000
-0.000034 -0.000052 0.000083 0.000000
-0.000044 -0.000058 0.000120 0.000000
-0.000017 -0.000063 0.000137 0.000000
-0.000041 -0.000070 0.000174 0.000000
-0.000027 -0.000059 0.000093 0.000000
-0.000003 -0.000061 0.000094 0.000000
-0.000023 -0.000054 0.000072 0.000000
-0.000014 -0.000066 0.000148 0.000000
-0.000018 -0.000054 0.000078 0.000000
-0.000023 -0.000054 0.000097 0.000000
-0.000347 -0.000065 0.000261 0.000000
-0.000296 -0.000084 0.000259 0.000000
-0.000387 -0.000098 0.000353 0.000000
-0.000372 -0.000078 0.000462 0.000000
-0.000033 -0.000053 0.000076 0.000000
-0.000029 -0.000057 0.000087 0.000000
-0.000035 -0.000036 0.000331 0.000000
0.000008 -0.000057 0.000452 0.000000
-0.000025 -0.000060 0.000150 0.000000
-0.000038 -0.000063 0.000111 0.000000
-0.000028 -0.000054 0.000071 0.000000
-0.000023 -0.000075 0.000200 0.000000
-0.000016 -0.000066 0.000163 0.000000
-0.000053 -0.000060 0.000146 0.000000
-0.000013 -0.000050 0.000103 0.000000
-0.000019 -0.000064 0.000213 0.000000
-0.000017 -0.000061 0.000124 0.000000
-0.000024 -0.000061 0.000108 0.000000
-0.000009 -0.000053 0.000189 0.000000
-0.000357 -0.000103 0.000307 0.000000
-0.000238 -0.000291 0.001126 0.000000
-0.000237 -0.000257 0.001208 0.000000
-0.000367 -0.000126 0.001357 0.000000
-0.000257 -0.000240 0.001148 0.000000
-0.000017 -0.000037 0.000356 0.000000
-0.000020 -0.000031 0.000607 0.000000
-0.000024 -0.000031 0.000463 0.000000
-0.000230 -0.000297 0.001159 0.000000
-0.000057 0.000015 0.000309 0.000000
-0.000057 0.000005 0.000361 0.000000
-0.000048 0.000014 0.000239 0.000000
-0.000057 0.000012 0.000305 0.000000
-0.000106 0.000048 0.000559 0.000000
-0.000020 -0.000055 0.000726 0.000000
-0.000056 0.000034 0.000475 0.000000
-0.000043 0.000004 0.000563 0.000000
-0.000056 0.000036 0.000401 0.000000
-0.000060 0.000008 0.000439 0.000000
-0.000158 0.000047 0.000042 0.000000
-0.000022 -0.000005 0.000001 0.000000
-0.000125 0.000038 -0.000035 0.000000
-0.000212 0.000078 -0.000002 0.000000
-0.000132 0.000003 -0.000050 0.000000
-0.000189 0.000031 0.000019 0.000000
-0.000104 0.000029 0.000037 0.000000
-0.000014 -0.000001 -0.000004 0.000000
-0.000149 0.000019 0.000082 0.000000
-0.000201 0.000009 0.000041 0.000000
-0.000060 0.000031 0.000206 0.000000
-0.000046 0.000027 0.000210 0.000000
-0.000143 -0.000009 0.000178 0.000000
-0.000211 0.000015 0.000202 0.000000
-0.000161 0.000006 0.000192 0.000000
-0.000053 0.000025 0.000216 0.000000
-0.000235 0.000077 0.000489 0.000000
-0.000249 0.000070 0.000391 0.000000
-0.000328 0.000184 0.000669 0.000000
-0.000174 0.000027 0.000048 0.000000
-0.000124 0.000041 -0.000013 0.000000
-0.000155 0.000054 -0.000033 0.000000
-0.000171 0.000055 -0.000030 0.000000
-0.000135 0.000029 -0.000064 0.000000
-0.000123 0.000043 -0.000019 0.000000
-0.000008 -0.000011 0.000008 0.000000
-0.000015 -0.000011 0.000012 0.000000
-0.000053 -0.000020 0.000068 0.000000
-0.000051 0.000007 -0.000031 0.000000
-0.000062 0.000011 -0.000034 0.000000
0.000026 -0.000025 0.000006 0.000000
-0.000052 0.000008 -0.000009 0.000000
-0.000056 0.000009 -0.000000 0.000000
-0.000009 -0.000014 0.000017 0.000000
0.000003 -0.000017 0.000005 0.000000
-0.000139 0.000048 -0.000003 0.000000
-0.000102 0.000001 -0.000066 0.000000
-0.000118 0.000035 0.000015 0.000000
-0.000024 -0.000004 0.000025 0.000000
-0.000001 -0.000016 0.000005 0.000000
0.000020 -0.000024 0.000009 0.000000
0.000030 -0.000028 0.000001 0.000000
-0.000023 -0.000005 -0.000026 0.000000
-0.000104 0.000028 -0.000028 0.000000
-0.000006 -0.000017 -0.000020 0.000000
-0.000011 -0.000009 -0.000010 0.000000
-0.000025 -0.000009 -0.000028 0.000000
-0.000012 -0.000049 -0.000035 0.000000
-0.000047 0.000001 -0.000037 0.000000
-0.000061 -0.000021 -0.000078 0.000000
-0.000081 0.000018 -0.000036 0.000000
-0.000029 -0.000004 0.000018 0.000000
-0.000007 -0.000012 -0.000001 0.000000
-0.000053 0.000008 0.000007 0.000000
0.000004 -0.000019 0.000006 0.000000
0.000004 -0.000019 -0.000006 0.000000
0.000007 -0.000022 -0.000029 0.000000
-0.000020 -0.000006 -0.000027 0.000000
0.000000 -0.000016 0.000005 0.000000
0.000023 -0.000030 0.000009 0.000000
-0.000031 -0.000002 0.000028 0.000000
-0.000003 -0.000014 0.000008 0.000000
-0.000003 -0.000004 0.000004 0.000000
-0.000001 -0.000004 0.000003 0.000000
-0.000005 -0.000006 0.000005 0.000000
0.000007 -0.000017 0.000010 0.000000
0.000000 -0.000005 0.000002 0.000000
-0.000004 -0.000007 0.000006 0.000000
0.000017 -0.000027 -0.000002 0.000000
0.000001 -0.000007 0.000002 0.000000
-0.000030 -0.000032 -0.000024 0.000000
-0.000039 -0.000024 -0.000013 0.000000
-0.000031 -0.000033 -0.000004 0.000000
-0.000011 -0.000117 0.000079 0.000000
0.000016 -0.000024 0.000013 0.000000
-0.000003 -0.000007 0.000003 0.000000
-0.000026 -0.000050 -0.000060 0.000000
-0.000034 -0.000024 -0.000033 0.000000
-0.000074 -0.000035 0.000103 0.000000
-0.000004 -0.000003 0.000003 0.000000
0.000018 -0.000059 -0.000007 0.000000
0.000028 -0.000033 -0.000018 0.000000
0.000019 -0.000069 -0.000016 0.000000
-0.000008 -0.000012 -0.000033 0.000000
0.000005 -0.000078 -0.000098 0.000000
-0.000027 -0.000081 -0.000069 0.000000
-0.000002 -0.000108 0.000061 0.000000
-0.000014 -0.000013 0.000018 0.000000
-0.000009 -0.000059 0.000033 0.000000
-0.000005 -0.000047 -0.000004 0.000000
-0.000031 -0.000034 0.000014 0.000000
-0.000030 -0.000004 0.000018 0.000000
-0.000027 -0.000037 0.000031 0.000000
-0.000020 -0.000009 0.000022 0.000000
-0.000101 -0.000013 -0.000051 0.000000
-0.000115 0.000037 -0.000015 0.000000
-0.000118 0.000033 -0.000010 0.000000
-0.000006 -0.000046 -0.000004 0.000000
-0.000021 -0.000080 -0.000082 0.000000
-0.000031 -0.000043 -0.000068 0.000000
-0.000047 -0.000051 -0.000100 0.000000
-0.000106 -0.000016 -0.000020 0.000000
-0.000113 0.000012 -0.000009 0.000000
-0.000053 -0.000026 -0.000083 0.000000
-0.000092 -0.000051 -0.000126 0.000000
-0.000069 -0.000040 -0.000108 0.000000
-0.000097 -0.000015 -0.000079 0.000000
-0.000005 -0.000056 0.000017 0.000000
-0.000006 -0.000082 -0.000030 0.000000
-0.000039 -0.000031 -0.000074 0.000000
-0.000050 -0.000098 -0.000145 0.000000
-0.000028 -0.000061 -0.000018 0.000000
-0.000039 -0.000104 0.000061 0.000000
-0.000036 -0.000028 0.000022 0.000000
-0.000027 -0.000063 0.000005 0.000000
-0.000011 -0.000052 0.000045 0.000000
-0.000003 -0.000012 -0.000007 0.000000
-0.000024 -0.000075 -0.000079 0.000000
-0.000028 -0.000049 -0.000065 0.000000
-0.000102 -0.000037 -0.000064 0.000000
-0.000105 0.000000 -0.000042 0.000000
-0.000107 0.000001 -0.000012 0.000000
-0.000084 -0.000038 -0.000108 0.000000
-0.000102 -0.000029 -0.000066 0.000000
-0.000091 -0.000027 -0.000090 0.000000
-0.000106 -0.000037 -0.000026 0.000000
-0.000004 -0.000087 -0.000005 0.000000
-0.000003 -0.000011 -0.000009 0.000000
-0.000055 -0.000063 -0.000115 0.000000
-0.000074 -0.000086 -0.000153 0.000000
-0.000029 -0.000034 0.000035 0.000000
-0.000027 -0.000065 0.000029 0.000000
-0.000019 -0.000044 0.000039 0.000000
-0.000001 -0.000019 -0.000004 0.000000
-0.000003 -0.000055 0.000021 0.000000
-0.000011 -0.000077 0.000071 0.000000
0.000013 -0.000070 -0.000053 0.000000
-0.000002 -0.000014 0.000002 0.000000
-0.000023 -0.000029 -0.000053 0.000000
0.000006 -0.000104 -0.000137 0.000000
-0.000026 -0.000034 -0.000045 0.000000
-0.000028 -0.000090 -0.000078 0.000000
-0.000030 -0.000050 -0.000032 0.000000
-0.000028 -0.000059 -0.000046 0.000000
-0.000045 -0.000039 0.000079 0.000000
-0.000010 -0.000017 0.000015 0.000000
-0.000004 -0.000010 0.000007 0.000000
-0.000001 -0.000006 0.000005 0.000000
0.000015 -0.000073 0.000010 0.000000
0.000019 -0.000051 0.000002 0.000000
-0.000002 -0.000009 0.000005 0.000000
0.000001 -0.000012 -0.000002 0.000000
-0.000005 -0.000003 0.000005 0.000000
-0.000008 -0.000011 0.000009 0.000000
0.000001 -0.000005 0.000002 0.000000
-0.000002 -0.000004 0.000003 0.000000
-0.000001 -0.000007 0.000003 0.000000
0.000001 -0.000005 0.000001 0.000000
0.000014 -0.000059 -0.000029 0.000000
0.000015 -0.000126 -0.000027 0.000000
-0.000000 -0.000052 -0.000075 0.000000
-0.000015 -0.000070 -0.000104 0.000000
-0.000016 -0.000038 -0.000065 0.000000
-0.000024 -0.000060 -0.000075 0.000000
-0.000003 -0.000003 0.000003 0.000000
-0.000002 -0.000007 0.000004 0.000000
0.000014 -0.000048 0.000017 0.000000
-0.000004 -0.000012 0.000006 0.000000
0.000014 -0.000067 -0.000020 0.000000
0.000013 -0.000099 -0.000045 0.000000
-0.000127 0.000008 -0.000035 0.000000
-0.000122 0.000036 -0.000006 0.000000
-0.000120 -0.000018 0.000115 0.000000
-0.000060 -0.000023 0.000077 0.000000
-0.000037 -0.000011 0.000014 0.000000
-0.000015 -0.000002 0.000004 0.000000
-0.000032 -0.000011 -0.000001 0.000000
-0.000014 -0.000001 -0.000002 0.000000
-0.000139 0.000012 0.000058 0.000000
-0.000110 -0.000009 0.000094 0.000000
-0.000017 -0.000007 -0.000001 0.000000
-0.000118 -0.000007 -0.000077 0.000000
-0.000131 -0.000008 -0.000065 0.000000
-0.000119 0.000007 0.000057 0.000000
-0.000142 -0.000003 -0.000008 0.000000
-0.000119 -0.000002 0.000078 0.000000
-0.000081 -0.000032 0.000109 0.000000
-0.000008 -0.000005 0.000008 0.000000
-0.000065 -0.000059 0.000119 0.000000
-0.000007 -0.000008 0.000008 0.000000
-0.000128 0.000010 0.000021 0.000000
-0.000121 -0.000019 0.000145 0.000000
-0.000100 -0.000033 0.000118 0.000000
-0.000164 -0.000021 0.000180 0.000000
-0.000013 -0.000006 -0.000000 0.000000
-0.000013 -0.000001 -0.000000 0.000000
-0.000015 -0.000005 -0.000003 0.000000
-0.000174 -0.000012 0.000093 0.000000
-0.000123 -0.000020 0.000105 0.000000
-0.000011 -0.000003 0.000005 0.000000
-0.000104 -0.000039 0.000114 0.000000
-0.000012 -0.000011 0.000003 0.000000
-0.000013 -0.000004 -0.000005 0.000000
-0.000012 0.000000 -0.000010 0.000000
-0.000150 0.000006 0.000042 0.000000
-0.000148 0.000051 0.000007 0.000000
-0.000139 0.000043 0.000018 0.000000
-0.000143 -0.000030 0.000121 0.000000
-0.000016 0.000003 -0.000012 0.000000
-0.000019 -0.000009 -0.000008 0.000000
-0.000167 -0.000003 -0.000021 0.000000
-0.000167 0.000002 -0.000021 0.000000
-0.000180 -0.000005 0.000161 0.000000
-0.000169 0.000056 0.000022 0.000000
-0.000028 0.000002 0.000009 0.000000
-0.000282 0.000032 0.000085 0.000000
-0.000158 0.000016 0.000064 0.000000
-0.000171 0.000002 0.000027 0.000000
-0.000017 -0.000003 0.000001 0.000000
-0.000016 0.000001 0.000003 0.000000
-0.000175 0.000059 0.000011 0.000000
-0.000165 -0.000076 0.000140 0.000000
-0.000175 0.000032 0.000024 0.000000
-0.000113 -0.000059 0.000027 0.000000
-0.000162 0.000030 0.000060 0.000000
-0.000171 0.000027 0.000033 0.000000
-0.000016 -0.000004 -0.000003 0.000000
-0.000014 -0.000004 -0.000006 0.000000
-0.000105 0.000033 -0.000036 0.000000
-0.000157 0.000005 -0.000054 0.000000
-0.000151 0.000012 -0.000069 0.000000
-0.000154 0.000008 -0.000039 0.000000
-0.000190 0.000026 0.000081 0.000000
-0.000163 0.000057 0.000026 0.000000
-0.000112 -0.000000 0.000094 0.000000
-0.000128 0.000036 0.000030 0.000000
-0.000051 0.000007 0.000050 0.000000
-0.000083 -0.000003 0.000093 0.000000
-0.000187 0.000065 0.000006 0.000000
-0.000171 0.000026 0.000016 0.000000
-0.000137 0.000041 0.000031 0.000000
-0.000169 0.000030 0.000040 0.000000
-0.000191 0.000065 0.000003 0.000000
-0.000195 0.000067 0.000005 0.000000
-0.000179 0.000061 0.000005 0.000000
-0.000189 0.000065 0.000002 0.000000
-0.000032 -0.000008 -0.000020 0.000000
-0.000016 0.000002 -0.000006 0.000000
-0.000147 0.000046 -0.000018 0.000000
-0.000142 0.000040 -0.000044 0.000000
-0.000145 0.000008 0.000080 0.000000
-0.000109 0.000026 0.000030 0.000000
-0.000125 0.000013 0.000080 0.000000
-0.000156 0.000009 0.000105 0.000000
-0.000147 0.000028 -0.000023 0.000000
-0.000146 0.000027 0.000009 0.000000
-0.000149 0.000017 0.000029 0.000000
-0.000138 0.000021 0.000041 0.000000
-0.000124 0.000011 0.000067 0.000000
-0.000105 -0.000002 0.000080 0.000000
-0.000094 -0.000001 0.000077 0.000000
-0.000084 0.000021 0.000034 0.000000
-0.000089 -0.000016 0.000095 0.000000
-0.000103 0.000023 -0.000052 0.000000
-0.000115 0.000018 -0.000048 0.000000
-0.000127 0.000012 -0.000030 0.000000
-0.000129 0.000045 0.000002 0.000000
-0.000122 0.000023 -0.000010 0.000000
-0.000128 0.000012 0.000015 0.000000
-0.000098 0.000032 -0.000037 0.000000
-0.000116 0.000032 -0.000030 0.000000
-0.000118 0.000038 0.000019 0.000000
-0.000102 0.000029 0.000027 0.000000
-0.000082 -0.000006 0.000077 0.000000
-0.000039 0.000002 0.000023 0.000000
-0.000027 -0.000022 0.000046 0.000000
-0.000097 0.000029 0.000029 0.000000
-0.000068 0.000013 0.000031 0.000000
-0.000068 0.000011 0.000035 0.000000
-0.000082 0.000015 0.000047 0.000000
-0.000080 -0.000010 0.000064 0.000000
-0.000062 0.000017 0.000020 0.000000
-0.000017 -0.000008 0.000033 0.000000
-0.000133 0.000048 -0.000028 0.000000
-0.000149 0.000052 -0.000010 0.000000
-0.000147 0.000046 0.000001 0.000000
-0.000013 -0.000005 0.000028 0.000000
-0.000135 0.000043 0.000021 0.000000
-0.000124 0.000037 0.000031 0.000000
-0.000163 0.000052 0.000035 0.000000
-0.000015 0.000000 -0.000004 0.000000
-0.000031 -0.000010 0.000006 0.000000
-0.000115 0.000034 0.000025 0.000000
-0.000096 0.000027 0.000020 0.000000
-0.000099 0.000005 0.000074 0.000000
-0.000056 -0.000001 0.000036 0.000000
-0.000208 0.000074 0.000002 0.000000
-0.000202 0.000071 0.000006 0.000000
-0.000156 0.000045 0.000041 0.000000
-0.000200 0.000070 -0.000013 0.000000
-0.000206 0.000075 -0.000008 0.000000
-0.000255 0.000018 0.000212 0.000000
-0.000249 -0.000003 0.000227 0.000000
-0.000169 0.000025 0.000089 0.000000
-0.000131 0.000042 0.000026 0.000000
-0.000172 0.000057 0.000042 0.000000
-0.000136 0.000017 0.000063 0.000000
-0.000074 0.000013 -0.000059 0.000000
-0.000189 0.000064 -0.000022 0.000000
-0.000209 0.000048 -0.000019 0.000000
-0.000189 0.000065 0.000004 0.000000
-0.000200 0.000038 0.000021 0.000000
-0.000204 0.000072 0.000005 0.000000
-0.000208 0.000042 0.000014 0.000000
-0.000196 0.000068 0.000006 0.000000
-0.000200 0.000069 0.000006 0.000000
-0.000113 0.000035 0.000022 0.000000
-0.000020 -0.000002 0.000005 0.000000
-0.000166 0.000023 -0.000088 0.000000
-0.000200 0.000047 -0.000037 0.000000
-0.000358 0.000145 0.000230 0.000000
-0.000351 0.000035 0.000481 0.000000
-0.000190 0.000067 0.000066 0.000000
-0.000254 0.000133 0.000171 0.000000
-0.000195 0.000070 -0.000016 0.000000
-0.000241 0.000006 -0.000106 0.000000
-0.000078 0.000036 0.000326 0.000000
-0.000281 0.000038 0.000165 0.000000
-0.000344 0.000225 0.000438 0.000000
-0.000348 0.000136 0.000566 0.000000
-0.000057 0.000026 0.000320 0.000000
-0.000057 0.000023 0.000275 0.000000
-0.000255 -0.000010 0.000274 0.000000
-0.000093 0.000036 0.000294 0.000000
0.000009 -0.000076 0.000514 0.000000
0.000030 -0.000071 0.000562 0.000000
-0.000017 -0.000039 0.000598 0.000000
-0.000019 -0.000055 0.000446 0.000000
-0.000072 0.000008 0.000570 0.000000
-0.000018 -0.000045 0.000531 0.000000
-0.000060 0.000002 0.000511 0.000000
-0.000012 -0.000042 0.000553 0.000000
0.000010 -0.000075 0.000596 0.000000
-0.000226 -0.000243 0.001175 0.000000
-0.000053 0.000023 0.000467 0.000000
-0.000046 0.000001 0.000458 0.000000
-0.000053 0.000026 0.000400 0.000000
-0.000054 -0.000004 0.000376 0.000000
-0.000056 0.000002 0.000313 0.000000
-0.000057 0.000011 0.000300 0.000000
-0.000375 0.000245 0.000681 0.000000
-0.000367 0.000191 0.000719 0.000000
-0.000450 0.000227 0.000553 0.000000
-0.000052 0.000009 0.000578 0.000000
-0.000010 -0.000054 0.000809 0.000000
-0.000048 0.000018 0.000237 0.000000
-0.000054 0.000030 0.000267 0.000000
-0.000201 0.000059 0.000296 0.000000
-0.000212 -0.000005 0.000222 0.000000
-0.000381 -0.000032 0.000287 0.000000
-0.000027 -0.000035 0.000515 0.000000
-0.000170 -0.000446 0.001196 0.000000
-0.000242 -0.000432 0.001096 0.000000
-0.000355 -0.000101 0.000379 0.000000
-0.000137 -0.000327 0.000860 0.000000
-0.000168 -0.000390 0.001216 0.000000
-0.000159 -0.000410 0.001198 0.000000
-0.000041 -0.000055 0.000118 0.000000
-0.000007 -0.000070 0.000172 0.000000
-0.000028 -0.000058 0.000093 0.000000
-0.000025 -0.000069 0.000192 0.000000
-0.000019 -0.000060 0.000147 0.000000
-0.000039 -0.000065 0.000259 0.000000
-0.000035 -0.000067 0.000202 0.000000
-0.000002 -0.000081 0.000269 0.000000
-0.000241 -0.000731 0.000815 0.000000
-0.000421 -0.000457 0.000916 0.000000
-0.000040 -0.000057 0.000268 0.000000
-0.000056 -0.000053 0.000093 0.000000
0.000038 -0.000156 0.000068 0.000000
0.000009 -0.000135 0.000062 0.000000
-0.000010 -0.000107 0.000048 0.000000
-0.000386 -0.000732 0.000828 0.000000
-0.000017 -0.000106 0.000053 0.000000
-0.000204 -0.000902 0.000552 0.000000
-0.000181 -0.000806 0.000732 0.000000
-0.000351 -0.000673 0.000690 0.000000
-0.000054 -0.000046 0.000132 0.000000
-0.000645 -0.000251 0.001333 0.000000
-0.000401 -0.000783 0.001649 0.000000
0.000024 -0.000140 0.000331 0.000000
-0.000032 -0.000079 0.000320 0.000000
-0.000384 -0.000684 0.001354 0.000000
-0.000325 -0.000779 0.001655 0.000000
-0.000035 -0.000081 0.000457 0.000000
-0.000015 -0.000074 0.000233 0.000000
-0.000021 -0.000062 0.000452 0.000000
-0.000000 -0.000129 0.000054 0.000000
0.000014 -0.000129 0.000049 0.000000
-0.000038 -0.000071 0.000312 0.000000
-0.000314 -0.000784 0.001219 0.000000
0.000057 -0.000181 0.000091 0.000000
-0.000045 -0.001064 0.000671 0.000000
-0.000304 -0.000804 0.000572 0.000000
-0.000300 -0.000808 0.000675 0.000000
-0.000298 -0.000732 0.000632 0.000000
-0.000362 -0.000677 0.000789 0.000000
-0.000009 -0.000105 0.000512 0.000000
-0.000062 -0.000062 0.000272 0.000000
-0.000035 -0.000081 0.000262 0.000000
0.000031 -0.000133 0.000303 0.000000
-0.000036 -0.000082 0.000305 0.000000
-0.000007 -0.000074 0.000244 0.000000
-0.000488 0.000026 0.000408 0.000000
-0.000389 -0.000066 0.000273 0.000000
-0.000017 -0.000052 0.000131 0.000000
-0.000021 -0.000078 0.000294 0.000000
-0.000021 -0.000066 0.000154 0.000000
-0.000015 -0.000057 0.000259 0.000000
-0.000321 -0.000402 0.000954 0.000000
-0.000030 -0.000052 0.000267 0.000000
-0.000227 -0.000316 0.001109 0.000000
-0.000223 -0.000395 0.001036 0.000000
-0.000470 -0.000096 0.000436 0.000000
-0.000465 -0.000100 0.000755 0.000000
-0.000435 -0.000144 0.000520 0.000000
-0.000235 -0.000465 0.001082 0.000000
0.000004 -0.000076 0.000392 0.000000
0.000033 -0.000077 0.000586 0.000000
-0.000224 -0.000412 0.001026 0.000000
-0.000273 -0.000373 0.000985 0.000000
-0.000249 -0.000346 0.001058 0.000000
-0.000250 -0.000366 0.001037 0.000000
-0.000454 -0.000066 0.000489 0.000000
-0.000447 -0.000158 0.000717 0.000000
-0.000279 -0.000395 0.000956 0.000000
-0.000003 -0.000072 0.000313 0.000000
-0.000003 -0.000088 0.000302 0.000000
-0.000014 -0.000070 0.000214 0.000000
-0.000021 -0.000071 0.000224 0.000000
-0.000024 -0.000077 0.000273 0.000000
0.000003 -0.000096 0.000330 0.000000
-0.000026 -0.000096 0.000330 0.000000
-0.000012 -0.000079 0.000248 0.000000
-0.000020 -0.000071 0.000197 0.000000
-0.000274 -0.000774 0.001617 0.000000
-0.000226 -0.000877 0.001659 0.000000
0.000018 -0.000139 0.000628 0.000000
-0.000008 -0.000098 0.000493 0.000000
-0.000254 -0.000804 0.000577 0.000000
-0.000148 -0.001054 0.000550 0.000000
-0.000059 -0.000039 0.000242 0.000000
-0.000047 -0.000058 0.000098 0.000000
0.000060 -0.000180 0.000105 0.000000
0.000130 -0.001271 0.000869 0.000000
-0.000325 -0.000733 0.000666 0.000000
-0.000333 -0.000799 0.000532 0.000000
-0.000374 -0.000604 0.000832 0.000000
-0.000425 -0.000599 0.000886 0.000000
0.000001 -0.000125 0.000606 0.000000
-0.000048 -0.000075 0.000489 0.000000
0.000013 -0.000128 0.000513 0.000000
-0.000018 -0.000088 0.000382 0.000000
0.000035 -0.000139 0.000473 0.000000
0.000006 -0.000102 0.000349 0.000000
0.000008 -0.000101 0.000350 0.000000
0.000029 -0.000122 0.000493 0.000000
-0.000123 -0.000873 0.001328 0.000000
-0.000193 -0.000910 0.001592 0.000000
-0.000148 -0.000952 0.001503 0.000000
0.000065 -0.000190 0.000396 0.000000
-0.000376 -0.000726 0.000609 0.000000
-0.000261 -0.000901 0.000503 0.000000
-0.000397 -0.000609 0.000820 0.000000
-0.000451 -0.000552 0.000814 0.000000
0.000025 -0.000108 0.000567 0.000000
0.000044 -0.000134 0.000600 0.000000
-0.000013 -0.000101 0.000364 0.000000
0.000009 -0.000124 0.000478 0.000000
-0.000015 -0.000088 0.000318 0.000000
-0.000015 -0.000066 0.000302 0.000000
-0.000019 -0.000078 0.000326 0.000000
-0.000020 -0.000083 0.000333 0.000000
-0.000026 -0.000091 0.000322 0.000000
-0.000034 -0.000082 0.000278 0.000000
0.000001 -0.000109 0.000367 0.000000
-0.000022 -0.000078 0.000257 0.000000
-0.000029 -0.000076 0.000420 0.000000
-0.000586 0.000077 0.000574 0.000000
-0.000269 -0.000408 0.000975 0.000000
-0.000364 -0.000394 0.001060 0.000000
-0.000718 0.000056 0.000678 0.000000
-0.000696 -0.000253 0.001797 0.000000
-0.000646 -0.000119 0.000927 0.000000
-0.000431 -0.000197 0.001170 0.000000
-0.000318 -0.000404 0.001002 0.000000
0.000008 -0.000072 0.000318 0.000000
-0.000015 -0.000052 0.000408 0.000000
0.000001 -0.000070 0.000506 0.000000
-0.000041 -0.000007 0.000356 0.000000
-0.000051 0.000016 0.000453 0.000000
-0.000347 0.000066 0.000237 0.000000
-0.000349 -0.000015 0.000289 0.000000
-0.000349 0.000002 0.000500 0.000000
-0.000306 -0.000001 0.000297 0.000000
-0.000050 -0.000014 0.000270 0.000000
-0.000048 0.000005 0.000232 0.000000
-0.000056 0.000010 0.000270 0.000000
-0.000056 0.000008 0.000217 0.000000
-0.000006 -0.000056 0.000429 0.000000
-0.000008 -0.000036 0.000597 0.000000
-0.000002 -0.000036 0.000683 0.000000
-0.000025 -0.000040 0.000466 0.000000
0.000045 -0.000095 0.000461 0.000000
0.000009 -0.000071 0.000383 0.000000
0.000001 -0.000045 0.000562 0.000000
-0.000021 -0.000043 0.000461 0.000000
-0.000047 -0.000014 0.000562 0.000000
-0.000009 -0.000048 0.000503 0.000000
-0.000049 -0.000011 0.000439 0.000000
-0.000055 -0.000003 0.000493 0.000000
-0.000055 0.000023 0.000386 0.000000
-0.000056 0.000018 0.000335 0.000000
-0.000335 0.000039 0.000383 0.000000
-0.000293 0.000061 0.000388 0.000000
-0.000055 0.000019 0.000262 0.000000
-0.000050 0.000002 0.000183 0.000000
-0.000077 0.000055 0.000310 0.000000
-0.000061 0.000016 0.000269 0.000000
-0.000247 0.000023 0.000214 0.000000
-0.000084 0.000037 0.000349 0.000000
-0.000344 0.000032 0.000473 0.000000
-0.000301 0.000006 0.000383 0.000000
-0.000247 -0.000002 0.000230 0.000000
-0.000194 0.000019 0.000124 0.000000
-0.000359 0.000018 0.000429 0.000000
-0.000412 0.000136 0.000551 0.000000
-0.000195 0.000026 0.000112 0.000000
-0.000203 0.000037 0.000099 0.000000
-0.000070 0.000014 0.000053 0.000000
-0.000178 0.000008 0.000120 0.000000
-0.000187 0.000041 -0.000058 0.000000
-0.000212 0.000028 -0.000048 0.000000
-0.000205 0.000041 -0.000049 0.000000
-0.000171 0.000030 -0.000078 0.000000
-0.000179 -0.000035 0.000077 0.000000
-0.000196 0.000036 0.000021 0.000000
-0.000196 0.000006 0.000044 0.000000
-0.000179 0.000029 0.000018 0.000000
-0.000233 0.000019 0.000012 0.000000
-0.000213 0.000045 -0.000006 0.000000
-0.000216 0.000044 0.000011 0.000000
-0.000212 0.000045 0.000006 0.000000
-0.000015 -0.000002 -0.000003 0.000000
-0.000018 -0.000003 -0.000003 0.000000
-0.000193 0.000032 -0.000075 0.000000
-0.000174 -0.000006 -0.000144 0.000000
-0.000359 0.000023 0.000420 0.000000
-0.000349 -0.000010 0.000450 0.000000
-0.000297 -0.000011 0.000298 0.000000
-0.000241 0.000018 0.000165 0.000000
-0.000209 -0.000019 0.000240 0.000000
-0.000186 0.000006 0.000130 0.000000
-0.000112 0.000005 0.000110 0.000000
-0.000227 -0.000002 0.000201 0.000000
-0.000018 -0.000003 0.000002 0.000000
-0.000024 -0.000003 -0.000003 0.000000
-0.000223 0.000016 0.000031 0.000000
-0.000202 -0.000019 0.000070 0.000000
-0.000196 -0.000021 0.000073 0.000000
-0.000207 0.000011 0.000038 0.000000
-0.000019 -0.000002 -0.000004 0.000000
-0.000022 -0.000002 0.000001 0.000000
-0.000222 0.000024 -0.000061 0.000000
-0.000188 0.000016 -0.000112 0.000000
-0.000026 -0.000005 0.000005 0.000000
-0.000163 -0.000003 0.000175 0.000000
-0.000209 0.000009 -0.000127 0.000000
-0.000196 0.000002 -0.000140 0.000000
-0.000272 0.000003 -0.000046 0.000000
-0.000238 0.000020 -0.000013 0.000000
-0.000217 0.000019 0.000022 0.000000
-0.000331 0.000002 -0.000075 0.000000
-0.000229 -0.000030 0.000099 0.000000
-0.000224 -0.000006 0.000054 0.000000
-0.000230 -0.000012 0.000067 0.000000
-0.000230 -0.000075 0.000183 0.000000
-0.000240 0.000003 -0.000054 0.000000
-0.000265 -0.000023 0.000093 0.000000
-0.000248 -0.000002 0.000042 0.000000
-0.000234 0.000003 0.000024 0.000000
-0.000287 -0.000032 0.000316 0.000000
-0.000299 -0.000018 0.000384 0.000000
-0.000032 -0.000006 0.000012 0.000000
-0.000238 -0.000029 0.000243 0.000000
-0.000367 -0.000002 0.000478 0.000000
-0.000414 -0.000000 0.000564 0.000000
-0.000263 -0.000043 0.000325 0.000000
-0.000281 -0.000011 0.000265 0.000000
-0.000025 -0.000002 0.000010 0.000000
-0.000037 -0.000010 0.000015 0.000000
-0.000069 0.000008 0.000233 0.000000
-0.000405 0.000010 0.000369 0.000000
-0.000139 0.000069 0.000437 0.000000
-0.000376 0.000009 0.000526 0.000000
-0.000026 -0.000033 0.000402 0.000000
-0.000006 -0.000044 0.000515 0.000000
-0.000155 0.000082 0.000512 0.000000
-0.000112 0.000050 0.000379 0.000000
-0.000025 -0.000051 0.000415 0.000000
-0.000004 -0.000068 0.000311 0.000000
-0.000023 -0.000046 0.000437 0.000000
-0.000019 -0.000043 0.000424 0.000000
-0.000036 -0.000042 0.000272 0.000000
-0.000018 -0.000061 0.000274 0.000000
-0.000029 -0.000051 0.000282 0.000000
-0.000031 -0.000054 0.000302 0.000000
-0.000046 -0.000043 0.000357 0.000000
-0.000015 -0.000060 0.000294 0.000000
-0.000022 -0.000058 0.000561 0.000000
-0.000008 -0.000063 0.000438 0.000000
-0.000047 -0.000025 0.000328 0.000000
-0.000052 -0.000018 0.000276 0.000000
-0.000049 0.000004 0.000188 0.000000
-0.000059 0.000001 0.000211 0.000000
-0.000022 -0.000038 0.000427 0.000000
-0.000026 -0.000032 0.000487 0.000000
-0.000059 0.000019 0.000241 0.000000
-0.000051 0.000004 0.000178 0.000000
-0.000366 -0.000402 0.001051 0.000000
-0.000545 -0.000280 0.001427 0.000000
-0.000008 -0.000062 0.000353 0.000000
-0.000013 -0.000064 0.000361 0.000000
-0.000025 -0.000052 0.000634 0.000000
-0.000016 -0.000042 0.000435 0.000000
-0.000019 -0.000068 0.000370 0.000000
-0.000001 -0.000065 0.000458 0.000000
-0.000035 -0.000053 0.000478 0.000000
-0.000034 -0.000058 0.000481 0.000000
-0.000014 -0.000099 0.000357 0.000000
-0.000012 -0.000095 0.000348 0.000000
-0.000670 -0.000058 0.000793 0.000000
-0.000537 -0.000022 0.000719 0.000000
0.000034 -0.000136 0.000462 0.000000
-0.000011 -0.000090 0.000317 0.000000
0.000001 -0.000105 0.000348 0.000000
-0.000011 -0.000103 0.000350 0.000000
0.000037 -0.000128 0.000488 0.000000
0.000033 -0.000141 0.000466 0.000000
0.000031 -0.000142 0.000451 0.000000
0.000020 -0.000137 0.000448 0.000000
-0.000434 -0.000610 0.000943 0.000000
-0.000314 -0.000812 0.000448 0.000000
-0.000333 -0.000769 0.000933 0.000000
0.000027 -0.000124 0.000162 0.000000
-0.000295 -0.000798 0.000510 0.000000
-0.000399 -0.000655 0.000783 0.000000
-0.000382 -0.000648 0.000673 0.000000
-0.000352 -0.000729 0.000645 0.000000
-0.000191 -0.001109 0.000538 0.000000
-0.000184 -0.001055 0.000506 0.000000
-0.000448 -0.000524 0.000901 0.000000
-0.000444 -0.000586 0.000894 0.000000
-0.000330 -0.000640 0.000790 0.000000
-0.000419 -0.000597 0.000848 0.000000
-0.000205 -0.000935 0.001506 0.000000
-0.000247 -0.000855 0.001148 0.000000
0.000071 -0.000173 0.000442 0.000000
0.000001 -0.000129 0.000138 0.000000
-0.000294 -0.000856 0.001073 0.000000
-0.000317 -0.000748 0.001129 0.000000
0.000070 -0.000173 0.000529 0.000000
0.000047 -0.000147 0.000237 0.000000
-0.000044 -0.001328 0.000843 0.000000
-0.000270 -0.000911 0.000501 0.000000
-0.000350 -0.000721 0.000583 0.000000
-0.000118 -0.000070 0.000519 0.000000
0.000118 -0.001671 0.001439 0.000000
0.000098 -0.001555 0.001090 0.000000
0.000154 -0.001341 0.000748 0.000000
-0.000064 -0.001265 0.000691 0.000000
-0.000293 -0.000915 0.000506 0.000000
0.000025 -0.000792 -0.000016 0.000000
-0.000021 -0.000100 0.000094 0.000000
-0.000184 -0.000858 0.001157 0.000000
0.000026 -0.000143 0.000452 0.000000
0.000023 -0.000131 0.000402 0.000000
0.000009 -0.000132 0.000292 0.000000
-0.000028 -0.000101 0.000102 0.000000
0.000031 -0.000138 0.000313 0.000000
0.000020 -0.000145 0.000523 0.000000
0.000018 -0.000138 0.000307 0.000000
0.000039 -0.000146 0.000447 0.000000
-0.000017 -0.000085 0.000314 0.000000
-0.000015 -0.000088 0.000360 0.000000
-0.000575 -0.000003 0.001441 0.000000
-0.000696 0.000026 0.000720 0.000000
0.000039 -0.000136 0.000382 0.000000
-0.000002 -0.000115 0.000370 0.000000
-0.000024 -0.000071 0.000403 0.000000
-0.000024 -0.000054 0.000450 0.000000
-0.000011 -0.000088 0.000357 0.000000
-0.000030 -0.000058 0.000479 0.000000
-0.000021 -0.000075 0.000404 0.000000
-0.000026 -0.000066 0.000460 0.000000
-0.000035 -0.000042 0.000303 0.000000
-0.000023 -0.000051 0.000288 0.000000
-0.000014 -0.000067 0.000342 0.000000
-0.000050 -0.000043 0.000293 0.000000
-0.000049 -0.000044 0.000347 0.000000
-0.000023 -0.000049 0.000340 0.000000
0.000016 -0.000135 0.000384 0.000000
-0.000047 -0.000074 0.000130 0.000000
-0.000015 -0.000089 0.000269 0.000000
-0.000038 -0.000055 0.000459 0.000000
-0.000019 -0.000101 0.000261 0.000000
-0.000014 -0.000092 0.000351 0.000000
-0.000010 -0.000096 0.000275 0.000000
-0.000007 -0.000094 0.000348 0.000000
0.000009 -0.000135 0.000129 0.000000
0.000033 -0.000159 0.000199 0.000000
-0.000031 -0.000095 0.000145 0.000000
0.000017 -0.000120 0.000369 0.000000
0.000093 -0.001553 0.001037 0.000000
0.000100 -0.001152 0.000521 0.000000
-0.000393 -0.000641 0.000631 0.000000
-0.000424 -0.000620 0.000895 0.000000
-0.000193 -0.000941 0.000401 0.000000
-0.000161 -0.001137 0.000543 0.000000
-0.000410 -0.000654 0.000779 0.000000
-0.000010 -0.000156 0.000501 0.000000
-0.000333 -0.000800 0.001061 0.000000
-0.000345 -0.000683 0.000920 0.000000
0.000024 -0.000130 0.000150 0.000000
0.000049 -0.000171 0.000268 0.000000
0.000021 -0.000146 0.000238 0.000000
0.000043 -0.000155 0.000312 0.000000
0.000023 -0.000148 0.000202 0.000000
0.000022 -0.000133 0.000285 0.000000
0.000026 -0.000135 0.000221 0.000000
0.000006 -0.000125 0.000194 0.000000
0.000306 -0.001545 0.001122 0.000000
0.000351 -0.000522 0.000514 0.000000
-0.000028 -0.000094 0.000090 0.000000
-0.000246 -0.000837 0.001157 0.000000
-0.000355 -0.000737 0.000628 0.000000
-0.000305 -0.000751 0.000413 0.000000
-0.000397 -0.000661 0.000937 0.000000
-0.000031 -0.000091 0.000072 0.000000
-0.000007 -0.000122 0.000107 0.000000
-0.000007 -0.000100 0.000100 0.000000
0.000044 -0.000167 0.000217 0.000000
0.000041 -0.000165 0.000192 0.000000
0.000002 -0.000104 0.000260 0.000000
-0.000045 -0.000078 0.000127 0.000000
-0.000021 -0.000092 0.000278 0.000000
-0.000018 -0.000089 0.000197 0.000000
-0.000021 -0.000099 0.000128 0.000000
0.000001 -0.000113 0.000293 0.000000
-0.000003 -0.000120 0.000271 0.000000
-0.000004 -0.000123 0.000154 0.000000
-0.000000 -0.000076 0.000348 0.000000
0.000004 -0.000111 0.000440 0.000000
-0.000049 -0.000037 0.000520 0.000000
-0.000027 -0.000041 0.000395 0.000000
-0.000036 -0.000067 0.000328 0.000000
-0.000040 -0.000067 0.000271 0.000000
-0.000010 -0.000088 0.000469 0.000000
-0.000023 -0.000077 0.000328 0.000000
-0.000850 0.000094 0.001428 0.000000
-0.000024 -0.000083 0.000308 0.000000
-0.000050 -0.000025 0.000326 0.000000
-0.000055 -0.000016 0.000289 0.000000
-0.000043 -0.000026 0.000379 0.000000
-0.000044 -0.000033 0.000320 0.000000
-0.000112 0.000092 0.000372 0.000000
-0.000256 0.000139 0.000612 0.000000
-0.000598 0.000090 0.000582 0.000000
-0.000489 0.000048 0.000496 0.000000
-0.000056 0.000004 0.000211 0.000000
-0.000066 0.000000 0.000212 0.000000
-0.000060 0.000012 0.000219 0.000000
-0.000062 -0.000001 0.000198 0.000000
-0.000037 -0.000045 0.000409 0.000000
-0.000029 -0.000054 0.000384 0.000000
-0.000052 -0.000023 0.000281 0.000000
-0.000052 0.000001 0.000284 0.000000
-0.000023 -0.000044 0.000456 0.000000
-0.000037 -0.000047 0.000394 0.000000
-0.000035 -0.000037 0.000367 0.000000
-0.000031 -0.000034 0.000417 0.000000
-0.000037 -0.000025 0.000385 0.000000
-0.000046 -0.000020 0.000335 0.000000
-0.000048 -0.000006 0.000339 0.000000
-0.000054 -0.000006 0.000291 0.000000
-0.000058 -0.000000 0.000243 0.000000
-0.000054 -0.000010 0.000232 0.000000
-0.000056 -0.000002 0.000210 0.000000
-0.000055 0.000004 0.000236 0.000000
-0.000066 0.000024 0.000257 0.000000
-0.000068 0.000018 0.000223 0.000000
-0.000075 0.000012 0.000286 0.000000
-0.000076 0.000038 0.000286 0.000000
-0.000404 0.000118 0.000321 0.000000
-0.000137 0.000118 0.000419 0.000000
-0.000359 -0.000098 0.000452 0.000000
-0.000038 -0.000004 0.000022 0.000000
-0.000033 -0.000007 0.000008 0.000000
-0.000034 -0.000004 0.000006 0.000000
-0.000359 -0.000029 0.000444 0.000000
-0.000458 0.000001 0.000549 0.000000
-0.000032 -0.000004 0.000010 0.000000
-0.000032 -0.000003 0.000014 0.000000
-0.000031 -0.000005 0.000005 0.000000
-0.000277 -0.000003 -0.000172 0.000000
-0.000238 0.000007 -0.000119 0.000000
-0.000354 -0.000024 0.000123 0.000000
-0.000337 0.000010 -0.000172 0.000000
-0.000270 0.000001 -0.000090 0.000000
-0.000264 -0.000005 0.000024 0.000000
-0.000380 -0.000050 0.000189 0.000000
-0.000201 -0.000070 0.000154 0.000000
-0.000213 -0.000045 0.000113 0.000000
-0.000353 -0.000042 0.000182 0.000000
-0.000285 -0.000010 0.000046 0.000000
-0.000207 -0.000047 0.000122 0.000000
-0.000286 -0.000040 0.000153 0.000000
-0.000036 -0.000004 0.000005 0.000000
-0.000038 -0.000006 0.000001 0.000000
-0.000268 0.000000 -0.000099 0.000000
-0.000260 0.000017 -0.000228 0.000000
-0.000411 -0.000041 0.000376 0.000000
-0.000769 0.000151 0.000783 0.000000
-0.000068 -0.000011 0.000048 0.000000
-0.000037 -0.000010 0.000024 0.000000
-0.000045 -0.000008 0.000016 0.000000
-0.000040 -0.000009 0.000009 0.000000
-0.000034 -0.000005 0.000000 0.000000
-0.000039 -0.000009 0.000010 0.000000
-0.000304 -0.000002 -0.000006 0.000000
-0.000363 -0.000005 0.000078 0.000000
-0.000161 -0.000070 0.000149 0.000000
-0.000187 -0.000074 0.000174 0.000000
-0.000122 -0.000107 0.000215 0.000000
-0.000119 -0.000049 -0.000013 0.000000
-0.000035 -0.000008 0.000001 0.000000
-0.000033 -0.000012 0.000002 0.000000
-0.000029 -0.000007 -0.000009 0.000000
-0.000148 -0.000086 -0.000130 0.000000
-0.000039 -0.000006 -0.000015 0.000000
-0.000221 -0.000033 -0.000090 0.000000
-0.000026 -0.000006 0.000014 0.000000
-0.000163 -0.000046 -0.000147 0.000000
-0.000027 -0.000010 -0.000018 0.000000
-0.000226 -0.000040 -0.000053 0.000000
-0.000215 -0.000027 -0.000073 0.000000
-0.000219 -0.000058 -0.000026 0.000000
-0.000147 -0.000086 0.000009 0.000000
-0.000016 -0.000003 -0.000004 0.000000
-0.000181 -0.000032 0.000046 0.000000
-0.000174 -0.000058 0.000036 0.000000
-0.000016 -0.000013 -0.000007 0.000000
-0.000016 -0.000010 -0.000005 0.000000
-0.000166 -0.000027 0.000187 0.000000
-0.000010 -0.000021 0.000020 0.000000
-0.000014 -0.000013 0.000001 0.000000
-0.000016 -0.000014 -0.000006 0.000000
-0.000162 -0.000018 0.000115 0.000000
-0.000196 -0.000019 -0.000003 0.000000
-0.000018 -0.000011 0.000011 0.000000
-0.000147 -0.000059 0.000170 0.000000
-0.000014 -0.000014 -0.000002 0.000000
-0.000013 -0.000014 0.000005 0.000000
-0.000010 -0.000027 0.000016 0.000000
-0.000015 -0.000020 -0.000009 0.000000
-0.000165 -0.000008 -0.000070 0.000000
-0.000151 -0.000059 0.000013 0.000000
-0.000017 -0.000009 -0.000004 0.000000
-0.000156 -0.000004 -0.000065 0.000000
-0.000016 -0.000008 0.000003 0.000000
-0.000201 0.000020 -0.000016 0.000000
-0.000177 -0.000018 0.000046 0.000000
-0.000174 0.000004 -0.000049 0.000000
-0.000160 -0.000017 0.000110 0.000000
-0.000187 -0.000029 0.000184 0.000000
-0.000142 -0.000062 0.000215 0.000000
-0.000011 -0.000016 0.000021 0.000000
-0.000172 -0.000045 0.000026 0.000000
-0.000163 -0.000014 0.000034 0.000000
-0.000013 -0.000014 0.000002 0.000000
-0.000012 -0.000007 0.000001 0.000000
-0.000023 -0.000005 0.000010 0.000000
-0.000029 -0.000006 0.000015 0.000000
-0.000018 -0.000011 0.000012 0.000000
-0.000019 -0.000006 0.000002 0.000000
-0.000034 -0.000178 0.000076 0.000000
-0.000018 -0.000005 -0.000002 0.000000
-0.000030 -0.000194 0.000091 0.000000
-0.000118 -0.000174 0.000048 0.000000
-0.000222 -0.000023 -0.000082 0.000000
-0.000209 -0.000030 -0.000074 0.000000
-0.000027 -0.000002 0.000012 0.000000
-0.000209 0.000014 -0.000114 0.000000
-0.000161 -0.000011 0.000037 0.000000
-0.000039 -0.000132 0.000085 0.000000
-0.000234 0.000003 -0.000080 0.000000
-0.000215 -0.000067 -0.000174 0.000000
-0.000040 0.000001 0.000014 0.000000
-0.000185 -0.000018 -0.000095 0.000000
-0.000184 -0.000046 0.000111 0.000000
-0.000141 -0.000099 0.000157 0.000000
-0.000152 -0.000057 0.000041 0.000000
-0.000164 -0.000046 0.000086 0.000000
-0.000153 -0.000053 0.000012 0.000000
-0.000113 -0.000129 0.000041 0.000000
-0.000024 -0.000005 0.000008 0.000000
-0.000034 -0.000004 0.000022 0.000000
-0.000021 -0.000009 0.000007 0.000000
-0.000016 -0.000009 -0.000005 0.000000
-0.000018 -0.000011 -0.000001 0.000000
-0.000161 -0.000032 0.000026 0.000000
-0.000027 -0.000002 0.000012 0.000000
-0.000023 -0.000001 0.000006 0.000000
-0.000021 -0.000001 0.000002 0.000000
-0.000023 -0.000002 0.000007 0.000000
-0.000161 -0.000058 0.000071 0.000000
-0.000178 -0.000008 0.000040 0.000000
-0.000168 -0.000006 0.000024 0.000000
-0.000152 -0.000012 0.000025 0.000000
-0.000190 0.000002 0.000043 0.000000
-0.000193 -0.000029 0.000082 0.000000
-0.000126 -0.000058 0.000054 0.000000
-0.000171 -0.000011 0.000031 0.000000
-0.000205 -0.000035 -0.000056 0.000000
-0.000174 0.000001 0.000034 0.000000
-0.000229 0.000032 -0.000120 0.000000
-0.000129 -0.000005 0.000152 0.000000
-0.000257 0.000027 -0.000095 0.000000
-0.000190 0.000028 0.000063 0.000000
-0.000017 -0.000008 0.000001 0.000000
-0.000018 -0.000002 -0.000001 0.000000
-0.000164 -0.000007 -0.000076 0.000000
-0.000017 0.000001 -0.000006 0.000000
-0.000127 -0.000029 0.000121 0.000000
-0.000013 -0.000009 0.000005 0.000000
-0.000013 -0.000009 0.000001 0.000000
-0.000013 -0.000011 -0.000001 0.000000
-0.000157 -0.000006 0.000065 0.000000
-0.000171 -0.000020 0.000056 0.000000
-0.000143 -0.000014 0.000100 0.000000
-0.000150 -0.000042 0.000143 0.000000
-0.000014 -0.000004 -0.000004 0.000000
-0.000015 -0.000007 -0.000000 0.000000
-0.000155 -0.000016 -0.000052 0.000000
-0.000164 -0.000001 0.000015 0.000000
-0.000013 -0.000006 -0.000001 0.000000
-0.000014 -0.000009 -0.000002 0.000000
-0.000014 -0.000005 -0.000003 0.000000
-0.000016 -0.000007 -0.000003 0.000000
-0.000096 -0.000056 0.000148 0.000000
-0.000014 -0.000009 0.000017 0.000000
-0.000014 -0.000009 -0.000003 0.000000
-0.000015 -0.000008 -0.000005 0.000000
-0.000013 -0.000005 -0.000002 0.000000
-0.000016 -0.000008 0.000002 0.000000
-0.000020 -0.000002 -0.000005 0.000000
-0.000161 -0.000010 0.000049 0.000000
-0.000186 -0.000024 0.000010 0.000000
-0.000178 -0.000019 0.000006 0.000000
-0.000167 -0.000020 0.000115 0.000000
-0.000157 -0.000012 0.000078 0.000000
-0.000014 -0.000005 -0.000002 0.000000
-0.000015 -0.000007 -0.000005 0.000000
-0.000015 -0.000005 -0.000001 0.000000
-0.000015 -0.000007 -0.000002 0.000000
-0.000142 0.000005 -0.000011 0.000000
-0.000173 -0.000019 -0.000031 0.000000
-0.000141 0.000001 0.000065 0.000000
-0.000162 -0.000013 0.000030 0.000000
-0.000007 -0.000008 0.000007 0.000000
-0.000010 -0.000010 0.000011 0.000000
-0.000006 -0.000009 0.000007 0.000000
-0.000006 -0.000012 0.000008 0.000000
-0.000006 -0.000013 0.000006 0.000000
-0.000003 -0.000009 0.000006 0.000000
-0.000004 -0.000011 0.000004 0.000000
-0.000003 -0.000013 0.000002 0.000000
0.000001 -0.000009 0.000001 0.000000
-0.000017 -0.000113 -0.000176 0.000000
-0.000025 -0.000073 -0.000082 0.000000
-0.000015 -0.000085 -0.000107 0.000000
-0.000005 -0.000006 0.000005 0.000000
-0.000007 -0.000011 0.000010 0.000000
-0.000005 -0.000009 0.000007 0.000000
-0.000007 -0.000012 0.000009 0.000000
-0.000007 -0.000007 0.000008 0.000000
-0.000009 -0.000009 0.000011 0.000000
-0.000004 -0.000010 0.000007 0.000000
-0.000004 -0.000009 0.000004 0.000000
-0.000005 -0.000007 0.000007 0.000000
-0.000007 -0.000009 0.000009 0.000000
-0.000003 -0.000007 0.000005 0.000000
-0.000006 -0.000009 0.000008 0.000000
-0.000001 -0.000008 0.000005 0.000000
-0.000002 -0.000009 0.000003 0.000000
-0.000031 -0.000053 -0.000006 0.000000
-0.000025 -0.000105 -0.000007 0.000000
-0.000002 -0.000010 0.000004 0.000000
-0.000002 -0.000011 0.000003 0.000000
-0.000004 -0.000014 0.000005 0.000000
-0.000019 -0.000086 -0.000103 0.000000
0.000001 -0.000023 0.000001 0.000000
-0.000020 -0.000094 -0.000121 0.000000
-0.000031 -0.000055 0.000017 0.000000
-0.000013 -0.000128 0.000018 0.000000
-0.000021 -0.000068 0.000057 0.000000
-0.000030 -0.000091 0.000043 0.000000
-0.000023 -0.000071 0.000051 0.000000
-0.000027 -0.000059 0.000039 0.000000
-0.000008 -0.000087 0.000053 0.000000
0.000001 -0.000109 0.000102 0.000000
-0.000003 -0.000101 0.000031 0.000000
-0.000003 -0.000012 -0.000007 0.000000
-0.000039 -0.000061 -0.000104 0.000000
-0.000051 -0.000100 -0.000142 0.000000
-0.000001 -0.000013 -0.000001 0.000000
0.000003 -0.000093 -0.000004 0.000000
-0.000003 -0.000012 -0.000008 0.000000
-0.000030 -0.000091 -0.000104 0.000000
-0.000093 -0.000048 -0.000116 0.000000
-0.000111 -0.000057 -0.000061 0.000000
-0.000105 -0.000025 -0.000017 0.000000
0.000004 -0.000119 0.000057 0.000000
0.000005 -0.000106 0.000036 0.000000
-0.000078 -0.000048 -0.000123 0.000000
-0.000078 -0.000073 -0.000146 0.000000
-0.000027 -0.000083 0.000004 0.000000
-0.000025 -0.000089 -0.000006 0.000000
-0.000021 -0.000085 0.000058 0.000000
-0.000027 -0.000084 0.000029 0.000000
-0.000001 -0.000018 0.000006 0.000000
0.000004 -0.000018 0.000010 0.000000
-0.000003 -0.000016 -0.000007 0.000000
0.000001 -0.000015 0.000003 0.000000
-0.000102 -0.000055 -0.000113 0.000000
-0.000106 -0.000055 -0.000023 0.000000
-0.000006 -0.000014 -0.000017 0.000000
-0.000103 -0.000116 -0.000219 0.000000
-0.000059 -0.000113 -0.000162 0.000000
-0.000129 -0.000034 -0.000166 0.000000
-0.000105 -0.000048 -0.000076 0.000000
-0.000105 -0.000069 -0.000126 0.000000
-0.000107 -0.000047 -0.000019 0.000000
0.000012 -0.000034 0.000043 0.000000
-0.000003 -0.000016 -0.000008 0.000000
-0.000004 -0.000014 -0.000011 0.000000
-0.000007 -0.000020 -0.000015 0.000000
-0.000026 -0.000095 0.000026 0.000000
-0.000022 -0.000092 0.000014 0.000000
-0.000002 -0.000023 -0.000003 0.000000
-0.000001 -0.000014 -0.000003 0.000000
0.000004 -0.000017 -0.000008 0.000000
-0.000007 -0.000022 0.000006 0.000000
-0.000001 -0.000109 -0.000170 0.000000
-0.000007 -0.000019 0.000007 0.000000
-0.000007 -0.000009 0.000008 0.000000
-0.000012 -0.000010 0.000013 0.000000
-0.000005 -0.000013 0.000004 0.000000
-0.000005 -0.000016 0.000003 0.000000
-0.000010 -0.000011 0.000011 0.000000
-0.000011 -0.000017 0.000020 0.000000
-0.000011 -0.000016 0.000018 0.000000
-0.000011 -0.000012 0.000015 0.000000
-0.000007 -0.000010 0.000008 0.000000
-0.000009 -0.000013 0.000011 0.000000
-0.000007 -0.000012 0.000009 0.000000
-0.000006 -0.000015 0.000007 0.000000
-0.000014 -0.000113 -0.000154 0.000000
-0.000031 -0.000103 -0.000116 0.000000
-0.000007 -0.000014 0.000009 0.000000
-0.000010 -0.000022 0.000010 0.000000
-0.000003 -0.000019 0.000004 0.000000
-0.000002 -0.000016 -0.000000 0.000000
-0.000009 -0.000011 0.000011 0.000000
-0.000010 -0.000021 0.000017 0.000000
-0.000007 -0.000011 0.000008 0.000000
-0.000009 -0.000017 0.000012 0.000000
-0.000011 -0.000014 0.000015 0.000000
-0.000012 -0.000015 0.000018 0.000000
-0.000009 -0.000014 0.000012 0.000000
-0.000010 -0.000013 0.000013 0.000000
-0.000008 -0.000014 0.000007 0.000000
-0.000008 -0.000016 0.000007 0.000000
0.000000 -0.000021 -0.000003 0.000000
-0.000006 -0.000019 0.000006 0.000000
-0.000001 -0.000027 0.000003 0.000000
-0.000032 -0.000121 -0.000153 0.000000
-0.000034 -0.000104 0.000038 0.000000
0.000002 -0.000040 0.000006 0.000000
-0.000004 -0.000017 -0.000011 0.000000
-0.000003 -0.000020 -0.000009 0.000000
-0.000007 -0.000131 0.000003 0.000000
-0.000034 -0.000144 -0.000011 0.000000
-0.000001 -0.000017 -0.000001 0.000000
-0.000005 -0.000018 -0.000013 0.000000
-0.000007 -0.000018 -0.000016 0.000000
-0.000007 -0.000016 -0.000016 0.000000
-0.000074 -0.000108 -0.000174 0.000000
-0.000006 -0.000015 -0.000013 0.000000
-0.000006 -0.000017 -0.000014 0.000000
-0.000007 -0.000021 -0.000019 0.000000
-0.000070 -0.000121 -0.000183 0.000000
-0.000008 -0.000015 -0.000014 0.000000
-0.000111 -0.000067 -0.000088 0.000000
-0.000085 -0.000115 -0.000024 0.000000
-0.000007 -0.000018 -0.000015 0.000000
-0.000007 -0.000024 -0.000021 0.000000
-0.000106 -0.000071 -0.000016 0.000000
-0.000004 -0.000025 -0.000008 0.000000
-0.000005 -0.000031 -0.000013 0.000000
-0.000006 -0.000019 -0.000014 0.000000
-0.000010 -0.000018 -0.000019 0.000000
-0.000005 -0.000022 -0.000012 0.000000
-0.000008 -0.000023 -0.000018 0.000000
-0.000008 -0.000022 -0.000018 0.000000
-0.000008 -0.000022 -0.000018 0.000000
-0.000129 -0.000064 -0.000183 0.000000
-0.000128 -0.000079 -0.000137 0.000000
-0.000085 -0.000115 -0.000008 0.000000
-0.000099 -0.000081 -0.000014 0.000000
-0.000097 -0.000087 -0.000036 0.000000
-0.000102 -0.000114 -0.000056 0.000000
-0.000094 -0.000103 -0.000012 0.000000
-0.000092 -0.000115 -0.000033 0.000000
-0.000010 -0.000024 -0.000008 0.000000
-0.000128 -0.000032 -0.000117 0.000000
-0.000078 -0.000150 -0.000025 0.000000
-0.000079 -0.000140 -0.000009 0.000000
-0.000007 -0.000022 -0.000015 0.000000
-0.000008 -0.000028 -0.000018 0.000000
-0.000008 -0.000021 -0.000019 0.000000
-0.000009 -0.000023 -0.000016 0.000000
-0.000004 -0.000022 -0.000011 0.000000
-0.000004 -0.000030 -0.000008 0.000000
-0.000007 -0.000025 -0.000017 0.000000
-0.000007 -0.000021 -0.000016 0.000000
-0.000008 -0.000025 -0.000018 0.000000
-0.000008 -0.000019 -0.000018 0.000000
0.000003 -0.000187 -0.000048 0.000000
0.000005 -0.000327 -0.000228 0.000000
-0.000002 -0.000029 0.000012 0.000000
-0.000001 -0.000031 -0.000004 0.000000
-0.000004 -0.000147 -0.000008 0.000000
0.000041 -0.000399 0.000039 0.000000
-0.000004 -0.000339 -0.000165 0.000000
-0.000004 -0.000247 -0.000122 0.000000
-0.000069 -0.000122 -0.000009 0.000000
-0.000033 -0.000106 -0.000061 0.000000
-0.000001 -0.000205 0.000037 0.000000
-0.000015 -0.000198 0.000057 0.000000
-0.000069 -0.000147 -0.000007 0.000000
-0.000028 -0.000120 -0.000017 0.000000
-0.000012 -0.000172 0.000034 0.000000
-0.000042 -0.000177 0.000057 0.000000
-0.000056 -0.000106 -0.000159 0.000000
-0.000057 -0.000114 -0.000065 0.000000
-0.000003 -0.000219 0.000001 0.000000
-0.000014 -0.000196 0.000060 0.000000
-0.000026 -0.000078 -0.000110 0.000000
-0.000028 -0.000199 -0.000086 0.000000
-0.000002 -0.000022 -0.000004 0.000000
-0.000004 -0.000028 -0.000003 0.000000
-0.000005 -0.000166 0.000027 0.000000
-0.000010 -0.000158 0.000020 0.000000
-0.000002 -0.000020 0.000009 0.000000
-0.000003 -0.000028 -0.000006 0.000000
-0.000043 -0.000110 -0.000097 0.000000
-0.000056 -0.000131 -0.000056 0.000000
-0.000039 -0.000124 -0.000033 0.000000
-0.000023 -0.000169 0.000040 0.000000
-0.000014 -0.000155 0.000029 0.000000
-0.000027 -0.000137 0.000007 0.000000
-0.000004 -0.000027 0.000005 0.000000
-0.000004 -0.000019 0.000001 0.000000
-0.000005 -0.000024 0.000004 0.000000
-0.000003 -0.000033 0.000013 0.000000
-0.000006 -0.000023 0.000003 0.000000
-0.000004 -0.000024 0.000005 0.000000
-0.000053 -0.000127 -0.000138 0.000000
-0.000035 -0.000113 -0.000172 0.000000
-0.000010 -0.000016 0.000012 0.000000
-0.000009 -0.000017 0.000014 0.000000
-0.000007 -0.000017 0.000005 0.000000
-0.000009 -0.000020 0.000008 0.000000
-0.000009 -0.000017 0.000010 0.000000
-0.000008 -0.000015 0.000010 0.000000
-0.000007 -0.000016 0.000008 0.000000
-0.000006 -0.000015 0.000005 0.000000
-0.000180 -0.000004 0.000037 0.000000
-0.000249 -0.000018 0.000071 0.000000
-0.000178 -0.000018 0.000108 0.000000
-0.000196 -0.000025 0.000084 0.000000
-0.000112 -0.000081 0.000175 0.000000
-0.000017 -0.000008 -0.000002 0.000000
-0.000025 -0.000008 0.000003 0.000000
-0.000018 -0.000010 0.000007 0.000000
-0.000005 -0.000036 0.000008 0.000000
-0.000016 -0.000017 -0.000008 0.000000
-0.000018 -0.000016 -0.000009 0.000000
-0.000018 -0.000012 -0.000006 0.000000
-0.000021 -0.000011 -0.000006 0.000000
-0.000030 -0.000006 0.000002 0.000000
-0.000011 -0.000018 0.000018 0.000000
-0.000010 -0.000026 0.000021 0.000000
-0.000010 -0.000016 0.000013 0.000000
-0.000010 -0.000017 0.000015 0.000000
-0.000012 -0.000018 0.000021 0.000000
-0.000010 -0.000025 0.000022 0.000000
-0.000010 -0.000024 0.000022 0.000000
-0.000010 -0.000020 0.000018 0.000000
-0.000018 -0.000011 -0.000007 0.000000
-0.000062 -0.000144 0.000143 0.000000
-0.000020 -0.000007 -0.000002 0.000000
-0.000100 -0.000144 0.000108 0.000000
-0.000014 -0.000018 -0.000006 0.000000
-0.000015 -0.000021 -0.000008 0.000000
-0.000019 -0.000011 -0.000009 0.000000
-0.000082 -0.000113 0.000154 0.000000
-0.000010 -0.000022 0.000020 0.000000
-0.000011 -0.000022 0.000022 0.000000
-0.000011 -0.000024 0.000014 0.000000
-0.000010 -0.000020 0.000014 0.000000
-0.000010 -0.000023 0.000013 0.000000
-0.000010 -0.000020 0.000012 0.000000
-0.000010 -0.000020 0.000011 0.000000
-0.000010 -0.000020 0.000012 0.000000
-0.000009 -0.000022 0.000007 0.000000
-0.000010 -0.000021 0.000012 0.000000
-0.000008 -0.000018 0.000006 0.000000
-0.000009 -0.000018 0.000009 0.000000
-0.000006 -0.000020 0.000004 0.000000
-0.000008 -0.000023 0.000008 0.000000
-0.000006 -0.000027 0.000005 0.000000
-0.000006 -0.000026 0.000006 0.000000
-0.000008 -0.000026 0.000007 0.000000
-0.000002 -0.000030 0.000008 0.000000
-0.000005 -0.000030 0.000007 0.000000
-0.000005 -0.000034 0.000017 0.000000
-0.000003 -0.000032 0.000012 0.000000
-0.000079 -0.000130 -0.000107 0.000000
-0.000011 -0.000025 0.000010 0.000000
-0.000010 -0.000021 0.000009 0.000000
-0.000010 -0.000024 0.000009 0.000000
-0.000011 -0.000023 0.000011 0.000000
-0.000009 -0.000027 0.000008 0.000000
-0.000005 -0.000040 0.000012 0.000000
-0.000008 -0.000030 0.000009 0.000000
-0.000007 -0.000033 0.000010 0.000000
-0.000010 -0.000030 0.000022 0.000000
-0.000011 -0.000025 0.000017 0.000000
-0.000011 -0.000023 0.000012 0.000000
-0.000011 -0.000026 0.000016 0.000000
-0.000011 -0.000022 0.000019 0.000000
-0.000010 -0.000029 0.000019 0.000000
-0.000010 -0.000020 0.000014 0.000000
-0.000010 -0.000025 0.000017 0.000000
-0.000134 -0.000085 0.000133 0.000000
-0.000010 -0.000027 0.000022 0.000000
-0.000010 -0.000027 0.000023 0.000000
-0.000185 -0.000037 0.000189 0.000000
-0.000012 -0.000022 -0.000006 0.000000
0.000046 -0.000520 -0.000009 0.000000
-0.000021 -0.000010 -0.000006 0.000000
-0.000017 -0.000015 -0.000011 0.000000
-0.000015 -0.000020 -0.000008 0.000000
-0.000015 -0.000023 -0.000008 0.000000
-0.000018 -0.000014 -0.000009 0.000000
-0.000015 -0.000021 -0.000011 0.000000
-0.000088 -0.000165 0.000094 0.000000
-0.000101 -0.000133 0.000100 0.000000
-0.000129 -0.000135 0.000097 0.000000
-0.000163 -0.000087 0.000159 0.000000
-0.000179 -0.000085 0.000158 0.000000
-0.000107 -0.000205 -0.000081 0.000000
-0.000009 -0.000038 0.000023 0.000000
-0.000010 -0.000029 0.000022 0.000000
-0.000010 -0.000028 0.000018 0.000000
-0.000010 -0.000029 0.000022 0.000000
0.000060 -0.000517 -0.000114 0.000000
-0.000035 -0.000307 -0.000026 0.000000
-0.000108 -0.000135 0.000087 0.000000
-0.000158 -0.000120 0.000066 0.000000
-0.000084 -0.000235 0.000067 0.000000
-0.000075 -0.000282 0.000121 0.000000
-0.000093 -0.000180 0.000070 0.000000
-0.000063 -0.000230 0.000041 0.000000
-0.000012 -0.000027 0.000019 0.000000
-0.000068 -0.000164 -0.000184 0.000000
-0.000010 -0.000033 0.000024 0.000000
-0.000010 -0.000029 0.000020 0.000000
-0.000011 -0.000026 0.000014 0.000000
-0.000011 -0.000029 0.000017 0.000000
-0.000011 -0.000026 0.000013 0.000000
-0.000011 -0.000026 0.000014 0.000000
-0.000011 -0.000029 0.000017 0.000000
-0.000010 -0.000025 0.000019 0.000000
-0.000011 -0.000025 0.000010 0.000000
-0.000010 -0.000023 0.000008 0.000000
-0.000008 -0.000032 0.000008 0.000000
-0.000009 -0.000028 0.000008 0.000000
-0.000008 -0.000029 0.000007 0.000000
-0.000010 -0.000033 0.000010 0.000000
-0.000011 -0.000030 0.000009 0.000000
-0.000010 -0.000027 0.000009 0.000000
-0.000007 -0.000031 0.000007 0.000000
-0.000009 -0.000032 0.000009 0.000000
-0.000007 -0.000037 0.000010 0.000000
-0.000006 -0.000033 0.000010 0.000000
-0.000010 -0.000033 0.000010 0.000000
-0.000007 -0.000034 0.000012 0.000000
-0.000113 -0.000113 0.000243 0.000000
-0.000115 -0.000055 -0.000079 0.000000
-0.000085 -0.000184 0.000131 0.000000
-0.000091 -0.000208 0.000106 0.000000
0.000034 -0.000481 -0.000254 0.000000
-0.000033 -0.000264 0.000101 0.000000
-0.000014 -0.000331 -0.000258 0.000000
0.000003 -0.000288 -0.000055 0.000000
-0.000026 -0.000370 -0.000260 0.000000
-0.000002 -0.000036 -0.000008 0.000000
-0.000036 -0.000307 0.000160 0.000000
-0.000023 -0.000222 0.000074 0.000000
0.000015 -0.000355 -0.000171 0.000000
-0.000001 -0.000289 0.000086 0.000000
-0.000114 -0.000130 -0.000048 0.000000
-0.000082 -0.000090 -0.000132 0.000000
-0.000042 -0.000186 0.000050 0.000000
-0.000071 -0.000165 0.000040 0.000000
-0.000044 -0.000148 0.000005 0.000000
-0.000068 -0.000176 0.000061 0.000000
-0.000023 -0.000194 0.000046 0.000000
-0.000051 -0.000217 0.000096 0.000000
-0.000006 -0.000277 0.000072 0.000000
-0.000005 -0.000232 0.000065 0.000000
0.000002 -0.000272 -0.000236 0.000000
-0.000005 -0.000316 -0.000282 0.000000
0.000008 -0.000253 0.000021 0.000000
0.000011 -0.000307 0.000018 0.000000
-0.000015 -0.000286 -0.000190 0.000000
-0.000002 -0.000323 -0.000186 0.000000
-0.000028 -0.000347 -0.000271 0.000000
-0.000020 -0.000392 -0.000188 0.000000
-0.000006 -0.000031 -0.000018 0.000000
-0.000017 -0.000387 -0.000265 0.000000
-0.000012 -0.000027 -0.000023 0.000000
-0.000008 -0.000022 -0.000017 0.000000
-0.000006 -0.000025 -0.000016 0.000000
-0.000005 -0.000028 -0.000014 0.000000
-0.000008 -0.000027 -0.000017 0.000000
-0.000009 -0.000022 -0.000019 0.000000
-0.000006 -0.000023 -0.000013 0.000000
-0.000010 -0.000024 -0.000019 0.000000
-0.000135 -0.000027 -0.000047 0.000000
-0.000091 -0.000094 -0.000027 0.000000
-0.000009 -0.000027 -0.000021 0.000000
-0.000011 -0.000022 -0.000019 0.000000
-0.000000 -0.000220 0.000077 0.000000
-0.000088 -0.000178 0.000030 0.000000
-0.000074 -0.000151 -0.000012 0.000000
-0.000086 -0.000144 -0.000043 0.000000
-0.000077 -0.000151 -0.000025 0.000000
-0.000105 -0.000119 -0.000007 0.000000
-0.000072 -0.000173 -0.000007 0.000000
-0.000007 -0.000028 -0.000019 0.000000
-0.000006 -0.000034 -0.000022 0.000000
-0.000008 -0.000028 -0.000018 0.000000
0.000024 -0.000274 0.000066 0.000000
-0.000004 -0.000039 -0.000013 0.000000
-0.000009 -0.000402 -0.000175 0.000000
-0.000007 -0.000031 -0.000020 0.000000
0.000061 -0.000465 -0.000300 0.000000
-0.000010 -0.000034 -0.000027 0.000000
-0.000030 -0.000273 -0.000003 0.000000
-0.000028 -0.000168 0.000102 0.000000
-0.000066 -0.000222 -0.000024 0.000000
-0.000066 -0.000220 -0.000017 0.000000
-0.000071 -0.000183 -0.000011 0.000000
-0.000006 -0.000032 -0.000017 0.000000
-0.000027 -0.000369 -0.000144 0.000000
-0.000050 -0.000231 0.000020 0.000000
-0.000045 -0.000291 -0.000031 0.000000
-0.000069 -0.000239 -0.000005 0.000000
-0.000063 -0.000273 -0.000032 0.000000
-0.000070 -0.000206 -0.000004 0.000000
-0.000010 -0.000388 -0.000234 0.000000
-0.000013 -0.000391 -0.000258 0.000000
-0.000016 -0.000371 -0.000148 0.000000
-0.000017 -0.000398 -0.000164 0.000000
-0.000021 -0.000347 -0.000237 0.000000
-0.000017 -0.000423 -0.000259 0.000000
-0.000002 -0.000355 -0.000317 0.000000
-0.000007 -0.000366 -0.000260 0.000000
0.000002 -0.000065 -0.000046 0.000000
-0.000003 -0.000385 0.000142 0.000000
0.000070 -0.000553 0.000125 0.000000
-0.000001 -0.000345 0.000078 0.000000
-0.000009 -0.000031 0.000008 0.000000
-0.000010 -0.000030 0.000009 0.000000
-0.000054 -0.000248 0.000132 0.000000
-0.000131 -0.000184 0.000144 0.000000
-0.000009 -0.000034 0.000009 0.000000
-0.000009 -0.000037 0.000010 0.000000
-0.000007 -0.000040 0.000011 0.000000
-0.000007 -0.000035 0.000009 0.000000
-0.000006 -0.000036 0.000007 0.000000
-0.000007 -0.000036 0.000010 0.000000
-0.000088 -0.000172 0.000344 0.000000
-0.000062 -0.000357 0.000258 0.000000
-0.000001 -0.000062 0.000001 0.000000
-0.000023 -0.000371 -0.000226 0.000000
-0.000052 -0.000283 0.000117 0.000000
-0.000078 -0.000255 0.000144 0.000000
-0.000023 -0.000345 0.000191 0.000000
0.000005 -0.000056 -0.000030 0.000000
-0.000010 -0.000039 0.000013 0.000000
-0.000008 -0.000036 0.000010 0.000000
-0.000071 -0.000226 0.000178 0.000000
-0.000009 -0.000043 0.000006 0.000000
-0.000011 -0.000034 0.000010 0.000000
-0.000012 -0.000041 0.000009 0.000000
-0.000010 -0.000038 0.000012 0.000000
-0.000008 -0.000042 0.000015 0.000000
-0.000110 -0.000241 0.000238 0.000000
-0.000029 -0.000357 0.000208 0.000000
-0.000010 -0.000330 0.000237 0.000000
-0.000054 -0.000301 0.000142 0.000000
-0.000024 -0.000391 -0.000251 0.000000
-0.000002 -0.000057 -0.000003 0.000000
-0.000006 -0.000422 -0.000280 0.000000
0.000019 -0.000501 -0.000203 0.000000
0.000001 -0.000423 -0.000259 0.000000
0.000018 -0.000432 -0.000232 0.000000
-0.000009 -0.000378 -0.000199 0.000000
0.000034 -0.000451 -0.000249 0.000000
-0.000018 -0.000344 -0.000159 0.000000
-0.000021 -0.000352 -0.000181 0.000000
-0.000003 -0.000350 -0.000025 0.000000
-0.000009 -0.000349 -0.000084 0.000000
-0.000032 -0.000356 -0.000059 0.000000
-0.000054 -0.000295 -0.000035 0.000000
-0.000056 -0.000259 -0.000024 0.000000
-0.000054 -0.000296 -0.000010 0.000000
-0.000068 -0.000236 -0.000029 0.000000
-0.000063 -0.000236 -0.000020 0.000000
-0.000070 -0.000253 -0.000016 0.000000
-0.000067 -0.000253 -0.000021 0.000000
-0.000071 -0.000269 -0.000006 0.000000
0.000050 -0.000476 -0.000235 0.000000
0.000061 -0.000474 -0.000275 0.000000
-0.000036 -0.000333 -0.000016 0.000000
-0.000061 -0.000304 -0.000047 0.000000
-0.000063 -0.000393 -0.000232 0.000000
0.000002 -0.000444 -0.000041 0.000000
-0.000043 -0.000332 -0.000027 0.000000
0.000000 -0.000408 0.000007 0.000000
-0.000041 -0.000349 -0.000045 0.000000
-0.000054 -0.000340 -0.000086 0.000000
-0.000072 -0.000311 -0.000046 0.000000
-0.000074 -0.000284 -0.000020 0.000000
-0.000056 -0.000353 -0.000074 0.000000
-0.000076 -0.000339 -0.000068 0.000000
-0.000077 -0.000295 -0.000009 0.000000
-0.000029 -0.000353 -0.000065 0.000000
0.000019 -0.000417 -0.000090 0.000000
-0.000087 -0.000331 -0.000028 0.000000
-0.000081 -0.000311 -0.000026 0.000000
0.000004 -0.000064 -0.000021 0.000000
-0.000010 -0.000411 -0.000023 0.000000
-0.000006 -0.000055 -0.000003 0.000000
-0.000096 -0.000416 0.000259 0.000000
0.000036 -0.000496 -0.000248 0.000000
-0.000003 -0.000059 -0.000011 0.000000
-0.000026 -0.000372 -0.000031 0.000000
0.000052 -0.000139 -0.000025 0.000000
-0.000024 -0.000380 -0.000019 0.000000
0.000050 -0.000444 -0.000020 0.000000
0.000002 -0.000062 -0.000020 0.000000
0.000007 -0.000064 -0.000016 0.000000
0.000003 -0.000060 -0.000010 0.000000
0.000004 -0.000068 -0.000007 0.000000
0.000005 -0.000061 -0.000010 0.000000
0.000004 -0.000068 -0.000008 0.000000
-0.000001 -0.000059 -0.000002 0.000000
0.000006 -0.000067 -0.000010 0.000000
-0.000016 -0.000042 0.000012 0.000000
-0.000012 -0.000051 0.000019 0.000000
-0.000009 -0.000058 -0.000005 0.000000
-0.000050 -0.000334 0.000188 0.000000
-0.000013 -0.000043 0.000020 0.000000
0.000016 -0.000065 0.000094 0.000000
-0.000150 -0.000300 0.000706 0.000000
-0.000084 -0.000378 0.000371 0.000000
0.000007 -0.000065 -0.000016 0.000000
0.000006 -0.000062 -0.000018 0.000000
-0.000011 -0.000039 0.000011 0.000000
-0.000013 -0.000041 0.000010 0.000000
-0.000007 -0.000043 0.000016 0.000000
-0.000078 -0.000292 0.000621 0.000000
-0.000075 -0.000308 0.000317 0.000000
-0.000066 -0.000342 0.000320 0.000000
-0.000010 -0.000044 -0.000015 0.000000
-0.000008 -0.000049 -0.000014 0.000000
-0.000005 -0.000048 -0.000005 0.000000
-0.000002 -0.000050 -0.000001 0.000000
0.000000 -0.000051 -0.000010 0.000000
0.000014 -0.000057 -0.000031 0.000000
-0.000011 -0.000039 0.000012 0.000000
-0.000011 -0.000041 0.000014 0.000000
-0.000045 -0.000293 0.000159 0.000000
-0.000050 -0.000314 0.000211 0.000000
-0.000004 -0.000050 -0.000022 0.000000
0.000017 -0.000344 0.000204 0.000000
-0.000012 -0.000035 0.000013 0.000000
-0.000010 -0.000032 0.000019 0.000000
-0.000011 -0.000040 0.000011 0.000000
-0.000011 -0.000035 0.000011 0.000000
-0.000009 -0.000050 0.000012 0.000000
-0.000007 -0.000050 0.000018 0.000000
-0.000012 -0.000035 0.000015 0.000000
-0.000010 -0.000039 0.000018 0.000000
-0.000012 -0.000039 0.000014 0.000000
-0.000010 -0.000042 0.000015 0.000000
-0.000012 -0.000039 0.000014 0.000000
-0.000012 -0.000043 0.000015 0.000000
-0.000012 -0.000040 0.000015 0.000000
-0.000011 -0.000042 0.000013 0.000000
-0.000011 -0.000040 0.000010 0.000000
-0.000011 -0.000041 0.000009 0.000000
-0.000011 -0.000040 0.000011 0.000000
-0.000011 -0.000039 0.000013 0.000000
-0.000011 -0.000041 0.000010 0.000000
-0.000010 -0.000045 0.000010 0.000000
-0.000012 -0.000042 0.000015 0.000000
-0.000011 -0.000042 0.000015 0.000000
-0.000008 -0.000052 0.000015 0.000000
-0.000011 -0.000044 0.000007 0.000000
-0.000006 -0.000057 0.000015 0.000000
0.000019 -0.000431 -0.000380 0.000000
-0.000013 -0.000045 0.000017 0.000000
-0.000011 -0.000046 0.000016 0.000000
-0.000009 -0.000045 0.000018 0.000000
-0.000001 -0.000348 -0.000390 0.000000
-0.000012 -0.000044 0.000011 0.000000
-0.000006 -0.000049 0.000015 0.000000
-0.000011 -0.000040 0.000012 0.000000
-0.000009 -0.000043 0.000014 0.000000
-0.000003 -0.000430 0.000058 0.000000
-0.000034 -0.000356 -0.000068 0.000000
-0.000007 -0.000046 0.000018 0.000000
-0.000014 -0.000289 -0.000313 0.000000
-0.000044 -0.000403 0.000201 0.000000
0.000035 -0.000569 0.000022 0.000000
-0.000019 -0.000415 -0.000146 0.000000
-0.000005 -0.000408 -0.000125 0.000000
0.000022 -0.000335 -0.000203 0.000000
0.000048 -0.000458 0.000010 0.000000
-0.000055 -0.000332 0.000130 0.000000
-0.000122 -0.000308 -0.000118 0.000000
-0.000132 -0.000288 0.000072 0.000000
-0.000097 -0.000298 0.000011 0.000000
-0.000046 -0.000326 0.000148 0.000000
-0.000086 -0.000205 0.000074 0.000000
0.000052 -0.000119 0.000095 0.000000
-0.000025 -0.000324 -0.000033 0.000000
-0.000048 -0.000359 -0.000118 0.000000
-0.000065 -0.000310 -0.000005 0.000000
-0.000077 -0.000323 0.000169 0.000000
-0.000090 -0.000182 0.000056 0.000000
-0.000005 -0.000355 -0.000040 0.000000
-0.000059 -0.000292 -0.000020 0.000000
-0.000033 -0.000261 -0.000089 0.000000
-0.000018 -0.000318 -0.000171 0.000000
-0.000007 -0.000048 0.000023 0.000000
-0.000010 -0.000033 0.000021 0.000000
0.000010 -0.000076 0.000020 0.000000
0.000005 -0.000418 -0.000109 0.000000
0.000108 -0.000395 -0.000230 0.000000
-0.000012 -0.000028 -0.000011 0.000000
-0.000083 -0.000274 0.000059 0.000000
-0.000084 -0.000207 0.000073 0.000000
-0.000073 -0.000268 0.000038 0.000000
-0.000077 -0.000271 0.000102 0.000000
-0.000082 -0.000257 0.000083 0.000000
-0.000049 -0.000277 0.000094 0.000000
-0.000004 -0.000402 0.000033 0.000000
0.000081 -0.000531 -0.000075 0.000000
-0.000042 -0.000331 -0.000004 0.000000
-0.000055 -0.000266 0.000063 0.000000
-0.000073 -0.000275 0.000097 0.000000
-0.000046 -0.000274 0.000029 0.000000
-0.000007 -0.000042 0.000023 0.000000
-0.000009 -0.000040 0.000017 0.000000
-0.000061 -0.000292 0.000064 0.000000
-0.000062 -0.000200 -0.000046 0.000000
-0.000071 -0.000276 -0.000136 0.000000
-0.000039 -0.000227 -0.000245 0.000000
-0.000012 -0.000032 0.000014 0.000000
-0.000012 -0.000038 0.000014 0.000000
-0.000011 -0.000034 0.000011 0.000000
-0.000012 -0.000036 0.000013 0.000000
-0.000011 -0.000031 0.000010 0.000000
-0.000011 -0.000037 0.000011 0.000000
-0.000011 -0.000033 0.000010 0.000000
-0.000011 -0.000037 0.000010 0.000000
-0.000011 -0.000029 0.000014 0.000000
-0.000011 -0.000033 0.000015 0.000000
-0.000011 -0.000035 0.000013 0.000000
-0.000011 -0.000034 0.000011 0.000000
-0.000009 -0.000042 0.000021 0.000000
-0.000010 -0.000038 0.000015 0.000000
-0.000011 -0.000037 0.000015 0.000000
-0.000010 -0.000035 0.000016 0.000000
-0.000011 -0.000036 0.000014 0.000000
-0.000011 -0.000029 0.000015 0.000000
-0.000014 -0.000030 0.000025 0.000000
-0.000009 -0.000037 0.000025 0.000000
-0.000009 -0.000037 0.000020 0.000000
-0.000010 -0.000037 0.000019 0.000000
-0.000012 -0.000033 0.000012 0.000000
-0.000011 -0.000031 0.000012 0.000000
-0.000011 -0.000033 0.000009 0.000000
-0.000011 -0.000027 0.000009 0.000000
-0.000011 -0.000030 0.000011 0.000000
-0.000011 -0.000027 0.000012 0.000000
-0.000010 -0.000033 0.000010 0.000000
-0.000010 -0.000030 0.000009 0.000000
-0.000010 -0.000034 0.000017 0.000000
-0.000010 -0.000032 0.000019 0.000000
-0.000011 -0.000033 0.000015 0.000000
-0.000011 -0.000029 0.000015 0.000000
-0.000012 -0.000032 0.000014 0.000000
-0.000011 -0.000032 0.000013 0.000000
-0.000104 -0.000180 0.000071 0.000000
-0.000085 -0.000206 0.000065 0.000000
-0.000120 -0.000183 0.000043 0.000000
-0.000085 -0.000234 0.000063 0.000000
-0.000144 -0.000144 -0.000001 0.000000
-0.000084 -0.000171 -0.000003 0.000000
-0.000011 -0.000039 0.000030 0.000000
-0.000010 -0.000031 0.000027 0.000000
-0.000059 -0.000270 0.000033 0.000000
-0.000073 -0.000270 0.000038 0.000000
-0.000083 -0.000237 0.000068 0.000000
-0.000086 -0.000232 0.000076 0.000000
-0.000023 -0.000354 -0.000040 0.000000
-0.000045 -0.000286 0.000022 0.000000
-0.000062 -0.000233 0.000071 0.000000
-0.000015 -0.000262 0.000036 0.000000
-0.000079 -0.000223 0.000049 0.000000
-0.000081 -0.000235 0.000058 0.000000
0.000043 -0.000461 -0.000133 0.000000
-0.000075 -0.000409 0.000322 0.000000
-0.000007 -0.000317 0.000011 0.000000
0.000070 -0.000505 0.000010 0.000000
0.000042 -0.000590 0.000085 0.000000
-0.000102 -0.000356 0.000364 0.000000
0.000100 -0.000532 -0.000029 0.000000
0.000070 -0.000443 -0.000031 0.000000
-0.000194 -0.000196 0.000328 0.000000
-0.000198 -0.000159 0.000326 0.000000
-0.000142 -0.000255 0.000374 0.000000
-0.000112 -0.000292 0.000231 0.000000
-0.000022 -0.000029 -0.000003 0.000000
-0.000117 -0.000202 0.000017 0.000000
-0.000196 -0.000197 0.000327 0.000000
-0.000192 -0.000197 0.000255 0.000000
-0.000023 -0.000326 -0.000138 0.000000
-0.000128 -0.000255 -0.000234 0.000000
0.000005 -0.000064 -0.000032 0.000000
-0.000019 -0.000033 -0.000001 0.000000
-0.000302 -0.000173 0.000412 0.000000
-0.000031 -0.000017 0.000016 0.000000
-0.000221 -0.000271 0.000462 0.000000
-0.000199 -0.000245 0.000324 0.000000
-0.000037 -0.000018 0.000016 0.000000
-0.000273 -0.000248 0.000455 0.000000
-0.000285 -0.000193 0.000509 0.000000
-0.000033 -0.000022 0.000037 0.000000
-0.000149 -0.000260 0.000281 0.000000
-0.000235 -0.000244 0.000412 0.000000
-0.000057 -0.000359 -0.000022 0.000000
-0.000008 -0.000050 0.000056 0.000000
-0.000115 -0.000300 -0.000248 0.000000
-0.000181 -0.000080 -0.000173 0.000000
-0.000129 -0.000314 0.000421 0.000000
0.000007 -0.000075 0.000034 0.000000
-0.000065 -0.000298 -0.000218 0.000000
-0.000097 -0.000326 -0.000135 0.000000
-0.000269 -0.000225 0.000636 0.000000
-0.000323 -0.000143 0.000434 0.000000
-0.000185 -0.000308 0.000423 0.000000
-0.000190 -0.000253 0.000371 0.000000
-0.000041 -0.000018 0.000032 0.000000
-0.000220 -0.000234 0.000453 0.000000
-0.000349 -0.000192 0.000560 0.000000
-0.000238 -0.000282 0.000612 0.000000
0.000016 -0.000087 0.000036 0.000000
-0.000003 -0.000062 0.000010 0.000000
-0.000122 -0.000358 -0.000483 0.000000
0.000003 -0.000064 0.000037 0.000000
-0.000196 -0.000206 0.000265 0.000000
-0.000209 -0.000182 0.000289 0.000000
-0.000182 -0.000243 0.000326 0.000000
-0.000186 -0.000207 0.000292 0.000000
-0.000069 -0.000308 -0.000297 0.000000
-0.000111 -0.000196 -0.000399 0.000000
-0.000172 -0.000178 0.000314 0.000000
-0.000029 -0.000026 0.000005 0.000000
-0.000201 -0.000199 0.000304 0.000000
-0.000178 -0.000247 0.000330 0.000000
0.000001 -0.000072 0.000000 0.000000
0.000080 -0.000554 0.000014 0.000000
0.000002 -0.000056 0.000008 0.000000
0.000004 -0.000065 0.000038 0.000000
-0.000010 -0.000052 0.000018 0.000000
0.000035 -0.000100 0.000075 0.000000
0.000107 -0.000531 0.000036 0.000000
0.000010 -0.000071 0.000036 0.000000
-0.000196 -0.000229 0.000247 0.000000
-0.000186 -0.000235 0.000329 0.000000
0.000016 -0.000080 0.000042 0.000000
0.000024 -0.000073 0.000031 0.000000
-0.000103 -0.000308 -0.000096 0.000000
-0.000000 -0.000323 -0.000174 0.000000
-0.000150 -0.000283 0.000114 0.000000
0.000054 -0.000092 -0.000082 0.000000
-0.000168 -0.000259 0.000153 0.000000
-0.000186 -0.000229 0.000329 0.000000
-0.000009 -0.000053 0.000018 0.000000
0.000011 -0.000071 0.000039 0.000000
0.000001 -0.000066 0.000023 0.000000
0.000016 -0.000079 0.000040 0.000000
0.000052 -0.000095 0.000038 0.000000
0.000022 -0.000080 0.000046 0.000000
0.000000 -0.000065 0.000022 0.000000
-0.000010 -0.000054 0.000016 0.000000
0.000024 -0.000088 0.000050 0.000000
0.000026 -0.000093 0.000046 0.000000
-0.000172 -0.000226 0.000053 0.000000
-0.000185 -0.000252 0.000173 0.000000
0.000017 -0.000083 0.000033 0.000000
0.000010 -0.000069 0.000020 0.000000
0.000063 -0.000135 -0.000075 0.000000
-0.000177 -0.000312 0.000141 0.000000
-0.000181 -0.000252 0.000113 0.000000
-0.000190 -0.000216 0.000215 0.000000
-0.000126 -0.000329 -0.000177 0.000000
-0.000211 -0.000219 -0.000014 0.000000
-0.000147 -0.000228 0.000076 0.000000
-0.000171 -0.000241 0.000061 0.000000
-0.000171 -0.000225 0.000120 0.000000
-0.000191 -0.000209 0.000215 0.000000
0.000042 -0.000101 0.000000 0.000000
-0.000015 -0.000044 0.000039 0.000000
0.000012 -0.000088 -0.000029 0.000000
-0.000212 -0.000134 -0.000067 0.000000
0.000006 -0.000077 0.000028 0.000000
-0.000007 -0.000051 0.000022 0.000000
0.000012 -0.000082 0.000017 0.000000
0.000034 -0.000104 0.000026 0.000000
-0.000010 -0.000057 0.000029 0.000000
-0.000013 -0.000058 0.000049 0.000000
0.000002 -0.000068 0.000030 0.000000
-0.000005 -0.000064 0.000046 0.000000
-0.000258 -0.000267 0.000641 0.000000
-0.000274 -0.000339 0.000769 0.000000
0.000006 -0.000071 0.000028 0.000000
-0.000009 -0.000062 0.000022 0.000000
-0.000263 -0.000243 0.000429 0.000000
-0.000259 -0.000230 0.000633 0.000000
0.000000 -0.000066 0.000022 0.000000
-0.000178 -0.000311 0.000476 0.000000
0.000017 -0.000075 -0.000011 0.000000
0.000003 -0.000066 0.000024 0.000000
-0.000190 -0.000211 -0.000091 0.000000
-0.000030 -0.000310 -0.000353 0.000000
0.000001 -0.000062 0.000022 0.000000
-0.000003 -0.000060 0.000019 0.000000
-0.000015 -0.000050 0.000017 0.000000
-0.000018 -0.000044 0.000021 0.000000
-0.000263 -0.000231 0.000588 0.000000
-0.000038 -0.000021 0.000023 0.000000
-0.000255 -0.000225 0.000513 0.000000
-0.000253 -0.000260 0.000496 0.000000
-0.000012 -0.000051 0.000023 0.000000
-0.000212 -0.000306 0.000485 0.000000
-0.000040 -0.000021 0.000019 0.000000
-0.000496 -0.000057 0.000041 0.000000
-0.000035 -0.000030 0.000009 0.000000
-0.000237 -0.000249 0.000418 0.000000
-0.000418 -0.000111 0.000468 0.000000
-0.000416 -0.000132 0.000142 0.000000
-0.000338 -0.000259 0.000331 0.000000
-0.000010 -0.000043 0.000012 0.000000
-0.000369 -0.000168 0.000352 0.000000
-0.000352 -0.000192 0.000259 0.000000
-0.000305 -0.000270 -0.000095 0.000000
-0.000011 -0.000082 0.000026 0.000000
-0.000138 -0.000420 0.000156 0.000000
-0.000098 -0.000509 0.000090 0.000000
-0.000126 -0.000296 0.000385 0.000000
-0.000247 -0.000273 0.000386 0.000000
-0.000212 -0.000441 0.000157 0.000000
-0.000218 -0.000176 -0.000279 0.000000
-0.000015 -0.000058 -0.000024 0.000000
-0.000075 -0.000499 0.000105 0.000000
-0.000094 -0.000342 0.000297 0.000000
-0.000227 -0.000349 0.000240 0.000000
-0.000226 -0.000297 0.000406 0.000000
-0.000189 -0.000346 0.000220 0.000000
-0.000036 -0.000030 0.000028 0.000000
-0.000043 -0.000040 0.000057 0.000000
-0.000357 -0.000375 0.000572 0.000000
-0.000317 -0.000293 0.000348 0.000000
-0.000426 -0.000240 0.000544 0.000000
-0.000376 -0.000250 0.000405 0.000000
-0.000296 -0.000348 0.000429 0.000000
-0.000354 -0.000226 0.000186 0.000000
-0.000262 -0.000230 0.000020 0.000000
-0.000310 -0.000254 0.000088 0.000000
-0.000047 -0.000035 0.000053 0.000000
-0.000048 -0.000046 0.000073 0.000000
-0.000047 -0.000041 0.000068 0.000000
-0.000042 -0.000025 0.000026 0.000000
-0.000048 -0.000043 0.000068 0.000000
-0.000047 -0.000044 0.000060 0.000000
-0.000039 -0.000034 0.000038 0.000000
-0.000049 -0.000042 0.000071 0.000000
-0.000409 -0.000071 -0.000043 0.000000
-0.000065 0.000020 0.000279 0.000000
-0.000050 -0.000048 0.000087 0.000000
-0.000096 -0.000020 0.000269 0.000000
-0.000686 -0.000063 0.000434 0.000000
-0.000468 -0.000293 0.000363 0.000000
-0.000467 -0.000092 -0.000110 0.000000
-0.000050 -0.000030 0.000057 0.000000
-0.000065 -0.000065 0.000300 0.000000
-0.000051 -0.000036 0.000072 0.000000
-0.000047 -0.000037 0.000053 0.000000
-0.000042 -0.000033 0.000040 0.000000
-0.000043 -0.000037 0.000050 0.000000
-0.000041 -0.000031 0.000032 0.000000
-0.000042 -0.000036 0.000044 0.000000
-0.000037 -0.000035 0.000039 0.000000
-0.000045 -0.000033 0.000046 0.000000
-0.000044 -0.000031 0.000040 0.000000
-0.000046 -0.000028 0.000038 0.000000
-0.000046 -0.000034 0.000046 0.000000
-0.000055 -0.000055 0.000107 0.000000
-0.000049 -0.000038 0.000067 0.000000
-0.000050 -0.000039 0.000068 0.000000
-0.000047 -0.000036 0.000061 0.000000
-0.000049 -0.000034 0.000059 0.000000
-0.000050 -0.000038 0.000066 0.000000
-0.000086 -0.000044 0.000400 0.000000
-0.000767 0.000035 0.000534 0.000000
-0.000050 -0.000029 0.000059 0.000000
-0.000049 -0.000033 0.000060 0.000000
-0.000058 -0.000051 0.000144 0.000000
-0.000050 -0.000036 0.000063 0.000000
-0.000049 -0.000033 0.000065 0.000000
-0.000049 -0.000040 0.000068 0.000000
-0.000048 -0.000037 0.000060 0.000000
-0.000049 -0.000024 0.000041 0.000000
-0.000046 -0.000030 0.000045 0.000000
-0.000047 -0.000032 0.000046 0.000000
-0.000047 -0.000029 0.000046 0.000000
-0.000047 -0.000032 0.000054 0.000000
-0.000043 -0.000026 0.000033 0.000000
-0.000045 -0.000030 0.000041 0.000000
-0.000043 -0.000022 0.000026 0.000000
-0.000044 -0.000031 0.000038 0.000000
-0.000413 -0.000192 0.000286 0.000000
-0.000386 -0.000151 0.000067 0.000000
-0.000040 -0.000021 0.000009 0.000000
-0.000036 -0.000027 0.000009 0.000000
-0.000261 -0.000233 0.000451 0.000000
-0.000040 -0.000018 0.000025 0.000000
-0.000032 -0.000044 0.000005 0.000000
-0.000036 -0.000020 0.000007 0.000000
-0.000041 -0.000022 0.000017 0.000000
-0.000039 -0.000019 0.000015 0.000000
-0.000043 -0.000022 0.000027 0.000000
-0.000042 -0.000028 0.000032 0.000000
-0.000042 -0.000027 0.000025 0.000000
-0.000399 -0.000094 0.000202 0.000000
-0.000331 -0.000078 -0.000166 0.000000
-0.000036 -0.000024 0.000004 0.000000
-0.000359 -0.000133 0.000119 0.000000
-0.000395 -0.000038 0.000155 0.000000
-0.000329 -0.000146 0.000016 0.000000
-0.000405 -0.000015 -0.000083 0.000000
-0.000038 -0.000021 0.000011 0.000000
-0.000038 -0.000021 0.000014 0.000000
-0.000039 -0.000018 0.000021 0.000000
-0.000039 -0.000017 0.000027 0.000000
-0.000037 -0.000019 0.000012 0.000000
-0.000038 -0.000019 0.000019 0.000000
-0.000034 -0.000017 0.000012 0.000000
-0.000038 -0.000018 0.000019 0.000000
-0.000401 -0.000070 0.000039 0.000000
-0.000036 -0.000021 0.000002 0.000000
-0.000031 -0.000029 0.000017 0.000000
-0.000036 -0.000026 0.000009 0.000000
-0.000039 -0.000028 0.000015 0.000000
-0.000038 -0.000023 0.000010 0.000000
-0.000038 -0.000022 0.000021 0.000000
-0.000415 -0.000015 0.000041 0.000000
-0.000458 0.000002 0.000127 0.000000
-0.000454 -0.000062 0.000112 0.000000
-0.000042 -0.000023 0.000026 0.000000
-0.000044 -0.000024 0.000030 0.000000
-0.000422 -0.000056 0.000100 0.000000
-0.000497 -0.000100 0.000252 0.000000
-0.000049 -0.000029 0.000052 0.000000
-0.000049 -0.000028 0.000051 0.000000
-0.000045 -0.000023 0.000031 0.000000
-0.000046 -0.000022 0.000032 0.000000
-0.000057 -0.000036 0.000082 0.000000
-0.000119 -0.000008 0.000505 0.000000
-0.000052 -0.000027 0.000066 0.000000
-0.000070 -0.000042 0.000206 0.000000
-0.000051 -0.000024 0.000051 0.000000
-0.000052 -0.000024 0.000056 0.000000
-0.000070 0.000020 0.000190 0.000000
-0.000265 0.000204 0.000415 0.000000
-0.000057 -0.000018 0.000071 0.000000
-0.000068 -0.000028 0.000093 0.000000
-0.000050 -0.000023 0.000043 0.000000
-0.000048 -0.000020 0.000034 0.000000
-0.000043 -0.000020 0.000025 0.000000
-0.000040 -0.000018 0.000020 0.000000
-0.000039 -0.000015 0.000013 0.000000
-0.000040 -0.000020 0.000018 0.000000
-0.000037 -0.000018 0.000015 0.000000
-0.000441 -0.000001 0.000062 0.000000
-0.000051 -0.000019 0.000039 0.000000
-0.000046 -0.000016 0.000026 0.000000
-0.000044 -0.000018 0.000024 0.000000
-0.000037 -0.000017 0.000014 0.000000
-0.000096 0.000055 0.000240 0.000000
-0.000047 -0.000014 0.000028 0.000000
-0.000059 -0.000022 0.000061 0.000000
-0.000054 -0.000020 0.000047 0.000000
-0.000051 -0.000013 0.000027 0.000000
-0.000048 -0.000010 0.000018 0.000000
-0.000046 -0.000013 0.000021 0.000000
-0.000038 -0.000015 0.000012 0.000000
-0.000044 -0.000017 0.000024 0.000000
-0.000043 -0.000014 0.000016 0.000000
-0.000404 -0.000000 0.000013 0.000000
-0.000414 -0.000016 0.000070 0.000000
-0.000045 -0.000013 0.000017 0.000000
-0.000046 -0.000017 0.000025 0.000000
-0.000040 -0.000013 0.000009 0.000000
-0.000042 -0.000016 0.000016 0.000000
-0.000037 -0.000011 0.000008 0.000000
-0.000038 -0.000014 0.000011 0.000000
-0.000417 -0.000052 0.000191 0.000000
-0.000290 -0.000017 0.000085 0.000000
-0.000382 -0.000058 0.000205 0.000000
-0.000343 -0.000060 0.000238 0.000000
-0.000364 -0.000010 0.000073 0.000000
-0.000388 -0.000022 0.000107 0.000000
-0.000377 -0.000046 0.000178 0.000000
-0.000367 -0.000058 0.000223 0.000000
-0.000036 -0.000017 0.000008 0.000000
-0.000034 -0.000015 0.000006 0.000000
-0.000031 -0.000015 0.000013 0.000000
-0.000032 -0.000015 0.000009 0.000000
-0.000402 -0.000062 0.000224 0.000000
-0.000036 -0.000020 0.000002 0.000000
-0.000034 -0.000015 0.000009 0.000000
-0.000034 -0.000021 0.000003 0.000000
-0.000033 -0.000017 0.000014 0.000000
-0.000037 -0.000019 0.000023 0.000000
-0.000032 -0.000020 0.000024 0.000000
-0.000297 -0.000121 0.000369 0.000000
-0.000035 -0.000017 0.000006 0.000000
-0.000035 -0.000020 0.000004 0.000000
-0.000038 -0.000018 0.000013 0.000000
-0.000035 -0.000017 0.000019 0.000000
-0.000454 -0.000047 0.000116 0.000000
-0.000422 -0.000039 0.000103 0.000000
-0.000415 -0.000064 0.000125 0.000000
-0.000417 -0.000039 0.000171 0.000000
-0.000487 -0.000050 0.000231 0.000000
-0.000368 -0.000063 0.000250 0.000000
-0.000407 -0.000061 0.000265 0.000000
-0.000043 -0.000021 0.000004 0.000000
-0.000034 -0.000020 0.000004 0.000000
-0.000037 -0.000022 0.000004 0.000000
-0.000295 -0.000173 0.000408 0.000000
-0.000030 -0.000020 0.000026 0.000000
-0.000258 -0.000149 0.000322 0.000000
-0.000269 -0.000202 0.000387 0.000000
-0.000282 -0.000149 0.000333 0.000000
-0.000279 -0.000092 0.000298 0.000000
-0.000195 -0.000202 0.000275 0.000000
-0.000130 -0.000333 0.000358 0.000000
-0.000048 -0.000458 0.000198 0.000000
-0.000097 -0.000277 0.000122 0.000000
0.000006 -0.000041 -0.000020 0.000000
-0.000013 -0.000034 -0.000023 0.000000
-0.000141 -0.000235 -0.000053 0.000000
-0.000054 -0.000290 0.000092 0.000000
-0.000147 -0.000222 -0.000189 0.000000
-0.000250 -0.000161 -0.000016 0.000000
-0.000021 -0.000025 0.000006 0.000000
-0.000013 -0.000041 -0.000007 0.000000
-0.000024 -0.000019 0.000013 0.000000
-0.000034 -0.000012 0.000021 0.000000
-0.000146 -0.000256 0.000296 0.000000
-0.000016 -0.000365 0.000029 0.000000
-0.000002 -0.000374 0.000019 0.000000
0.000042 -0.000359 -0.000065 0.000000
-0.000029 -0.000362 0.000002 0.000000
0.000035 -0.000424 0.000035 0.000000
-0.000011 -0.000028 -0.000008 0.000000
0.000000 -0.000361 -0.000031 0.000000
-0.000018 -0.000028 0.000004 0.000000
-0.000017 -0.000026 0.000001 0.000000
-0.000256 -0.000136 0.000317 0.000000
-0.000204 -0.000174 0.000309 0.000000
-0.000111 -0.000271 0.000050 0.000000
-0.000112 -0.000322 0.000219 0.000000
-0.000221 -0.000001 -0.000055 0.000000
-0.000028 -0.000021 0.000015 0.000000
-0.000149 -0.000133 0.000074 0.000000
-0.000088 -0.000221 0.000120 0.000000
-0.000007 -0.000041 -0.000013 0.000000
-0.000013 -0.000021 0.000008 0.000000
-0.000004 -0.000044 0.000008 0.000000
-0.000014 -0.000018 0.000002 0.000000
-0.000132 -0.000172 -0.000011 0.000000
-0.000009 -0.000032 0.000014 0.000000
-0.000008 -0.000038 0.000019 0.000000
-0.000011 -0.000031 -0.000008 0.000000
-0.000032 -0.000022 0.000038 0.000000
-0.000123 -0.000097 0.000004 0.000000
-0.000306 -0.000084 0.000129 0.000000
-0.000161 -0.000090 0.000037 0.000000
-0.000191 -0.000123 0.000111 0.000000
-0.000207 -0.000156 0.000174 0.000000
-0.000142 -0.000170 0.000129 0.000000
-0.000153 -0.000091 0.000158 0.000000
-0.000023 -0.000027 0.000009 0.000000
-0.000168 -0.000050 -0.000119 0.000000
-0.000104 -0.000150 0.000072 0.000000
-0.000141 -0.000193 -0.000024 0.000000
-0.000028 -0.000019 0.000011 0.000000
-0.000025 -0.000020 0.000012 0.000000
-0.000160 -0.000262 0.000234 0.000000
-0.000165 -0.000168 0.000016 0.000000
-0.000131 -0.000235 -0.000034 0.000000
-0.000156 -0.000165 -0.000008 0.000000
-0.000030 -0.000017 0.000018 0.000000
-0.000242 -0.000120 0.000232 0.000000
-0.000310 -0.000079 0.000121 0.000000
-0.000296 -0.000114 0.000251 0.000000
-0.000214 -0.000199 0.000223 0.000000
-0.000162 -0.000209 0.000118 0.000000
-0.000144 -0.000161 0.000060 0.000000
-0.000204 -0.000065 -0.000032 0.000000
-0.000113 -0.000211 0.000051 0.000000
-0.000093 -0.000184 -0.000010 0.000000
-0.000215 -0.000091 0.000082 0.000000
-0.000179 -0.000109 0.000030 0.000000
-0.000179 -0.000066 -0.000044 0.000000
-0.000206 -0.000160 0.000105 0.000000
-0.000129 -0.000176 0.000020 0.000000
-0.000029 -0.000006 0.000013 0.000000
-0.000010 -0.000018 0.000007 0.000000
-0.000015 -0.000027 0.000020 0.000000
-0.000041 -0.000175 -0.000041 0.000000
-0.000089 -0.000184 0.000006 0.000000
-0.000185 -0.000245 0.000436 0.000000
-0.000045 -0.000012 0.000054 0.000000
-0.000215 -0.000096 -0.000015 0.000000
-0.000164 -0.000081 -0.000028 0.000000
-0.000169 -0.000086 0.000042 0.000000
-0.000173 -0.000089 0.000028 0.000000
-0.000013 -0.000031 0.000015 0.000000
-0.000010 -0.000028 0.000005 0.000000
-0.000009 -0.000031 0.000004 0.000000
-0.000014 -0.000023 -0.000007 0.000000
-0.000012 -0.000027 0.000009 0.000000
-0.000013 -0.000017 0.000001 0.000000
-0.000015 -0.000017 -0.000007 0.000000
-0.000015 -0.000014 -0.000005 0.000000
-0.000036 -0.000019 0.000033 0.000000
-0.000170 -0.000078 0.000015 0.000000
-0.000032 -0.000016 0.000013 0.000000
-0.000025 -0.000021 0.000019 0.000000
-0.000180 -0.000092 0.000023 0.000000
-0.000011 -0.000028 0.000007 0.000000
-0.000149 -0.000092 -0.000004 0.000000
-0.000167 -0.000113 -0.000078 0.000000
-0.000011 -0.000029 0.000018 0.000000
-0.000201 0.000000 0.000060 0.000000
-0.000012 -0.000022 0.000008 0.000000
-0.000013 -0.000020 0.000017 0.000000
-0.000013 -0.000023 0.000003 0.000000
-0.000013 -0.000024 -0.000004 0.000000
-0.000012 -0.000023 0.000002 0.000000
-0.000015 -0.000017 0.000007 0.000000
-0.000013 -0.000018 -0.000003 0.000000
-0.000014 -0.000018 -0.000003 0.000000
-0.000136 -0.000042 0.000117 0.000000
-0.000033 -0.000163 -0.000015 0.000000
-0.000163 -0.000075 -0.000032 0.000000
-0.000171 -0.000061 0.000019 0.000000
-0.000024 -0.000019 0.000026 0.000000
-0.000102 -0.000190 0.000092 0.000000
-0.000016 -0.000016 0.000003 0.000000
-0.000017 -0.000026 0.000043 0.000000
-0.000072 -0.000214 0.000163 0.000000
-0.000203 -0.000141 0.000411 0.000000
-0.000122 -0.000084 0.000026 0.000000
-0.000116 -0.000202 0.000166 0.000000
-0.000213 -0.000066 0.000015 0.000000
-0.000191 -0.000113 0.000011 0.000000
-0.000025 -0.000008 0.000030 0.000000
-0.000036 -0.000007 0.000018 0.000000
-0.000100 -0.000173 -0.000041 0.000000
-0.000027 -0.000011 0.000014 0.000000
-0.000048 -0.000164 -0.000097 0.000000
-0.000091 -0.000174 0.000002 0.000000
-0.000038 -0.000008 0.000028 0.000000
-0.000028 -0.000007 0.000019 0.000000
-0.000037 -0.000007 -0.000004 0.000000
-0.000248 -0.000047 -0.000079 0.000000
-0.000022 -0.000014 0.000003 0.000000
-0.000270 -0.000004 0.000003 0.000000
-0.000328 -0.000009 0.000070 0.000000
-0.000326 -0.000044 0.000197 0.000000
-0.000243 -0.000048 0.000156 0.000000
-0.000284 -0.000035 0.000172 0.000000
-0.000315 -0.000001 0.000043 0.000000
-0.000337 0.000010 0.000022 0.000000
-0.000333 -0.000022 0.000133 0.000000
-0.000295 -0.000024 0.000107 0.000000
-0.000215 -0.000101 0.000238 0.000000
-0.000035 -0.000011 0.000000 0.000000
-0.000032 -0.000007 -0.000002 0.000000
-0.000029 -0.000013 0.000002 0.000000
-0.000042 -0.000011 0.000003 0.000000
-0.000320 -0.000083 0.000319 0.000000
-0.000026 -0.000016 0.000015 0.000000
-0.000031 -0.000014 -0.000001 0.000000
-0.000034 -0.000019 0.000002 0.000000
-0.000032 -0.000019 0.000004 0.000000
-0.000026 -0.000013 0.000007 0.000000
-0.000030 -0.000019 0.000022 0.000000
-0.000327 -0.000009 0.000083 0.000000
-0.000370 -0.000034 0.000150 0.000000
-0.000356 -0.000053 0.000205 0.000000
-0.000344 -0.000054 0.000225 0.000000
-0.000328 0.000024 -0.000052 0.000000
-0.000384 0.000004 -0.000000 0.000000
-0.000384 -0.000023 0.000117 0.000000
-0.000355 -0.000023 0.000123 0.000000
-0.000314 -0.000037 0.000159 0.000000
-0.000345 -0.000038 0.000168 0.000000
-0.000038 -0.000007 0.000003 0.000000
-0.000401 -0.000010 0.000025 0.000000
-0.000385 0.000002 -0.000004 0.000000
-0.000386 -0.000005 0.000051 0.000000
-0.000041 -0.000010 0.000008 0.000000
-0.000041 -0.000015 0.000015 0.000000
-0.000034 -0.000010 0.000002 0.000000
-0.000038 -0.000007 0.000002 0.000000
-0.000055 -0.000016 0.000053 0.000000
-0.000146 0.000064 0.000237 0.000000
-0.000060 -0.000017 0.000053 0.000000
-0.000055 -0.000018 0.000042 0.000000
-0.000410 -0.000091 0.000407 0.000000
-0.000060 -0.000008 0.000044 0.000000
-0.000041 -0.000013 0.000023 0.000000
-0.000055 -0.000010 0.000029 0.000000
-0.000042 -0.000009 0.000021 0.000000
-0.000050 -0.000010 0.000020 0.000000
-0.000046 -0.000009 0.000017 0.000000
-0.000044 -0.000012 0.000019 0.000000
-0.000038 -0.000007 0.000004 0.000000
-0.000040 -0.000006 0.000010 0.000000
-0.000038 -0.000010 0.000003 0.000000
-0.000036 -0.000007 0.000004 0.000000
-0.000036 -0.000004 0.000004 0.000000
-0.000037 -0.000009 0.000002 0.000000
-0.000044 -0.000004 0.000006 0.000000
-0.000038 -0.000003 -0.000004 0.000000
-0.000399 0.000024 -0.000061 0.000000
-0.000363 0.000006 0.000021 0.000000
-0.000041 -0.000012 0.000028 0.000000
-0.000041 -0.000007 0.000024 0.000000
-0.000039 -0.000006 0.000013 0.000000
-0.000045 -0.000008 0.000013 0.000000
-0.000040 -0.000007 0.000010 0.000000
-0.000036 -0.000007 0.000003 0.000000
-0.000063 0.000020 0.000145 0.000000
-0.000059 -0.000000 0.000201 0.000000
-0.000088 0.000021 0.000329 0.000000
-0.000088 0.000013 0.000245 0.000000
-0.000121 0.000034 0.000178 0.000000
-0.000083 0.000043 0.000243 0.000000
-0.000601 0.000300 0.000421 0.000000
-0.000150 0.000115 0.000434 0.000000
-0.000058 -0.000014 0.000134 0.000000
-0.000057 -0.000014 0.000237 0.000000
-0.000054 -0.000025 0.000059 0.000000
-0.000059 -0.000007 0.000208 0.000000
-0.000037 -0.000043 0.000356 0.000000
-0.000029 -0.000045 0.000399 0.000000
-0.000053 -0.000015 0.000098 0.000000
-0.000054 -0.000014 0.000100 0.000000
-0.000047 -0.000029 0.000528 0.000000
-0.000029 -0.000054 0.000421 0.000000
-0.000048 -0.000042 0.000455 0.000000
-0.000037 -0.000031 0.000411 0.000000
-0.000871 0.000055 0.001353 0.000000
-0.000829 0.000082 0.001422 0.000000
-0.000037 -0.000054 0.000362 0.000000
-0.000030 -0.000050 0.000380 0.000000
-0.000880 0.000097 0.001319 0.000000
-0.000007 -0.000108 0.000383 0.000000
-0.000026 -0.000064 0.000318 0.000000
-0.000026 -0.000066 0.000342 0.000000
-0.000015 -0.000070 0.000287 0.000000
-0.000028 -0.000055 0.000350 0.000000
-0.000041 -0.000050 0.000395 0.000000
-0.000034 -0.000046 0.000418 0.000000
-0.000030 -0.000057 0.000354 0.000000
-0.000032 -0.000061 0.000365 0.000000
-0.000022 -0.000069 0.000285 0.000000
-0.000037 -0.000062 0.000334 0.000000
-0.000042 -0.000028 0.000425 0.000000
-0.000050 -0.000050 0.000419 0.000000
-0.000755 -0.000037 0.000823 0.000000
-0.000735 -0.000062 0.000871 0.000000
-0.000035 -0.000070 0.000251 0.000000
-0.000031 -0.000067 0.000294 0.000000
-0.000037 -0.000066 0.000294 0.000000
-0.000036 -0.000064 0.000332 0.000000
-0.000028 -0.000067 0.000326 0.000000
-0.000038 -0.000058 0.000371 0.000000
-0.000042 -0.000045 0.000261 0.000000
-0.000037 -0.000056 0.000310 0.000000
-0.000044 -0.000035 0.000158 0.000000
-0.000047 -0.000040 0.000216 0.000000
-0.000046 -0.000045 0.000142 0.000000
-0.000052 -0.000031 0.000098 0.000000
-0.000057 -0.000012 0.000112 0.000000
-0.000067 0.000007 0.000079 0.000000
-0.000052 -0.000032 0.000076 0.000000
-0.000057 -0.000020 0.000127 0.000000
-0.000058 -0.000017 0.000105 0.000000
-0.000055 -0.000034 0.000066 0.000000
-0.000178 0.000070 0.000280 0.000000
-0.000204 0.000120 0.000445 0.000000
-0.000461 -0.000024 0.000471 0.000000
-0.000819 0.000036 0.001030 0.000000
-0.000076 0.000034 0.000097 0.000000
-0.000103 0.000011 0.000186 0.000000
-0.000182 0.000144 0.000338 0.000000
-0.000120 0.000080 0.000144 0.000000
-0.000626 0.000006 0.000519 0.000000
-0.000731 0.000080 0.000916 0.000000
-0.000054 -0.000015 0.000058 0.000000
-0.000057 -0.000023 0.000062 0.000000
-0.000146 0.000091 0.000219 0.000000
-0.000827 0.000186 0.000955 0.000000
-0.000053 -0.000027 0.000074 0.000000
-0.000053 -0.000023 0.000079 0.000000
-0.000054 -0.000022 0.000065 0.000000
-0.000054 -0.000028 0.000062 0.000000
-0.000041 -0.000041 0.000208 0.000000
-0.000043 -0.000036 0.000271 0.000000
-0.000043 -0.000055 0.000152 0.000000
-0.000050 -0.000039 0.000099 0.000000
-0.000100 0.000002 0.000130 0.000000
-0.000068 -0.000017 0.000041 0.000000
-0.001011 0.000285 0.000642 0.000000
-0.000176 0.000164 0.000239 0.000000
-0.000063 -0.000019 0.000057 0.000000
-0.000060 -0.000026 0.000054 0.000000
-0.000142 0.000028 0.000311 0.000000
-0.000142 0.000083 0.000204 0.000000
-0.000158 0.000034 0.000172 0.000000
-0.000082 -0.000019 0.000067 0.000000
-0.000078 -0.000020 0.000077 0.000000
-0.000056 -0.000030 0.000054 0.000000
-0.000057 -0.000040 0.000070 0.000000
-0.000053 -0.000039 0.000080 0.000000
-0.000058 -0.000031 0.000056 0.000000
-0.000055 -0.000043 0.000071 0.000000
-0.000031 -0.000076 0.000262 0.000000
-0.000036 -0.000063 0.000246 0.000000
-0.000045 -0.000041 0.000172 0.000000
-0.000041 -0.000055 0.000196 0.000000
-0.000056 -0.000028 0.000061 0.000000
-0.000054 -0.000029 0.000062 0.000000
-0.000035 -0.000066 0.000354 0.000000
-0.000034 -0.000077 0.000296 0.000000
-0.000035 -0.000065 0.000321 0.000000
-0.000031 -0.000070 0.000351 0.000000
-0.000029 -0.000075 0.000314 0.000000
-0.000040 -0.000083 0.000279 0.000000
-0.000034 -0.000067 0.000404 0.000000
-0.000024 -0.000083 0.000335 0.000000
-0.000026 -0.000111 0.000377 0.000000
-0.000914 0.000050 0.000947 0.000000
-0.000035 -0.000082 0.000189 0.000000
-0.000035 -0.000069 0.000261 0.000000
-0.000038 -0.000068 0.000202 0.000000
-0.000028 -0.000082 0.000242 0.000000
-0.000048 -0.000076 0.000221 0.000000
-0.000036 -0.000069 0.000238 0.000000
0.000010 -0.000146 0.000467 0.000000
-0.000837 -0.000019 0.000829 0.000000
-0.000019 -0.000099 0.000206 0.000000
-0.000895 0.000089 0.001174 0.000000
-0.000037 -0.000075 0.000201 0.000000
-0.000031 -0.000073 0.000249 0.000000
-0.000038 -0.000046 0.000249 0.000000
-0.000042 -0.000058 0.000369 0.000000
-0.000036 -0.000064 0.000308 0.000000
-0.000048 -0.000028 0.000434 0.000000
-0.000038 -0.000055 0.000240 0.000000
-0.000041 -0.000038 0.000331 0.000000
-0.000788 -0.000030 0.000803 0.000000
-0.000899 -0.000012 0.001109 0.000000
-0.000009 -0.000079 0.000266 0.000000
-0.000020 -0.000080 0.000214 0.000000
-0.000062 -0.000034 0.000454 0.000000
-0.000032 -0.000058 0.000392 0.000000
-0.000054 -0.000070 0.000140 0.000000
-0.000037 -0.000078 0.000217 0.000000
-0.000011 -0.000119 0.000398 0.000000
-0.000826 -0.000006 0.000714 0.000000
-0.000035 -0.000098 0.000098 0.000000
-0.000045 -0.000077 0.000098 0.000000
-0.000054 -0.000071 0.000099 0.000000
-0.000046 -0.000085 0.000093 0.000000
-0.000032 -0.000099 0.000098 0.000000
-0.000017 -0.000119 0.000109 0.000000
-0.000050 -0.000077 0.000093 0.000000
-0.000053 -0.000073 0.000106 0.000000
-0.000050 -0.000074 0.000139 0.000000
-0.000031 -0.000086 0.000357 0.000000
-0.000030 -0.000097 0.000360 0.000000
-0.000014 -0.000093 0.000398 0.000000
0.000006 -0.000109 0.000437 0.000000
-0.000046 -0.000086 0.000350 0.000000
0.000006 -0.000115 0.000466 0.000000
-0.000858 -0.000040 0.000782 0.000000
-0.000043 -0.000092 0.000154 0.000000
-0.000059 -0.000066 0.000218 0.000000
-0.000385 -0.000981 0.001712 0.000000
-0.000461 -0.000657 0.001382 0.000000
-0.000005 -0.000136 0.000108 0.000000
-0.000035 -0.000103 0.000099 0.000000
-0.000049 -0.000082 0.000105 0.000000
-0.000054 -0.000074 0.000097 0.000000
-0.000037 -0.000092 0.000091 0.000000
-0.000048 -0.000084 0.000094 0.000000
-0.000052 -0.000077 0.000093 0.000000
-0.000047 -0.000084 0.000096 0.000000
-0.000052 -0.000075 0.000110 0.000000
-0.000048 -0.000074 0.000146 0.000000
0.000040 -0.000162 0.000165 0.000000
0.000026 -0.000164 0.000134 0.000000
-0.000001 -0.000126 0.000120 0.000000
-0.000028 -0.000107 0.000099 0.000000
0.000046 -0.000177 0.000216 0.000000
0.000090 -0.000201 0.000308 0.000000
0.000053 -0.000180 0.000193 0.000000
0.000068 -0.000194 0.000239 0.000000
-0.000100 -0.000099 0.000187 0.000000
-0.000054 -0.000081 0.000087 0.000000
-0.000039 -0.000146 0.000294 0.000000
-0.000052 -0.000106 0.000143 0.000000
0.000004 -0.000207 0.000473 0.000000
-0.000010 -0.000121 0.000186 0.000000
0.000053 -0.000180 0.000224 0.000000
0.000008 -0.000116 0.000127 0.000000
-0.000050 -0.000082 0.000107 0.000000
-0.000419 -0.000612 0.000869 0.000000
0.000048 -0.000179 0.000196 0.000000
0.000040 -0.000150 0.000235 0.000000
0.000047 -0.000170 0.000191 0.000000
0.000049 -0.000168 0.000202 0.000000
0.000037 -0.000158 0.000188 0.000000
0.000046 -0.000168 0.000187 0.000000
-0.000005 -0.000119 0.000119 0.000000
0.000026 -0.000161 0.000160 0.000000
-0.000038 -0.000092 0.000097 0.000000
-0.000042 -0.000083 0.000141 0.000000
-0.000028 -0.000098 0.000080 0.000000
-0.000047 -0.000086 0.000077 0.000000
-0.000026 -0.000118 0.000106 0.000000
-0.000012 -0.000133 0.000174 0.000000
0.000003 -0.000144 0.000148 0.000000
-0.000005 -0.000123 0.000149 0.000000
-0.000056 -0.000067 0.000072 0.000000
-0.000043 -0.000079 0.000068 0.000000
0.000024 -0.000162 0.000196 0.000000
0.000048 -0.000174 0.000208 0.000000
-0.000026 -0.000109 0.000091 0.000000
-0.000046 -0.000093 0.000087 0.000000
0.000000 -0.000113 0.000130 0.000000
0.000041 -0.000157 0.000188 0.000000
0.000051 -0.000167 0.000213 0.000000
0.000049 -0.000178 0.000203 0.000000
0.000051 -0.000173 0.000208 0.000000
0.000041 -0.000157 0.000191 0.000000
0.000048 -0.000172 0.000207 0.000000
0.000048 -0.000175 0.000211 0.000000
0.000013 -0.000140 0.000180 0.000000
0.000041 -0.000153 0.000201 0.000000
-0.000032 -0.000092 0.000100 0.000000
-0.000010 -0.000111 0.000166 0.000000
-0.000042 -0.000079 0.000097 0.000000
-0.000048 -0.000080 0.000091 0.000000
-0.000046 -0.000070 0.000159 0.000000
-0.000054 -0.000072 0.000099 0.000000
-0.000042 -0.000068 0.000241 0.000000
-0.000015 -0.000091 0.000363 0.000000
-0.000047 -0.000074 0.000129 0.000000
-0.000028 -0.000081 0.000211 0.000000
0.000009 -0.000133 0.000434 0.000000
-0.000739 -0.000036 0.000741 0.000000
0.000009 -0.000124 0.000158 0.000000
0.000009 -0.000135 0.000157 0.000000
-0.000015 -0.000112 0.000121 0.000000
-0.000041 -0.000086 0.000098 0.000000
-0.000031 -0.000087 0.000106 0.000000
-0.000047 -0.000080 0.000103 0.000000
-0.000001 -0.000111 0.000251 0.000000
-0.000035 -0.000079 0.000113 0.000000
-0.000024 -0.000083 0.000193 0.000000
-0.000026 -0.000097 0.000214 0.000000
-0.000015 -0.000101 0.000377 0.000000
-0.000040 -0.000061 0.000385 0.000000
0.000007 -0.000116 0.000439 0.000000
-0.000024 -0.000081 0.000398 0.000000
-0.000001 -0.000097 0.000209 0.000000
-0.000036 -0.000078 0.000128 0.000000
-0.000019 -0.000082 0.000280 0.000000
-0.000027 -0.000082 0.000287 0.000000
-0.000034 -0.000093 0.000116 0.000000
-0.000040 -0.000085 0.000125 0.000000
-0.000026 -0.000087 0.000132 0.000000
-0.000018 -0.000090 0.000137 0.000000
-0.000018 -0.000102 0.000251 0.000000
-0.000031 -0.000084 0.000138 0.000000
0.000040 -0.000149 0.000207 0.000000
0.000020 -0.000149 0.000152 0.000000
0.000046 -0.000164 0.000222 0.000000
0.000044 -0.000160 0.000207 0.000000
0.000009 -0.000135 0.000214 0.000000
0.000028 -0.000139 0.000188 0.000000
-0.000015 -0.000102 0.000127 0.000000
-0.000021 -0.000094 0.000153 0.000000
-0.000382 -0.000758 0.001006 0.000000
-0.000054 -0.000076 0.000077 0.000000
0.000032 -0.000144 0.000171 0.000000
0.000029 -0.000160 0.000175 0.000000
-0.000285 -0.000785 0.001125 0.000000
-0.000037 -0.000083 0.000090 0.000000
-0.000008 -0.000107 0.000105 0.000000
-0.000022 -0.000095 0.000089 0.000000
0.000001 -0.000137 0.000126 0.000000
0.000020 -0.000129 0.000155 0.000000
-0.000472 -0.000641 0.000356 0.000000
-0.000317 -0.000654 0.000507 0.000000
-0.000409 -0.000629 0.000895 0.000000
-0.000400 -0.000669 0.000678 0.000000
0.000003 -0.000194 0.000135 0.000000
0.000184 -0.000385 0.000745 0.000000
0.000306 -0.000464 0.000381 0.000000
-0.000028 -0.000134 0.000156 0.000000
0.000008 -0.000183 0.000275 0.000000
0.000058 -0.000194 0.000269 0.000000
-0.000195 -0.000615 0.000050 0.000000
-0.000305 -0.000811 0.000392 0.000000
-0.000401 -0.000663 0.000811 0.000000
-0.000368 -0.000564 0.000551 0.000000
-0.000378 -0.000664 0.001046 0.000000
-0.000394 -0.000666 0.000863 0.000000
-0.000012 -0.000158 0.000161 0.000000
-0.000044 -0.000138 0.000640 0.000000
-0.000501 -0.000694 0.000924 0.000000
-0.000377 -0.000321 0.000003 0.000000
-0.000040 -0.000119 0.000251 0.000000
-0.000029 -0.000089 0.000551 0.000000
-0.000193 -0.000002 0.000623 0.000000
-0.000614 -0.000420 0.000780 0.000000
0.000101 -0.000251 0.000125 0.000000
-0.000030 -0.000128 0.000169 0.000000
0.000015 -0.000183 0.000204 0.000000
-0.000015 -0.000169 0.000475 0.000000
-0.000005 -0.001204 0.001647 0.000000
0.000226 -0.001501 0.000238 0.000000
0.000171 -0.000373 0.000537 0.000000
0.000307 -0.000449 0.000413 0.000000
0.000019 -0.000206 0.000226 0.000000
0.000058 -0.000208 0.000269 0.000000
0.000387 -0.001698 0.000570 0.000000
0.000407 -0.001756 0.000559 0.000000
0.000438 -0.000597 0.000217 0.000000
0.000526 -0.000628 0.000384 0.000000
0.000294 -0.001514 0.000434 0.000000
0.000274 -0.001753 0.000907 0.000000
0.000388 -0.000524 0.000306 0.000000
-0.000152 -0.001350 0.000738 0.000000
-0.000234 -0.001065 0.000982 0.000000
-0.000117 -0.001140 0.000602 0.000000
-0.000067 -0.001393 0.001331 0.000000
0.000207 -0.001463 0.001042 0.000000
0.000214 -0.001564 0.000981 0.000000
0.000274 -0.001489 0.000834 0.000000
0.000244 -0.001450 0.000535 0.000000
0.000413 -0.001703 0.000601 0.000000
-0.000159 -0.001048 0.000585 0.000000
0.000212 -0.001196 -0.000134 0.000000
0.000064 -0.001373 0.000804 0.000000
-0.000131 -0.001212 0.000677 0.000000
0.000147 -0.001385 0.000505 0.000000
0.000210 -0.001489 0.000399 0.000000
0.000393 -0.000556 0.000248 0.000000
-0.000006 -0.001049 0.001284 0.000000
-0.000007 -0.001332 0.000607 0.000000
-0.000052 -0.001257 0.000832 0.000000
-0.000089 -0.001437 0.001175 0.000000
-0.000014 -0.001448 0.001140 0.000000
0.000400 -0.001604 0.000917 0.000000
0.000413 -0.001633 0.000672 0.000000
0.000284 -0.001478 0.000667 0.000000
0.000348 -0.001645 0.000822 0.000000
0.000268 -0.001499 0.000583 0.000000
0.000332 -0.001541 0.000536 0.000000
0.000216 -0.000384 0.000276 0.000000
0.000223 -0.000379 0.000273 0.000000
0.000025 -0.000186 -0.000029 0.000000
0.000097 -0.001603 0.000310 0.000000
0.000172 -0.000304 0.000241 0.000000
0.000190 -0.000347 0.000225 0.000000
0.000049 -0.000182 0.000114 0.000000
0.000132 -0.000296 0.000077 0.000000
0.000247 -0.000412 0.000340 0.000000
0.000261 -0.000424 0.000393 0.000000
0.000225 -0.000371 0.000336 0.000000
0.000252 -0.000421 0.000350 0.000000
0.000191 -0.000352 0.000294 0.000000
0.000188 -0.000351 0.000284 0.000000
0.000285 -0.000453 0.000428 0.000000
0.000309 -0.000450 0.000469 0.000000
0.000047 -0.001750 0.001835 0.000000
0.000300 -0.001670 0.001627 0.000000
0.000350 -0.000549 0.000436 0.000000
0.000271 -0.000440 0.000391 0.000000
-0.000469 -0.000704 -0.000452 0.000000
0.000348 -0.000485 -0.000027 0.000000
0.000222 -0.001762 0.000205 0.000000
-0.000329 -0.001112 0.000250 0.000000
0.000176 -0.000355 -0.000046 0.000000
0.000274 -0.000427 -0.000060 0.000000
-0.000683 -0.000725 -0.000108 0.000000
-0.000408 -0.001107 0.000267 0.000000
0.000544 -0.002518 0.001977 0.000000
0.000616 -0.002342 0.002841 0.000000
0.000358 -0.000520 0.000469 0.000000
0.000378 -0.000600 0.000506 0.000000
0.000278 -0.000451 0.000406 0.000000
0.000169 -0.000351 0.000335 0.000000
0.000649 -0.002289 0.002779 0.000000
-0.000020 -0.001370 0.000926 0.000000
0.000381 -0.000597 0.000301 0.000000
0.000424 -0.000639 0.000538 0.000000
0.000221 -0.000384 -0.000024 0.000000
0.000198 -0.000453 0.000040 0.000000
-0.000597 -0.000569 -0.000348 0.000000
0.000153 -0.000393 0.000067 0.000000
0.000118 -0.000360 0.000003 0.000000
0.000127 -0.000339 -0.000047 0.000000
-0.000538 -0.000713 -0.000024 0.000000
-0.000639 -0.000832 0.000599 0.000000
-0.000594 -0.000909 0.000402 0.000000
-0.000469 -0.000886 0.000257 0.000000
0.000001 -0.001724 0.001339 0.000000
-0.000439 -0.001152 0.000418 0.000000
0.000374 -0.000543 0.000464 0.000000
0.000497 -0.000645 0.000317 0.000000
0.000318 -0.000486 0.000420 0.000000
0.000311 -0.000504 0.000395 0.000000
0.000263 -0.000445 0.000405 0.000000
0.000250 -0.000433 0.000412 0.000000
0.000329 -0.000524 0.000448 0.000000
0.000343 -0.000503 0.000411 0.000000
0.000239 -0.000408 0.000363 0.000000
0.000254 -0.000430 0.000397 0.000000
0.000256 -0.000424 0.000431 0.000000
0.000268 -0.000419 0.000409 0.000000
0.000046 -0.000196 0.000119 0.000000
0.000140 -0.000315 0.000188 0.000000
0.000282 -0.000458 0.000505 0.000000
0.000270 -0.000422 0.000451 0.000000
0.000004 -0.000183 0.000024 0.000000
0.000037 -0.000208 0.000068 0.000000
0.000015 -0.000184 0.000005 0.000000
-0.000333 -0.000694 0.001179 0.000000
0.000281 -0.000446 0.000463 0.000000
0.000285 -0.000465 0.000523 0.000000
0.000234 -0.000409 0.000338 0.000000
0.000275 -0.000452 0.000470 0.000000
0.000269 -0.000438 0.000445 0.000000
0.000267 -0.000447 0.000497 0.000000
0.000192 -0.000345 0.000340 0.000000
0.000209 -0.000387 0.000351 0.000000
0.000253 -0.000440 0.000402 0.000000
0.000249 -0.000433 0.000410 0.000000
0.000295 -0.000470 0.000519 0.000000
0.000290 -0.000469 0.000510 0.000000
0.000278 -0.000452 0.000353 0.000000
0.000284 -0.000467 0.000390 0.000000
0.000271 -0.000440 0.000416 0.000000
0.000285 -0.000448 0.000491 0.000000
0.000364 -0.000539 0.000411 0.000000
0.000362 -0.000569 0.000206 0.000000
0.000316 -0.000510 0.000373 0.000000
0.000313 -0.000544 0.000193 0.000000
0.000145 -0.000350 -0.000052 0.000000
0.000145 -0.000347 -0.000043 0.000000
-0.000506 -0.001015 0.000536 0.000000
-0.000281 -0.001129 0.000552 0.000000
0.000118 -0.000306 -0.000023 0.000000
0.000140 -0.000352 -0.000039 0.000000
0.000079 -0.000304 -0.000027 0.000000
0.000159 -0.000375 -0.000028 0.000000
-0.000622 -0.000675 0.000191 0.000000
0.000127 -0.000339 -0.000053 0.000000
-0.000485 -0.000905 0.000441 0.000000
-0.000644 -0.000708 0.000595 0.000000
-0.000256 -0.001203 0.001015 0.000000
0.000375 -0.002159 0.002165 0.000000
0.000254 -0.000453 0.000196 0.000000
-0.000476 -0.001154 0.000973 0.000000
-0.000499 -0.001042 0.000769 0.000000
0.000373 -0.001802 0.002283 0.000000
0.000145 -0.000391 -0.000094 0.000000
0.000120 -0.000339 -0.000057 0.000000
0.000175 -0.000380 -0.000052 0.000000
-0.000788 -0.000402 0.000474 0.000000
0.000131 -0.000341 -0.000047 0.000000
0.000127 -0.000342 -0.000045 0.000000
-0.000572 -0.000849 0.000648 0.000000
-0.000763 -0.000687 0.000555 0.000000
-0.000547 -0.000922 0.000587 0.000000
-0.000589 -0.000823 0.000458 0.000000
-0.000471 -0.000993 0.000888 0.000000
0.000453 -0.000593 0.000202 0.000000
0.000365 -0.000527 0.000181 0.000000
0.000195 -0.000412 0.000202 0.000000
0.000315 -0.000470 0.000157 0.000000
0.000379 -0.000532 0.000250 0.000000
0.000260 -0.000431 0.000305 0.000000
0.000320 -0.000490 0.000349 0.000000
0.000222 -0.000421 0.000311 0.000000
0.000246 -0.000438 0.000356 0.000000
0.000253 -0.000425 0.000390 0.000000
0.000292 -0.000476 0.000510 0.000000
0.000293 -0.000465 0.000478 0.000000
0.000294 -0.000467 0.000525 0.000000
0.000295 -0.000473 0.000494 0.000000
0.000286 -0.000473 0.000497 0.000000
0.000210 -0.000397 0.000361 0.000000
0.000263 -0.000442 0.000466 0.000000
0.000153 -0.000328 0.000290 0.000000
0.000196 -0.000380 0.000356 0.000000
0.000058 -0.000236 0.000094 0.000000
0.000153 -0.000328 0.000288 0.000000
0.000096 -0.001576 0.001283 0.000000
0.000145 -0.001540 0.001157 0.000000
0.000408 -0.001844 0.000740 0.000000
0.000408 -0.001708 0.000780 0.000000
0.000598 -0.002037 0.000732 0.000000
0.000502 -0.001801 0.000620 0.000000
0.000164 -0.001693 0.000942 0.000000
0.000398 -0.001752 0.000959 0.000000
0.000547 -0.001903 0.000581 0.000000
0.000429 -0.001807 0.000660 0.000000
0.000029 -0.000207 0.000048 0.000000
-0.000233 -0.001209 0.001026 0.000000
-0.000271 -0.001179 0.001869 0.000000
-0.000271 -0.001098 0.001710 0.000000
0.000005 -0.000163 0.000038 0.000000
-0.000272 -0.000972 0.001809 0.000000
-0.000272 -0.001179 0.001529 0.000000
-0.000233 -0.001060 0.001251 0.000000
0.000156 -0.000332 0.000185 0.000000
0.000153 -0.000309 0.000310 0.000000
0.000008 -0.000172 0.000042 0.000000
0.000043 -0.000210 0.000087 0.000000
0.000083 -0.001431 0.001068 0.000000
0.000279 -0.001695 0.001021 0.000000
0.000227 -0.001668 0.001027 0.000000
0.000334 -0.001713 0.000805 0.000000
-0.000061 -0.001282 0.000810 0.000000
-0.000088 -0.001363 0.001189 0.000000
0.000407 -0.001757 0.000718 0.000000
0.000392 -0.001795 0.000854 0.000000
0.000492 -0.001918 0.000690 0.000000
0.000429 -0.001813 0.000483 0.000000
-0.000150 -0.001181 0.000447 0.000000
0.000498 -0.001818 0.000209 0.000000
0.000158 -0.000332 0.000259 0.000000
-0.000312 -0.000709 0.001176 0.000000
0.000165 -0.001498 0.000451 0.000000
0.000418 -0.001741 0.000478 0.000000
0.000280 -0.000417 0.000198 0.000000
0.000461 -0.000579 0.000227 0.000000
0.000084 -0.000209 0.000218 0.000000
0.000413 -0.000490 0.000479 0.000000
-0.000839 -0.000364 0.001319 0.000000
-0.000078 -0.000065 0.000077 0.000000
-0.000006 -0.000159 0.000291 0.000000
0.000372 -0.001663 0.001378 0.000000
0.000239 -0.000346 0.000384 0.000000
-0.000016 -0.000120 0.000114 0.000000
-0.000858 -0.000477 0.001223 0.000000
-0.000080 -0.000041 0.000316 0.000000
-0.000413 -0.000397 0.000030 0.000000
-0.000731 -0.000326 0.001462 0.000000
-0.000352 -0.000808 0.000586 0.000000
-0.000069 -0.000071 0.000125 0.000000
0.000078 -0.000249 0.000281 0.000000
0.000102 -0.000273 0.000239 0.000000
0.000139 -0.000336 0.000354 0.000000
-0.000745 -0.000639 0.000769 0.000000
0.000534 -0.002004 0.000774 0.000000
0.000521 -0.001939 0.000551 0.000000
0.000206 -0.001614 0.000453 0.000000
0.000539 -0.001841 0.000338 0.000000
0.000274 -0.000456 0.000308 0.000000
0.000066 -0.001208 -0.000794 0.000000
0.000208 -0.000314 0.000272 0.000000
0.000395 -0.000525 0.000161 0.000000
0.000338 -0.000441 0.000420 0.000000
0.000227 -0.000319 0.000269 0.000000
0.000055 -0.001532 -0.000198 0.000000
0.000544 -0.001970 0.000531 0.000000
0.000242 -0.000446 0.000364 0.000000
0.000100 -0.000312 0.000230 0.000000
0.000260 -0.000468 0.000215 0.000000
0.000592 -0.002017 0.000562 0.000000
0.000287 -0.001536 -0.000058 0.000000
0.000146 -0.001627 0.000199 0.000000
0.000454 -0.000653 0.000374 0.000000
-0.000012 -0.001501 -0.000306 0.000000
0.000357 -0.000458 0.000375 0.000000
0.000114 -0.001464 -0.000169 0.000000
0.000717 -0.002209 0.001748 0.000000
0.000242 -0.000446 0.000480 0.000000
-0.000289 -0.001054 0.000720 0.000000
-0.000314 -0.001139 0.001095 0.000000
-0.000065 -0.001274 0.001474 0.000000
-0.000070 -0.000988 0.001515 0.000000
-0.000219 -0.000945 0.000737 0.000000
-0.000291 -0.000777 0.000385 0.000000
0.000319 -0.001579 0.000845 0.000000
0.000430 -0.001919 0.001592 0.000000
0.000869 -0.002306 0.000965 0.000000
0.000487 -0.001893 0.001218 0.000000
-0.000206 -0.001395 0.000539 0.000000
0.000404 -0.001676 0.000733 0.000000
0.000458 -0.001914 0.001616 0.000000
0.000137 -0.001756 0.001030 0.000000
0.000449 -0.001976 0.000740 0.000000
0.000596 -0.001952 0.000247 0.000000
0.000308 -0.000516 0.000252 0.000000
-0.000275 -0.000823 -0.000368 0.000000
0.000021 -0.001230 0.000145 0.000000
0.000044 -0.001759 0.000386 0.000000
0.000465 -0.002000 0.000928 0.000000
0.000183 -0.000366 0.000112 0.000000
0.000542 -0.002027 0.000816 0.000000
0.000284 -0.000478 0.000277 0.000000
0.000218 -0.000387 0.000327 0.000000
0.000247 -0.001835 0.001005 0.000000
0.000245 -0.000419 0.000263 0.000000
0.000331 -0.000482 0.000272 0.000000
-0.000126 -0.001616 0.001707 0.000000
-0.000166 -0.001539 0.001848 0.000000
0.000202 -0.000385 0.000329 0.000000
0.000128 -0.001782 0.001074 0.000000
-0.000004 -0.001695 0.001787 0.000000
-0.000269 -0.001318 0.001745 0.000000
0.000160 -0.001699 0.001068 0.000000
0.000149 -0.001738 0.001146 0.000000
-0.000319 -0.001156 0.002082 0.000000
-0.000327 -0.001186 0.002140 0.000000
-0.000289 -0.001340 0.001993 0.000000
-0.000125 -0.001489 0.001545 0.000000
-0.000028 -0.001574 0.001458 0.000000
0.000119 -0.001893 0.001713 0.000000
0.000449 -0.001935 0.000860 0.000000
0.000234 -0.001827 0.000998 0.000000
0.000205 -0.001649 0.000969 0.000000
0.000085 -0.001685 0.001064 0.000000
0.000466 -0.001945 0.000866 0.000000
0.000411 -0.001939 0.000865 0.000000
-0.000245 -0.001335 0.001768 0.000000
-0.000116 -0.001357 0.001393 0.000000
0.000144 -0.001676 0.001557 0.000000
0.000123 -0.001660 0.001266 0.000000
0.000067 -0.001689 0.001399 0.000000
0.000145 -0.001712 0.001017 0.000000
0.000055 -0.000236 0.000114 0.000000
0.000054 -0.000230 0.000119 0.000000
0.000008 -0.000198 0.000041 0.000000
0.000031 -0.000235 0.000041 0.000000
0.000271 -0.000453 0.000466 0.000000
0.000295 -0.000472 0.000506 0.000000
0.000197 -0.000391 0.000338 0.000000
0.000078 -0.000259 0.000136 0.000000
0.000243 -0.000412 0.000339 0.000000
0.000209 -0.000382 0.000289 0.000000
0.000234 -0.000429 0.000372 0.000000
0.000260 -0.000439 0.000441 0.000000
0.000195 -0.000407 0.000253 0.000000
0.000313 -0.000469 0.000242 0.000000
0.000238 -0.000451 0.000254 0.000000
0.000238 -0.000409 0.000231 0.000000
0.000255 -0.000440 0.000180 0.000000
0.000255 -0.000474 0.000194 0.000000
0.000241 -0.000416 0.000068 0.000000
0.000177 -0.000380 0.000137 0.000000
0.000221 -0.000421 -0.000028 0.000000
0.000138 -0.000373 -0.000069 0.000000
0.000185 -0.000435 -0.000094 0.000000
-0.000738 -0.000521 0.000719 0.000000
0.000143 -0.000369 -0.000043 0.000000
0.000163 -0.000396 -0.000031 0.000000
-0.000634 -0.000696 0.001108 0.000000
-0.000632 -0.000743 0.000701 0.000000
-0.000672 -0.000847 0.000908 0.000000
-0.000622 -0.000879 0.000700 0.000000
-0.000566 -0.000950 0.000658 0.000000
0.000180 -0.000381 0.000094 0.000000
0.000079 -0.001527 0.002115 0.000000
0.000126 -0.000377 -0.000023 0.000000
-0.000331 -0.000880 0.002079 0.000000
0.000174 -0.000416 0.000034 0.000000
0.000158 -0.000375 0.000081 0.000000
0.000117 -0.000358 0.000043 0.000000
-0.000505 -0.000953 0.000777 0.000000
-0.000586 -0.000824 0.000790 0.000000
0.000237 -0.000472 0.000128 0.000000
-0.000519 -0.001001 0.000829 0.000000
0.000187 -0.000409 -0.000006 0.000000
0.000251 -0.000488 0.000041 0.000000
0.000246 -0.000493 -0.000060 0.000000
-0.000566 -0.000882 0.000708 0.000000
-0.000544 -0.000943 0.000821 0.000000
-0.000603 -0.000849 0.000848 0.000000
-0.000486 -0.001126 0.001668 0.000000
-0.000564 -0.000933 0.000718 0.000000
0.000111 -0.000299 0.000110 0.000000
0.000109 -0.000281 0.000179 0.000000
0.000252 -0.000446 0.000381 0.000000
0.000221 -0.000394 0.000292 0.000000
0.000253 -0.000421 0.000195 0.000000
0.000141 -0.000346 0.000159 0.000000
0.000191 -0.000354 0.000210 0.000000
0.000213 -0.000414 0.000326 0.000000
0.000268 -0.000451 0.000424 0.000000
0.000285 -0.000468 0.000491 0.000000
0.000156 -0.000346 0.000277 0.000000
0.000109 -0.000374 0.000019 0.000000
0.000280 -0.000462 0.000424 0.000000
0.000274 -0.000466 0.000459 0.000000
0.000260 -0.000449 0.000436 0.000000
0.000264 -0.000441 0.000404 0.000000
0.000211 -0.000388 0.000352 0.000000
0.000136 -0.000336 0.000250 0.000000
0.000158 -0.000337 0.000266 0.000000
0.000115 -0.000322 0.000203 0.000000
0.000080 -0.000287 0.000125 0.000000
0.000069 -0.000269 0.000127 0.000000
0.000270 -0.000449 0.000376 0.000000
0.000253 -0.000432 0.000359 0.000000
0.000183 -0.000362 0.000264 0.000000
0.000248 -0.000440 0.000394 0.000000
0.000154 -0.000341 0.000098 0.000000
0.000045 -0.000236 0.000072 0.000000
0.000243 -0.000446 0.000352 0.000000
0.000264 -0.000450 0.000422 0.000000
0.000213 -0.000388 0.000303 0.000000
0.000274 -0.000465 0.000407 0.000000
0.000271 -0.000459 0.000425 0.000000
0.000269 -0.000460 0.000452 0.000000
0.000066 -0.000305 -0.000005 0.000000
0.000233 -0.000383 0.000126 0.000000
0.000096 -0.000299 0.000086 0.000000
0.000127 -0.000332 0.000039 0.000000
0.000239 -0.000441 0.000026 0.000000
-0.000621 -0.001004 0.001151 0.000000
-0.000542 -0.000956 0.000828 0.000000
-0.000577 -0.000947 0.000785 0.000000
0.000287 -0.000505 0.000043 0.000000
0.000216 -0.000470 -0.000026 0.000000
0.000332 -0.000527 0.000044 0.000000
0.000285 -0.000527 0.000018 0.000000
-0.000553 -0.000936 0.000728 0.000000
-0.000505 -0.001077 0.000844 0.000000
-0.000564 -0.000901 0.000860 0.000000
-0.000563 -0.000944 0.000757 0.000000
-0.000520 -0.000753 0.001695 0.000000
-0.000649 -0.000648 0.001361 0.000000
0.000019 -0.000266 -0.000027 0.000000
0.000157 -0.000324 0.000059 0.000000
0.000052 -0.000278 0.000046 0.000000
0.000109 -0.000285 0.000061 0.000000
0.000244 -0.000490 0.000016 0.000000
-0.000518 -0.001291 0.001548 0.000000
-0.000546 -0.001039 0.000855 0.000000
-0.000737 -0.000873 0.000557 0.000000
0.000331 -0.000584 0.000059 0.000000
-0.000436 -0.001394 0.001071 0.000000
-0.000434 -0.001231 0.000981 0.000000
-0.000547 -0.001004 0.000720 0.000000
-0.000536 -0.001161 0.000980 0.000000
-0.000599 -0.000969 0.000755 0.000000
-0.000573 -0.000974 0.000774 0.000000
-0.000723 -0.000580 0.001100 0.000000
0.000015 -0.000243 0.000100 0.000000
0.000051 -0.000239 0.000031 0.000000
0.000172 -0.000338 0.000218 0.000000
0.000214 -0.000426 0.000364 0.000000
0.000069 -0.000286 0.000150 0.000000
0.000051 -0.000275 0.000169 0.000000
0.000178 -0.000392 0.000280 0.000000
0.000116 -0.000335 0.000207 0.000000
0.000077 -0.000273 0.000111 0.000000
0.000079 -0.000291 0.000106 0.000000
0.000076 -0.000302 0.000072 0.000000
-0.000502 -0.001107 0.002215 0.000000
0.000251 -0.000434 0.000360 0.000000
0.000191 -0.000378 0.000287 0.000000
0.000260 -0.000446 0.000354 0.000000
0.000251 -0.000456 0.000324 0.000000
0.000247 -0.000432 0.000324 0.000000
0.000227 -0.000429 0.000341 0.000000
-0.000479 -0.001247 0.002125 0.000000
-0.000528 -0.001046 0.001968 0.000000
0.000220 -0.000392 0.000494 0.000000
-0.000183 -0.001589 0.002840 0.000000
0.000224 -0.000417 0.000398 0.000000
0.000229 -0.000407 0.000371 0.000000
0.000240 -0.000417 0.000418 0.000000
0.000231 -0.000411 0.000239 0.000000
0.000210 -0.000385 0.000561 0.000000
0.000220 -0.000400 0.000359 0.000000
0.000214 -0.000399 0.000363 0.000000
-0.000056 -0.001607 0.001596 0.000000
-0.000559 -0.001132 0.002128 0.000000
0.000096 -0.000291 0.000097 0.000000
-0.000087 -0.001621 0.001881 0.000000
-0.000318 -0.001176 0.002290 0.000000
-0.000368 -0.001151 0.002065 0.000000
-0.000492 -0.001151 0.002173 0.000000
-0.000177 -0.001599 0.002028 0.000000
0.000211 -0.000398 0.000336 0.000000
-0.000378 -0.001198 0.002160 0.000000
0.000042 -0.000275 0.000032 0.000000
-0.000383 -0.001211 0.002206 0.000000
-0.000212 -0.001504 0.002461 0.000000
-0.000185 -0.001486 0.001766 0.000000
-0.000117 -0.001582 0.001853 0.000000
0.000218 -0.000397 0.000330 0.000000
0.000093 -0.001731 0.001217 0.000000
-0.000093 -0.001597 0.001765 0.000000
0.000197 -0.000375 0.000466 0.000000
0.000212 -0.000400 0.000361 0.000000
0.000214 -0.000406 0.000359 0.000000
0.000252 -0.000424 0.000297 0.000000
0.000231 -0.000410 0.000232 0.000000
0.000280 -0.000443 0.000268 0.000000
0.000216 -0.000390 0.000282 0.000000
0.000533 -0.000657 0.000107 0.000000
0.000471 -0.000710 0.000268 0.000000
0.000397 -0.000531 0.000300 0.000000
0.000285 -0.000431 0.000251 0.000000
0.000436 -0.000537 0.000223 0.000000
0.000267 -0.000417 0.000168 0.000000
0.000590 -0.000707 0.000048 0.000000
0.000453 -0.000643 -0.000103 0.000000
0.000502 -0.002066 0.001414 0.000000
0.000583 -0.000692 0.000907 0.000000
0.000628 -0.000760 0.000661 0.000000
0.000436 -0.001814 0.001248 0.000000
-0.000206 -0.001339 0.000793 0.000000
-0.000360 -0.001023 0.000963 0.000000
-0.000327 -0.000792 0.000373 0.000000
-0.000172 -0.000822 0.000174 0.000000
0.000301 -0.001838 0.001217 0.000000
0.000717 -0.000829 0.001024 0.000000
0.000565 -0.000714 0.000822 0.000000
0.000488 -0.001459 0.000425 0.000000
-0.000259 -0.001314 -0.000196 0.000000
0.000572 -0.000684 0.000094 0.000000
-0.000303 -0.001271 0.000568 0.000000
0.000278 -0.001774 0.001282 0.000000
0.000234 -0.000415 0.000292 0.000000
0.000223 -0.000403 0.000320 0.000000
0.000223 -0.000397 0.000049 0.000000
0.000145 -0.000355 0.000048 0.000000
0.000348 -0.000617 0.000162 0.000000
-0.000259 -0.001013 0.000279 0.000000
0.000431 -0.000606 0.000581 0.000000
0.000460 -0.001868 0.001396 0.000000
0.000700 -0.000856 0.001076 0.000000
0.000584 -0.000758 0.000544 0.000000
-0.000327 -0.000861 0.000678 0.000000
-0.000329 -0.000886 0.000664 0.000000
-0.000278 -0.001104 0.000763 0.000000
-0.000285 -0.000889 0.000632 0.000000
0.000013 -0.000249 0.000870 0.000000
-0.000192 -0.001094 0.000644 0.000000
0.000435 -0.000472 0.001269 0.000000
-0.000105 -0.001264 0.000675 0.000000
0.000368 -0.000412 0.000952 0.000000
-0.000175 -0.001135 0.000689 0.000000
0.000352 -0.000567 0.000902 0.000000
0.000315 -0.000401 0.000613 0.000000
0.000395 -0.000452 0.000849 0.000000
-0.000053 -0.001370 0.000579 0.000000
0.000244 -0.000407 0.000499 0.000000
0.000221 -0.000420 0.000529 0.000000
0.000102 -0.000235 0.000232 0.000000
0.000087 -0.000226 0.000211 0.000000
0.000023 -0.000177 0.000170 0.000000
0.000022 -0.000174 0.000158 0.000000
0.000014 -0.000150 0.000145 0.000000
0.000099 -0.001541 0.001687 0.000000
-0.000071 -0.000075 0.000102 0.000000
-0.000519 -0.000626 0.000984 0.000000
-0.000453 -0.000807 0.001147 0.000000
-0.000003 -0.000099 0.000369 0.000000
-0.000484 -0.000771 0.001305 0.000000
0.000009 -0.000117 0.000430 0.000000
0.000026 -0.000176 0.000153 0.000000
0.000065 -0.000236 0.000256 0.000000
-0.000010 -0.000126 0.000134 0.000000
-0.000005 -0.000125 0.000126 0.000000
-0.000398 -0.000830 0.001209 0.000000
-0.000502 -0.000772 0.001405 0.000000
-0.000011 -0.000121 0.000127 0.000000
-0.000019 -0.000119 0.000107 0.000000
-0.000040 -0.000095 0.000133 0.000000
-0.000023 -0.000111 0.000131 0.000000
-0.000456 -0.000767 0.001293 0.000000
-0.000598 -0.000752 0.001524 0.000000
-0.000438 -0.000828 0.001451 0.000000
0.000001 -0.000119 0.000234 0.000000
-0.000029 -0.000107 0.000146 0.000000
-0.000030 -0.000089 0.000314 0.000000
-0.000536 -0.000805 0.001533 0.000000
-0.000186 -0.000561 0.000692 0.000000
-0.000029 -0.000105 0.000101 0.000000
-0.000015 -0.000121 0.000116 0.000000
-0.000035 -0.000099 0.000118 0.000000
-0.000026 -0.000108 0.000115 0.000000
0.000109 -0.000239 0.000240 0.000000
0.000049 -0.000227 0.000235 0.000000
0.000034 -0.000193 0.000152 0.000000
0.000079 -0.000248 0.000202 0.000000
0.000075 -0.000261 0.000356 0.000000
0.000219 -0.000439 0.000734 0.000000
0.000009 -0.000146 0.000127 0.000000
0.000009 -0.000156 0.000120 0.000000
-0.000348 -0.000887 0.000684 0.000000
-0.000222 -0.000872 0.000464 0.000000
0.000156 -0.000378 0.000799 0.000000
0.000537 -0.000591 0.001354 0.000000
-0.000225 -0.000965 0.000387 0.000000
-0.000117 -0.000098 0.000406 0.000000
0.000118 -0.000353 0.001121 0.000000
-0.000056 -0.001081 0.000487 0.000000
0.000201 -0.000436 0.001083 0.000000
0.000308 -0.000357 0.001098 0.000000
-0.000335 -0.000745 0.000298 0.000000
-0.000332 -0.000950 0.000683 0.000000
-0.000113 -0.000960 0.000342 0.000000
-0.000018 -0.000210 0.000630 0.000000
0.000197 -0.000272 0.000554 0.000000
0.000142 -0.000215 0.000632 0.000000
0.000054 -0.000225 0.000313 0.000000
0.000126 -0.000344 0.000564 0.000000
0.000041 -0.000207 0.000207 0.000000
0.000054 -0.000184 0.000193 0.000000
0.000009 -0.000147 0.000119 0.000000
-0.000027 -0.000104 0.000095 0.000000
-0.000060 -0.000162 0.000630 0.000000
-0.000386 -0.000800 0.000495 0.000000
0.000073 -0.000288 0.000646 0.000000
0.000004 -0.000169 0.000260 0.000000
0.000011 -0.000092 0.000341 0.000000
-0.000326 -0.000839 0.000291 0.000000
0.000196 -0.000251 0.000857 0.000000
0.000050 -0.000145 0.000403 0.000000
-0.000530 -0.000592 0.000449 0.000000
-0.000392 -0.000740 0.000605 0.000000
-0.000422 -0.000708 0.000212 0.000000
-0.000235 -0.000687 -0.000014 0.000000
0.000114 -0.000207 0.000449 0.000000
0.000049 -0.000171 0.000266 0.000000
0.000022 -0.000170 0.000159 0.000000
0.000019 -0.000164 0.000129 0.000000
0.000063 -0.000257 0.000442 0.000000
0.000028 -0.000209 0.000357 0.000000
0.000095 -0.000216 0.000265 0.000000
0.000043 -0.000198 0.000263 0.000000
0.000051 -0.000215 0.000229 0.000000
0.000053 -0.000197 0.000222 0.000000
-0.000038 -0.000096 0.000107 0.000000
-0.000042 -0.000094 0.000105 0.000000
-0.000047 -0.000086 0.000116 0.000000
-0.000039 -0.000093 0.000101 0.000000
-0.000015 -0.000114 0.000103 0.000000
-0.000017 -0.000126 0.000105 0.000000
-0.000049 -0.000084 0.000105 0.000000
-0.000049 -0.000082 0.000095 0.000000
-0.000050 -0.000082 0.000114 0.000000
-0.000054 -0.000076 0.000099 0.000000
-0.000049 -0.000082 0.000121 0.000000
-0.000038 -0.000095 0.000121 0.000000
-0.000039 -0.000084 0.000168 0.000000
-0.000044 -0.000088 0.000134 0.000000
-0.000037 -0.000103 0.000182 0.000000
-0.000536 -0.000776 0.001670 0.000000
-0.000004 -0.000122 0.000324 0.000000
-0.000839 0.000018 0.000769 0.000000
0.000000 -0.000147 0.000397 0.000000
-0.000544 -0.000839 0.001952 0.000000
-0.000314 -0.000870 0.001438 0.000000
-0.000092 -0.000041 0.000081 0.000000
-0.000041 -0.000093 0.000110 0.000000
-0.000030 -0.000103 0.000111 0.000000
-0.000021 -0.000090 0.000284 0.000000
-0.000038 -0.000089 0.000186 0.000000
0.000003 -0.000146 0.000130 0.000000
-0.000016 -0.000121 0.000117 0.000000
-0.000033 -0.000107 0.000108 0.000000
-0.000020 -0.000121 0.000111 0.000000
-0.000035 -0.000096 0.000145 0.000000
-0.000045 -0.000089 0.000114 0.000000
-0.000022 -0.000123 0.000308 0.000000
-0.000485 -0.000762 0.001435 0.000000
-0.000471 -0.000901 0.001692 0.000000
-0.000453 -0.000769 0.001793 0.000000
-0.000049 -0.000073 0.000195 0.000000
-0.000074 -0.000040 0.000068 0.000000
-0.000016 -0.000087 0.000372 0.000000
-0.000026 -0.000077 0.000359 0.000000
-0.000027 -0.000081 0.000205 0.000000
-0.000045 -0.000048 0.000176 0.000000
-0.000042 -0.000060 0.000196 0.000000
-0.000024 -0.000079 0.000270 0.000000
-0.000020 -0.000091 0.000362 0.000000
-0.000019 -0.000092 0.000419 0.000000
-0.000021 -0.000094 0.000424 0.000000
-0.000027 -0.000087 0.000355 0.000000
-0.000919 -0.000081 0.001075 0.000000
-0.000558 -0.000694 0.001152 0.000000
-0.000024 -0.000087 0.000341 0.000000
-0.000015 -0.000095 0.000252 0.000000
-0.000884 -0.000075 0.000970 0.000000
-0.000026 -0.000091 0.000262 0.000000
-0.000029 -0.000078 0.000309 0.000000
-0.000031 -0.000076 0.000305 0.000000
-0.000869 -0.000023 0.000714 0.000000
0.000020 -0.000162 0.000488 0.000000
-0.000917 -0.000057 0.000796 0.000000
-0.000901 -0.000067 0.001019 0.000000
-0.000029 -0.000066 0.000328 0.000000
-0.000027 -0.000081 0.000364 0.000000
-0.000035 -0.000059 0.000251 0.000000
-0.000034 -0.000070 0.000195 0.000000
-0.000022 -0.000096 0.000349 0.000000
-0.000024 -0.000091 0.000342 0.000000
-0.000020 -0.000087 0.000375 0.000000
-0.000029 -0.000081 0.000320 0.000000
-0.000026 -0.000079 0.000409 0.000000
-0.000024 -0.000087 0.000382 0.000000
-0.000037 -0.000068 0.000187 0.000000
-0.000048 -0.000054 0.000107 0.000000
-0.000044 -0.000059 0.000181 0.000000
-0.000057 -0.000057 0.000087 0.000000
-0.000041 -0.000051 0.000189 0.000000
-0.000043 -0.000057 0.000177 0.000000
-0.000050 -0.000048 0.000107 0.000000
-0.000052 -0.000039 0.000081 0.000000
-0.000065 -0.000025 0.000049 0.000000
-0.000056 -0.000040 0.000052 0.000000
-0.000767 0.000167 0.000507 0.000000
-0.000075 -0.000001 0.000060 0.000000
-0.000053 -0.000049 0.000091 0.000000
-0.000059 -0.000040 0.000061 0.000000
-0.000057 -0.000033 0.000046 0.000000
-0.000060 -0.000029 0.000050 0.000000
-0.000614 -0.000113 0.000331 0.000000
-0.000662 -0.000044 0.000475 0.000000
-0.000568 -0.000199 0.000432 0.000000
-0.000691 0.000087 0.000397 0.000000
-0.000045 -0.000065 0.000113 0.000000
-0.000054 -0.000049 0.000072 0.000000
-0.000060 -0.000033 0.000051 0.000000
-0.000059 -0.000040 0.000058 0.000000
-0.000037 -0.000069 0.000201 0.000000
-0.000050 -0.000054 0.000094 0.000000
-0.000042 -0.000069 0.000125 0.000000
-0.000033 -0.000090 0.000154 0.000000
-0.000058 -0.000049 0.000071 0.000000
-0.000054 -0.000048 0.000061 0.000000
-0.000047 -0.000039 0.000072 0.000000
-0.000054 -0.000034 0.000054 0.000000
-0.000508 -0.000228 0.000460 0.000000
-0.000574 -0.000147 0.000451 0.000000
-0.000556 -0.000359 0.000921 0.000000
-0.000596 -0.000087 0.000590 0.000000
-0.000577 -0.000253 0.000632 0.000000
-0.000440 -0.000324 0.000524 0.000000
-0.000541 -0.000125 0.000774 0.000000
-0.000486 -0.000456 0.000690 0.000000
-0.000621 0.000021 0.000252 0.000000
-0.000512 -0.000279 0.000371 0.000000
-0.000050 -0.000067 0.000122 0.000000
-0.000053 -0.000056 0.000100 0.000000
-0.000031 -0.000047 0.000089 0.000000
-0.000056 -0.000036 0.000060 0.000000
-0.000044 -0.000064 0.000197 0.000000
-0.000029 -0.000086 0.000283 0.000000
-0.000032 -0.000072 0.000135 0.000000
-0.000053 -0.000056 0.000077 0.000000
-0.000000 -0.000109 0.000479 0.000000
-0.000015 -0.000101 0.000378 0.000000
-0.000004 -0.000101 0.000418 0.000000
-0.000022 -0.000102 0.000392 0.000000
-0.000234 -0.000774 0.001245 0.000000
-0.000035 -0.000117 0.000255 0.000000
-0.000040 -0.000095 0.000310 0.000000
-0.000027 -0.000083 0.000325 0.000000
-0.000966 0.000157 0.000573 0.000000
-0.000008 -0.000073 0.000635 0.000000
-0.000019 -0.000094 0.000320 0.000000
-0.000018 -0.000095 0.000362 0.000000
-0.000012 -0.000100 0.000377 0.000000
-0.000014 -0.000106 0.000372 0.000000
-0.000021 -0.000117 0.000467 0.000000
-0.000009 -0.000106 0.000432 0.000000
0.000002 -0.000103 0.000372 0.000000
-0.000017 -0.000092 0.000243 0.000000
-0.000036 -0.000069 0.000275 0.000000
-0.000014 -0.000099 0.000418 0.000000
-0.000004 -0.000100 0.000464 0.000000
-0.000009 -0.000108 0.000395 0.000000
-0.000060 -0.000093 0.000121 0.000000
-0.000071 -0.000048 0.000096 0.000000
-0.000076 -0.000058 0.000112 0.000000
-0.000080 -0.000048 0.000124 0.000000
-0.000031 -0.000089 0.000230 0.000000
-0.001108 0.000182 0.000717 0.000000
-0.001016 0.000082 0.000743 0.000000
-0.000126 -0.000074 0.000666 0.000000
-0.000045 -0.000086 0.000199 0.000000
-0.000475 -0.000093 -0.000156 0.000000
-0.000054 -0.000099 0.000444 0.000000
0.000014 -0.000112 0.000519 0.000000
-0.000018 -0.000106 0.000456 0.000000
0.000014 -0.000110 0.000613 0.000000
0.000032 -0.000122 0.000508 0.000000
-0.000032 -0.000101 0.000289 0.000000
-0.000044 -0.000078 0.000153 0.000000
-0.000039 -0.000082 0.000233 0.000000
-0.000029 -0.000079 0.000209 0.000000
-0.000036 -0.000080 0.000226 0.000000
-0.000042 -0.000080 0.000120 0.000000
-0.000047 -0.000066 0.000096 0.000000
-0.000033 -0.000076 0.000135 0.000000
-0.000052 -0.000054 0.000072 0.000000
-0.000052 -0.000045 0.000065 0.000000
-0.000057 -0.000044 0.000088 0.000000
-0.000050 -0.000070 0.000106 0.000000
-0.000054 -0.000063 0.000090 0.000000
-0.000054 -0.000056 0.000080 0.000000
-0.000055 -0.000043 0.000085 0.000000
-0.000367 -0.000355 0.000342 0.000000
-0.000478 -0.000186 0.000233 0.000000
-0.000055 -0.000049 0.000074 0.000000
-0.000043 -0.000070 0.000109 0.000000
-0.000570 -0.000483 0.001158 0.000000
-0.000539 -0.000175 0.001055 0.000000
-0.000051 -0.000058 0.000098 0.000000
-0.000052 -0.000060 0.000094 0.000000
-0.000620 -0.000327 0.001460 0.000000
-0.000405 -0.000361 0.000890 0.000000
0.000006 -0.000108 0.000328 0.000000
-0.000019 -0.000131 0.000438 0.000000
-0.000027 -0.000081 0.000140 0.000000
-0.000046 -0.000077 0.000140 0.000000
-0.000010 -0.000118 0.000264 0.000000
-0.000034 -0.000075 0.000166 0.000000
-0.000025 -0.000113 0.000211 0.000000
-0.000033 -0.000096 0.000164 0.000000
-0.000046 -0.000097 0.000418 0.000000
-0.000138 -0.000042 0.000337 0.000000
0.000006 -0.000106 0.000535 0.000000
0.000014 -0.000187 0.001071 0.000000
0.000172 -0.000265 0.000290 0.000000
-0.000078 -0.000061 0.000120 0.000000
-0.000059 -0.000059 0.000098 0.000000
-0.001119 -0.000206 0.000904 0.000000
-0.000035 -0.000114 0.000148 0.000000
-0.000424 -0.000659 0.001433 0.000000
-0.000049 -0.000049 0.000462 0.000000
-0.000470 -0.000484 0.000522 0.000000
-0.000059 -0.000106 0.000538 0.000000
-0.000084 -0.000113 0.000826 0.000000
-0.000053 -0.000105 0.000569 0.000000
-0.000053 -0.000116 0.000666 0.000000
-0.000029 -0.000115 0.000550 0.000000
0.000077 -0.000253 0.001068 0.000000
0.000029 -0.000118 0.000672 0.000000
0.000032 -0.000111 0.000793 0.000000
-0.000000 -0.000163 0.000608 0.000000
-0.000017 -0.000138 0.000605 0.000000
0.000226 -0.000422 0.000562 0.000000
-0.000017 -0.000136 0.000244 0.000000
-0.000469 -0.000790 0.001112 0.000000
-0.000540 -0.000462 0.001071 0.000000
-0.000499 -0.000555 0.000887 0.000000
-0.000350 -0.000470 0.000071 0.000000
-0.000502 -0.000656 0.000732 0.000000
-0.000447 -0.000707 0.000723 0.000000
0.000069 -0.000149 0.000931 0.000000
0.000023 -0.000196 0.000975 0.000000
0.000043 -0.000129 0.000690 0.000000
0.000070 -0.000149 0.000839 0.000000
0.000035 -0.000131 0.000470 0.000000
0.000071 -0.000172 0.000472 0.000000
-0.000008 -0.000096 0.000176 0.000000
0.000000 -0.000105 0.000239 0.000000
0.000006 -0.000101 0.000307 0.000000
0.000024 -0.000117 0.000383 0.000000
-0.000054 -0.000040 0.000119 0.000000
-0.000050 -0.000062 0.000197 0.000000
-0.000054 -0.000036 0.000174 0.000000
-0.000576 -0.000615 0.001043 0.000000
-0.000028 -0.000054 0.000259 0.000000
-0.000332 -0.000571 0.000797 0.000000
-0.000059 -0.000035 0.000177 0.000000
-0.000057 -0.000058 0.000133 0.000000
-0.000562 -0.000415 0.001223 0.000000
-0.000593 -0.000377 0.001457 0.000000
-0.000019 -0.000114 0.000338 0.000000
-0.000616 -0.000389 0.001150 0.000000
-0.000566 -0.000491 0.001158 0.000000
-0.000509 -0.000593 0.000823 0.000000
-0.000018 -0.000088 0.000308 0.000000
-0.000026 -0.000076 0.000075 0.000000
0.000004 -0.000144 0.000499 0.000000
0.000089 -0.000182 0.000633 0.000000
0.000006 -0.000149 0.000428 0.000000
0.000043 -0.000189 0.000597 0.000000
0.000042 -0.000184 0.000509 0.000000
0.000007 -0.000149 0.000279 0.000000
0.000049 -0.000185 0.000433 0.000000
0.000069 -0.000174 0.000403 0.000000
-0.000029 -0.000102 0.000240 0.000000
-0.000004 -0.000099 0.000188 0.000000
-0.000582 -0.000469 0.001181 0.000000
-0.000454 -0.000663 0.001138 0.000000
-0.000022 -0.000046 0.000505 0.000000
-0.000537 -0.000545 0.000908 0.000000
0.000073 -0.000162 0.000507 0.000000
-0.000011 -0.000091 0.000239 0.000000
-0.000624 -0.000455 0.000973 0.000000
-0.000475 -0.000559 0.000891 0.000000
0.000054 -0.000131 0.000763 0.000000
-0.000600 -0.000135 0.000620 0.000000
0.000130 -0.000273 0.000849 0.000000
0.000044 -0.000180 0.000658 0.000000
0.000095 -0.000254 0.000482 0.000000
0.000084 -0.000229 0.000669 0.000000
0.000084 -0.000234 0.000755 0.000000
0.000077 -0.000172 0.000550 0.000000
0.000113 -0.000216 0.000631 0.000000
0.000029 -0.000124 0.000230 0.000000
0.000112 -0.000219 0.000563 0.000000
0.000128 -0.000214 0.000405 0.000000
0.000163 -0.000241 0.001194 0.000000
0.000121 -0.000197 0.001102 0.000000
0.000196 -0.001107 0.000745 0.000000
0.000125 -0.000257 0.000884 0.000000
0.000016 -0.001086 0.001189 0.000000
0.000195 -0.000278 0.001173 0.000000
0.000390 -0.001250 0.000832 0.000000
0.000309 -0.001418 0.001967 0.000000
-0.000460 -0.000731 0.001042 0.000000
-0.000080 -0.001134 0.001881 0.000000
-0.000234 -0.000891 0.000972 0.000000
-0.000202 -0.000983 0.000992 0.000000
-0.000274 -0.001019 0.001622 0.000000
-0.000005 -0.001319 0.001535 0.000000
-0.000169 -0.000729 0.000340 0.000000
-0.000304 -0.000883 0.000843 0.000000
-0.000253 -0.000925 0.001519 0.000000
-0.000408 -0.000921 0.001697 0.000000
-0.000234 -0.000937 0.001339 0.000000
-0.000444 -0.000775 0.001065 0.000000
0.000162 -0.000231 0.000943 0.000000
0.000118 -0.000190 0.000926 0.000000
0.000069 -0.000185 0.000655 0.000000
0.000171 -0.000261 0.000855 0.000000
0.000134 -0.000304 0.001082 0.000000
0.000075 -0.000154 0.000704 0.000000
0.000160 -0.000242 0.000932 0.000000
0.000080 -0.000184 0.000642 0.000000
-0.000310 -0.000688 0.000552 0.000000
-0.000440 -0.000656 0.000405 0.000000
-0.000234 -0.000786 0.000657 0.000000
-0.000332 -0.000751 0.000476 0.000000
-0.000071 -0.000834 0.000477 0.000000
0.000053 -0.000961 0.000653 0.000000
-0.000316 -0.000985 0.000968 0.000000
-0.000145 -0.001256 0.001616 0.000000
-0.000431 -0.000424 0.000422 0.000000
-0.000270 -0.001082 0.001130 0.000000
0.000075 -0.001511 0.001741 0.000000
0.000079 -0.000251 0.000286 0.000000
0.000102 -0.001511 0.001724 0.000000
0.000055 -0.000187 0.000196 0.000000
0.000246 -0.001746 0.001838 0.000000
0.000123 -0.000250 0.000262 0.000000
0.000157 -0.001636 0.001860 0.000000
0.000118 -0.001540 0.001670 0.000000
0.000267 -0.000384 0.000473 0.000000
-0.000366 -0.000929 0.000790 0.000000
0.000270 -0.000393 0.000380 0.000000
-0.000271 -0.001068 0.001377 0.000000
0.000046 -0.001342 0.001501 0.000000
0.000152 -0.001463 0.001660 0.000000
0.000550 -0.000708 0.000881 0.000000
0.000303 -0.001473 0.001760 0.000000
-0.000212 -0.001162 0.001354 0.000000
-0.000074 -0.001408 0.001680 0.000000
-0.000028 -0.001269 0.001679 0.000000
0.000004 -0.001233 0.001607 0.000000
0.000166 -0.001636 0.001839 0.000000
0.000211 -0.001736 0.001898 0.000000
-0.000096 -0.001309 0.001734 0.000000
0.000032 -0.001529 0.002050 0.000000
0.000049 -0.001492 0.001835 0.000000
-0.000079 -0.001321 0.001635 0.000000
-0.000056 -0.001284 0.001630 0.000000
-0.000087 -0.001400 0.001821 0.000000
-0.000197 -0.001066 0.001205 0.000000
-0.000189 -0.001127 0.001497 0.000000
0.000164 -0.001466 0.000374 0.000000
-0.000109 -0.001521 0.000867 0.000000
0.000349 -0.001897 0.001916 0.000000
0.000428 -0.000570 0.000687 0.000000
-0.000177 -0.001340 0.000865 0.000000
0.000085 -0.001825 0.000914 0.000000
0.000142 -0.001724 0.000563 0.000000
0.000264 -0.001786 0.001575 0.000000
-0.000267 -0.001254 0.000874 0.000000
-0.000334 -0.001186 0.000947 0.000000
-0.000076 -0.001353 0.000736 0.000000
-0.000276 -0.001195 0.000845 0.000000
-0.000265 -0.001196 0.000843 0.000000
-0.000232 -0.001110 0.000733 0.000000
-0.000192 -0.001264 0.000818 0.000000
-0.000271 -0.001140 0.000800 0.000000
-0.000226 -0.001199 0.000775 0.000000
-0.000211 -0.001258 0.000809 0.000000
-0.000098 -0.001123 0.000622 0.000000
-0.000113 -0.001355 0.000756 0.000000
0.000773 -0.000955 0.001501 0.000000
0.000802 -0.001014 0.001245 0.000000
0.000651 -0.000836 0.000884 0.000000
0.000599 -0.000746 0.000949 0.000000
-0.000110 -0.001088 0.000513 0.000000
0.000053 -0.001328 0.000423 0.000000
0.000453 -0.000610 0.000801 0.000000
0.000424 -0.000549 0.000715 0.000000
-0.000205 -0.001195 0.000757 0.000000
-0.000224 -0.000966 0.000653 0.000000
-0.000152 -0.001269 0.000707 0.000000
-0.000159 -0.001114 0.000613 0.000000
-0.000098 -0.001257 0.000580 0.000000
0.000399 -0.000625 0.001500 0.000000
-0.000306 -0.001071 0.000791 0.000000
-0.000217 -0.001139 0.000715 0.000000
-0.000214 -0.001150 0.000739 0.000000
-0.000142 -0.001183 0.000636 0.000000
-0.000171 -0.001196 0.000682 0.000000
-0.000046 -0.001239 0.000505 0.000000
0.000621 -0.000828 0.001552 0.000000
0.000325 -0.000553 0.001230 0.000000
0.000505 -0.000653 0.000948 0.000000
0.000497 -0.000659 0.000742 0.000000
0.000402 -0.000558 0.000695 0.000000
0.000385 -0.000549 0.000730 0.000000
0.000448 -0.000665 0.001115 0.000000
0.000707 -0.000908 0.001472 0.000000
0.000425 -0.000558 0.000684 0.000000
0.000524 -0.000659 0.000752 0.000000
-0.000008 -0.001345 0.001390 0.000000
0.000281 -0.000457 0.000623 0.000000
-0.000077 -0.001346 0.001532 0.000000
-0.000175 -0.001154 0.001301 0.000000
-0.000157 -0.001153 0.001224 0.000000
-0.000210 -0.001139 0.001292 0.000000
-0.000028 -0.000109 0.000229 0.000000
0.000052 -0.000222 0.000359 0.000000
-0.000550 -0.000745 0.001129 0.000000
-0.000304 -0.000964 0.000963 0.000000
-0.000549 -0.000249 0.000638 0.000000
-0.000472 -0.000801 0.000792 0.000000
0.000426 -0.000571 0.000664 0.000000
0.000355 -0.000459 0.000634 0.000000
0.000183 -0.000294 0.000385 0.000000
0.000095 -0.000268 0.000325 0.000000
-0.000075 -0.001347 0.001429 0.000000
-0.000157 -0.001205 0.001204 0.000000
0.000112 -0.000294 0.000401 0.000000
0.000024 -0.000154 0.000164 0.000000
0.000021 -0.000162 0.000173 0.000000
-0.000125 -0.001207 0.001254 0.000000
-0.000280 -0.000982 0.001030 0.000000
-0.000366 -0.000839 0.000879 0.000000
0.000011 -0.000172 0.000274 0.000000
0.000067 -0.000188 0.000276 0.000000
-0.000454 -0.000861 0.001412 0.000000
-0.000486 -0.000830 0.001205 0.000000
0.000109 -0.000320 0.000408 0.000000
0.000031 -0.000148 0.000228 0.000000
0.000041 -0.000201 0.000230 0.000000
0.000076 -0.000201 0.000235 0.000000
-0.000288 -0.000914 0.001097 0.000000
0.000030 -0.000162 0.000172 0.000000
-0.000453 -0.000915 0.001050 0.000000
-0.000503 -0.000833 0.000931 0.000000
0.000501 -0.000642 0.000950 0.000000
0.000397 -0.000533 0.000823 0.000000
0.000286 -0.000404 0.000469 0.000000
0.000309 -0.000426 0.000500 0.000000
0.000466 -0.000547 0.001003 0.000000
0.000453 -0.000666 0.001320 0.000000
0.000289 -0.000451 0.000553 0.000000
0.000329 -0.000450 0.000514 0.000000
-0.000205 -0.001101 0.000690 0.000000
-0.000164 -0.001001 0.000537 0.000000
0.000712 -0.000795 0.001418 0.000000
0.000560 -0.000626 0.001169 0.000000
-0.000152 -0.001086 0.000604 0.000000
-0.000086 -0.001156 0.000506 0.000000
-0.000119 -0.001174 0.000572 0.000000
0.000632 -0.000700 0.001407 0.000000
0.000515 -0.000727 0.001523 0.000000
0.000482 -0.000528 0.001105 0.000000
0.000448 -0.000606 0.000591 0.000000
0.000631 -0.000794 0.000674 0.000000
-0.000249 -0.001007 0.000589 0.000000
-0.000287 -0.000967 0.000684 0.000000
-0.000558 -0.000712 0.000341 0.000000
0.000089 -0.001363 0.001295 0.000000
0.000284 -0.000483 0.000451 0.000000
0.000630 -0.000827 0.000916 0.000000
0.000467 -0.000621 0.000619 0.000000
0.000381 -0.000488 0.000312 0.000000
0.000334 -0.000539 0.000444 0.000000
0.000398 -0.000563 0.000480 0.000000
0.000572 -0.000734 0.000830 0.000000
0.000531 -0.000700 0.000844 0.000000
-0.000334 -0.000934 0.000754 0.000000
-0.000228 -0.001066 0.000692 0.000000
-0.000278 -0.000946 0.000712 0.000000
-0.000428 -0.000880 0.000737 0.000000
-0.000254 -0.001017 0.000765 0.000000
-0.000280 -0.001018 0.000836 0.000000
0.000375 -0.000568 0.000668 0.000000
-0.000395 -0.000701 0.000545 0.000000
-0.000327 -0.000998 0.000713 0.000000
-0.000329 -0.000873 0.000791 0.000000
0.000434 -0.000565 0.000552 0.000000
0.000374 -0.000532 0.000453 0.000000
0.000499 -0.000681 0.000853 0.000000
0.000554 -0.000723 0.000718 0.000000
0.000348 -0.000522 0.000642 0.000000
0.000327 -0.000514 0.000564 0.000000
0.000337 -0.000481 0.000519 0.000000
0.000436 -0.000627 0.000587 0.000000
0.000380 -0.000560 0.000610 0.000000
0.000546 -0.000720 0.000723 0.000000
0.000145 -0.000341 0.000033 0.000000
0.000146 -0.000324 0.000118 0.000000
0.000164 -0.000346 0.000043 0.000000
0.000123 -0.000312 0.000056 0.000000
0.000110 -0.000295 0.000044 0.000000
0.000180 -0.000344 0.000208 0.000000
0.000128 -0.000322 0.000089 0.000000
-0.000447 -0.000693 -0.000343 0.000000
0.000218 -0.000412 0.000510 0.000000
0.000266 -0.000459 0.000679 0.000000
0.000300 -0.000474 0.000466 0.000000
0.000225 -0.000424 0.000393 0.000000
0.000242 -0.000424 0.000666 0.000000
0.000250 -0.000456 0.000501 0.000000
0.000223 -0.000407 0.000392 0.000000
0.000296 -0.000463 0.000488 0.000000
0.000229 -0.000403 0.000796 0.000000
0.000217 -0.000428 0.000639 0.000000
0.000225 -0.000397 0.000532 0.000000
0.000234 -0.000408 0.000593 0.000000
0.000230 -0.000444 0.000461 0.000000
0.000216 -0.000421 0.000356 0.000000
0.000238 -0.000355 0.000253 0.000000
-0.000500 -0.000576 0.000099 0.000000
0.000245 -0.000454 0.000072 0.000000
0.000193 -0.000421 0.000107 0.000000
0.000337 -0.000439 0.000116 0.000000
0.000245 -0.000504 0.000282 0.000000
0.000212 -0.000393 0.000291 0.000000
0.000204 -0.000381 0.000245 0.000000
0.000123 -0.000322 0.000008 0.000000
0.000184 -0.000358 0.000103 0.000000
0.000235 -0.000386 0.000030 0.000000
0.000219 -0.000381 -0.000000 0.000000
0.000118 -0.000309 0.000174 0.000000
-0.000432 -0.001363 0.002229 0.000000
-0.000520 -0.001156 0.001866 0.000000
-0.000689 -0.001185 0.002079 0.000000
-0.000451 -0.001161 0.002249 0.000000
0.000193 -0.000400 0.000788 0.000000
-0.000441 -0.001252 0.002799 0.000000
-0.000573 -0.001183 0.001693 0.000000
0.000228 -0.000410 0.000316 0.000000
0.000227 -0.000428 0.000308 0.000000
0.000230 -0.000410 0.000304 0.000000
0.000219 -0.000409 0.000250 0.000000
0.000168 -0.000352 0.000221 0.000000
0.000118 -0.000327 0.000157 0.000000
0.000106 -0.000310 0.000164 0.000000
0.000200 -0.000488 0.000136 0.000000
-0.000515 -0.001114 0.000744 0.000000
-0.000650 -0.001019 0.000261 0.000000
0.000010 -0.000209 0.000018 0.000000
0.000010 -0.000238 0.000037 0.000000
0.000389 -0.000570 0.000119 0.000000
0.000159 -0.002333 0.002619 0.000000
-0.000265 -0.001263 0.001775 0.000000
0.000431 -0.000637 0.000047 0.000000
-0.000256 -0.001643 0.001736 0.000000
0.000372 -0.000614 0.000040 0.000000
-0.000623 -0.000838 0.000773 0.000000
-0.000539 -0.001042 0.000748 0.000000
0.000104 -0.000361 -0.000063 0.000000
-0.000353 -0.001498 0.000227 0.000000
0.000064 -0.000258 0.000097 0.000000
0.000011 -0.000208 0.000089 0.000000
0.000244 -0.000446 0.000353 0.000000
0.000193 -0.000405 0.000320 0.000000
0.000060 -0.000266 0.000026 0.000000
-0.000007 -0.000214 0.000043 0.000000
0.000046 -0.000226 0.000154 0.000000
0.000020 -0.000224 0.000093 0.000000
-0.000108 -0.001516 0.002013 0.000000
0.000155 -0.001978 0.002614 0.000000
0.000000 -0.000258 -0.000045 0.000000
0.000086 -0.000360 -0.000114 0.000000
-0.000388 -0.001345 0.001181 0.000000
0.000430 -0.000687 0.000065 0.000000
-0.000584 -0.001036 0.000681 0.000000
-0.000486 -0.001235 0.000898 0.000000
-0.000781 -0.000529 0.000832 0.000000
-0.000613 -0.000926 0.000720 0.000000
-0.000005 -0.000204 0.000030 0.000000
0.000018 -0.000245 -0.000076 0.000000
-0.000012 -0.000198 0.000068 0.000000
0.000019 -0.000226 0.000041 0.000000
0.000126 -0.000352 0.000108 0.000000
0.000067 -0.000292 0.000125 0.000000
0.000180 -0.000356 0.000214 0.000000
0.000077 -0.000285 0.000107 0.000000
0.000050 -0.000233 0.000194 0.000000
0.000125 -0.000314 0.000285 0.000000
0.000240 -0.000440 0.000321 0.000000
0.000216 -0.000415 0.000353 0.000000
0.000108 -0.000310 0.000140 0.000000
0.000074 -0.000287 0.000140 0.000000
0.000081 -0.000318 0.000055 0.000000
-0.000313 -0.001327 0.002581 0.000000
0.000166 -0.000358 0.000107 0.000000
0.000097 -0.000334 0.000061 0.000000
-0.000528 -0.001045 0.001870 0.000000
-0.000585 -0.001213 0.001482 0.000000
0.000256 -0.000439 0.000820 0.000000
0.000296 -0.000503 0.000855 0.000000
0.000061 -0.000289 0.000088 0.000000
0.000093 -0.000343 0.000056 0.000000
0.000171 -0.000452 0.000048 0.000000
0.000198 -0.000397 0.000137 0.000000
0.000122 -0.000308 0.000139 0.000000
0.000089 -0.000311 0.000080 0.000000
0.000066 -0.000280 0.000070 0.000000
0.000105 -0.000336 0.000094 0.000000
0.000053 -0.000242 0.000219 0.000000
0.000065 -0.000260 0.000072 0.000000
0.000606 -0.002283 0.000514 0.000000
0.000927 -0.002898 0.000924 0.000000
0.000028 -0.000252 0.000142 0.000000
0.000069 -0.000282 0.000138 0.000000
0.000151 -0.000378 0.000304 0.000000
0.000118 -0.000325 0.000120 0.000000
-0.000784 -0.000493 0.000582 0.000000
-0.000499 -0.001109 0.000616 0.000000
0.000024 -0.000239 0.000113 0.000000
0.000004 -0.000212 0.000108 0.000000
0.000035 -0.001748 0.002298 0.000000
0.000496 -0.000702 0.000083 0.000000
-0.000476 -0.001257 0.000841 0.000000
-0.000515 -0.001290 0.000976 0.000000
-0.000324 -0.001717 0.001464 0.000000
0.000037 -0.002122 0.002320 0.000000
-0.000269 -0.001652 0.001597 0.000000
-0.000465 -0.001365 0.001000 0.000000
0.000096 -0.001921 0.000541 0.000000
0.000023 -0.000225 -0.000045 0.000000
0.000113 -0.001979 0.000783 0.000000
0.000019 -0.000230 0.000048 0.000000
0.000019 -0.000235 0.000079 0.000000
0.000064 -0.002031 0.000888 0.000000
-0.000543 -0.001272 0.000731 0.000000
-0.000461 -0.001569 0.001137 0.000000
-0.000111 -0.001699 0.000343 0.000000
0.000112 -0.001776 0.000035 0.000000
-0.000269 -0.001857 0.001620 0.000000
0.000285 -0.002199 0.002900 0.000000
-0.000443 -0.001568 0.001152 0.000000
-0.000456 -0.001488 0.001078 0.000000
-0.000499 -0.001464 0.000968 0.000000
-0.000188 -0.002059 0.001250 0.000000
-0.000438 -0.001528 0.000453 0.000000
-0.000484 -0.001300 0.000362 0.000000
0.000130 -0.002079 0.001058 0.000000
0.000025 -0.002009 0.000841 0.000000
0.000097 -0.002109 0.001123 0.000000
0.000096 -0.002036 0.000993 0.000000
0.000071 -0.000341 0.000406 0.000000
0.000838 -0.002683 0.000904 0.000000
0.000943 -0.003208 0.001134 0.000000
0.000586 -0.002685 0.001130 0.000000
0.000115 -0.000301 0.000321 0.000000
0.000426 -0.002522 0.000963 0.000000
0.000199 -0.000406 0.000279 0.000000
0.000163 -0.000392 0.000373 0.000000
0.000107 -0.000327 0.000108 0.000000
0.000140 -0.000354 0.000284 0.000000
-0.000615 -0.001293 0.001184 0.000000
-0.000791 -0.000895 0.001061 0.000000
0.000012 -0.002091 0.001137 0.000000
0.000134 -0.000359 0.000120 0.000000
0.000018 -0.002103 0.001139 0.000000
0.000037 -0.002138 0.000994 0.000000
-0.000465 -0.001506 0.001381 0.000000
-0.000268 -0.001600 0.002375 0.000000
0.000264 -0.000456 0.000803 0.000000
0.000292 -0.000506 0.000556 0.000000
0.000269 -0.000490 0.000582 0.000000
0.000279 -0.000485 0.000535 0.000000
0.000292 -0.000536 0.000562 0.000000
0.000132 -0.000342 0.000107 0.000000
0.000135 -0.000334 0.000067 0.000000
0.000119 -0.000325 0.000132 0.000000
0.000143 -0.000346 0.000072 0.000000
0.000145 -0.000343 0.000098 0.000000
0.000114 -0.000322 0.000071 0.000000
0.000025 -0.000199 0.000148 0.000000
0.000235 -0.000463 0.000714 0.000000
0.000286 -0.000482 0.000548 0.000000
0.000126 -0.000350 0.000092 0.000000
0.000227 -0.000451 0.000305 0.000000
-0.000565 -0.001069 0.001631 0.000000
-0.000844 -0.001134 0.001485 0.000000
0.000191 -0.000412 0.000706 0.000000
0.000224 -0.000443 0.000709 0.000000
0.000219 -0.000418 0.000672 0.000000
-0.000581 -0.000852 0.002509 0.000000
0.000269 -0.000474 0.000800 0.000000
0.000241 -0.000444 0.000677 0.000000
0.000197 -0.000404 0.000247 0.000000
0.000211 -0.000428 0.000320 0.000000
0.000143 -0.000345 0.000041 0.000000
0.000141 -0.000338 0.000036 0.000000
0.000237 -0.000447 0.000630 0.000000
0.000236 -0.000424 0.000675 0.000000
0.000292 -0.000475 0.000457 0.000000
0.000245 -0.000420 0.000358 0.000000
0.000128 -0.000319 0.000071 0.000000
0.000200 -0.000416 0.000248 0.000000
0.000104 -0.000345 0.000188 0.000000
0.000101 -0.000294 0.000127 0.000000
0.000407 -0.000572 0.000577 0.000000
0.000417 -0.000590 0.000611 0.000000
-0.000441 -0.000607 -0.000262 0.000000
0.000081 -0.000340 0.000321 0.000000
0.000487 -0.000607 0.000493 0.000000
0.000356 -0.000520 0.000602 0.000000
0.000354 -0.000506 0.000503 0.000000
0.000414 -0.000604 0.000558 0.000000
-0.000325 -0.001095 0.000834 0.000000
-0.000262 -0.001051 0.000721 0.000000
-0.000290 -0.001299 0.001631 0.000000
-0.000482 -0.000518 0.000646 0.000000
-0.000294 -0.000947 0.001723 0.000000
-0.000352 -0.001056 0.001121 0.000000
-0.000251 -0.001081 0.000713 0.000000
-0.000426 -0.001042 0.000904 0.000000
-0.000435 -0.001151 0.001308 0.000000
-0.000375 -0.001128 0.001022 0.000000
-0.000372 -0.001021 0.000986 0.000000
-0.000362 -0.001107 0.000897 0.000000
0.000134 -0.000326 0.000044 0.000000
0.000132 -0.000328 0.000160 0.000000
0.000606 -0.002004 0.001684 0.000000
0.000420 -0.000591 0.000607 0.000000
-0.000342 -0.001301 0.000567 0.000000
-0.000589 -0.001117 0.000701 0.000000
0.000093 -0.001922 0.001094 0.000000
0.000425 -0.000645 0.000623 0.000000
0.000350 -0.000530 0.000609 0.000000
0.000406 -0.000635 0.000773 0.000000
-0.000171 -0.001138 0.001938 0.000000
0.000342 -0.000545 0.000881 0.000000
-0.000363 -0.001229 0.001222 0.000000
-0.000363 -0.001086 0.000918 0.000000
0.000346 -0.000509 0.000707 0.000000
-0.000242 -0.001549 0.000785 0.000000
0.000400 -0.000527 0.000807 0.000000
-0.000048 -0.001686 0.001238 0.000000
0.000113 -0.000302 0.000119 0.000000
0.000153 -0.000345 0.000154 0.000000
-0.000420 -0.001137 0.001010 0.000000
-0.000062 -0.001989 0.001490 0.000000
0.000477 -0.000690 0.000591 0.000000
0.000420 -0.002115 0.001414 0.000000
-0.000171 -0.001479 0.001984 0.000000
-0.000031 -0.001813 0.002818 0.000000
-0.000186 -0.001506 0.001782 0.000000
-0.000125 -0.001429 0.001478 0.000000
-0.000372 -0.001299 0.001366 0.000000
-0.000356 -0.001151 0.000980 0.000000
0.000643 -0.002010 0.001061 0.000000
-0.000223 -0.001417 0.000925 0.000000
-0.000169 -0.001294 0.001493 0.000000
-0.000129 -0.001608 0.001575 0.000000
0.000135 -0.001905 0.001502 0.000000
0.000719 -0.002123 0.001469 0.000000
0.000007 -0.001397 0.002104 0.000000
0.000629 -0.002478 0.001949 0.000000
-0.000411 -0.001374 0.001016 0.000000
-0.000133 -0.001763 0.001648 0.000000
-0.000376 -0.001381 0.000990 0.000000
-0.000170 -0.001569 0.001490 0.000000
0.000121 -0.000320 0.000151 0.000000
0.000102 -0.000309 0.000230 0.000000
-0.000386 -0.001300 0.001334 0.000000
-0.000231 -0.001631 0.001383 0.000000
-0.000257 -0.001495 0.001043 0.000000
0.000445 -0.001677 0.000504 0.000000
0.000212 -0.000441 0.000301 0.000000
-0.000076 -0.002119 0.001698 0.000000
0.000192 -0.000413 0.000314 0.000000
0.000226 -0.000467 0.000423 0.000000
0.000240 -0.000448 0.000293 0.000000
0.000197 -0.000479 0.001028 0.000000
0.000137 -0.000355 0.000254 0.000000
0.000000 -0.002438 0.002134 0.000000
0.000020 -0.001965 0.001042 0.000000
0.000261 -0.000534 0.000960 0.000000
0.000332 -0.000576 0.000491 0.000000
0.000268 -0.000508 0.001011 0.000000
0.000284 -0.000477 0.000965 0.000000
0.000268 -0.002299 0.001409 0.000000
0.000363 -0.000568 0.000738 0.000000
0.000385 -0.002198 0.001147 0.000000
0.000246 -0.000477 0.000957 0.000000
0.000236 -0.000477 0.000961 0.000000
0.000252 -0.000481 0.000440 0.000000
0.000325 -0.000519 0.000611 0.000000
0.000190 -0.000391 0.000164 0.000000
0.000186 -0.000438 0.000430 0.000000
0.000170 -0.000376 0.000179 0.000000
0.000173 -0.000375 0.000192 0.000000
0.000253 -0.000487 0.000362 0.000000
0.000266 -0.000471 0.000391 0.000000
0.000162 -0.000392 0.000174 0.000000
0.000244 -0.000447 0.000220 0.000000
-0.000555 -0.001016 0.000758 0.000000
0.000221 -0.000441 0.000842 0.000000
0.000201 -0.000486 0.001149 0.000000
0.000265 -0.000440 0.001029 0.000000
0.000251 -0.000482 0.000843 0.000000
0.000264 -0.000470 0.000922 0.000000
0.000232 -0.002499 0.001703 0.000000
0.000020 -0.002161 0.001088 0.000000
-0.000615 -0.001237 0.001161 0.000000
-0.000458 -0.001327 0.001158 0.000000
0.000045 -0.002188 0.001024 0.000000
0.000173 -0.002121 0.001852 0.000000
-0.000292 -0.001550 0.001339 0.000000
0.000189 -0.002340 0.001509 0.000000
0.000357 -0.002421 0.000606 0.000000
0.000761 -0.002946 0.001705 0.000000
0.000067 -0.002209 0.001030 0.000000
0.000347 -0.002445 0.001125 0.000000
-0.000097 -0.002341 0.001385 0.000000
0.000090 -0.000362 0.000375 0.000000
0.000155 -0.002313 0.001186 0.000000
0.000104 -0.000348 0.000126 0.000000
-0.000016 -0.001835 0.000579 0.000000
-0.000022 -0.001915 0.000711 0.000000
0.000042 -0.002087 0.000847 0.000000
-0.000029 -0.001939 0.000738 0.000000
-0.000449 -0.001670 0.001235 0.000000
-0.000464 -0.001580 0.001075 0.000000
-0.000178 -0.001807 0.000539 0.000000
-0.000178 -0.001731 0.000542 0.000000
-0.000481 -0.001580 0.001062 0.000000
-0.000356 -0.001913 0.001575 0.000000
-0.000492 -0.001531 0.000846 0.000000
-0.000372 -0.001833 0.001275 0.000000
-0.000391 -0.001565 0.000626 0.000000
-0.000370 -0.001621 0.000977 0.000000
0.000023 -0.002034 0.000946 0.000000
0.000082 -0.002009 0.000867 0.000000
0.000119 -0.002070 0.000717 0.000000
0.000105 -0.002186 0.000802 0.000000
-0.000320 -0.001641 0.000599 0.000000
-0.000204 -0.002073 0.001508 0.000000
-0.000282 -0.001667 0.000605 0.000000
-0.000277 -0.001737 0.000690 0.000000
-0.000182 -0.002012 0.001812 0.000000
0.000947 -0.002815 0.003047 0.000000
-0.000395 -0.001676 0.001268 0.000000
-0.000483 -0.001751 0.001401 0.000000
-0.000470 -0.001658 0.001099 0.000000
-0.000343 -0.001665 0.001171 0.000000
-0.000331 -0.001643 0.000839 0.000000
-0.000421 -0.001648 0.000900 0.000000
-0.000193 -0.001813 0.000959 0.000000
-0.000333 -0.001688 0.000760 0.000000
-0.000066 -0.001914 0.000702 0.000000
-0.000150 -0.001819 0.000640 0.000000
0.000210 -0.002410 0.000750 0.000000
-0.000051 -0.002086 0.000546 0.000000
0.000311 -0.002519 0.001477 0.000000
0.000034 -0.002615 0.001811 0.000000
-0.000067 -0.001982 0.000635 0.000000
0.000038 -0.001983 0.000838 0.000000
0.000360 -0.002540 0.000641 0.000000
0.000276 -0.002670 0.001068 0.000000
0.000361 -0.002795 0.001453 0.000000
0.000000 -0.002194 0.001937 0.000000
-0.000519 -0.001318 0.000407 0.000000
-0.000511 -0.000865 0.000109 0.000000
0.000072 -0.002267 0.001373 0.000000
0.000000 -0.002448 0.001666 0.000000
-0.000263 -0.001691 0.001677 0.000000
-0.000273 -0.001687 0.001562 0.000000
-0.000428 -0.001499 0.001354 0.000000
-0.000444 -0.001451 0.001336 0.000000
-0.000202 -0.001577 0.001410 0.000000
-0.000135 -0.001140 -0.000178 0.000000
-0.000314 -0.001421 0.001141 0.000000
-0.000155 -0.001755 0.000513 0.000000
0.000000 -0.002038 0.002011 0.000000
-0.000075 -0.001932 0.001837 0.000000
-0.000409 -0.001463 0.001015 0.000000
-0.000055 -0.001941 0.002108 0.000000
0.000193 -0.002476 0.001672 0.000000
0.000000 -0.002486 0.001376 0.000000
0.000232 -0.002278 0.002017 0.000000
0.000233 -0.002295 0.002048 0.000000
-0.000048 -0.002009 0.000700 0.000000
-0.000024 -0.002011 0.000742 0.000000
0.000255 -0.002567 0.001578 0.000000
0.000309 -0.002622 0.001675 0.000000
-0.000185 -0.001886 0.000799 0.000000
-0.000266 -0.001708 0.000746 0.000000
-0.000067 -0.001898 0.000682 0.000000
-0.000068 -0.001934 0.000729 0.000000
0.000218 -0.002420 0.001981 0.000000
-0.000058 -0.002600 0.002976 0.000000
0.000056 -0.002158 0.001922 0.000000
-0.000193 -0.001810 0.001505 0.000000
0.000000 -0.002241 0.001839 0.000000
0.000107 -0.002291 0.002108 0.000000
0.000000 -0.002182 0.001908 0.000000
-0.000074 -0.001974 0.001665 0.000000
0.000056 -0.002209 0.001924 0.000000
-0.000167 -0.001855 0.001367 0.000000
0.000000 -0.002060 0.001364 0.000000
-0.000325 -0.001815 0.001044 0.000000
0.000000 -0.002031 0.000750 0.000000
-0.000059 -0.001954 0.000704 0.000000
-0.000062 -0.002041 0.000623 0.000000
-0.000011 -0.002114 0.000671 0.000000
-0.000137 -0.002055 0.001056 0.000000
0.000000 -0.002059 0.001133 0.000000
-0.000261 -0.001840 0.000873 0.000000
-0.000076 -0.002154 0.001900 0.000000
-0.000169 -0.002108 0.001746 0.000000
0.000000 -0.002086 0.001611 0.000000
-0.000100 -0.002042 0.000914 0.000000
0.000000 -0.002174 0.000550 0.000000
0.000000 -0.001880 0.000957 0.000000
-0.000009 -0.002147 0.000500 0.000000
-0.000045 -0.002023 0.000669 0.000000
0.000000 -0.002112 0.000561 0.000000
-0.000198 -0.001805 0.001899 0.000000
0.000000 -0.001876 0.000936 0.000000
0.000179 -0.001994 0.000945 0.000000
0.000000 -0.001759 0.001707 0.000000
-0.000311 -0.001724 0.001526 0.000000
-0.000322 -0.001808 0.000947 0.000000
0.000264 -0.000502 0.000421 0.000000
0.000086 -0.002432 0.002067 0.000000
0.000000 -0.002324 0.002197 0.000000
-0.000063 -0.002236 0.002261 0.000000
0.000369 -0.000632 0.000760 0.000000
0.000056 -0.002363 0.002279 0.000000
0.000212 -0.000442 0.000434 0.000000
0.000016 -0.001879 0.000945 0.000000
0.000419 -0.002301 0.001386 0.000000
0.000000 -0.002064 0.001178 0.000000
0.000000 -0.002488 0.002015 0.000000
0.000250 -0.000446 0.000946 0.000000
0.000409 -0.002310 0.001443 0.000000
0.000000 -0.002389 0.002047 0.000000
0.000220 -0.000443 0.000875 0.000000
0.000269 -0.000457 0.000856 0.000000
0.000194 -0.000442 0.000927 0.000000
0.000212 -0.000434 0.000876 0.000000
0.000000 -0.002429 0.002053 0.000000
-0.000029 -0.002369 0.001944 0.000000
0.000111 -0.002381 0.001994 0.000000
0.000243 -0.000461 0.000384 0.000000
0.000034 -0.002467 0.002130 0.000000
0.000009 -0.002399 0.001989 0.000000
0.000114 -0.002229 0.002172 0.000000
-0.000084 -0.002231 0.001911 0.000000
-0.000080 -0.002048 0.001982 0.000000
0.000105 -0.002200 0.001729 0.000000
-0.000211 -0.001673 0.001603 0.000000
0.000036 -0.002118 0.002459 0.000000
-0.000326 -0.001547 0.001434 0.000000
0.000000 -0.001815 0.002133 0.000000
-0.000093 -0.001912 0.002126 0.000000
0.000010 -0.002002 0.001972 0.000000
-0.000265 -0.001641 0.001718 0.000000
-0.000137 -0.001645 0.001895 0.000000
-0.000191 -0.001557 0.001360 0.000000
-0.000057 -0.001659 0.001201 0.000000
0.000082 -0.001810 0.001199 0.000000
-0.000071 -0.001684 0.001115 0.000000
-0.000224 -0.001575 0.001310 0.000000
0.000000 -0.001802 0.001896 0.000000
0.000000 -0.001730 0.001606 0.000000
-0.000012 -0.001668 0.001978 0.000000
-0.000085 -0.001461 0.001639 0.000000
0.000000 -0.001614 0.001864 0.000000
-0.000094 -0.001602 0.001820 0.000000
-0.000000 -0.001595 0.001764 0.000000
-0.000091 -0.001706 0.001797 0.000000
0.000000 -0.002184 0.002250 0.000000
-0.000000 -0.001753 0.001547 0.000000
0.000000 -0.001966 0.002290 0.000000
-0.000124 -0.001898 0.002339 0.000000
-0.000214 -0.001809 0.002028 0.000000
-0.000156 -0.001788 0.001835 0.000000
0.000230 -0.001735 0.001757 0.000000
-0.000140 -0.001466 0.000986 0.000000
0.000764 -0.000943 0.001144 0.000000
0.000000 -0.001607 0.001645 0.000000
0.000000 -0.001640 0.001021 0.000000
0.000226 -0.001783 0.001402 0.000000
0.000261 -0.001842 0.001941 0.000000
0.000112 -0.001690 0.001303 0.000000
-0.000000 -0.001671 0.001517 0.000000
0.000132 -0.001806 0.001306 0.000000
0.000000 -0.001699 0.001226 0.000000
0.000143 -0.001676 0.001444 0.000000
0.000078 -0.001607 0.001857 0.000000
0.000000 -0.001533 0.001915 0.000000
0.000000 -0.001555 0.001942 0.000000
-0.000010 -0.001537 0.001875 0.000000
0.000034 -0.001456 0.002160 0.000000
0.000000 -0.001410 0.002099 0.000000
-0.000000 -0.001680 0.001362 0.000000
0.000000 -0.001584 0.001868 0.000000
0.000000 -0.001655 0.001652 0.000000
0.000040 -0.001562 0.001998 0.000000
0.000000 -0.001628 0.001777 0.000000
0.000153 -0.001653 0.001937 0.000000
0.000042 -0.001560 0.001935 0.000000
0.000085 -0.001599 0.002032 0.000000
0.000034 -0.001545 0.001903 0.000000
-0.000000 -0.001536 0.002000 0.000000
0.000043 -0.001506 0.001957 0.000000
0.000050 -0.001546 0.001985 0.000000
0.000046 -0.001491 0.001568 0.000000
0.000050 -0.001526 0.001929 0.000000
0.000010 -0.001380 0.001723 0.000000
-0.000016 -0.001298 0.001929 0.000000
0.000079 -0.001637 0.001960 0.000000
0.000053 -0.001538 0.002068 0.000000
0.000035 -0.001556 0.001922 0.000000
-0.000022 -0.001492 0.001858 0.000000
0.000244 -0.001803 0.001035 0.000000
0.000000 -0.001665 0.001084 0.000000
0.000110 -0.001778 0.001475 0.000000
0.000129 -0.001791 0.001642 0.000000
0.000074 -0.001767 0.001129 0.000000
0.000128 -0.001679 0.001112 0.000000
0.000165 -0.001709 0.002049 0.000000
0.000118 -0.001664 0.001595 0.000000
-0.000262 -0.001269 0.001136 0.000000
-0.000113 -0.001600 0.001706 0.000000
-0.000251 -0.001436 0.001277 0.000000
-0.000249 -0.001431 0.001413 0.000000
-0.000144 -0.001618 0.001263 0.000000
-0.000143 -0.001629 0.001087 0.000000
0.000000 -0.001720 0.000997 0.000000
0.000292 -0.001929 0.000553 0.000000
0.000089 -0.001735 0.000961 0.000000
0.000072 -0.001698 0.001077 0.000000
-0.000243 -0.001448 0.001578 0.000000
-0.000128 -0.001433 0.001349 0.000000
-0.000135 -0.001437 0.001211 0.000000
-0.000317 -0.001278 0.001088 0.000000
-0.000302 -0.001302 0.001008 0.000000
-0.000256 -0.001286 0.001062 0.000000
-0.000212 -0.001354 0.000947 0.000000
-0.000248 -0.001441 0.001140 0.000000
0.000441 -0.001954 0.001634 0.000000
0.000320 -0.001810 0.001209 0.000000
0.000458 -0.002063 0.001960 0.000000
0.000309 -0.001869 0.001665 0.000000
-0.000063 -0.001534 0.000776 0.000000
-0.000159 -0.001516 0.000888 0.000000
-0.000058 -0.001620 0.000706 0.000000
0.000427 -0.002099 0.001729 0.000000
-0.000332 -0.001281 0.001197 0.000000
-0.000317 -0.001209 0.000917 0.000000
-0.000194 -0.001327 0.000844 0.000000
-0.000253 -0.001339 0.000938 0.000000
-0.000311 -0.001146 0.000862 0.000000
-0.000345 -0.001153 0.000906 0.000000
-0.000079 -0.001448 0.000782 0.000000
-0.000159 -0.001418 0.000881 0.000000
0.000818 -0.001017 0.001458 0.000000
0.000426 -0.001955 0.001430 0.000000
0.000723 -0.002119 0.001816 0.000000
0.000325 -0.001958 0.001699 0.000000
0.000336 -0.001646 0.000283 0.000000
-0.000058 -0.001539 0.000784 0.000000
0.000478 -0.002192 0.001444 0.000000
0.000279 -0.001951 0.001431 0.000000
0.000325 -0.001855 0.001944 0.000000
0.000235 -0.001869 0.001696 0.000000
0.000141 -0.001673 0.001977 0.000000
0.000145 -0.001598 0.001866 0.000000
0.000196 -0.001758 0.001973 0.000000
0.000087 -0.001552 0.002028 0.000000
0.000288 -0.001818 0.001971 0.000000
0.000182 -0.001704 0.001961 0.000000
0.000119 -0.001613 0.001999 0.000000
0.000130 -0.001603 0.001894 0.000000
-0.000241 -0.001047 0.001252 0.000000
-0.000206 -0.001253 0.001433 0.000000
0.000161 -0.001409 0.001614 0.000000
-0.000050 -0.001326 0.002080 0.000000
-0.000122 -0.001303 0.001839 0.000000
0.000003 -0.001446 0.001976 0.000000
-0.000132 -0.001211 0.001609 0.000000
-0.000035 -0.001381 0.001757 0.000000
-0.000045 -0.001386 0.001764 0.000000
0.000049 -0.001359 0.001788 0.000000
0.000024 -0.001420 0.001878 0.000000
0.000057 -0.001495 0.001960 0.000000
-0.000058 -0.001318 0.001372 0.000000
0.000049 -0.001510 0.001750 0.000000
0.000255 -0.001818 0.001973 0.000000
0.000366 -0.001905 0.001877 0.000000
0.000110 -0.001627 0.002079 0.000000
0.000085 -0.001582 0.002019 0.000000
0.000245 -0.001773 0.001740 0.000000
0.000300 -0.001897 0.001957 0.000000
0.000111 -0.001710 0.001891 0.000000
0.000244 -0.001794 0.002017 0.000000
0.000200 -0.001728 0.001871 0.000000
0.000143 -0.001670 0.002009 0.000000
0.000035 -0.001494 0.002003 0.000000
-0.000029 -0.001483 0.001951 0.000000
0.000055 -0.001440 0.001750 0.000000
0.000019 -0.001452 0.001997 0.000000
-0.000042 -0.001211 0.001795 0.000000
0.000008 -0.001372 0.002040 0.000000
-0.000143 -0.001189 0.001706 0.000000
-0.000304 -0.000974 0.001489 0.000000
-0.000118 -0.001137 0.001508 0.000000
-0.000078 -0.001113 0.001460 0.000000
-0.000145 -0.001137 0.001582 0.000000
0.000185 -0.000332 0.001034 0.000000
-0.000118 -0.001181 0.001394 0.000000
0.000000 -0.001332 0.001736 0.000000
0.000141 -0.001408 0.002032 0.000000
0.000144 -0.001298 0.001496 0.000000
-0.000114 -0.001041 0.001583 0.000000
0.000038 -0.001285 0.001967 0.000000
-0.000111 -0.001199 0.001763 0.000000
-0.000219 -0.001084 0.001552 0.000000
0.000059 -0.001351 0.001826 0.000000
0.000014 -0.001373 0.001833 0.000000
-0.000116 -0.001097 0.001600 0.000000
-0.000369 -0.000880 0.001047 0.000000
-0.000123 -0.001158 0.001823 0.000000
-0.000142 -0.001158 0.001760 0.000000
-0.000117 -0.001098 0.001718 0.000000
-0.000255 -0.000997 0.001373 0.000000
-0.000209 -0.000945 0.001263 0.000000
-0.000156 -0.000997 0.001300 0.000000
0.000173 -0.000313 0.001231 0.000000
0.000294 -0.001428 0.002087 0.000000
-0.000122 -0.001102 0.001404 0.000000
0.000207 -0.001335 0.001437 0.000000
0.000122 -0.001454 0.001795 0.000000
-0.000043 -0.001249 0.001487 0.000000
0.000183 -0.000334 0.000957 0.000000
0.000235 -0.000329 0.000989 0.000000
0.000265 -0.001441 0.002209 0.000000
0.000142 -0.000290 0.000916 0.000000
0.000164 -0.000270 0.000871 0.000000
0.000176 -0.001436 0.002166 0.000000
0.000090 -0.000229 0.000593 0.000000
0.000075 -0.001384 0.001965 0.000000
0.000130 -0.000249 0.000765 0.000000
0.000045 -0.000187 0.000421 0.000000
0.000148 -0.000296 0.000631 0.000000
-0.000172 -0.000884 0.001825 0.000000
-0.000302 -0.000932 0.001569 0.000000
-0.000399 -0.000670 0.001157 0.000000
0.000100 -0.000238 0.001135 0.000000
-0.000517 -0.000317 0.000686 0.000000
0.000241 -0.000319 0.001122 0.000000
0.000112 -0.000211 0.001098 0.000000
-0.000153 -0.001213 0.002549 0.000000
0.000126 -0.000259 0.000741 0.000000
-0.000164 -0.000911 0.001686 0.000000
-0.000013 -0.001275 0.002592 0.000000
0.000125 -0.000263 0.000788 0.000000
0.000144 -0.000255 0.000814 0.000000
0.000117 -0.000245 0.000728 0.000000
0.000221 -0.001456 0.002264 0.000000
0.000050 -0.001352 0.001848 0.000000
0.000193 -0.001439 0.002246 0.000000
0.000120 -0.001428 0.002046 0.000000
0.000241 -0.001478 0.002240 0.000000
-0.000387 -0.000780 0.001327 0.000000
0.000024 -0.001136 0.002348 0.000000
-0.000383 -0.000673 0.001189 0.000000
-0.000352 -0.000852 0.001765 0.000000
0.000121 -0.000262 0.001244 0.000000
0.000162 -0.000289 0.001230 0.000000
-0.000280 -0.000742 0.001564 0.000000
-0.000159 -0.001076 0.002318 0.000000
-0.000137 -0.001074 0.002040 0.000000
-0.000377 -0.000733 0.001036 0.000000
-0.000000 -0.001342 0.002397 0.000000
-0.000000 -0.001076 0.002122 0.000000
0.000173 -0.000978 0.001123 0.000000
-0.000052 -0.000934 0.001562 0.000000
0.000110 -0.001380 0.001739 0.000000
0.000342 -0.001613 0.002377 0.000000
-0.000000 -0.001420 0.001872 0.000000
0.000198 -0.001371 0.002321 0.000000
0.000213 -0.001571 0.002219 0.000000
0.000342 -0.001512 0.002394 0.000000
-0.000267 -0.001006 0.002067 0.000000
-0.000018 -0.001039 0.002185 0.000000
0.000014 -0.001320 0.001605 0.000000
0.000125 -0.001314 0.001678 0.000000
0.000000 -0.001267 0.001565 0.000000
0.000000 -0.001310 0.002022 0.000000
-0.000103 -0.001217 0.001878 0.000000
-0.000104 -0.001137 0.001493 0.000000
-0.000101 -0.001194 0.001691 0.000000
-0.000067 -0.001304 0.001992 0.000000
-0.000064 -0.001198 0.001733 0.000000
-0.000063 -0.001293 0.001870 0.000000
-0.000076 -0.001259 0.001780 0.000000
0.000152 -0.001342 0.001776 0.000000
0.000015 -0.001281 0.001546 0.000000
0.000171 -0.001370 0.001888 0.000000
0.000000 -0.001294 0.001610 0.000000
0.000206 -0.001423 0.001988 0.000000
0.000067 -0.001322 0.001681 0.000000
0.000000 -0.001246 0.001716 0.000000
0.000000 -0.001295 0.001581 0.000000
-0.000050 -0.001278 0.001614 0.000000
0.000000 -0.001344 0.002076 0.000000
0.000000 -0.001276 0.001806 0.000000
-0.000061 -0.001307 0.001898 0.000000
0.000000 -0.001313 0.001877 0.000000
0.000000 -0.001289 0.001619 0.000000
-0.000083 -0.001265 0.001637 0.000000
0.000027 -0.001295 0.001597 0.000000
0.000211 -0.001411 0.002029 0.000000
0.000000 -0.001403 0.002142 0.000000
0.000042 -0.001302 0.001622 0.000000
0.000026 -0.001257 0.002545 0.000000
-0.000152 -0.000866 0.001860 0.000000
0.000000 -0.001172 0.002430 0.000000
0.000033 -0.001246 0.001785 0.000000
0.000000 -0.001072 0.001952 0.000000
-0.000082 -0.001126 0.002449 0.000000
-0.000000 -0.001079 0.002323 0.000000
0.000000 -0.001125 0.001918 0.000000
-0.000031 -0.001092 0.001889 0.000000
0.000000 -0.000929 0.002191 0.000000
-0.000183 -0.000719 0.001324 0.000000
0.000000 -0.001011 0.001627 0.000000
0.000000 -0.001158 0.001798 0.000000
-0.000313 -0.000531 0.000810 0.000000
0.000000 -0.000940 0.001907 0.000000
-0.000013 -0.000968 0.001526 0.000000
-0.000336 -0.000528 0.000865 0.000000
-0.000000 -0.001180 0.001964 0.000000
-0.000168 -0.001050 0.002563 0.000000
-0.000000 -0.001125 0.002477 0.000000
0.000213 -0.000354 0.001187 0.000000
0.000331 -0.001539 0.001904 0.000000
-0.000093 -0.001020 0.001683 0.000000
-0.000047 -0.000919 0.001302 0.000000
0.000343 -0.001081 0.001332 0.000000
0.000495 -0.001409 0.001569 0.000000
-0.000323 -0.000898 0.001095 0.000000
0.000000 -0.000918 0.001223 0.000000
-0.000072 -0.000897 0.001257 0.000000
0.000000 -0.000990 0.001490 0.000000
-0.000033 -0.000994 0.001514 0.000000
0.000000 -0.000886 0.001418 0.000000
0.000000 -0.001017 0.001562 0.000000
-0.000021 -0.000975 0.001288 0.000000
-0.000036 -0.000957 0.001237 0.000000
-0.000057 -0.001015 0.001580 0.000000
-0.000127 -0.000674 0.000938 0.000000
-0.000119 -0.000817 0.001180 0.000000
-0.000264 -0.000750 0.001091 0.000000
0.000075 -0.000976 0.000965 0.000000
0.000150 -0.000887 0.000794 0.000000
0.000058 -0.000156 0.000302 0.000000
-0.000076 -0.000773 0.001092 0.000000
-0.000414 -0.000416 0.000817 0.000000
-0.000252 -0.000711 0.001075 0.000000
-0.000328 -0.000592 0.000925 0.000000
-0.000125 -0.000895 0.000697 0.000000
0.000059 -0.000179 0.000231 0.000000
-0.000162 -0.000910 0.001012 0.000000
-0.000262 -0.000363 0.000836 0.000000
0.000046 -0.001166 0.001389 0.000000
0.000107 -0.000186 0.000176 0.000000
-0.000216 -0.000826 0.001450 0.000000
-0.000227 -0.000703 0.001095 0.000000
-0.000074 -0.000962 0.000976 0.000000
-0.000000 -0.000730 0.001162 0.000000
-0.000039 -0.001033 0.001621 0.000000
-0.000197 -0.000533 0.000703 0.000000
0.000000 -0.000945 0.001476 0.000000
-0.000234 -0.000505 0.000706 0.000000
-0.000149 -0.000825 0.001396 0.000000
-0.000000 -0.000788 0.001245 0.000000
-0.000047 -0.000914 0.001493 0.000000
0.000000 -0.000908 0.000878 0.000000
-0.000084 -0.000712 0.000873 0.000000
-0.000000 -0.000908 0.000878 0.000000
0.000080 -0.001141 0.001398 0.000000
0.000000 -0.000903 0.001401 0.000000
-0.000000 -0.000642 0.000307 0.000000
0.000085 -0.000989 0.000323 0.000000
0.000000 -0.000672 0.000908 0.000000
0.000029 -0.000807 0.000097 0.000000
0.000029 -0.000885 0.000129 0.000000
-0.000000 -0.000773 0.000130 0.000000
0.000105 -0.000211 0.000167 0.000000
0.000000 -0.000842 0.000169 0.000000
0.000000 -0.000954 0.000290 0.000000
0.000112 -0.001027 0.000416 0.000000
-0.000096 -0.000658 0.000238 0.000000
0.000000 -0.000752 0.000079 0.000000
0.000000 -0.000822 0.000106 0.000000
-0.000146 -0.000679 0.000569 0.000000
-0.000032 -0.000733 0.000058 0.000000
0.000000 -0.000993 0.000373 0.000000
0.000127 -0.000209 0.000065 0.000000
0.000000 -0.000872 0.000903 0.000000
0.000367 -0.001275 0.000509 0.000000
0.000135 -0.001206 0.001337 0.000000
0.000000 -0.001040 0.000492 0.000000
0.000000 -0.000693 0.000611 0.000000
-0.000164 -0.000544 0.000308 0.000000
-0.000119 -0.000541 0.000273 0.000000
-0.000000 -0.000651 0.000306 0.000000
-0.000122 -0.000582 0.000141 0.000000
-0.000148 -0.000556 0.000231 0.000000
0.000045 -0.000117 0.000043 0.000000
0.000025 -0.000789 0.000030 0.000000
-0.000073 -0.000589 0.000129 0.000000
-0.000161 -0.000453 0.000132 0.000000
-0.000072 -0.000689 0.000110 0.000000
0.000103 -0.000555 -0.000332 0.000000
0.000000 -0.000770 0.000779 0.000000
-0.000179 -0.000559 0.000387 0.000000
-0.000155 -0.000534 0.000333 0.000000
-0.000193 -0.000387 0.000152 0.000000
0.000115 -0.001127 0.000618 0.000000
0.000123 -0.000213 0.000151 0.000000
0.000338 -0.001317 0.000579 0.000000
-0.000206 -0.000495 0.000448 0.000000
0.000057 -0.000926 0.000371 0.000000
0.000131 -0.001094 0.000507 0.000000
-0.000121 -0.000838 0.000962 0.000000
-0.000191 -0.000500 0.000368 0.000000
-0.000202 -0.000488 0.000458 0.000000
-0.000202 -0.000655 0.000833 0.000000
-0.000175 -0.000535 0.000268 0.000000
-0.000152 -0.000634 0.000390 0.000000
-0.000179 -0.000421 0.000230 0.000000
-0.000138 -0.000528 0.000233 0.000000
0.000228 -0.000341 0.000064 0.000000
-0.000158 -0.000653 -0.000058 0.000000
0.000154 -0.000230 0.000019 0.000000
0.000233 -0.000957 0.000184 0.000000
-0.000214 -0.000497 0.000434 0.000000
-0.000174 -0.000493 0.000403 0.000000
-0.000202 -0.000449 0.000292 0.000000
-0.000193 -0.000503 0.000375 0.000000
-0.000210 -0.000414 0.000303 0.000000
-0.000191 -0.000440 0.000312 0.000000
0.000157 -0.000276 0.000106 0.000000
-0.000170 -0.000342 -0.000023 0.000000
0.000149 -0.000229 0.000050 0.000000
0.000130 -0.000230 0.000032 0.000000
0.000191 -0.000307 0.000032 0.000000
-0.000182 -0.000612 0.000450 0.000000
0.000090 -0.000959 0.000373 0.000000
0.000051 -0.000144 0.000058 0.000000
0.000071 -0.000998 0.000493 0.000000
0.000232 -0.000993 0.000254 0.000000
-0.000174 -0.000556 0.000396 0.000000
-0.000171 -0.000489 0.000249 0.000000
-0.000033 -0.000686 0.000102 0.000000
0.000006 -0.000096 0.000056 0.000000
-0.000088 -0.000641 0.000035 0.000000
0.000029 -0.000809 0.000146 0.000000
0.000128 -0.000837 0.000176 0.000000
0.000063 -0.000759 0.000028 0.000000
-0.000093 -0.000551 0.000074 0.000000
-0.000126 -0.000389 -0.000037 0.000000
0.000042 -0.000121 0.000059 0.000000
0.000055 -0.000128 0.000035 0.000000
-0.000063 -0.000812 0.000675 0.000000
-0.000185 -0.000601 0.000475 0.000000
-0.000172 -0.000481 0.000241 0.000000
-0.000145 -0.000485 0.000187 0.000000
-0.000172 -0.000494 0.000218 0.000000
-0.000163 -0.000390 0.000080 0.000000
0.000143 -0.000217 0.000029 0.000000
-0.000067 -0.000582 0.000723 0.000000
-0.000187 -0.000418 0.000298 0.000000
-0.000192 -0.000474 0.000298 0.000000
-0.000095 -0.000554 0.000081 0.000000
0.000064 -0.000834 0.000147 0.000000
0.000037 -0.000102 0.000064 0.000000
0.000062 -0.000730 -0.000099 0.000000
-0.000154 -0.000419 0.000035 0.000000
-0.000081 -0.000477 -0.000013 0.000000
0.000038 -0.000115 0.000050 0.000000
0.000034 -0.000109 0.000032 0.000000
-0.000160 -0.000392 0.000078 0.000000
-0.000194 -0.000444 0.000217 0.000000
-0.000139 -0.000438 0.000090 0.000000
-0.000135 -0.000487 0.000034 0.000000
0.000117 -0.000221 0.000133 0.000000
0.000116 -0.000185 0.000117 0.000000
0.000168 -0.000234 0.000132 0.000000
0.000081 -0.000162 0.000030 0.000000
0.000083 -0.000163 0.000175 0.000000
0.000164 -0.000287 0.000165 0.000000
0.000191 -0.000257 0.000045 0.000000
0.000144 -0.000254 0.000088 0.000000
-0.000252 -0.000431 0.000363 0.000000
-0.000219 -0.000444 0.000345 0.000000
0.000038 -0.000131 0.000084 0.000000
0.000106 -0.000202 0.000044 0.000000
-0.000223 -0.000382 0.000266 0.000000
-0.000213 -0.000408 0.000293 0.000000
-0.000220 -0.000341 0.000252 0.000000
-0.000211 -0.000408 0.000293 0.000000
-0.000228 -0.000269 0.000061 0.000000
0.000151 -0.000206 0.000092 0.000000
-0.000254 -0.000371 0.000333 0.000000
-0.000228 -0.000411 0.000298 0.000000
-0.000212 -0.000383 0.000270 0.000000
-0.000288 -0.000397 0.000412 0.000000
-0.000400 -0.000457 0.000952 0.000000
-0.000006 -0.000087 0.000135 0.000000
0.000002 -0.000093 0.000087 0.000000
-0.000021 -0.000092 0.000153 0.000000
-0.000438 -0.000366 0.001194 0.000000
-0.000034 -0.000053 0.000084 0.000000
-0.000419 -0.000313 0.001000 0.000000
0.000145 -0.000227 0.000653 0.000000
-0.000001 -0.000086 0.000041 0.000000
0.000006 -0.000104 0.000100 0.000000
-0.000219 -0.000409 0.000290 0.000000
-0.000284 -0.000251 0.000564 0.000000
0.000013 -0.000138 0.000089 0.000000
-0.000013 -0.000106 0.000131 0.000000
-0.000285 -0.000505 0.000604 0.000000
-0.000288 -0.000426 0.000427 0.000000
-0.000011 -0.000117 0.000143 0.000000
0.000006 -0.000096 0.000084 0.000000
-0.000224 -0.000447 0.000354 0.000000
-0.000254 -0.000497 0.000503 0.000000
-0.000013 -0.000678 0.000381 0.000000
0.000051 -0.000135 0.000273 0.000000
0.000177 -0.000317 0.000684 0.000000
0.000267 -0.000340 0.000452 0.000000
-0.000131 -0.000838 0.001200 0.000000
-0.000238 -0.000654 0.000895 0.000000
0.000035 -0.000127 0.000184 0.000000
-0.000419 -0.000341 0.001023 0.000000
0.000019 -0.000120 0.000233 0.000000
0.000048 -0.000166 0.000784 0.000000
-0.000336 -0.000553 0.000890 0.000000
-0.000031 -0.000918 0.001226 0.000000
-0.000291 -0.000648 0.000894 0.000000
-0.000236 -0.000654 0.000946 0.000000
-0.000026 -0.000934 0.001274 0.000000
-0.000015 -0.000929 0.001259 0.000000
-0.000263 -0.000644 0.000954 0.000000
-0.000165 -0.000705 0.000884 0.000000
0.000186 -0.000331 0.001180 0.000000
0.000072 -0.000220 0.000546 0.000000
-0.000397 -0.000695 0.001140 0.000000
-0.000214 -0.000850 0.000827 0.000000
-0.000420 -0.000719 0.001443 0.000000
-0.000339 -0.000613 0.000386 0.000000
-0.000120 -0.000542 0.000137 0.000000
-0.000001 -0.000945 0.001204 0.000000
-0.000047 -0.000828 0.001119 0.000000
-0.000109 -0.000798 0.001139 0.000000
-0.000603 -0.000269 0.000401 0.000000
-0.000419 -0.000453 0.000641 0.000000
-0.000091 -0.000787 0.001078 0.000000
-0.000118 -0.000842 0.001184 0.000000
-0.000256 -0.000695 0.001007 0.000000
-0.000278 -0.000595 0.000835 0.000000
-0.000439 -0.000448 0.000909 0.000000
-0.000046 -0.000047 0.000074 0.000000
0.000166 -0.000335 0.000632 0.000000
0.000132 -0.000214 0.000379 0.000000
-0.000319 -0.000594 0.000822 0.000000
-0.000497 -0.000254 0.000859 0.000000
0.000297 -0.000333 0.000759 0.000000
0.000049 -0.000190 0.000441 0.000000
0.000119 -0.000199 0.000471 0.000000
-0.000004 -0.000105 0.000231 0.000000
0.000007 -0.000124 0.000248 0.000000
-0.000425 -0.000369 0.001189 0.000000
-0.000392 -0.000225 -0.000021 0.000000
-0.000527 -0.000093 0.000163 0.000000
0.000122 -0.000170 0.000242 0.000000
-0.000386 -0.000452 0.000176 0.000000
-0.000037 -0.000051 0.000025 0.000000
-0.000038 -0.000095 0.000272 0.000000
0.000100 -0.000250 0.000485 0.000000
-0.000007 -0.000102 0.000105 0.000000
-0.000040 -0.000056 0.000067 0.000000
0.000004 -0.000106 0.000128 0.000000
-0.000047 -0.000045 0.000070 0.000000
0.000007 -0.000085 0.000146 0.000000
0.000021 -0.000103 0.000097 0.000000
0.000105 -0.000214 0.000353 0.000000
-0.000046 -0.000053 0.000080 0.000000
-0.000291 -0.000655 0.001001 0.000000
-0.000355 -0.000546 0.000787 0.000000
-0.000332 -0.000563 0.000876 0.000000
0.000005 -0.000104 0.000117 0.000000
-0.000001 -0.000080 0.000107 0.000000
-0.000022 -0.000083 0.000081 0.000000
-0.000026 -0.000076 0.000089 0.000000
-0.000210 -0.000359 0.000250 0.000000
-0.000288 -0.000190 0.000355 0.000000
-0.000344 -0.000524 0.000717 0.000000
-0.000035 -0.000066 0.000110 0.000000
0.000002 -0.000085 0.000055 0.000000
-0.000008 -0.000084 0.000055 0.000000
-0.000047 -0.000047 0.000074 0.000000
-0.000320 -0.000583 0.000896 0.000000
-0.000398 -0.000527 0.000885 0.000000
-0.000406 -0.000501 0.001306 0.000000
-0.000474 -0.000345 0.000809 0.000000
-0.000418 -0.000420 0.000958 0.000000
-0.000493 -0.000303 0.000816 0.000000
-0.000552 -0.000339 0.001156 0.000000
-0.000078 -0.000465 0.000101 0.000000
-0.000005 -0.000085 0.000067 0.000000
-0.000011 -0.000406 -0.000154 0.000000
-0.000011 -0.000082 0.000039 0.000000
-0.000208 -0.000370 0.000182 0.000000
-0.000299 -0.000349 0.000210 0.000000
-0.000296 -0.000410 0.000779 0.000000
-0.000179 -0.000522 0.000675 0.000000
-0.000170 -0.000371 0.000169 0.000000
-0.000120 -0.000514 0.000067 0.000000
-0.000414 -0.000409 0.000795 0.000000
-0.000533 -0.000280 0.001067 0.000000
-0.000268 -0.000461 0.000499 0.000000
-0.000388 -0.000606 0.001147 0.000000
-0.000049 -0.000045 0.000078 0.000000
-0.000045 -0.000036 0.000049 0.000000
-0.000418 -0.000330 0.000644 0.000000
-0.000501 -0.000216 0.000909 0.000000
-0.000048 -0.000046 0.000072 0.000000
-0.000039 -0.000054 0.000069 0.000000
-0.000368 -0.000541 0.000930 0.000000
-0.000571 -0.000298 0.001099 0.000000
0.000002 -0.000104 0.000188 0.000000
-0.000015 -0.000102 0.000203 0.000000
-0.000014 -0.000125 0.000227 0.000000
-0.000452 -0.000125 -0.000085 0.000000
-0.000045 -0.000054 0.000120 0.000000
-0.000054 -0.000512 0.000491 0.000000
-0.000461 -0.000112 -0.000158 0.000000
0.000045 -0.000107 0.000161 0.000000
-0.000025 -0.000091 0.000150 0.000000
0.000038 -0.000193 0.000330 0.000000
0.000002 -0.000080 0.000115 0.000000
-0.000049 -0.000042 0.000072 0.000000
-0.000042 -0.000080 0.000093 0.000000
-0.000047 -0.000049 0.000069 0.000000
-0.000052 -0.000046 0.000071 0.000000
-0.000048 -0.000052 0.000071 0.000000
-0.000049 -0.000039 0.000061 0.000000
-0.000049 -0.000047 0.000060 0.000000
0.000002 -0.000076 0.000147 0.000000
-0.000022 -0.000062 0.000107 0.000000
-0.000041 -0.000040 0.000059 0.000000
-0.000049 -0.000040 0.000057 0.000000
-0.000078 -0.000044 0.000054 0.000000
-0.000534 -0.000155 0.000184 0.000000
-0.000462 -0.000081 -0.000207 0.000000
-0.000042 -0.000083 0.000181 0.000000
-0.000078 -0.000358 0.000031 0.000000
-0.000409 -0.000234 -0.000071 0.000000
-0.000461 -0.000150 -0.000267 0.000000
-0.000053 -0.000077 0.000202 0.000000
-0.000049 -0.000028 0.000104 0.000000
-0.000053 -0.000065 0.000144 0.000000
-0.000046 -0.000065 0.000126 0.000000
-0.000050 -0.000041 0.000072 0.000000
-0.000046 -0.000041 0.000062 0.000000
-0.000049 -0.000041 0.000071 0.000000
-0.000045 -0.000040 0.000061 0.000000
-0.000048 -0.000038 0.000055 0.000000
-0.000048 -0.000062 0.000090 0.000000
-0.000049 -0.000049 0.000077 0.000000
-0.000044 -0.000052 0.000072 0.000000
-0.000048 -0.000044 0.000059 0.000000
-0.000045 -0.000040 0.000058 0.000000
-0.000051 -0.000042 0.000065 0.000000
-0.000468 -0.000177 0.000769 0.000000
-0.000039 -0.000039 0.000050 0.000000
-0.000283 -0.000472 0.000473 0.000000
-0.000287 -0.000328 0.000254 0.000000
-0.000045 -0.000045 0.000072 0.000000
-0.000039 -0.000036 0.000046 0.000000
-0.000430 -0.000142 0.000604 0.000000
-0.000379 -0.000304 0.000514 0.000000
-0.000252 -0.000395 0.000358 0.000000
-0.000225 -0.000512 0.000356 0.000000
-0.000243 -0.000361 0.000134 0.000000
-0.000215 -0.000466 0.000411 0.000000
-0.000066 -0.000518 0.000066 0.000000
-0.000262 -0.000417 0.000325 0.000000
-0.000167 -0.000497 0.000178 0.000000
-0.000181 -0.000414 -0.000088 0.000000
-0.000135 -0.000416 0.000185 0.000000
-0.000050 -0.000416 0.000198 0.000000
-0.000131 -0.000379 0.000074 0.000000
-0.000123 -0.000421 0.000160 0.000000
-0.000150 -0.000345 0.000210 0.000000
-0.000138 -0.000440 0.000155 0.000000
-0.000042 -0.000055 0.000079 0.000000
-0.000038 -0.000039 0.000052 0.000000
-0.000209 -0.000392 0.000240 0.000000
-0.000305 -0.000406 0.000485 0.000000
-0.000484 -0.000301 0.000858 0.000000
-0.000041 -0.000042 0.000061 0.000000
-0.000456 -0.000262 0.000676 0.000000
-0.000400 -0.000248 0.000559 0.000000
-0.000295 -0.000368 0.000528 0.000000
-0.000334 -0.000483 0.000669 0.000000
-0.000010 -0.000633 0.000210 0.000000
-0.000053 -0.000587 0.000162 0.000000
-0.000208 -0.000307 0.000263 0.000000
-0.000191 -0.000358 0.000193 0.000000
-0.000248 -0.000275 0.000273 0.000000
-0.000216 -0.000315 0.000257 0.000000
-0.000323 -0.000095 0.000386 0.000000
-0.000236 -0.000315 0.000298 0.000000
0.000050 -0.000112 0.000122 0.000000
-0.000009 -0.000064 0.000047 0.000000
0.000026 -0.000101 0.000080 0.000000
0.000035 -0.000111 0.000051 0.000000
-0.000333 -0.000225 0.000475 0.000000
-0.000313 -0.000239 0.000364 0.000000
0.000030 -0.000104 0.000041 0.000000
0.000016 -0.000091 0.000021 0.000000
-0.000227 -0.000311 0.000285 0.000000
-0.000221 -0.000310 0.000298 0.000000
-0.000262 -0.000241 0.000354 0.000000
-0.000274 -0.000236 0.000391 0.000000
-0.000173 -0.000307 0.000269 0.000000
-0.000187 -0.000336 0.000212 0.000000
-0.000210 -0.000358 0.000666 0.000000
0.000037 -0.000089 0.000161 0.000000
-0.000316 -0.000272 0.000528 0.000000
-0.000251 -0.000276 0.000393 0.000000
-0.000345 -0.000069 0.000532 0.000000
0.000007 -0.000059 0.000153 0.000000
-0.000013 -0.000066 0.000054 0.000000
-0.000005 -0.000069 0.000045 0.000000
0.000002 -0.000071 0.000032 0.000000
-0.000000 -0.000076 0.000047 0.000000
0.000006 -0.000083 0.000031 0.000000
0.000014 -0.000090 0.000031 0.000000
0.000039 -0.000109 0.000039 0.000000
0.000029 -0.000100 0.000012 0.000000
0.000034 -0.000109 0.000030 0.000000
0.000031 -0.000107 -0.000023 0.000000
-0.000222 -0.000241 0.000077 0.000000
-0.000185 -0.000214 0.000045 0.000000
-0.000178 -0.000282 0.000108 0.000000
-0.000177 -0.000235 0.000133 0.000000
0.000041 -0.000109 0.000007 0.000000
0.000055 -0.000118 -0.000024 0.000000
-0.000170 -0.000262 0.000100 0.000000
-0.000262 -0.000230 0.000370 0.000000
0.000014 -0.000088 0.000031 0.000000
-0.000009 -0.000058 0.000013 0.000000
-0.000001 -0.000064 0.000026 0.000000
0.000016 -0.000079 0.000029 0.000000
-0.000190 -0.000251 0.000141 0.000000
-0.000122 -0.000471 -0.000146 0.000000
0.000000 -0.000071 0.000020 0.000000
0.000027 -0.000096 0.000040 0.000000
0.000004 -0.000077 0.000015 0.000000
0.000011 -0.000074 0.000035 0.000000
0.000007 -0.000078 0.000027 0.000000
0.000026 -0.000092 0.000044 0.000000
-0.000218 -0.000157 0.000013 0.000000
0.000070 -0.000155 0.000026 0.000000
0.000000 -0.000071 0.000026 0.000000
-0.000197 -0.000210 0.000114 0.000000
0.000098 -0.000190 0.000055 0.000000
0.000046 -0.000110 0.000021 0.000000
-0.000185 -0.000242 0.000072 0.000000
0.000082 -0.000174 0.000040 0.000000
-0.000170 -0.000308 0.000123 0.000000
-0.000165 -0.000284 0.000105 0.000000
-0.000272 -0.000208 0.000165 0.000000
-0.000176 -0.000289 0.000126 0.000000
0.000016 -0.000079 0.000041 0.000000
0.000028 -0.000097 0.000044 0.000000
-0.000269 -0.000072 0.000091 0.000000
0.000030 -0.000094 0.000052 0.000000
-0.000001 -0.000075 0.000023 0.000000
0.000031 -0.000114 0.000043 0.000000
-0.000007 -0.000070 0.000013 0.000000
-0.000144 -0.000342 -0.000033 0.000000
0.000027 -0.000100 0.000041 0.000000
0.000031 -0.000104 0.000049 0.000000
-0.000227 -0.000189 0.000101 0.000000
0.000047 -0.000137 0.000036 0.000000
-0.000225 -0.000255 -0.000020 0.000000
-0.000182 -0.000288 0.000101 0.000000
0.000114 -0.000193 0.000014 0.000000
0.000098 -0.000156 0.000002 0.000000
-0.000168 -0.000339 0.000128 0.000000
-0.000187 -0.000272 0.000101 0.000000
0.000035 -0.000125 0.000066 0.000000
0.000030 -0.000108 0.000036 0.000000
0.000032 -0.000119 0.000038 0.000000
0.000053 -0.000119 0.000056 0.000000
-0.000215 -0.000343 0.000239 0.000000
-0.000196 -0.000343 0.000219 0.000000
0.000069 -0.000169 0.000140 0.000000
0.000039 -0.000136 0.000155 0.000000
-0.000222 -0.000326 0.000270 0.000000
-0.000256 -0.000293 0.000338 0.000000
-0.000309 -0.000140 0.000284 0.000000
-0.000254 -0.000250 0.000306 0.000000
0.000114 -0.000219 0.000145 0.000000
0.000040 -0.000121 0.000072 0.000000
0.000035 -0.000120 0.000080 0.000000
0.000061 -0.000158 0.000076 0.000000
0.000104 -0.000196 0.000088 0.000000
0.000082 -0.000137 0.000057 0.000000
0.000039 -0.000122 0.000077 0.000000
0.000068 -0.000140 0.000051 0.000000
0.000063 -0.000138 0.000064 0.000000
0.000041 -0.000124 0.000083 0.000000
-0.000212 -0.000380 0.000266 0.000000
-0.000234 -0.000356 0.000223 0.000000
-0.000215 -0.000372 0.000283 0.000000
-0.000222 -0.000341 0.000280 0.000000
-0.000216 -0.000351 0.000260 0.000000
-0.000239 -0.000347 0.000267 0.000000
-0.000235 -0.000330 0.000250 0.000000
-0.000284 -0.000194 0.000181 0.000000
0.000091 -0.000150 0.000096 0.000000
0.000098 -0.000207 0.000073 0.000000
0.000039 -0.000135 0.000072 0.000000
0.000097 -0.000188 0.000066 0.000000
0.000038 -0.000130 0.000067 0.000000
0.000044 -0.000140 0.000100 0.000000
0.000144 -0.000211 0.000084 0.000000
0.000120 -0.000190 0.000025 0.000000
-0.000230 -0.000346 0.000364 0.000000
0.000109 -0.000195 0.000047 0.000000
0.000093 -0.000182 0.000069 0.000000
0.000082 -0.000173 0.000040 0.000000
-0.000251 -0.000188 0.000247 0.000000
-0.000189 -0.000363 0.000170 0.000000
-0.000180 -0.000358 0.000057 0.000000
-0.000183 -0.000356 0.000184 0.000000
0.000007 -0.000087 0.000030 0.000000
-0.000011 -0.000070 0.000024 0.000000
-0.000175 -0.000358 0.000104 0.000000
-0.000219 -0.000421 0.000266 0.000000
-0.000046 -0.000606 -0.000126 0.000000
0.000005 -0.000072 0.000044 0.000000
0.000032 -0.000128 0.000088 0.000000
-0.000006 -0.000414 -0.000313 0.000000
0.000034 -0.000116 0.000044 0.000000
0.000041 -0.000113 0.000052 0.000000
-0.000134 -0.000334 0.000458 0.000000
0.000040 -0.000124 0.000066 0.000000
0.000039 -0.000113 0.000053 0.000000
0.000030 -0.000107 0.000045 0.000000
-0.000020 -0.000062 0.000032 0.000000
0.000037 -0.000102 0.000075 0.000000
-0.000016 -0.000064 0.000028 0.000000
-0.000080 -0.000332 0.000347 0.000000
0.000010 -0.000081 0.000002 0.000000
-0.000016 -0.000065 0.000024 0.000000
-0.000244 -0.000350 -0.000021 0.000000
-0.000020 -0.000056 0.000031 0.000000
0.000043 -0.000127 -0.000076 0.000000
-0.000048 -0.000461 -0.000138 0.000000
0.000025 -0.000586 0.000016 0.000000
-0.000028 -0.000590 -0.000010 0.000000
0.000023 -0.000644 -0.000031 0.000000
-0.000006 -0.000066 0.000002 0.000000
0.000065 -0.000747 -0.000007 0.000000
0.000056 -0.000730 0.000207 0.000000
0.000021 -0.000643 0.000290 0.000000
0.000160 -0.000774 0.000259 0.000000
0.000013 -0.000648 0.000220 0.000000
-0.000075 -0.000438 0.000098 0.000000
-0.000038 -0.000589 0.000197 0.000000
-0.000060 -0.000578 0.000235 0.000000
-0.000009 -0.000558 -0.000007 0.000000
-0.000022 -0.000526 -0.000074 0.000000
0.000010 -0.000601 -0.000028 0.000000
0.000059 -0.000688 0.000037 0.000000
0.000082 -0.000691 -0.000005 0.000000
0.000145 -0.000844 0.000332 0.000000
-0.000011 -0.000049 0.000018 0.000000
-0.000007 -0.000503 -0.000086 0.000000
-0.000049 -0.000473 0.000215 0.000000
-0.000060 -0.000502 0.000152 0.000000
-0.000061 -0.000449 0.000266 0.000000
-0.000080 -0.000480 0.000178 0.000000
-0.000148 -0.000384 0.000262 0.000000
-0.000141 -0.000459 -0.000057 0.000000
0.000060 -0.000596 -0.000025 0.000000
-0.000010 -0.000057 0.000020 0.000000
-0.000010 -0.000051 0.000003 0.000000
-0.000045 -0.000527 0.000210 0.000000
-0.000045 -0.000495 -0.000094 0.000000
-0.000020 -0.000526 -0.000033 0.000000
0.000031 -0.000506 -0.000064 0.000000
-0.000013 -0.000045 0.000013 0.000000
0.000040 -0.000528 -0.000108 0.000000
-0.000013 -0.000061 0.000011 0.000000
0.000078 -0.000156 -0.000043 0.000000
-0.000116 -0.000427 -0.000327 0.000000
-0.000187 -0.000206 0.000188 0.000000
-0.000251 -0.000097 -0.000182 0.000000
0.000006 -0.000076 0.000016 0.000000
-0.000014 -0.000054 0.000009 0.000000
0.000030 -0.000105 0.000050 0.000000
0.000047 -0.000108 0.000021 0.000000
-0.000293 -0.000043 -0.000005 0.000000
0.000014 -0.000096 0.000036 0.000000
0.000036 -0.000106 0.000050 0.000000
0.000035 -0.000106 0.000051 0.000000
0.000040 -0.000107 0.000051 0.000000
0.000046 -0.000117 0.000050 0.000000
0.000020 -0.000107 0.000094 0.000000
-0.000346 -0.000148 0.000232 0.000000
0.000016 -0.000090 0.000046 0.000000
-0.000273 -0.000215 0.000070 0.000000
0.000011 -0.000083 0.000061 0.000000
-0.000015 -0.000066 0.000057 0.000000
-0.000144 -0.000268 0.000180 0.000000
-0.000229 -0.000272 0.000298 0.000000
-0.000131 -0.000270 0.000354 0.000000
-0.000008 -0.000056 0.000017 0.000000
0.000027 -0.000082 -0.000012 0.000000
0.000010 -0.000082 0.000007 0.000000
0.000010 -0.000075 0.000026 0.000000
0.000029 -0.000430 0.000025 0.000000
0.000025 -0.000096 0.000061 0.000000
0.000039 -0.000104 0.000042 0.000000
-0.000132 -0.000235 0.000053 0.000000
-0.000195 -0.000143 -0.000083 0.000000
0.000032 -0.000100 0.000062 0.000000
0.000027 -0.000093 0.000043 0.000000
0.000026 -0.000098 0.000074 0.000000
0.000029 -0.000100 0.000062 0.000000
0.000041 -0.000104 0.000071 0.000000
0.000052 -0.000109 0.000082 0.000000
0.000039 -0.000115 0.000089 0.000000
-0.000126 -0.000194 -0.000167 0.000000
-0.000041 -0.000356 0.000229 0.000000
0.000038 -0.000509 -0.000031 0.000000
0.000019 -0.000514 -0.000091 0.000000
-0.000005 -0.000481 -0.000108 0.000000
-0.000097 -0.000255 -0.000020 0.000000
-0.000186 -0.000263 -0.000030 0.000000
-0.000101 -0.000298 0.000203 0.000000
-0.000094 -0.000290 0.000101 0.000000
-0.000091 -0.000357 0.000219 0.000000
-0.000092 -0.000404 0.000287 0.000000
0.000009 -0.000538 -0.000011 0.000000
-0.000010 -0.000054 0.000001 0.000000
-0.000012 -0.000046 0.000017 0.000000
-0.000011 -0.000052 0.000019 0.000000
0.000026 -0.000448 -0.000395 0.000000
-0.000021 -0.000425 -0.000281 0.000000
0.000010 -0.000386 -0.000429 0.000000
0.000010 -0.000455 -0.000438 0.000000
-0.000012 -0.000044 0.000016 0.000000
-0.000011 -0.000049 0.000018 0.000000
-0.000009 -0.000049 0.000014 0.000000
-0.000012 -0.000045 0.000003 0.000000
-0.000007 -0.000058 0.000017 0.000000
-0.000010 -0.000051 0.000003 0.000000
-0.000008 -0.000051 0.000008 0.000000
-0.000010 -0.000051 0.000005 0.000000
-0.000042 -0.000447 0.000301 0.000000
-0.000016 -0.000043 0.000021 0.000000
-0.000011 -0.000048 0.000019 0.000000
-0.000011 -0.000052 0.000017 0.000000
-0.000006 -0.000059 0.000007 0.000000
-0.000001 -0.000509 0.000252 0.000000
0.000048 -0.000534 -0.000238 0.000000
-0.000033 -0.000497 -0.000213 0.000000
0.000046 -0.000547 -0.000042 0.000000
-0.000013 -0.000046 0.000013 0.000000
0.000030 -0.000571 -0.000447 0.000000
0.000055 -0.000107 -0.000082 0.000000
0.000015 -0.000503 -0.000118 0.000000
-0.000028 -0.000528 -0.000333 0.000000
-0.000007 -0.000057 0.000018 0.000000
-0.000007 -0.000057 0.000007 0.000000
-0.000008 -0.000057 0.000003 0.000000
0.000016 -0.000574 0.000262 0.000000
-0.000020 -0.000449 0.000252 0.000000
-0.000086 -0.000468 0.000201 0.000000
-0.000166 -0.000223 0.000559 0.000000
0.000042 -0.000101 0.000036 0.000000
0.000034 -0.000093 0.000052 0.000000
-0.000057 -0.000409 0.000414 0.000000
-0.000009 -0.000068 0.000010 0.000000
-0.000002 -0.000068 0.000019 0.000000
0.000002 -0.000068 -0.000011 0.000000
0.000028 -0.000120 -0.000065 0.000000
0.000001 -0.000065 -0.000010 0.000000
-0.000008 -0.000065 0.000006 0.000000
-0.000003 -0.000060 -0.000006 0.000000
0.000013 -0.000072 -0.000025 0.000000
-0.000011 -0.000058 0.000006 0.000000
-0.000010 -0.000051 0.000018 0.000000
0.000003 -0.000065 -0.000010 0.000000
-0.000010 -0.000060 -0.000001 0.000000
-0.000156 -0.000334 0.000588 0.000000
0.000033 -0.000106 0.000069 0.000000
-0.000004 -0.000066 0.000024 0.000000
-0.000011 -0.000054 0.000022 0.000000
-0.000104 -0.000408 0.000742 0.000000
-0.000155 -0.000244 0.000684 0.000000
-0.000010 -0.000052 0.000001 0.000000
-0.000010 -0.000052 0.000001 0.000000
-0.000007 -0.000058 -0.000006 0.000000
0.000002 -0.000059 -0.000020 0.000000
-0.000002 -0.000052 -0.000011 0.000000
0.000002 -0.000060 -0.000010 0.000000
0.000003 -0.000063 -0.000010 0.000000
0.000005 -0.000064 -0.000015 0.000000
-0.000002 -0.000055 -0.000011 0.000000
0.000005 -0.000067 -0.000011 0.000000
-0.000003 -0.000055 -0.000016 0.000000
-0.000009 -0.000055 -0.000009 0.000000
0.000006 -0.000080 -0.000006 0.000000
-0.000090 -0.000376 0.000408 0.000000
0.000041 -0.000546 0.000015 0.000000
0.000020 -0.000511 -0.000097 0.000000
-0.000097 -0.000154 -0.000208 0.000000
0.000038 -0.000081 -0.000032 0.000000
0.000043 -0.000480 0.000041 0.000000
0.000013 -0.000101 0.000014 0.000000
0.000055 -0.000502 -0.000054 0.000000
-0.000059 -0.000385 -0.000120 0.000000
-0.000084 -0.000317 -0.000015 0.000000
0.000059 -0.000479 -0.000167 0.000000
-0.000095 -0.000371 -0.000045 0.000000
-0.000071 -0.000355 -0.000123 0.000000
-0.000089 -0.000337 -0.000021 0.000000
-0.000047 -0.000386 -0.000217 0.000000
-0.000063 -0.000320 -0.000376 0.000000
-0.000087 -0.000352 -0.000071 0.000000
0.000041 -0.000541 0.000009 0.000000
-0.000029 -0.000480 -0.000188 0.000000
0.000064 -0.000576 -0.000077 0.000000
0.000018 -0.000423 -0.000399 0.000000
-0.000089 -0.000372 0.000435 0.000000
-0.000148 -0.000095 0.000075 0.000000
0.000028 -0.000094 0.000028 0.000000
0.000054 -0.000576 -0.000070 0.000000
0.000034 -0.000097 0.000022 0.000000
0.000062 -0.000119 -0.000027 0.000000
-0.000071 -0.000389 -0.000141 0.000000
-0.000092 -0.000367 -0.000073 0.000000
-0.000089 -0.000350 -0.000029 0.000000
-0.000077 -0.000373 -0.000145 0.000000
-0.000087 -0.000365 -0.000080 0.000000
-0.000109 -0.000385 -0.000123 0.000000
-0.000089 -0.000356 -0.000026 0.000000
-0.000083 -0.000366 -0.000089 0.000000
-0.000080 -0.000365 -0.000156 0.000000
0.000004 -0.000529 -0.000289 0.000000
-0.000100 -0.000366 -0.000039 0.000000
-0.000083 -0.000389 -0.000115 0.000000
-0.000086 -0.000243 -0.000200 0.000000
0.000013 -0.000082 0.000016 0.000000
-0.000067 -0.000452 -0.000298 0.000000
0.000039 -0.000110 0.000017 0.000000
-0.000005 -0.000084 0.000070 0.000000
-0.000063 -0.000413 0.000388 0.000000
0.000065 -0.000614 -0.000151 0.000000
0.000074 -0.000148 0.000011 0.000000
0.000002 -0.000067 -0.000008 0.000000
-0.000007 -0.000060 -0.000001 0.000000
0.000011 -0.000074 -0.000022 0.000000
0.000012 -0.000081 -0.000003 0.000000
0.000003 -0.000078 0.000009 0.000000
-0.000008 -0.000065 0.000005 0.000000
-0.000008 -0.000063 0.000003 0.000000
-0.000008 -0.000061 -0.000000 0.000000
0.000005 -0.000079 0.000018 0.000000
0.000035 -0.000138 0.000085 0.000000
-0.000010 -0.000063 0.000003 0.000000
-0.000010 -0.000063 0.000003 0.000000
-0.000007 -0.000067 -0.000002 0.000000
0.000001 -0.000075 -0.000005 0.000000
-0.000008 -0.000068 0.000005 0.000000
0.000032 -0.000855 -0.000013 0.000000
-0.000003 -0.000059 -0.000012 0.000000
-0.000002 -0.000072 -0.000021 0.000000
0.000014 -0.000085 -0.000017 0.000000
-0.000000 -0.000080 0.000015 0.000000
0.000030 -0.000115 -0.000032 0.000000
0.000017 -0.000083 -0.000044 0.000000
0.000006 -0.000080 0.000000 0.000000
0.000004 -0.000086 0.000027 0.000000
-0.000008 -0.000070 0.000004 0.000000
-0.000008 -0.000064 0.000001 0.000000
0.000028 -0.000123 0.000092 0.000000
-0.000151 -0.000198 -0.000143 0.000000
0.000076 -0.000133 0.000041 0.000000
-0.000008 -0.000078 0.000013 0.000000
0.000003 -0.000078 0.000010 0.000000
-0.000009 -0.000066 0.000009 0.000000
-0.000009 -0.000066 0.000008 0.000000
0.000007 -0.000085 -0.000000 0.000000
0.000012 -0.000090 -0.000004 0.000000
0.000090 -0.000628 0.000347 0.000000
-0.000007 -0.000061 0.000047 0.000000
-0.000111 -0.000501 -0.000024 0.000000
0.000011 -0.000085 0.000034 0.000000
0.000144 -0.000807 -0.000071 0.000000
0.000031 -0.000099 -0.000049 0.000000
-0.000038 -0.000450 0.000233 0.000000
0.000021 -0.000082 0.000012 0.000000
-0.000008 -0.000057 0.000059 0.000000
0.000021 -0.000094 0.000008 0.000000
0.000010 -0.000103 0.000032 0.000000
-0.000091 -0.000388 -0.000152 0.000000
-0.000083 -0.000387 -0.000143 0.000000
0.000073 -0.000131 -0.000003 0.000000
0.000069 -0.000169 -0.000124 0.000000
-0.000106 -0.000399 -0.000177 0.000000
0.000038 -0.000110 -0.000018 0.000000
-0.000108 -0.000373 -0.000058 0.000000
-0.000106 -0.000399 -0.000121 0.000000
-0.000006 -0.000089 0.000051 0.000000
-0.000084 -0.000468 0.000040 0.000000
-0.000079 -0.000316 0.000304 0.000000
0.000055 -0.000150 0.000042 0.000000
-0.000051 -0.000609 0.000166 0.000000
0.000017 -0.000098 -0.000043 0.000000
0.000001 -0.000617 0.000165 0.000000
-0.000033 -0.000691 0.000216 0.000000
0.000038 -0.000128 -0.000006 0.000000
0.000137 -0.000882 0.000445 0.000000
-0.000086 -0.000568 0.000090 0.000000
-0.000048 -0.000522 0.000225 0.000000
-0.000073 -0.000567 -0.000056 0.000000
0.000011 -0.000408 -0.000352 0.000000
0.000060 -0.000123 -0.000051 0.000000
0.000049 -0.000108 0.000063 0.000000
0.000053 -0.000820 0.000015 0.000000
0.000225 -0.000944 -0.000010 0.000000
-0.000153 -0.000327 -0.000110 0.000000
-0.000066 -0.000496 -0.000088 0.000000
-0.000083 -0.000601 0.000072 0.000000
-0.000073 -0.000561 0.000224 0.000000
-0.000070 -0.000580 0.000034 0.000000
-0.000096 -0.000477 -0.000217 0.000000
-0.000050 -0.000732 0.000328 0.000000
-0.000090 -0.000642 0.000193 0.000000
-0.000097 -0.000547 0.000074 0.000000
-0.000095 -0.000543 0.000171 0.000000
-0.000030 -0.000621 0.000278 0.000000
0.000135 -0.000780 0.000403 0.000000
-0.000042 -0.000700 -0.000093 0.000000
0.000000 -0.000784 -0.000007 0.000000
0.000089 -0.000700 -0.000121 0.000000
0.000012 -0.000107 0.000049 0.000000
-0.000068 -0.000640 -0.000012 0.000000
0.000073 -0.000897 0.000068 0.000000
0.000000 -0.000891 0.000062 0.000000
-0.000010 -0.000811 0.000100 0.000000
0.000075 -0.000902 0.000042 0.000000
0.000032 -0.000857 0.000101 0.000000
0.000222 -0.000948 0.000241 0.000000
0.000209 -0.001125 0.000110 0.000000
-0.000091 -0.000598 0.000128 0.000000
-0.000059 -0.000631 0.000086 0.000000
0.000114 -0.000984 -0.000075 0.000000
-0.000038 -0.000466 -0.000404 0.000000
-0.000036 -0.000656 0.000233 0.000000
-0.000038 -0.000656 0.000137 0.000000
-0.000097 -0.000610 0.000000 0.000000
-0.000036 -0.000751 -0.000317 0.000000
-0.000071 -0.000507 0.000157 0.000000
-0.000074 -0.000585 0.000162 0.000000
0.000034 -0.000107 0.000005 0.000000
0.000025 -0.000107 0.000002 0.000000
0.000002 -0.000817 0.000138 0.000000
0.000018 -0.000739 -0.000081 0.000000
0.000027 -0.000828 -0.000074 0.000000
0.000051 -0.000872 -0.000028 0.000000
0.000006 -0.000086 0.000014 0.000000
0.000003 -0.000074 0.000001 0.000000
-0.000003 -0.000080 0.000001 0.000000
0.000023 -0.000105 0.000016 0.000000
-0.000062 -0.000540 0.000202 0.000000
-0.000055 -0.000568 0.000177 0.000000
-0.000102 -0.000413 0.000054 0.000000
-0.000102 -0.000545 0.000076 0.000000
0.000093 -0.000172 0.000014 0.000000
0.000031 -0.000137 -0.000002 0.000000
-0.000044 -0.000565 -0.000037 0.000000
0.000027 -0.000737 0.000087 0.000000
-0.000027 -0.000640 -0.000040 0.000000
0.000131 -0.000748 0.000005 0.000000
-0.000038 -0.000623 -0.000004 0.000000
0.000151 -0.000785 0.000115 0.000000
0.000068 -0.000766 0.000131 0.000000
-0.000046 -0.000624 0.000189 0.000000
-0.000118 -0.000502 0.000119 0.000000
-0.000085 -0.000489 0.000046 0.000000
-0.000065 -0.000576 -0.000019 0.000000
-0.000047 -0.000573 -0.000018 0.000000
-0.000133 -0.000452 0.000023 0.000000
-0.000065 -0.000542 -0.000007 0.000000
-0.000071 -0.000526 -0.000033 0.000000
-0.000043 -0.000549 -0.000026 0.000000
-0.000140 -0.000240 -0.000243 0.000000
-0.000148 -0.000460 0.000084 0.000000
0.000027 -0.000114 -0.000001 0.000000
0.000002 -0.000087 0.000033 0.000000
0.000048 -0.000132 0.000050 0.000000
0.000038 -0.000115 0.000049 0.000000
0.000041 -0.000121 0.000057 0.000000
0.000046 -0.000115 0.000019 0.000000
0.000049 -0.000128 0.000058 0.000000
0.000035 -0.000112 0.000041 0.000000
0.000032 -0.000112 0.000045 0.000000
0.000071 -0.000898 0.000295 0.000000
-0.000010 -0.000068 0.000019 0.000000
-0.000160 -0.000462 -0.000089 0.000000
0.000020 -0.000082 0.000030 0.000000
-0.000014 -0.000080 0.000020 0.000000
-0.000103 -0.000604 0.000262 0.000000
-0.000103 -0.000346 0.000352 0.000000
-0.000060 -0.000366 -0.000345 0.000000
-0.000144 -0.000375 0.000039 0.000000
0.000042 -0.000146 0.000037 0.000000
0.000058 -0.000130 -0.000010 0.000000
0.000136 -0.000899 0.000242 0.000000
0.000052 -0.000898 0.000360 0.000000
-0.000173 -0.000447 0.000163 0.000000
-0.000110 -0.000569 0.000311 0.000000
-0.000051 -0.000702 0.000374 0.000000
0.000046 -0.000139 0.000003 0.000000
0.000067 -0.000991 0.000620 0.000000
-0.000140 -0.000637 0.000442 0.000000
-0.000151 -0.000532 0.000299 0.000000
-0.000160 -0.000511 0.000338 0.000000
-0.000075 -0.000612 0.000083 0.000000
-0.000072 -0.000591 -0.000116 0.000000
0.000043 -0.000823 0.000068 0.000000
0.000063 -0.000738 -0.000026 0.000000
-0.000120 -0.000630 0.000204 0.000000
-0.000092 -0.000605 0.000063 0.000000
-0.000038 -0.000660 -0.000017 0.000000
-0.000062 -0.000587 -0.000003 0.000000
-0.000044 -0.000609 -0.000026 0.000000
-0.000062 -0.000607 0.000048 0.000000
-0.000002 -0.000680 -0.000005 0.000000
0.000000 -0.000689 0.000069 0.000000
-0.000021 -0.000625 -0.000005 0.000000
0.000035 -0.000739 0.000006 0.000000
0.000054 -0.000748 -0.000007 0.000000
0.000049 -0.000700 -0.000013 0.000000
0.000084 -0.000780 0.000077 0.000000
0.000016 -0.000693 -0.000029 0.000000
0.000057 -0.000727 0.000192 0.000000
0.000082 -0.000755 0.000092 0.000000
0.000015 -0.000708 0.000181 0.000000
0.000016 -0.000720 0.000163 0.000000
0.000035 -0.000726 0.000007 0.000000
-0.000004 -0.000701 -0.000017 0.000000
0.000068 -0.000743 0.000108 0.000000
-0.000000 -0.000744 0.000127 0.000000
0.000012 -0.000745 0.000006 0.000000
0.000038 -0.000746 0.000058 0.000000
0.000027 -0.000739 0.000090 0.000000
0.000038 -0.000766 0.000047 0.000000
0.000192 -0.001133 0.000252 0.000000
0.000062 -0.000860 -0.000029 0.000000
0.000012 -0.000728 0.000012 0.000000
0.000000 -0.000712 0.000249 0.000000
0.000000 -0.000676 0.000143 0.000000
-0.000063 -0.000627 0.000012 0.000000
-0.000013 -0.000686 0.000010 0.000000
-0.000039 -0.000642 0.000021 0.000000
0.000026 -0.000833 0.000295 0.000000
0.000070 -0.000927 0.000304 0.000000
-0.000050 -0.000513 0.000499 0.000000
0.000087 -0.000924 0.000132 0.000000
0.000096 -0.000880 0.000257 0.000000
0.000046 -0.000844 0.000099 0.000000
0.000077 -0.000896 0.000332 0.000000
0.000134 -0.000953 0.000301 0.000000
0.000000 -0.000866 0.000163 0.000000
0.000122 -0.000913 0.000197 0.000000
-0.000103 -0.000704 0.000397 0.000000
-0.000036 -0.000706 0.000062 0.000000
0.000000 -0.000675 0.000286 0.000000
-0.000078 -0.000610 0.000263 0.000000
0.000000 -0.000733 0.000073 0.000000
-0.000109 -0.000678 0.000214 0.000000
-0.000075 -0.000709 0.000067 0.000000
-0.000000 -0.000739 0.000070 0.000000
-0.000019 -0.000777 -0.000007 0.000000
0.000000 -0.000810 0.000051 0.000000
0.000000 -0.000911 0.000259 0.000000
0.000064 -0.000921 0.000307 0.000000
0.000000 -0.000804 0.000459 0.000000
0.000000 -0.000932 0.000345 0.000000
0.000064 -0.000922 0.000289 0.000000
0.000000 -0.000681 0.000159 0.000000
0.000189 -0.000909 0.000241 0.000000
-0.000084 -0.000815 0.000455 0.000000
-0.000091 -0.000697 0.000236 0.000000
-0.000064 -0.000681 0.000100 0.000000
0.000000 -0.000892 0.000351 0.000000
-0.000039 -0.000700 0.000027 0.000000
-0.000000 -0.000753 0.000026 0.000000
0.000000 -0.000736 0.000100 0.000000
0.000000 -0.000716 0.000026 0.000000
-0.000013 -0.000726 -0.000001 0.000000
-0.000000 -0.000739 0.000011 0.000000
-0.000061 -0.000720 0.000044 0.000000
0.000000 -0.000788 -0.000075 0.000000
-0.000012 -0.000838 0.000116 0.000000
0.000047 -0.000817 0.000265 0.000000
0.000011 -0.000869 0.000079 0.000000
-0.000019 -0.000844 -0.000011 0.000000
0.000000 -0.000718 0.000079 0.000000
0.000065 -0.000924 -0.000007 0.000000
0.000000 -0.000825 -0.000078 0.000000
-0.000107 -0.000577 -0.000042 0.000000
-0.000003 -0.000799 -0.000078 0.000000
0.000000 -0.000893 -0.000004 0.000000
0.000024 -0.000741 0.000130 0.000000
0.000024 -0.000740 0.000106 0.000000
-0.000100 -0.000562 0.000086 0.000000
-0.000106 -0.000703 -0.000150 0.000000
0.000033 -0.000883 0.000100 0.000000
0.000000 -0.000899 0.000041 0.000000
-0.000022 -0.000895 0.000043 0.000000
0.000027 -0.000910 -0.000062 0.000000
0.000068 -0.000855 -0.000107 0.000000
0.000000 -0.000900 0.000049 0.000000
0.000051 -0.000896 0.000016 0.000000
0.000013 -0.000895 0.000065 0.000000
0.000019 -0.000919 0.000014 0.000000
0.000000 -0.000936 0.000060 0.000000
0.000123 -0.000883 0.000223 0.000000
0.000000 -0.000839 0.000200 0.000000
-0.000061 -0.000648 0.000195 0.000000
0.000048 -0.000858 0.000226 0.000000
-0.000065 -0.000668 -0.000025 0.000000
0.000125 -0.000935 0.000045 0.000000
-0.000039 -0.000667 -0.000035 0.000000
0.000217 -0.001160 0.000171 0.000000
0.000120 -0.000217 -0.000097 0.000000
-0.000381 -0.000504 -0.000719 0.000000
-0.000091 -0.000399 -0.000273 0.000000
-0.000143 -0.000556 0.000281 0.000000
-0.000042 -0.000705 0.000353 0.000000
0.000000 -0.000731 0.000253 0.000000
0.000179 -0.000506 -0.000647 0.000000
-0.000206 -0.000208 -0.000255 0.000000
-0.000003 -0.000723 0.000362 0.000000
0.000000 -0.000858 0.000025 0.000000
-0.000065 -0.000615 0.000035 0.000000
-0.000097 -0.000625 0.000071 0.000000
0.000019 -0.000756 -0.000047 0.000000
-0.000018 -0.000757 -0.000013 0.000000
0.000000 -0.000716 0.000188 0.000000
0.000000 -0.000796 0.000259 0.000000
0.000000 -0.000729 0.000022 0.000000
0.000000 -0.000690 0.000098 0.000000
0.000026 -0.000828 -0.000049 0.000000
0.000000 -0.000885 0.000258 0.000000
0.000194 -0.000870 0.000108 0.000000
0.000000 -0.000771 0.000201 0.000000
-0.000050 -0.000749 0.000191 0.000000
-0.000618 -0.000403 -0.000081 0.000000
0.000156 -0.000395 -0.000243 0.000000
